<?xml version="1.0"?>
<VTKFile type="UnstructuredGrid" version="0.1" byte_order="LittleEndian">
<UnstructuredGrid>
<Piece NumberOfPoints="29467" NumberOfCells="10260">
<Points>
<DataArray type="Float64" NumberOfComponents="3" format="ascii">
-0.5 -0.5 0 -0.45921354097784772 -0.47280387173957938 0 -0.47547588432411658 -0.44872740469201428 0 -0.5 -0.5 0 -0.45921354097784772 -0.47280387173957938 0 -0.37725375160424129 -0.5 0 -0.5 -0.5 0 -0.47547588432411658 -0.44872740469201428 0 -0.5 -0.42712250171429622 0 -0.45921354097784772 -0.47280387173957938 0 -0.45052755989708698 -0.44916236272010429 0 -0.42299283564658757 -0.46552958650439119 0 -0.45921354097784772 -0.47280387173957938 0 -0.45052755989708698 -0.44916236272010429 0 -0.47547588432411658 -0.44872740469201428 0 -0.45052755989708698 -0.44916236272010429 0 -0.47547588432411658 -0.44872740469201428 0 -0.46104486075867379 -0.42381600691793891 0 -0.47547588432411658 -0.44872740469201428 0 -0.5 -0.42712250171429622 0 -0.48010177812852289 -0.42008695106949973 0 -0.5 -0.42712250171429622 0 -0.48010177812852289 -0.42008695106949973 0 -0.49220316280141341 -0.40393426279853811 0 -0.48010177812852289 -0.42008695106949973 0 -0.47012192956867971 -0.39575132308524091 0 -0.46104486075867379 -0.42381600691793891 0 -0.48010177812852289 -0.42008695106949973 0 -0.49220316280141341 -0.40393426279853811 0 -0.47012192956867971 -0.39575132308524091 0 -0.47547588432411658 -0.44872740469201428 0 -0.48010177812852289 -0.42008695106949973 0 -0.46104486075867379 -0.42381600691793891 0 -0.5 -0.42712250171429622 0 -0.49220316280141341 -0.40393426279853811 0 -0.5 -0.37284973670106181 0 -0.48570108059004963 -0.38581045102554062 0 -0.5 -0.37284973670106181 0 -0.47919899837868568 -0.36768663925254308 0 -0.48570108059004963 -0.38581045102554062 0 -0.49220316280141341 -0.40393426279853811 0 -0.5 -0.37284973670106181 0 -0.48570108059004963 -0.38581045102554062 0 -0.49220316280141341 -0.40393426279853811 0 -0.48570108059004963 -0.38581045102554062 0 -0.49220316280141341 -0.40393426279853811 0 -0.47012192956867971 -0.39575132308524091 0 -0.47012192956867971 -0.39575132308524091 0 -0.46634636052910827 -0.3774582788456684 0 -0.47919899837868568 -0.36768663925254308 0 -0.48570108059004963 -0.38581045102554062 0 -0.47012192956867971 -0.39575132308524091 0 -0.47919899837868568 -0.36768663925254308 0 -0.47012192956867971 -0.39575132308524091 0 -0.47919899837868568 -0.36768663925254308 0 -0.48570108059004963 -0.38581045102554062 0 -0.47919899837868568 -0.36768663925254308 0 -0.47012192956867971 -0.39575132308524091 0 -0.46634636052910827 -0.3774582788456684 0 -0.45868905404789212 -0.38574892185069271 0 -0.45868905404789212 -0.38574892185069271 0 -0.45116201367117098 -0.38125377097246949 0 -0.45839894499723538 -0.3743070419601654 0 -0.45116201367117098 -0.38125377097246949 0 -0.45230431374212943 -0.37516058995326751 0 -0.45839894499723538 -0.3743070419601654 0 -0.46634636052910827 -0.3774582788456684 0 -0.45868905404789212 -0.38574892185069271 0 -0.45839894499723538 -0.3743070419601654 0 -0.45868905404789212 -0.38574892185069271 0 -0.44985645077153452 -0.38782622122632038 0 -0.45116201367117098 -0.38125377097246949 0 -0.47012192956867971 -0.39575132308524091 0 -0.45868905404789212 -0.38574892185069271 0 -0.45282523991309948 -0.40092962666081589 0 -0.45868905404789212 -0.38574892185069271 0 -0.45282523991309948 -0.40092962666081589 0 -0.44985645077153452 -0.38782622122632038 0 -0.45282523991309948 -0.40092962666081589 0 -0.44450721775432789 -0.40517026132479889 0 -0.44498006085186309 -0.40027595258481807 0 -0.45282523991309948 -0.40092962666081589 0 -0.44450721775432789 -0.40517026132479889 0 -0.44666444692766449 -0.41163762731718051 0 -0.45282523991309948 -0.40092962666081589 0 -0.44498006085186309 -0.40027595258481807 0 -0.44659101037099108 -0.39538799161555183 0 -0.44450721775432789 -0.40517026132479889 0 -0.43985901331032218 -0.40231293787355432 0 -0.44498006085186309 -0.40027595258481807 0 -0.43985901331032218 -0.40231293787355432 0 -0.43882951166094591 -0.40818227458299661 0 -0.43389588944684332 -0.40398358769859721 0 -0.44450721775432789 -0.40517026132479889 0 -0.43985901331032218 -0.40231293787355432 0 -0.43882951166094591 -0.40818227458299661 0 -0.43985901331032218 -0.40231293787355432 0 -0.44142891485670271 -0.39632250164705451 0 -0.43678067303100238 -0.39748851269424051 0 -0.43985901331032218 -0.40231293787355432 0 -0.44498006085186309 -0.40027595258481807 0 -0.44142891485670271 -0.39632250164705451 0 -0.44498006085186309 -0.40027595258481807 0 -0.44142891485670271 -0.39632250164705451 0 -0.44659101037099108 -0.39538799161555183 0 -0.44142891485670271 -0.39632250164705451 0 -0.43735714598250458 -0.39237976185604939 0 -0.43678067303100238 -0.39748851269424051 0 -0.4430037839478998 -0.3911820005399318 0 -0.43921007162558018 -0.38852277244829431 0 -0.43735714598250458 -0.39237976185604939 0 -0.44142891485670271 -0.39632250164705451 0 -0.4430037839478998 -0.3911820005399318 0 -0.43735714598250458 -0.39237976185604939 0 -0.44142891485670271 -0.39632250164705451 0 -0.4430037839478998 -0.3911820005399318 0 -0.44659101037099108 -0.39538799161555183 0 -0.4430037839478998 -0.3911820005399318 0 -0.44659101037099108 -0.39538799161555183 0 -0.44985645077153452 -0.38782622122632038 0 -0.45282523991309948 -0.40092962666081589 0 -0.44659101037099108 -0.39538799161555183 0 -0.44985645077153452 -0.38782622122632038 0 -0.44985645077153452 -0.38782622122632038 0 -0.44541164029221658 -0.38178255862114391 0 -0.45116201367117098 -0.38125377097246949 0 -0.44985645077153452 -0.38782622122632038 0 -0.44265287980625251 -0.38612821589610141 0 -0.44541164029221658 -0.38178255862114391 0 -0.4430037839478998 -0.3911820005399318 0 -0.44985645077153452 -0.38782622122632038 0 -0.44265287980625251 -0.38612821589610141 0 -0.4430037839478998 -0.3911820005399318 0 -0.43921007162558018 -0.38852277244829431 0 -0.44265287980625251 -0.38612821589610141 0 -0.43802484482231158 -0.38529975304841629 0 -0.44265287980625251 -0.38612821589610141 0 -0.44012690125153059 -0.38126560911171109 0 -0.43802484482231158 -0.38529975304841629 0 -0.44012690125153059 -0.38126560911171109 0 -0.43608931727661732 -0.38286695856074282 0 -0.43921007162558018 -0.38852277244829431 0 -0.43802484482231158 -0.38529975304841629 0 -0.44265287980625251 -0.38612821589610141 0 -0.44265287980625251 -0.38612821589610141 0 -0.44012690125153059 -0.38126560911171109 0 -0.44541164029221658 -0.38178255862114391 0 -0.44012690125153059 -0.38126560911171109 0 -0.44236553612282148 -0.37728772275436739 0 -0.44541164029221658 -0.38178255862114391 0 -0.44012690125153059 -0.38126560911171109 0 -0.43798393348445741 -0.3758830035719668 0 -0.43608931727661732 -0.38286695856074282 0 -0.44012690125153059 -0.38126560911171109 0 -0.43798393348445741 -0.3758830035719668 0 -0.44236553612282148 -0.37728772275436739 0 -0.43798393348445741 -0.3758830035719668 0 -0.44236553612282148 -0.37728772275436739 0 -0.44277282476429852 -0.37272335650858618 0 -0.44236553612282148 -0.37728772275436739 0 -0.44681399159455332 -0.37680555797794751 0 -0.44277282476429852 -0.37272335650858618 0 -0.44236553612282148 -0.37728772275436739 0 -0.44681399159455332 -0.37680555797794751 0 -0.44541164029221658 -0.38178255862114391 0 -0.44681399159455332 -0.37680555797794751 0 -0.44541164029221658 -0.38178255862114391 0 -0.45116201367117098 -0.38125377097246949 0 -0.44681399159455332 -0.37680555797794751 0 -0.45116201367117098 -0.38125377097246949 0 -0.45230431374212943 -0.37516058995326751 0 -0.47012192956867971 -0.39575132308524091 0 -0.45282523991309948 -0.40092962666081589 0 -0.46104486075867379 -0.42381600691793891 0 -0.45282523991309948 -0.40092962666081589 0 -0.46104486075867379 -0.42381600691793891 0 -0.44666444692766449 -0.41163762731718051 0 -0.47012192956867971 -0.39575132308524091 0 -0.46104486075867379 -0.42381600691793891 0 -0.46104486075867379 -0.42381600691793891 0 -0.44666444692766449 -0.41163762731718051 0 -0.43616616969760652 -0.4174811263179512 0 -0.44666444692766449 -0.41163762731718051 0 -0.43882951166094591 -0.40818227458299661 0 -0.43616616969760652 -0.4174811263179512 0 -0.44450721775432789 -0.40517026132479889 0 -0.44666444692766449 -0.41163762731718051 0 -0.43882951166094591 -0.40818227458299661 0 -0.45052755989708698 -0.44916236272010429 0 -0.46104486075867379 -0.42381600691793891 0 -0.43391067777820908 -0.43493494374659791 0 -0.46104486075867379 -0.42381600691793891 0 -0.43391067777820908 -0.43493494374659791 0 -0.43616616969760652 -0.4174811263179512 0 -0.43391067777820908 -0.43493494374659791 0 -0.43616616969760652 -0.4174811263179512 0 -0.4222034374451139 -0.42129313016599751 0 -0.43391067777820908 -0.43493494374659791 0 -0.4222034374451139 -0.42129313016599751 0 -0.41309616814306321 -0.43709082481083328 0 -0.43616616969760652 -0.4174811263179512 0 -0.43219542477503892 -0.40725166316358291 0 -0.42700895314304771 -0.4136770611858257 0 -0.43882951166094591 -0.40818227458299661 0 -0.43616616969760652 -0.4174811263179512 0 -0.43219542477503892 -0.40725166316358291 0 -0.43882951166094591 -0.40818227458299661 0 -0.43219542477503892 -0.40725166316358291 0 -0.43389588944684332 -0.40398358769859721 0 -0.43219542477503892 -0.40725166316358291 0 -0.42700895314304771 -0.4136770611858257 0 -0.41747078065443172 -0.40868232509577129 0 -0.42700895314304771 -0.4136770611858257 0 -0.4222034374451139 -0.42129313016599751 0 -0.41747078065443172 -0.40868232509577129 0 -0.43616616969760652 -0.4174811263179512 0 -0.42700895314304771 -0.4136770611858257 0 -0.4222034374451139 -0.42129313016599751 0 -0.4222034374451139 -0.42129313016599751 0 -0.41747078065443172 -0.40868232509577129 0 -0.40765975476690602 -0.41815010353579568 0 -0.41747078065443172 -0.40868232509577129 0 -0.40765975476690602 -0.41815010353579568 0 -0.40554332448073033 -0.40402100871811181 0 -0.4222034374451139 -0.42129313016599751 0 -0.40765975476690602 -0.41815010353579568 0 -0.41309616814306321 -0.43709082481083328 0 -0.41998029958161448 -0.38596785235068881 0 -0.43835577621990662 -0.36676147439803441 0 -0.42929920325585452 -0.38426229617064739 0 -0.41998029958161448 -0.38596785235068881 0 -0.43835577621990662 -0.36676147439803441 0 -0.43798393348445741 -0.3758830035719668 0 -0.42929920325585452 -0.38426229617064739 0 -0.43835577621990662 -0.36676147439803441 0 -0.43798393348445741 -0.3758830035719668 0 -0.43608931727661732 -0.38286695856074282 0 -0.42929920325585452 -0.38426229617064739 0 -0.43501170356893232 -0.38762413090097247 0 -0.42929920325585452 -0.38426229617064739 0 -0.4313624015586392 -0.39244377439594708 0 -0.43608931727661732 -0.38286695856074282 0 -0.43501170356893232 -0.38762413090097247 0 -0.42929920325585452 -0.38426229617064739 0 -0.43802484482231158 -0.38529975304841629 0 -0.43608931727661732 -0.38286695856074282 0 -0.43501170356893232 -0.38762413090097247 0 -0.43921007162558018 -0.38852277244829431 0 -0.43802484482231158 -0.38529975304841629 0 -0.43501170356893232 -0.38762413090097247 0 -0.43921007162558018 -0.38852277244829431 0 -0.43501170356893232 -0.38762413090097247 0 -0.43735714598250458 -0.39237976185604939 0 -0.42929920325585452 -0.38426229617064739 0 -0.4313624015586392 -0.39244377439594708 0 -0.41998029958161448 -0.38596785235068881 0 -0.43219542477503892 -0.40725166316358291 0 -0.4143025905214941 -0.39341785833602061 0 -0.43389588944684332 -0.40398358769859721 0 -0.41998029958161448 -0.38596785235068881 0 -0.43389588944684332 -0.40398358769859721 0 -0.4143025905214941 -0.39341785833602061 0 -0.41998029958161448 -0.38596785235068881 0 -0.4313624015586392 -0.39244377439594708 0 -0.43389588944684332 -0.40398358769859721 0 -0.41998029958161448 -0.38596785235068881 0 -0.43219542477503892 -0.40725166316358291 0 -0.43389588944684332 -0.40398358769859721 0 -0.4143025905214941 -0.39341785833602061 0 -0.4313624015586392 -0.39244377439594708 0 -0.43678067303100238 -0.39748851269424051 0 -0.43389588944684332 -0.40398358769859721 0 -0.4313624015586392 -0.39244377439594708 0 -0.43735714598250458 -0.39237976185604939 0 -0.43678067303100238 -0.39748851269424051 0 -0.43501170356893232 -0.38762413090097247 0 -0.4313624015586392 -0.39244377439594708 0 -0.43735714598250458 -0.39237976185604939 0 -0.43985901331032218 -0.40231293787355432 0 -0.43678067303100238 -0.39748851269424051 0 -0.43389588944684332 -0.40398358769859721 0 -0.43219542477503892 -0.40725166316358291 0 -0.41364497372976938 -0.40121058719176822 0 -0.4143025905214941 -0.39341785833602061 0 -0.43219542477503892 -0.40725166316358291 0 -0.41747078065443172 -0.40868232509577129 0 -0.41364497372976938 -0.40121058719176822 0 -0.41747078065443172 -0.40868232509577129 0 -0.41364497372976938 -0.40121058719176822 0 -0.40554332448073033 -0.40402100871811181 0 -0.41364497372976938 -0.40121058719176822 0 -0.40543353651589709 -0.39439897546078362 0 -0.40554332448073033 -0.40402100871811181 0 -0.41364497372976938 -0.40121058719176822 0 -0.4143025905214941 -0.39341785833602061 0 -0.40543353651589709 -0.39439897546078362 0 -0.4143025905214941 -0.39341785833602061 0 -0.41232814704905901 -0.38390406858492171 0 -0.39517910388784477 -0.38001394854939502 0 -0.41998029958161448 -0.38596785235068881 0 -0.43289325920079641 -0.36683953097685562 0 -0.41108867961652529 -0.37445636964268658 0 -0.4143025905214941 -0.39341785833602061 0 -0.41998029958161448 -0.38596785235068881 0 -0.41232814704905901 -0.38390406858492171 0 -0.41998029958161448 -0.38596785235068881 0 -0.41232814704905901 -0.38390406858492171 0 -0.41108867961652529 -0.37445636964268658 0 -0.41998029958161448 -0.38596785235068881 0 -0.41108867961652529 -0.37445636964268658 0 -0.39517910388784477 -0.38001394854939502 0 -0.41108867961652529 -0.37445636964268658 0 -0.39913787438362358 -0.37127988736596917 0 -0.39517910388784477 -0.38001394854939502 0 -0.41108867961652529 -0.37445636964268658 0 -0.4143025905214941 -0.39341785833602061 0 -0.39517910388784477 -0.38001394854939502 0 -0.40543353651589709 -0.39439897546078362 0 -0.4143025905214941 -0.39341785833602061 0 -0.39517910388784477 -0.38001394854939502 0 -0.41232814704905901 -0.38390406858492171 0 -0.39517910388784477 -0.38001394854939502 0 -0.41108867961652529 -0.37445636964268658 0 -0.39517910388784477 -0.38001394854939502 0 -0.39494139036195319 -0.37844878968881168 0 -0.39913787438362358 -0.37127988736596917 0 -0.39517910388784477 -0.38001394854939502 0 -0.39494139036195319 -0.37844878968881168 0 -0.39517910388784477 -0.38001394854939502 0 -0.39726703757954268 -0.39376136954955843 0 -0.40543353651589709 -0.39439897546078362 0 -0.39517910388784477 -0.38001394854939502 0 -0.39726703757954268 -0.39376136954955843 0 -0.38758437505456378 -0.38974681338259709 0 -0.39517910388784477 -0.38001394854939502 0 -0.39726703757954268 -0.39376136954955843 0 -0.39726703757954268 -0.39376136954955843 0 -0.38381636058543001 -0.39782583976712038 0 -0.39417066561562641 -0.40962252086764811 0 -0.39726703757954268 -0.39376136954955843 0 -0.40554332448073033 -0.40402100871811181 0 -0.39417066561562641 -0.40962252086764811 0 -0.39726703757954268 -0.39376136954955843 0 -0.40543353651589709 -0.39439897546078362 0 -0.40554332448073033 -0.40402100871811181 0 -0.38381636058543001 -0.39782583976712038 0 -0.37847701523905908 -0.41674415220347849 0 -0.36826613521356089 -0.40275541425354772 0 -0.38381636058543001 -0.39782583976712038 0 -0.37407499816543738 -0.38738609566431481 0 -0.36826613521356089 -0.40275541425354772 0 -0.38381636058543001 -0.39782583976712038 0 -0.38758437505456378 -0.38974681338259709 0 -0.37407499816543738 -0.38738609566431481 0 -0.39726703757954268 -0.39376136954955843 0 -0.38381636058543001 -0.39782583976712038 0 -0.38758437505456378 -0.38974681338259709 0 -0.39517910388784477 -0.38001394854939502 0 -0.38758437505456378 -0.38974681338259709 0 -0.37407499816543738 -0.38738609566431481 0 -0.39517910388784477 -0.38001394854939502 0 -0.38034876700654952 -0.37640696384383199 0 -0.37407499816543738 -0.38738609566431481 0 -0.39517910388784477 -0.38001394854939502 0 -0.37407499816543738 -0.38738609566431481 0 -0.39517910388784477 -0.38001394854939502 0 -0.39494139036195319 -0.37844878968881168 0 -0.38034876700654952 -0.37640696384383199 0 -0.40765975476690602 -0.41815010353579568 0 -0.41309616814306321 -0.43709082481083328 0 -0.39415518986186721 -0.42883463254345111 0 -0.40765975476690602 -0.41815010353579568 0 -0.39415518986186721 -0.42883463254345111 0 -0.39417066561562641 -0.40962252086764811 0 -0.40765975476690602 -0.41815010353579568 0 -0.40554332448073033 -0.40402100871811181 0 -0.39417066561562641 -0.40962252086764811 0 -0.39415518986186721 -0.42883463254345111 0 -0.39417066561562641 -0.40962252086764811 0 -0.37847701523905908 -0.41674415220347849 0 -0.38381636058543001 -0.39782583976712038 0 -0.39417066561562641 -0.40962252086764811 0 -0.37847701523905908 -0.41674415220347849 0 -0.39415518986186721 -0.42883463254345111 0 -0.37847701523905908 -0.41674415220347849 0 -0.38101291830193712 -0.43940146405441172 0 -0.45921354097784772 -0.47280387173957938 0 -0.37725375160424129 -0.5 0 -0.42299283564658757 -0.46552958650439119 0 -0.38101291830193712 -0.43940146405441172 0 -0.397324918860265 -0.45095873200239972 0 -0.37601170279824381 -0.46006982485555908 0 -0.39415518986186721 -0.42883463254345111 0 -0.38101291830193712 -0.43940146405441172 0 -0.397324918860265 -0.45095873200239972 0 -0.41309616814306321 -0.43709082481083328 0 -0.39415518986186721 -0.42883463254345111 0 -0.397324918860265 -0.45095873200239972 0 -0.397324918860265 -0.45095873200239972 0 -0.39339580222733439 -0.46913953584058737 0 -0.42299283564658757 -0.46552958650439119 0 -0.397324918860265 -0.45095873200239972 0 -0.37601170279824381 -0.46006982485555908 0 -0.39339580222733439 -0.46913953584058737 0 -0.37725375160424129 -0.5 0 -0.39339580222733439 -0.46913953584058737 0 -0.42299283564658757 -0.46552958650439119 0 -0.37601170279824381 -0.46006982485555908 0 -0.37725375160424129 -0.5 0 -0.39339580222733439 -0.46913953584058737 0 -0.45052755989708698 -0.44916236272010429 0 -0.43391067777820908 -0.43493494374659791 0 -0.42299283564658757 -0.46552958650439119 0 -0.43391067777820908 -0.43493494374659791 0 -0.41309616814306321 -0.43709082481083328 0 -0.42299283564658757 -0.46552958650439119 0 -0.41309616814306321 -0.43709082481083328 0 -0.397324918860265 -0.45095873200239972 0 -0.42299283564658757 -0.46552958650439119 0 -0.45247020218685241 -0.25500390295652992 0 -0.44181068980230093 -0.26007038484704598 0 -0.46270083910302467 -0.26588994845148162 0 -0.45247020218685241 -0.25500390295652992 0 -0.4425708660348483 -0.25031991796631831 0 -0.44181068980230093 -0.26007038484704598 0 -0.45247020218685241 -0.25500390295652992 0 -0.4425708660348483 -0.25031991796631831 0 -0.45302917889609079 -0.2469787380825835 0 -0.4425708660348483 -0.25031991796631831 0 -0.44181068980230093 -0.26007038484704598 0 -0.43291121202806843 -0.25438743732024688 0 -0.44556638201304088 -0.27393956121974461 0 -0.43735001779510901 -0.2885555547873444 0 -0.43532968104334091 -0.27191061116054621 0 -0.44556638201304088 -0.27393956121974461 0 -0.46270083910302467 -0.26588994845148162 0 -0.43532968104334091 -0.27191061116054621 0 -0.44181068980230093 -0.26007038484704598 0 -0.46270083910302467 -0.26588994845148162 0 -0.43532968104334091 -0.27191061116054621 0 -0.46270083910302467 -0.26588994845148162 0 -0.43532968104334091 -0.27191061116054621 0 -0.44556638201304088 -0.27393956121974461 0 -0.46270083910302467 -0.26588994845148162 0 -0.46373020337070359 -0.2822066607164822 0 -0.46270083910302467 -0.26588994845148162 0 -0.46234078134488998 -0.25149105520213227 0 -0.47825547831934989 -0.2482673946336271 0 -0.45247020218685241 -0.25500390295652992 0 -0.46270083910302467 -0.26588994845148162 0 -0.46234078134488998 -0.25149105520213227 0 -0.45247020218685241 -0.25500390295652992 0 -0.46234078134488998 -0.25149105520213227 0 -0.45302917889609079 -0.2469787380825835 0 -0.46270083910302467 -0.26588994845148162 0 -0.49007199716270872 -0.25986928574241719 0 -0.47825547831934989 -0.2482673946336271 0 -0.46270083910302467 -0.26588994845148162 0 -0.49007199716270872 -0.25986928574241719 0 -0.49007199716270872 -0.25986928574241719 0 -0.47825547831934989 -0.2482673946336271 0 -0.49007199716270872 -0.25986928574241719 0 -0.49030939104401178 -0.24648507358491811 0 -0.47825547831934989 -0.2482673946336271 0 -0.49007199716270872 -0.25986928574241719 0 -0.50000000000000067 -0.25768548495738491 0 -0.49007199716270872 -0.25986928574241719 0 -0.50000000000000067 -0.25768548495738491 0 -0.49999999999999922 -0.26961696264903279 0 -0.49007199716270872 -0.25986928574241719 0 -0.49999999999999922 -0.26961696264903279 0 -0.49007199716270872 -0.25986928574241719 0 -0.50000000000000067 -0.25768548495738491 0 -0.49030939104401178 -0.24648507358491811 0 -0.49007199716270872 -0.25986928574241719 0 -0.49999999999999922 -0.26961696264903279 0 -0.48222101364688258 -0.27779517834238138 0 -0.49999999999999922 -0.26961696264903279 0 -0.48222101364688258 -0.27779517834238138 0 -0.5 -0.28597339403572702 0 -0.46270083910302467 -0.26588994845148162 0 -0.48222101364688258 -0.27779517834238138 0 -0.46373020337070359 -0.2822066607164822 0 -0.46270083910302467 -0.26588994845148162 0 -0.49007199716270872 -0.25986928574241719 0 -0.48222101364688258 -0.27779517834238138 0 -0.48222101364688258 -0.27779517834238138 0 -0.47517887892256899 -0.29879356104327198 0 -0.46373020337070359 -0.2822066607164822 0 -0.48222101364688258 -0.27779517834238138 0 -0.48864921891698943 -0.29117170440342799 0 -0.47517887892256899 -0.29879356104327198 0 -0.48222101364688258 -0.27779517834238138 0 -0.48864921891698943 -0.29117170440342799 0 -0.5 -0.28597339403572702 0 -0.48864921891698943 -0.29117170440342799 0 -0.5 -0.28597339403572702 0 -0.49999999999999778 -0.30232982542242121 0 -0.49999999999999778 -0.30232982542242121 0 -0.4839094727389599 -0.31914793327976282 0 -0.49999999999999778 -0.30232982542242121 0 -0.47517887892256899 -0.29879356104327198 0 -0.4839094727389599 -0.31914793327976282 0 -0.48864921891698943 -0.29117170440342799 0 -0.49999999999999778 -0.30232982542242121 0 -0.47517887892256899 -0.29879356104327198 0 -0.47517887892256899 -0.29879356104327198 0 -0.46040142432296138 -0.31529054783131849 0 -0.4839094727389599 -0.31914793327976282 0 -0.47517887892256899 -0.29879356104327198 0 -0.45298390316800119 -0.29461505452553149 0 -0.46040142432296138 -0.31529054783131849 0 -0.45298390316800119 -0.29461505452553149 0 -0.46040142432296138 -0.31529054783131849 0 -0.44556638201304088 -0.27393956121974461 0 -0.46373020337070359 -0.2822066607164822 0 -0.45298390316800119 -0.29461505452553149 0 -0.47517887892256899 -0.29879356104327198 0 -0.46373020337070359 -0.2822066607164822 0 -0.45298390316800119 -0.29461505452553149 0 -0.45298390316800119 -0.29461505452553149 0 -0.43886294994344788 -0.30683535239006759 0 -0.43735001779510901 -0.2885555547873444 0 -0.44556638201304088 -0.27393956121974461 0 -0.45298390316800119 -0.29461505452553149 0 -0.44556638201304088 -0.27393956121974461 0 -0.45298390316800119 -0.29461505452553149 0 -0.43735001779510901 -0.2885555547873444 0 -0.45298390316800119 -0.29461505452553149 0 -0.43886294994344788 -0.30683535239006759 0 -0.46040142432296138 -0.31529054783131849 0 -0.49999999999999778 -0.30232982542242121 0 -0.4895392087368341 -0.33571654620387781 0 -0.5 -0.37284973670106181 0 -0.43886294994344788 -0.30683535239006759 0 -0.43866512827361509 -0.32681711649934131 0 -0.46040142432296138 -0.31529054783131849 0 -0.43866512827361509 -0.32681711649934131 0 -0.45215236462308872 -0.33572321746116351 0 -0.46040142432296138 -0.31529054783131849 0 -0.43866512827361509 -0.32681711649934131 0 -0.45215236462308872 -0.33572321746116351 0 -0.43514068020963897 -0.34699296737107588 0 -0.45215236462308872 -0.33572321746116351 0 -0.46781894547792269 -0.33596604113710521 0 -0.45308736084891571 -0.35136375776757067 0 -0.45215236462308872 -0.33572321746116351 0 -0.46781894547792269 -0.33596604113710521 0 -0.46040142432296138 -0.31529054783131849 0 -0.46781894547792269 -0.33596604113710521 0 -0.45308736084891571 -0.35136375776757067 0 -0.46781894547792269 -0.33596604113710521 0 -0.46040142432296138 -0.31529054783131849 0 -0.46781894547792269 -0.33596604113710521 0 -0.46040142432296138 -0.31529054783131849 0 -0.4839094727389599 -0.31914793327976282 0 -0.46781894547792269 -0.33596604113710521 0 -0.4839094727389599 -0.31914793327976282 0 -0.49999999999999778 -0.30232982542242121 0 -0.4839094727389599 -0.31914793327976282 0 -0.4895392087368341 -0.33571654620387781 0 -0.4895392087368341 -0.33571654620387781 0 -0.48436910355775992 -0.35170159272821039 0 -0.4895392087368341 -0.33571654620387781 0 -0.47933304527708043 -0.33995184447556692 0 -0.48436910355775992 -0.35170159272821039 0 -0.46781894547792269 -0.33596604113710521 0 -0.47933304527708043 -0.33995184447556692 0 -0.47350897192830388 -0.35182634019482428 0 -0.4839094727389599 -0.31914793327976282 0 -0.4895392087368341 -0.33571654620387781 0 -0.47933304527708043 -0.33995184447556692 0 -0.46781894547792269 -0.33596604113710521 0 -0.4839094727389599 -0.31914793327976282 0 -0.47933304527708043 -0.33995184447556692 0 -0.47350897192830388 -0.35182634019482428 0 -0.48436910355775992 -0.35170159272821039 0 -0.47919899837868568 -0.36768663925254308 0 -0.4895392087368341 -0.33571654620387781 0 -0.48436910355775992 -0.35170159272821039 0 -0.5 -0.37284973670106181 0 -0.46781894547792269 -0.33596604113710521 0 -0.47350897192830388 -0.35182634019482428 0 -0.47933304527708043 -0.33995184447556692 0 -0.47350897192830388 -0.35182634019482428 0 -0.48436910355775992 -0.35170159272821039 0 -0.48436910355775992 -0.35170159272821039 0 -0.5 -0.37284973670106181 0 -0.47919899837868568 -0.36768663925254308 0 -0.47350897192830388 -0.35182634019482428 0 -0.47919899837868568 -0.36768663925254308 0 -0.48436910355775992 -0.35170159272821039 0 -0.47919899837868568 -0.36768663925254308 0 -0.47350897192830388 -0.35182634019482428 0 -0.47919899837868568 -0.36768663925254308 0 -0.46532287565304842 -0.36379746807969998 0 -0.46634636052910827 -0.3774582788456684 0 -0.47919899837868568 -0.36768663925254308 0 -0.46532287565304842 -0.36379746807969998 0 -0.46634636052910827 -0.3774582788456684 0 -0.45839894499723538 -0.3743070419601654 0 -0.46532287565304842 -0.36379746807969998 0 -0.45230431374212943 -0.37516058995326751 0 -0.45839894499723538 -0.3743070419601654 0 -0.45289861423054301 -0.36547682061271242 0 -0.45839894499723538 -0.3743070419601654 0 -0.46532287565304842 -0.36379746807969998 0 -0.45289861423054301 -0.36547682061271242 0 -0.46532287565304842 -0.36379746807969998 0 -0.45308736084891571 -0.35136375776757067 0 -0.45289861423054301 -0.36547682061271242 0 -0.46781894547792269 -0.33596604113710521 0 -0.47350897192830388 -0.35182634019482428 0 -0.45308736084891571 -0.35136375776757067 0 -0.47350897192830388 -0.35182634019482428 0 -0.46532287565304842 -0.36379746807969998 0 -0.45308736084891571 -0.35136375776757067 0 -0.45308736084891571 -0.35136375776757067 0 -0.43835577621990662 -0.36676147439803441 0 -0.43514068020963897 -0.34699296737107588 0 -0.45308736084891571 -0.35136375776757067 0 -0.43835577621990662 -0.36676147439803441 0 -0.45215236462308872 -0.33572321746116351 0 -0.45308736084891571 -0.35136375776757067 0 -0.43514068020963897 -0.34699296737107588 0 -0.43835577621990662 -0.36676147439803441 0 -0.44277282476429852 -0.37272335650858618 0 -0.44717713212366172 -0.36574384631525941 0 -0.43798393348445741 -0.3758830035719668 0 -0.43835577621990662 -0.36676147439803441 0 -0.44277282476429852 -0.37272335650858618 0 -0.44277282476429852 -0.37272335650858618 0 -0.44780092831938528 -0.37183108537842408 0 -0.44717713212366172 -0.36574384631525941 0 -0.45230431374212943 -0.37516058995326751 0 -0.44780092831938528 -0.37183108537842408 0 -0.45289861423054301 -0.36547682061271242 0 -0.44681399159455332 -0.37680555797794751 0 -0.45230431374212943 -0.37516058995326751 0 -0.44780092831938528 -0.37183108537842408 0 -0.44681399159455332 -0.37680555797794751 0 -0.44277282476429852 -0.37272335650858618 0 -0.44780092831938528 -0.37183108537842408 0 -0.44780092831938528 -0.37183108537842408 0 -0.45289861423054301 -0.36547682061271242 0 -0.44717713212366172 -0.36574384631525941 0 -0.45308736084891571 -0.35136375776757067 0 -0.43835577621990662 -0.36676147439803441 0 -0.44717713212366172 -0.36574384631525941 0 -0.45308736084891571 -0.35136375776757067 0 -0.45289861423054301 -0.36547682061271242 0 -0.44717713212366172 -0.36574384631525941 0 -0.43835577621990662 -0.36676147439803441 0 -0.43289325920079641 -0.36683953097685562 0 -0.41357824230830348 -0.35238932237951531 0 -0.43289325920079641 -0.36683953097685562 0 -0.41108867961652529 -0.37445636964268658 0 -0.41998029958161448 -0.38596785235068881 0 -0.43835577621990662 -0.36676147439803441 0 -0.43289325920079641 -0.36683953097685562 0 -0.43835577621990662 -0.36676147439803441 0 -0.41357824230830348 -0.35238932237951531 0 -0.43514068020963897 -0.34699296737107588 0 -0.41357824230830348 -0.35238932237951531 0 -0.42037248213985778 -0.33280807894113779 0 -0.43835577621990662 -0.36676147439803441 0 -0.43514068020963897 -0.34699296737107588 0 -0.41357824230830348 -0.35238932237951531 0 -0.41357824230830348 -0.35238932237951531 0 -0.41455544406877842 -0.36366055749561771 0 -0.40066159514948829 -0.36095700698341338 0 -0.43289325920079641 -0.36683953097685562 0 -0.41357824230830348 -0.35238932237951531 0 -0.41455544406877842 -0.36366055749561771 0 -0.43289325920079641 -0.36683953097685562 0 -0.41455544406877842 -0.36366055749561771 0 -0.41108867961652529 -0.37445636964268658 0 -0.41455544406877842 -0.36366055749561771 0 -0.41108867961652529 -0.37445636964268658 0 -0.40066159514948829 -0.36095700698341338 0 -0.41108867961652529 -0.37445636964268658 0 -0.40066159514948829 -0.36095700698341338 0 -0.41108867961652529 -0.37445636964268658 0 -0.39913787438362358 -0.37127988736596917 0 -0.40066159514948829 -0.36095700698341338 0 -0.39913787438362358 -0.37127988736596917 0 -0.40066159514948829 -0.36095700698341338 0 -0.39258795052220269 -0.3629532170064757 0 -0.39494139036195319 -0.37844878968881168 0 -0.39258795052220269 -0.3629532170064757 0 -0.39494139036195319 -0.37844878968881168 0 -0.39913787438362358 -0.37127988736596917 0 -0.39258795052220269 -0.3629532170064757 0 -0.39258795052220269 -0.3629532170064757 0 -0.38294556583546602 -0.35502965997160479 0 -0.37287983373987488 -0.36139194647563572 0 -0.39494139036195319 -0.37844878968881168 0 -0.37287983373987488 -0.36139194647563572 0 -0.39494139036195319 -0.37844878968881168 0 -0.38034876700654952 -0.37640696384383199 0 -0.37287983373987488 -0.36139194647563572 0 -0.39494139036195319 -0.37844878968881168 0 -0.39258795052220269 -0.3629532170064757 0 -0.37287983373987488 -0.36139194647563572 0 -0.37607996839733487 -0.34831583208016781 0 -0.38294556583546602 -0.35502965997160479 0 -0.37287983373987488 -0.36139194647563572 0 -0.39258795052220269 -0.3629532170064757 0 -0.38294556583546602 -0.35502965997160479 0 -0.3902345106824518 -0.34745764432413978 0 -0.37607996839733487 -0.34831583208016781 0 -0.38294556583546602 -0.35502965997160479 0 -0.3902345106824518 -0.34745764432413978 0 -0.41357824230830348 -0.35238932237951531 0 -0.40066159514948829 -0.36095700698341338 0 -0.3902345106824518 -0.34745764432413978 0 -0.41357824230830348 -0.35238932237951531 0 -0.38880070839670011 -0.33801717036099682 0 -0.41357824230830348 -0.35238932237951531 0 -0.3902345106824518 -0.34745764432413978 0 -0.38880070839670011 -0.33801717036099682 0 -0.40066159514948829 -0.36095700698341338 0 -0.39258795052220269 -0.3629532170064757 0 -0.3902345106824518 -0.34745764432413978 0 -0.40066159514948829 -0.36095700698341338 0 -0.3902345106824518 -0.34745764432413978 0 -0.39258795052220269 -0.3629532170064757 0 -0.3902345106824518 -0.34745764432413978 0 -0.41357824230830348 -0.35238932237951531 0 -0.40324693438707637 -0.33075271092697378 0 -0.38880070839670011 -0.33801717036099682 0 -0.40324693438707637 -0.33075271092697378 0 -0.38880070839670011 -0.33801717036099682 0 -0.38618591763769061 -0.32080080494940888 0 -0.37607996839733487 -0.34831583208016781 0 -0.37818742888678952 -0.33186096179416941 0 -0.37288224187433711 -0.32878370017073011 0 -0.3902345106824518 -0.34745764432413978 0 -0.38880070839670011 -0.33801717036099682 0 -0.38880070839670011 -0.33801717036099682 0 -0.37818742888678952 -0.33186096179416941 0 -0.38618591763769061 -0.32080080494940888 0 -0.38880070839670011 -0.33801717036099682 0 -0.38618591763769061 -0.32080080494940888 0 -0.3902345106824518 -0.34745764432413978 0 -0.38880070839670011 -0.33801717036099682 0 -0.37818742888678952 -0.33186096179416941 0 -0.37607996839733487 -0.34831583208016781 0 -0.3902345106824518 -0.34745764432413978 0 -0.37818742888678952 -0.33186096179416941 0 -0.3902345106824518 -0.34745764432413978 0 -0.37818742888678952 -0.33186096179416941 0 -0.38880070839670011 -0.33801717036099682 0 -0.37818742888678952 -0.33186096179416941 0 -0.37818742888678952 -0.33186096179416941 0 -0.37288224187433711 -0.32878370017073011 0 -0.3775882674751837 -0.3182063729486394 0 -0.38618591763769061 -0.32080080494940888 0 -0.37777814483674632 -0.30858152785761361 0 -0.3775882674751837 -0.3182063729486394 0 -0.37777814483674632 -0.30858152785761361 0 -0.37025756617160183 -0.31358557058996239 0 -0.37818742888678952 -0.33186096179416941 0 -0.3775882674751837 -0.3182063729486394 0 -0.37100379064124461 -0.32256070742333381 0 -0.37818742888678952 -0.33186096179416941 0 -0.3775882674751837 -0.3182063729486394 0 -0.38618591763769061 -0.32080080494940888 0 -0.38618591763769061 -0.32080080494940888 0 -0.39969059578707911 -0.31808065600911523 0 -0.39389767296212258 -0.30699293186631138 0 -0.40324693438707637 -0.33075271092697378 0 -0.38618591763769061 -0.32080080494940888 0 -0.39969059578707911 -0.31808065600911523 0 -0.40324693438707637 -0.33075271092697378 0 -0.39969059578707911 -0.31808065600911523 0 -0.41085366005282742 -0.32242023292166921 0 -0.39969059578707911 -0.31808065600911523 0 -0.41085366005282742 -0.32242023292166921 0 -0.40782599014148468 -0.30862748721112199 0 -0.41085366005282742 -0.32242023292166921 0 -0.42037248213985778 -0.33280807894113779 0 -0.42386424272323769 -0.31620458287452963 0 -0.41085366005282742 -0.32242023292166921 0 -0.42386424272323769 -0.31620458287452963 0 -0.40782599014148468 -0.30862748721112199 0 -0.40324693438707637 -0.33075271092697378 0 -0.41085366005282742 -0.32242023292166921 0 -0.42037248213985778 -0.33280807894113779 0 -0.41357824230830348 -0.35238932237951531 0 -0.40324693438707637 -0.33075271092697378 0 -0.42037248213985778 -0.33280807894113779 0 -0.43866512827361509 -0.32681711649934131 0 -0.43514068020963897 -0.34699296737107588 0 -0.42037248213985778 -0.33280807894113779 0 -0.43886294994344788 -0.30683535239006759 0 -0.43866512827361509 -0.32681711649934131 0 -0.42386424272323769 -0.31620458287452963 0 -0.43866512827361509 -0.32681711649934131 0 -0.42037248213985778 -0.33280807894113779 0 -0.42386424272323769 -0.31620458287452963 0 -0.43886294994344788 -0.30683535239006759 0 -0.43735001779510901 -0.2885555547873444 0 -0.41991298337776278 -0.29952925782234041 0 -0.43886294994344788 -0.30683535239006759 0 -0.42386424272323769 -0.31620458287452963 0 -0.41991298337776278 -0.29952925782234041 0 -0.43735001779510901 -0.2885555547873444 0 -0.4227831005590823 -0.2852745435688599 0 -0.43532968104334091 -0.27191061116054621 0 -0.43735001779510901 -0.2885555547873444 0 -0.4227831005590823 -0.2852745435688599 0 -0.41991298337776278 -0.29952925782234041 0 -0.41350726237334301 -0.28902779722389482 0 -0.41991298337776278 -0.29952925782234041 0 -0.40337444257286992 -0.29337611363476801 0 -0.4227831005590823 -0.2852745435688599 0 -0.41350726237334301 -0.28902779722389482 0 -0.41991298337776278 -0.29952925782234041 0 -0.4227831005590823 -0.2852745435688599 0 -0.41350726237334301 -0.28902779722389482 0 -0.40795852298365709 -0.27793127386961081 0 -0.41350726237334301 -0.28902779722389482 0 -0.40337444257286992 -0.29337611363476801 0 -0.40795852298365709 -0.27793127386961081 0 -0.41991298337776278 -0.29952925782234041 0 -0.40782599014148468 -0.30862748721112199 0 -0.40337444257286992 -0.29337611363476801 0 -0.42386424272323769 -0.31620458287452963 0 -0.41991298337776278 -0.29952925782234041 0 -0.40782599014148468 -0.30862748721112199 0 -0.39969059578707911 -0.31808065600911523 0 -0.40782599014148468 -0.30862748721112199 0 -0.39389767296212258 -0.30699293186631138 0 -0.40782599014148468 -0.30862748721112199 0 -0.39389767296212258 -0.30699293186631138 0 -0.40337444257286992 -0.29337611363476801 0 -0.38357112687868139 -0.30358443953782099 0 -0.37777814483674632 -0.30858152785761361 0 -0.37713673103536199 -0.2886936217786758 0 -0.38618591763769061 -0.32080080494940888 0 -0.39389767296212258 -0.30699293186631138 0 -0.38357112687868139 -0.30358443953782099 0 -0.38618591763769061 -0.32080080494940888 0 -0.38357112687868139 -0.30358443953782099 0 -0.37777814483674632 -0.30858152785761361 0 -0.39389767296212258 -0.30699293186631138 0 -0.38357112687868139 -0.30358443953782099 0 -0.39157129958605169 -0.28129219393264249 0 -0.38618591763769061 -0.32080080494940888 0 -0.38357112687868139 -0.30358443953782099 0 -0.38357112687868139 -0.30358443953782099 0 -0.37713673103536199 -0.2886936217786758 0 -0.39157129958605169 -0.28129219393264249 0 -0.39157129958605169 -0.28129219393264249 0 -0.40337444257286992 -0.29337611363476801 0 -0.40795852298365709 -0.27793127386961081 0 -0.39389767296212258 -0.30699293186631138 0 -0.39157129958605169 -0.28129219393264249 0 -0.40337444257286992 -0.29337611363476801 0 -0.39389767296212258 -0.30699293186631138 0 -0.39157129958605169 -0.28129219393264249 0 -0.39157129958605169 -0.28129219393264249 0 -0.40251707807920423 -0.26504521482010412 0 -0.40795852298365709 -0.27793127386961081 0 -0.39157129958605169 -0.28129219393264249 0 -0.38924492620998102 -0.25559145599897348 0 -0.40251707807920423 -0.26504521482010412 0 -0.39157129958605169 -0.28129219393264249 0 -0.37887639601983042 -0.2733916980720279 0 -0.38924492620998102 -0.25559145599897348 0 -0.39157129958605169 -0.28129219393264249 0 -0.38924492620998102 -0.25559145599897348 0 -0.37713673103536199 -0.2886936217786758 0 -0.39157129958605169 -0.28129219393264249 0 -0.37887639601983042 -0.2733916980720279 0 -0.38924492620998102 -0.25559145599897348 0 -0.36762539707138381 -0.26473811229917721 0 -0.36829210260803058 -0.2527328000417573 0 -0.37887639601983042 -0.2733916980720279 0 -0.38924492620998102 -0.25559145599897348 0 -0.36762539707138381 -0.26473811229917721 0 -0.38924492620998102 -0.25559145599897348 0 -0.40251707807920423 -0.26504521482010412 0 -0.40890597421300012 -0.25022013990914388 0 -0.41904583908846932 -0.25106818268403841 0 -0.41490466740333132 -0.2601910103901498 0 -0.42451519768389262 -0.25487111830530701 0 -0.40890597421300012 -0.25022013990914388 0 -0.41904583908846932 -0.25106818268403841 0 -0.41490466740333132 -0.2601910103901498 0 -0.41490466740333132 -0.2601910103901498 0 -0.42451519768389262 -0.25487111830530701 0 -0.4258889773640433 -0.26362964334707129 0 -0.40251707807920423 -0.26504521482010412 0 -0.40890597421300012 -0.25022013990914388 0 -0.41490466740333132 -0.2601910103901498 0 -0.41490466740333132 -0.2601910103901498 0 -0.40795852298365709 -0.27793127386961081 0 -0.4258889773640433 -0.26362964334707129 0 -0.40795852298365709 -0.27793127386961081 0 -0.43532968104334091 -0.27191061116054621 0 -0.40251707807920423 -0.26504521482010412 0 -0.41490466740333132 -0.2601910103901498 0 -0.40795852298365709 -0.27793127386961081 0 -0.40795852298365709 -0.27793127386961081 0 -0.43532968104334091 -0.27191061116054621 0 -0.4258889773640433 -0.26362964334707129 0 -0.4227831005590823 -0.2852745435688599 0 -0.40795852298365709 -0.27793127386961081 0 -0.43532968104334091 -0.27191061116054621 0 -0.44181068980230093 -0.26007038484704598 0 -0.43532968104334091 -0.27191061116054621 0 -0.4258889773640433 -0.26362964334707129 0 -0.44181068980230093 -0.26007038484704598 0 -0.43291121202806843 -0.25438743732024688 0 -0.4258889773640433 -0.26362964334707129 0 -0.4425708660348483 -0.25031991796631831 0 -0.43291121202806843 -0.25438743732024688 0 -0.43647407341708883 -0.24790598373119391 0 -0.43291121202806843 -0.25438743732024688 0 -0.42451519768389262 -0.25487111830530701 0 -0.42748611559276362 -0.24710901093599391 0 -0.43291121202806843 -0.25438743732024688 0 -0.42451519768389262 -0.25487111830530701 0 -0.4258889773640433 -0.26362964334707129 0 -0.41904583908846932 -0.25106818268403841 0 -0.42451519768389262 -0.25487111830530701 0 -0.42748611559276362 -0.24710901093599391 0 -0.32374846536732987 -0.25622503692540788 0 -0.33666709245991761 -0.26142815655865892 0 -0.32079994499768788 -0.24091696666410409 0 -0.32374846536732987 -0.25622503692540788 0 -0.31480406971123059 -0.25081407358946478 0 -0.31724706721906692 -0.26727400852034838 0 -0.32705067099475787 -0.26403114132762062 0 -0.32374846536732987 -0.25622503692540788 0 -0.31724706721906692 -0.26727400852034838 0 -0.31724706721906692 -0.26727400852034838 0 -0.33195529251363393 -0.28753446441030328 0 -0.31724706721906692 -0.26727400852034838 0 -0.33195529251363393 -0.28753446441030328 0 -0.31942536404240479 -0.28859769409372238 0 -0.31724706721906692 -0.26727400852034838 0 -0.31942536404240479 -0.28859769409372238 0 -0.30952866618168678 -0.28439853079293542 0 -0.31724706721906692 -0.26727400852034838 0 -0.33054005893271737 -0.27119736330606709 0 -0.33195529251363393 -0.28753446441030328 0 -0.32705067099475787 -0.26403114132762062 0 -0.31724706721906692 -0.26727400852034838 0 -0.33054005893271737 -0.27119736330606709 0 -0.33054005893271737 -0.27119736330606709 0 -0.33856174475758821 -0.27766888262140182 0 -0.33195529251363393 -0.28753446441030328 0 -0.33856174475758821 -0.27766888262140182 0 -0.33666709245991761 -0.26142815655865892 0 -0.35253423992214727 -0.28193934645321372 0 -0.33054005893271737 -0.27119736330606709 0 -0.33856174475758821 -0.27766888262140182 0 -0.33666709245991761 -0.26142815655865892 0 -0.3407208022141 -0.25138375839962762 0 -0.34418055718156471 -0.26592337353175732 0 -0.32738176335397368 -0.24459429636882909 0 -0.33666709245991761 -0.26142815655865892 0 -0.34418055718156471 -0.26592337353175732 0 -0.32738176335397368 -0.24459429636882909 0 -0.33666709245991761 -0.26142815655865892 0 -0.32079994499768788 -0.24091696666410409 0 -0.34418055718156471 -0.26592337353175732 0 -0.32738176335397368 -0.24459429636882909 0 -0.32705067099475787 -0.26403114132762062 0 -0.32374846536732987 -0.25622503692540788 0 -0.33666709245991761 -0.26142815655865892 0 -0.32705067099475787 -0.26403114132762062 0 -0.33054005893271737 -0.27119736330606709 0 -0.33666709245991761 -0.26142815655865892 0 -0.3407208022141 -0.25138375839962762 0 -0.34806998240937048 -0.25706635557309399 0 -0.34726966315039781 -0.2466177650615749 0 -0.34806998240937048 -0.25706635557309399 0 -0.35611018223130519 -0.25575694607252492 0 -0.34726966315039781 -0.2466177650615749 0 -0.34806998240937048 -0.25706635557309399 0 -0.35424556246767852 -0.26394833886237012 0 -0.34418055718156471 -0.26592337353175732 0 -0.3407208022141 -0.25138375839962762 0 -0.34806998240937048 -0.25706635557309399 0 -0.34418055718156471 -0.26592337353175732 0 -0.35424556246767852 -0.26394833886237012 0 -0.35611018223130519 -0.25575694607252492 0 -0.36762539707138381 -0.26473811229917721 0 -0.34806998240937048 -0.25706635557309399 0 -0.35424556246767852 -0.26394833886237012 0 -0.35611018223130519 -0.25575694607252492 0 -0.35611018223130519 -0.25575694607252492 0 -0.36762539707138381 -0.26473811229917721 0 -0.36829210260803058 -0.2527328000417573 0 -0.35611018223130519 -0.25575694607252492 0 -0.36829210260803058 -0.2527328000417573 0 -0.35811933379322303 -0.2468033702023453 0 -0.37713673103536199 -0.2886936217786758 0 -0.37887639601983042 -0.2733916980720279 0 -0.36880362619637308 -0.27664310635067041 0 -0.37887639601983042 -0.2733916980720279 0 -0.36762539707138381 -0.26473811229917721 0 -0.36880362619637308 -0.27664310635067041 0 -0.36762539707138381 -0.26473811229917721 0 -0.36880362619637308 -0.27664310635067041 0 -0.35811213475418502 -0.27254915267849289 0 -0.35424556246767852 -0.26394833886237012 0 -0.36762539707138381 -0.26473811229917721 0 -0.35811213475418502 -0.27254915267849289 0 -0.36880362619637308 -0.27664310635067041 0 -0.35811213475418502 -0.27254915267849289 0 -0.36097935100915551 -0.28725245069468541 0 -0.34418055718156471 -0.26592337353175732 0 -0.36097935100915551 -0.28725245069468541 0 -0.34418055718156471 -0.26592337353175732 0 -0.35253423992214727 -0.28193934645321372 0 -0.36097935100915551 -0.28725245069468541 0 -0.33666709245991761 -0.26142815655865892 0 -0.34418055718156471 -0.26592337353175732 0 -0.35253423992214727 -0.28193934645321372 0 -0.35811213475418502 -0.27254915267849289 0 -0.34418055718156471 -0.26592337353175732 0 -0.36097935100915551 -0.28725245069468541 0 -0.33666709245991761 -0.26142815655865892 0 -0.35253423992214727 -0.28193934645321372 0 -0.35424556246767852 -0.26394833886237012 0 -0.35811213475418502 -0.27254915267849289 0 -0.34418055718156471 -0.26592337353175732 0 -0.34456984369008531 -0.28989668016386072 0 -0.35313442344885593 -0.29454578703412693 0 -0.35253423992214727 -0.28193934645321372 0 -0.33856174475758821 -0.27766888262140182 0 -0.34456984369008531 -0.28989668016386072 0 -0.35253423992214727 -0.28193934645321372 0 -0.35313442344885593 -0.29454578703412693 0 -0.36097935100915551 -0.28725245069468541 0 -0.36017047878342928 -0.30016755683979018 0 -0.35313442344885593 -0.29454578703412693 0 -0.35253423992214727 -0.28193934645321372 0 -0.36097935100915551 -0.28725245069468541 0 -0.37777814483674632 -0.30858152785761361 0 -0.37713673103536199 -0.2886936217786758 0 -0.36097935100915551 -0.28725245069468541 0 -0.37713673103536199 -0.2886936217786758 0 -0.36880362619637308 -0.27664310635067041 0 -0.36097935100915551 -0.28725245069468541 0 -0.37777814483674632 -0.30858152785761361 0 -0.36097935100915551 -0.28725245069468541 0 -0.36627385581905658 -0.30384851240096628 0 -0.37777814483674632 -0.30858152785761361 0 -0.36097935100915551 -0.28725245069468541 0 -0.36097935100915551 -0.28725245069468541 0 -0.36017047878342928 -0.30016755683979018 0 -0.36627385581905658 -0.30384851240096628 0 -0.37777814483674632 -0.30858152785761361 0 -0.36627385581905658 -0.30384851240096628 0 -0.37025756617160183 -0.31358557058996239 0 -0.36017047878342928 -0.30016755683979018 0 -0.36627385581905658 -0.30384851240096628 0 -0.36218373829435002 -0.30965545602278011 0 -0.36627385581905658 -0.30384851240096628 0 -0.36218373829435002 -0.30965545602278011 0 -0.37025756617160183 -0.31358557058996239 0 -0.34456984369008531 -0.28989668016386072 0 -0.35313442344885593 -0.29454578703412693 0 -0.34666351780820093 -0.30779492030025812 0 -0.36218373829435002 -0.30965545602278011 0 -0.35553803958370889 -0.30304093004923882 0 -0.34666351780820093 -0.30779492030025812 0 -0.36218373829435002 -0.30965545602278011 0 -0.34666351780820093 -0.30779492030025812 0 -0.36311513227251518 -0.31812546571160899 0 -0.36017047878342928 -0.30016755683979018 0 -0.36218373829435002 -0.30965545602278011 0 -0.35553803958370889 -0.30304093004923882 0 -0.35313442344885593 -0.29454578703412693 0 -0.36017047878342928 -0.30016755683979018 0 -0.35553803958370889 -0.30304093004923882 0 -0.35313442344885593 -0.29454578703412693 0 -0.35553803958370889 -0.30304093004923882 0 -0.34666351780820093 -0.30779492030025812 0 -0.34666351780820093 -0.30779492030025812 0 -0.33195529251363393 -0.28753446441030328 0 -0.34666351780820093 -0.30779492030025812 0 -0.33195529251363393 -0.28753446441030328 0 -0.32593151211780957 -0.30606290829857219 0 -0.34666351780820093 -0.30779492030025812 0 -0.32593151211780957 -0.30606290829857219 0 -0.34322538183281331 -0.31960701519829787 0 -0.34456984369008531 -0.28989668016386072 0 -0.34666351780820093 -0.30779492030025812 0 -0.33195529251363393 -0.28753446441030328 0 -0.33856174475758821 -0.27766888262140182 0 -0.34456984369008531 -0.28989668016386072 0 -0.33195529251363393 -0.28753446441030328 0 -0.31942536404240479 -0.28859769409372238 0 -0.32593151211780957 -0.30606290829857219 0 -0.30863764240280589 -0.29251880139884678 0 -0.33195529251363393 -0.28753446441030328 0 -0.31942536404240479 -0.28859769409372238 0 -0.32593151211780957 -0.30606290829857219 0 -0.31942536404240479 -0.28859769409372238 0 -0.30863764240280589 -0.29251880139884678 0 -0.30952866618168678 -0.28439853079293542 0 -0.32593151211780957 -0.30606290829857219 0 -0.3066951638736401 -0.31022141683610782 0 -0.30863764240280589 -0.29251880139884678 0 -0.32593151211780957 -0.30606290829857219 0 -0.30863764240280589 -0.29251880139884678 0 -0.32875672049571758 -0.32727826004928462 0 -0.3066951638736401 -0.31022141683610782 0 -0.32593151211780957 -0.30606290829857219 0 -0.32875672049571758 -0.32727826004928462 0 -0.3066951638736401 -0.31022141683610782 0 -0.31550976828795041 -0.33087486393047177 0 -0.32875672049571758 -0.32727826004928462 0 -0.3066951638736401 -0.31022141683610782 0 -0.31550976828795041 -0.33087486393047177 0 -0.31518926435465572 -0.34310285179764161 0 -0.32327893806702479 -0.33992611144400481 0 -0.31550976828795041 -0.33087486393047177 0 -0.32327893806702479 -0.33992611144400481 0 -0.32875672049571758 -0.32727826004928462 0 -0.32327893806702479 -0.33992611144400481 0 -0.32875672049571758 -0.32727826004928462 0 -0.33583444997511819 -0.34611192048788991 0 -0.32875672049571758 -0.32727826004928462 0 -0.35081827711779617 -0.34433510326246008 0 -0.33583444997511819 -0.34611192048788991 0 -0.32875672049571758 -0.32727826004928462 0 -0.34875694852467182 -0.33143828139431492 0 -0.35081827711779617 -0.34433510326246008 0 -0.32875672049571758 -0.32727826004928462 0 -0.35081827711779617 -0.34433510326246008 0 -0.32593151211780957 -0.30606290829857219 0 -0.34322538183281331 -0.31960701519829787 0 -0.34322538183281331 -0.31960701519829787 0 -0.32875672049571758 -0.32727826004928462 0 -0.34875694852467182 -0.33143828139431492 0 -0.32593151211780957 -0.30606290829857219 0 -0.34322538183281331 -0.31960701519829787 0 -0.32875672049571758 -0.32727826004928462 0 -0.34666351780820093 -0.30779492030025812 0 -0.36137174310276787 -0.32805537619021302 0 -0.34666351780820093 -0.30779492030025812 0 -0.36311513227251518 -0.31812546571160899 0 -0.36137174310276787 -0.32805537619021302 0 -0.34322538183281331 -0.31960701519829787 0 -0.36137174310276787 -0.32805537619021302 0 -0.34875694852467182 -0.33143828139431492 0 -0.34666351780820093 -0.30779492030025812 0 -0.34322538183281331 -0.31960701519829787 0 -0.36137174310276787 -0.32805537619021302 0 -0.36218373829435002 -0.30965545602278011 0 -0.36311513227251518 -0.31812546571160899 0 -0.37025756617160183 -0.31358557058996239 0 -0.36311513227251518 -0.31812546571160899 0 -0.36137174310276787 -0.32805537619021302 0 -0.36721043761692629 -0.32710076374310709 0 -0.36311513227251518 -0.31812546571160899 0 -0.37100379064124461 -0.32256070742333381 0 -0.36721043761692629 -0.32710076374310709 0 -0.37818742888678952 -0.33186096179416941 0 -0.37100379064124461 -0.32256070742333381 0 -0.37818742888678952 -0.33186096179416941 0 -0.37100379064124461 -0.32256070742333381 0 -0.37288224187433711 -0.32878370017073011 0 -0.37100379064124461 -0.32256070742333381 0 -0.36721043761692629 -0.32710076374310709 0 -0.37288224187433711 -0.32878370017073011 0 -0.3775882674751837 -0.3182063729486394 0 -0.37100379064124461 -0.32256070742333381 0 -0.37025756617160183 -0.31358557058996239 0 -0.36311513227251518 -0.31812546571160899 0 -0.37100379064124461 -0.32256070742333381 0 -0.37025756617160183 -0.31358557058996239 0 -0.37607996839733487 -0.34831583208016781 0 -0.36137174310276787 -0.32805537619021302 0 -0.36340154560887827 -0.34191434029940232 0 -0.37607996839733487 -0.34831583208016781 0 -0.36137174310276787 -0.32805537619021302 0 -0.36721043761692629 -0.32710076374310709 0 -0.37607996839733487 -0.34831583208016781 0 -0.36137174310276787 -0.32805537619021302 0 -0.37607996839733487 -0.34831583208016781 0 -0.36721043761692629 -0.32710076374310709 0 -0.37288224187433711 -0.32878370017073011 0 -0.36340154560887827 -0.34191434029940232 0 -0.34875694852467182 -0.33143828139431492 0 -0.35081827711779617 -0.34433510326246008 0 -0.36137174310276787 -0.32805537619021302 0 -0.36340154560887827 -0.34191434029940232 0 -0.34875694852467182 -0.33143828139431492 0 -0.35081827711779617 -0.34433510326246008 0 -0.34724388011084789 -0.35538835804377961 0 -0.33583444997511819 -0.34611192048788991 0 -0.35081827711779617 -0.34433510326246008 0 -0.34724388011084789 -0.35538835804377961 0 -0.35752666264478838 -0.3605400331943675 0 -0.35081827711779617 -0.34433510326246008 0 -0.37287983373987488 -0.36139194647563572 0 -0.36340154560887827 -0.34191434029940232 0 -0.35081827711779617 -0.34433510326246008 0 -0.37287983373987488 -0.36139194647563572 0 -0.35081827711779617 -0.34433510326246008 0 -0.37287983373987488 -0.36139194647563572 0 -0.35752666264478838 -0.3605400331943675 0 -0.37607996839733487 -0.34831583208016781 0 -0.36340154560887827 -0.34191434029940232 0 -0.37287983373987488 -0.36139194647563572 0 -0.38034876700654952 -0.37640696384383199 0 -0.37287983373987488 -0.36139194647563572 0 -0.36392320231562408 -0.375110591297523 0 -0.37287983373987488 -0.36139194647563572 0 -0.35752666264478838 -0.3605400331943675 0 -0.36392320231562408 -0.375110591297523 0 -0.35136564580630858 -0.36642291168460928 0 -0.36392320231562408 -0.375110591297523 0 -0.34457073042214381 -0.37923627656162079 0 -0.35752666264478838 -0.3605400331943675 0 -0.35136564580630858 -0.36642291168460928 0 -0.36392320231562408 -0.375110591297523 0 -0.34724388011084789 -0.35538835804377961 0 -0.35752666264478838 -0.3605400331943675 0 -0.35136564580630858 -0.36642291168460928 0 -0.34724388011084789 -0.35538835804377961 0 -0.35136564580630858 -0.36642291168460928 0 -0.33786941674324789 -0.35942931117391169 0 -0.35136564580630858 -0.36642291168460928 0 -0.34125241407666251 -0.36932254542831472 0 -0.34457073042214381 -0.37923627656162079 0 -0.34125241407666251 -0.36932254542831472 0 -0.33120386333494972 -0.37220168229311718 0 -0.34457073042214381 -0.37923627656162079 0 -0.33120386333494972 -0.37220168229311718 0 -0.33786941674324789 -0.35942931117391169 0 -0.32686846889855647 -0.36071070324247739 0 -0.34125241407666251 -0.36932254542831472 0 -0.33120386333494972 -0.37220168229311718 0 -0.33786941674324789 -0.35942931117391169 0 -0.35136564580630858 -0.36642291168460928 0 -0.34125241407666251 -0.36932254542831472 0 -0.33786941674324789 -0.35942931117391169 0 -0.34724388011084789 -0.35538835804377961 0 -0.33786941674324789 -0.35942931117391169 0 -0.33583444997511819 -0.34611192048788991 0 -0.32327893806702479 -0.33992611144400481 0 -0.33583444997511819 -0.34611192048788991 0 -0.32563699318258499 -0.35026312374606922 0 -0.33786941674324789 -0.35942931117391169 0 -0.32563699318258499 -0.35026312374606922 0 -0.32686846889855647 -0.36071070324247739 0 -0.33786941674324789 -0.35942931117391169 0 -0.33583444997511819 -0.34611192048788991 0 -0.32563699318258499 -0.35026312374606922 0 -0.32079116276339692 -0.35628726145439149 0 -0.32563699318258499 -0.35026312374606922 0 -0.32686846889855647 -0.36071070324247739 0 -0.32079116276339692 -0.35628726145439149 0 -0.32563699318258499 -0.35026312374606922 0 -0.31502310794789218 -0.35277383493345638 0 -0.31518926435465572 -0.34310285179764161 0 -0.32327893806702479 -0.33992611144400481 0 -0.32563699318258499 -0.35026312374606922 0 -0.31518926435465572 -0.34310285179764161 0 -0.32563699318258499 -0.35026312374606922 0 -0.31502310794789218 -0.35277383493345638 0 -0.31518926435465572 -0.34310285179764161 0 -0.31502310794789218 -0.35277383493345638 0 -0.30927211520470382 -0.34747366537080349 0 -0.31502310794789218 -0.35277383493345638 0 -0.31563608102455382 -0.36140138389556342 0 -0.30900654639787789 -0.35455175383264198 0 -0.32079116276339692 -0.35628726145439149 0 -0.31502310794789218 -0.35277383493345638 0 -0.31563608102455382 -0.36140138389556342 0 -0.31563608102455382 -0.36140138389556342 0 -0.32282069539276381 -0.36773882305034772 0 -0.31661499096850348 -0.37685956869454201 0 -0.33120386333494972 -0.37220168229311718 0 -0.32282069539276381 -0.36773882305034772 0 -0.31661499096850348 -0.37685956869454201 0 -0.31563608102455382 -0.36140138389556342 0 -0.32282069539276381 -0.36773882305034772 0 -0.32686846889855647 -0.36071070324247739 0 -0.32079116276339692 -0.35628726145439149 0 -0.31563608102455382 -0.36140138389556342 0 -0.32686846889855647 -0.36071070324247739 0 -0.33120386333494972 -0.37220168229311718 0 -0.32282069539276381 -0.36773882305034772 0 -0.32686846889855647 -0.36071070324247739 0 -0.30153691791117498 -0.35723065952957472 0 -0.29079571109833569 -0.37498494486986872 0 -0.29835389668006518 -0.38623885701384908 0 -0.30153691791117498 -0.35723065952957472 0 -0.31661499096850348 -0.37685956869454201 0 -0.29835389668006518 -0.38623885701384908 0 -0.31563608102455382 -0.36140138389556342 0 -0.30153691791117498 -0.35723065952957472 0 -0.31661499096850348 -0.37685956869454201 0 -0.30153691791117498 -0.35723065952957472 0 -0.29835389668006518 -0.38623885701384908 0 -0.30153691791117498 -0.35723065952957472 0 -0.29546816606172688 -0.3454207008722936 0 -0.3041160408924079 -0.3337260381828413 0 -0.31563608102455382 -0.36140138389556342 0 -0.30900654639787789 -0.35455175383264198 0 -0.30153691791117498 -0.35723065952957472 0 -0.30153691791117498 -0.35723065952957472 0 -0.30356450990106448 -0.35387922543381201 0 -0.3041160408924079 -0.3337260381828413 0 -0.30927211520470382 -0.34747366537080349 0 -0.30356450990106448 -0.35387922543381201 0 -0.3041160408924079 -0.3337260381828413 0 -0.30153691791117498 -0.35723065952957472 0 -0.3041160408924079 -0.3337260381828413 0 -0.31502310794789218 -0.35277383493345638 0 -0.30900654639787789 -0.35455175383264198 0 -0.30927211520470382 -0.34747366537080349 0 -0.30900654639787789 -0.35455175383264198 0 -0.30153691791117498 -0.35723065952957472 0 -0.30356450990106448 -0.35387922543381201 0 -0.30900654639787789 -0.35455175383264198 0 -0.30927211520470382 -0.34747366537080349 0 -0.30356450990106448 -0.35387922543381201 0 -0.30153691791117498 -0.35723065952957472 0 -0.30356450990106448 -0.35387922543381201 0 -0.30153691791117498 -0.35723065952957472 0 -0.29546816606172688 -0.3454207008722936 0 -0.28825695539172391 -0.35674393281122491 0 -0.29546816606172688 -0.3454207008722936 0 -0.28825695539172391 -0.35674393281122491 0 -0.28653408872102792 -0.34367471961418339 0 -0.28825695539172391 -0.35674393281122491 0 -0.27499553778005531 -0.35705188143462252 0 -0.28653408872102792 -0.34367471961418339 0 -0.30153691791117498 -0.35723065952957472 0 -0.28825695539172391 -0.35674393281122491 0 -0.29079571109833569 -0.37498494486986872 0 -0.30153691791117498 -0.35723065952957472 0 -0.29079571109833569 -0.37498494486986872 0 -0.28825695539172391 -0.35674393281122491 0 -0.29079571109833569 -0.37498494486986872 0 -0.27995599596055359 -0.36824684722017742 0 -0.29079571109833569 -0.37498494486986872 0 -0.27995599596055359 -0.36824684722017742 0 -0.27711547654425861 -0.37968250865110947 0 -0.26861629898839462 -0.37277096833406098 0 -0.25966163511043361 -0.36152456605095462 0 -0.27499553778005531 -0.35705188143462252 0 -0.27995599596055359 -0.36824684722017742 0 -0.26861629898839462 -0.37277096833406098 0 -0.27711547654425861 -0.37968250865110947 0 -0.27995599596055359 -0.36824684722017742 0 -0.26861629898839462 -0.37277096833406098 0 -0.27499553778005531 -0.35705188143462252 0 -0.28825695539172391 -0.35674393281122491 0 -0.27995599596055359 -0.36824684722017742 0 -0.27499553778005531 -0.35705188143462252 0 -0.26861629898839462 -0.37277096833406098 0 -0.25949053028843799 -0.37221229663524019 0 -0.25966163511043361 -0.36152456605095462 0 -0.26861629898839462 -0.37277096833406098 0 -0.25949053028843799 -0.37221229663524019 0 -0.2664511301830953 -0.37848492658730809 0 -0.25966163511043361 -0.36152456605095462 0 -0.2526032096357535 -0.36725306875829461 0 -0.24570584083668831 -0.36067748057225341 0 -0.25949053028843799 -0.37221229663524019 0 -0.25966163511043361 -0.36152456605095462 0 -0.2526032096357535 -0.36725306875829461 0 -0.25949053028843799 -0.37221229663524019 0 -0.25158140160712861 -0.37341478875756517 0 -0.25271758358355523 -0.37892182859941531 0 -0.25158140160712861 -0.37341478875756517 0 -0.25271758358355523 -0.37892182859941531 0 -0.24722259849715539 -0.37007378842482441 0 -0.25949053028843799 -0.37221229663524019 0 -0.2526032096357535 -0.36725306875829461 0 -0.25158140160712861 -0.37341478875756517 0 -0.2526032096357535 -0.36725306875829461 0 -0.25158140160712861 -0.37341478875756517 0 -0.24722259849715539 -0.37007378842482441 0 -0.25966163511043361 -0.36152456605095462 0 -0.25438146708189491 -0.34653832092238518 0 -0.27499553778005531 -0.35705188143462252 0 -0.25966163511043361 -0.36152456605095462 0 -0.25438146708189491 -0.34653832092238518 0 -0.24570584083668831 -0.36067748057225341 0 -0.27499553778005531 -0.35705188143462252 0 -0.27070411437928582 -0.33725796513939182 0 -0.28653408872102792 -0.34367471961418339 0 -0.25438146708189491 -0.34653832092238518 0 -0.27499553778005531 -0.35705188143462252 0 -0.27070411437928582 -0.33725796513939182 0 -0.27070411437928582 -0.33725796513939182 0 -0.27659806374406171 -0.32320408641656401 0 -0.28989686185197228 -0.329668594782628 0 -0.25438146708189491 -0.34653832092238518 0 -0.27070411437928582 -0.33725796513939182 0 -0.24845744906554981 -0.32200891314904839 0 -0.27659806374406171 -0.32320408641656401 0 -0.26792297217097671 -0.30113382110544629 0 -0.24845744906554981 -0.32200891314904839 0 -0.27659806374406171 -0.32320408641656401 0 -0.24845744906554981 -0.32200891314904839 0 -0.27070411437928582 -0.33725796513939182 0 -0.27659806374406171 -0.32320408641656401 0 -0.24845744906554981 -0.32200891314904839 0 -0.27659806374406171 -0.32320408641656401 0 -0.29315686924179118 -0.31432572634985367 0 -0.26792297217097671 -0.30113382110544629 0 -0.27659806374406171 -0.32320408641656401 0 -0.28989686185197228 -0.329668594782628 0 -0.30513468473650768 -0.32444271279782738 0 -0.27659806374406171 -0.32320408641656401 0 -0.30513468473650768 -0.32444271279782738 0 -0.27659806374406171 -0.32320408641656401 0 -0.29315686924179118 -0.31432572634985367 0 -0.30513468473650768 -0.32444271279782738 0 -0.27070411437928582 -0.33725796513939182 0 -0.28653408872102792 -0.34367471961418339 0 -0.28989686185197228 -0.329668594782628 0 -0.28653408872102792 -0.34367471961418339 0 -0.29496325825057951 -0.33672431853536477 0 -0.28989686185197228 -0.329668594782628 0 -0.29546816606172688 -0.3454207008722936 0 -0.28653408872102792 -0.34367471961418339 0 -0.29496325825057951 -0.33672431853536477 0 -0.29496325825057951 -0.33672431853536477 0 -0.28989686185197228 -0.329668594782628 0 -0.29880113372576222 -0.33113153922487792 0 -0.29496325825057951 -0.33672431853536477 0 -0.29880113372576222 -0.33113153922487792 0 -0.3041160408924079 -0.3337260381828413 0 -0.29880113372576222 -0.33113153922487792 0 -0.3041160408924079 -0.3337260381828413 0 -0.30513468473650768 -0.32444271279782738 0 -0.28989686185197228 -0.329668594782628 0 -0.29880113372576222 -0.33113153922487792 0 -0.30513468473650768 -0.32444271279782738 0 -0.3041160408924079 -0.3337260381828413 0 -0.30513468473650768 -0.32444271279782738 0 -0.29546816606172688 -0.3454207008722936 0 -0.29496325825057951 -0.33672431853536477 0 -0.3041160408924079 -0.3337260381828413 0 -0.31518926435465572 -0.34310285179764161 0 -0.30927211520470382 -0.34747366537080349 0 -0.3041160408924079 -0.3337260381828413 0 -0.31550976828795041 -0.33087486393047177 0 -0.31518926435465572 -0.34310285179764161 0 -0.3041160408924079 -0.3337260381828413 0 -0.31550976828795041 -0.33087486393047177 0 -0.3041160408924079 -0.3337260381828413 0 -0.30513468473650768 -0.32444271279782738 0 -0.31550976828795041 -0.33087486393047177 0 -0.30513468473650768 -0.32444271279782738 0 -0.3066951638736401 -0.31022141683610782 0 -0.30513468473650768 -0.32444271279782738 0 -0.3066951638736401 -0.31022141683610782 0 -0.29315686924179118 -0.31432572634985367 0 -0.30513468473650768 -0.32444271279782738 0 -0.3066951638736401 -0.31022141683610782 0 -0.3066951638736401 -0.31022141683610782 0 -0.30863764240280589 -0.29251880139884678 0 -0.28662695214790967 -0.29470572377608228 0 -0.3066951638736401 -0.31022141683610782 0 -0.30863764240280589 -0.29251880139884678 0 -0.30863764240280589 -0.29251880139884678 0 -0.29183704943274041 -0.27936101595722668 0 -0.30863764240280589 -0.29251880139884678 0 -0.30952866618168678 -0.28439853079293542 0 -0.29183704943274041 -0.27936101595722668 0 -0.30863764240280589 -0.29251880139884678 0 -0.30952866618168678 -0.28439853079293542 0 -0.30863764240280589 -0.29251880139884678 0 -0.28662695214790967 -0.29470572377608228 0 -0.29183704943274041 -0.27936101595722668 0 -0.28662695214790967 -0.29470572377608228 0 -0.28001479961637649 -0.27986500024124261 0 -0.29183704943274041 -0.27936101595722668 0 -0.3066951638736401 -0.31022141683610782 0 -0.28662695214790967 -0.29470572377608228 0 -0.29315686924179118 -0.31432572634985367 0 -0.28662695214790967 -0.29470572377608228 0 -0.26792297217097671 -0.30113382110544629 0 -0.29315686924179118 -0.31432572634985367 0 -0.3066951638736401 -0.31022141683610782 0 -0.28662695214790967 -0.29470572377608228 0 -0.29315686924179118 -0.31432572634985367 0 -0.26792297217097671 -0.30113382110544629 0 -0.26792297217097671 -0.30113382110544629 0 -0.24845744906554981 -0.32200891314904839 0 -0.2396201976988091 -0.30598341357572512 0 -0.26792297217097671 -0.30113382110544629 0 -0.24268907510016199 -0.2879419158610389 0 -0.2396201976988091 -0.30598341357572512 0 -0.26792297217097671 -0.30113382110544629 0 -0.26334985373738518 -0.28410564360545532 0 -0.24268907510016199 -0.2879419158610389 0 -0.26792297217097671 -0.30113382110544629 0 -0.24268907510016199 -0.2879419158610389 0 -0.26334985373738518 -0.28410564360545532 0 -0.26655874042218192 -0.27919003071605353 0 -0.28662695214790967 -0.29470572377608228 0 -0.26334985373738518 -0.28410564360545532 0 -0.26655874042218192 -0.27919003071605353 0 -0.28662695214790967 -0.29470572377608228 0 -0.26792297217097671 -0.30113382110544629 0 -0.26334985373738518 -0.28410564360545532 0 -0.28662695214790967 -0.29470572377608228 0 -0.28001479961637649 -0.27986500024124261 0 -0.26655874042218192 -0.27919003071605353 0 -0.28662695214790967 -0.29470572377608228 0 -0.26655874042218192 -0.27919003071605353 0 -0.28001479961637649 -0.27986500024124261 0 -0.27503645646267388 -0.26620323051560779 0 -0.26655874042218192 -0.27919003071605353 0 -0.27503645646267388 -0.26620323051560779 0 -0.26655874042218192 -0.27919003071605353 0 -0.26182203182093511 -0.26571406313587548 0 -0.27503645646267388 -0.26620323051560779 0 -0.26655874042218192 -0.27919003071605353 0 -0.26655874042218192 -0.27919003071605353 0 -0.24786283518622629 -0.26473533335263749 0 -0.26334985373738518 -0.28410564360545532 0 -0.26655874042218192 -0.27919003071605353 0 -0.24786283518622629 -0.26473533335263749 0 -0.26655874042218192 -0.27919003071605353 0 -0.26182203182093511 -0.26571406313587548 0 -0.24786283518622629 -0.26473533335263749 0 -0.26334985373738518 -0.28410564360545532 0 -0.24786283518622629 -0.26473533335263749 0 -0.24268907510016199 -0.2879419158610389 0 -0.27503645646267388 -0.26620323051560779 0 -0.26182203182093511 -0.26571406313587548 0 -0.25783009521265821 -0.25272765795920332 0 -0.26182203182093511 -0.26571406313587548 0 -0.25783009521265821 -0.25272765795920332 0 -0.24786283518622629 -0.26473533335263749 0 -0.27503645646267388 -0.26620323051560779 0 -0.25783009521265821 -0.25272765795920332 0 -0.27503645646267388 -0.26620323051560779 0 -0.25783009521265821 -0.25272765795920332 0 -0.27190929522860202 -0.2464400154452242 0 -0.27503645646267388 -0.26620323051560779 0 -0.28998462699906652 -0.2433045036425783 0 -0.27190929522860202 -0.2464400154452242 0 -0.29291959994974998 -0.26304306274179001 0 -0.30408682548571869 -0.25489799507937688 0 -0.28998462699906652 -0.2433045036425783 0 -0.27503645646267388 -0.26620323051560779 0 -0.29291959994974998 -0.26304306274179001 0 -0.28998462699906652 -0.2433045036425783 0 -0.27503645646267388 -0.26620323051560779 0 -0.28998462699906652 -0.2433045036425783 0 -0.28001479961637649 -0.27986500024124261 0 -0.27503645646267388 -0.26620323051560779 0 -0.29183704943274041 -0.27936101595722668 0 -0.29291959994974998 -0.26304306274179001 0 -0.29183704943274041 -0.27936101595722668 0 -0.30351528634076069 -0.27101811091945371 0 -0.27503645646267388 -0.26620323051560779 0 -0.29291959994974998 -0.26304306274179001 0 -0.29183704943274041 -0.27936101595722668 0 -0.27503645646267388 -0.26620323051560779 0 -0.29183704943274041 -0.27936101595722668 0 -0.31724706721906692 -0.26727400852034838 0 -0.30952866618168678 -0.28439853079293542 0 -0.30351528634076069 -0.27101811091945371 0 -0.30952866618168678 -0.28439853079293542 0 -0.29183704943274041 -0.27936101595722668 0 -0.30351528634076069 -0.27101811091945371 0 -0.31724706721906692 -0.26727400852034838 0 -0.30351528634076069 -0.27101811091945371 0 -0.30408682548571869 -0.25489799507937688 0 -0.31480406971123059 -0.25081407358946478 0 -0.31724706721906692 -0.26727400852034838 0 -0.30408682548571869 -0.25489799507937688 0 -0.29291959994974998 -0.26304306274179001 0 -0.30351528634076069 -0.27101811091945371 0 -0.30408682548571869 -0.25489799507937688 0 -0.37725375160424129 -0.5 0 -0.32443392215323907 -0.46617247311877252 0 -0.25581245156141852 -0.5 0 -0.33793151966906948 -0.44943307620625722 0 -0.32443392215323907 -0.46617247311877252 0 -0.35211726509722469 -0.47017465815802179 0 -0.32443392215323907 -0.46617247311877252 0 -0.35211726509722469 -0.47017465815802179 0 -0.33793151966906948 -0.44943307620625722 0 -0.31919836215297109 -0.44734244538232909 0 -0.33088429849729611 -0.42859556559202472 0 -0.33793151966906948 -0.44943307620625722 0 -0.3590957647502504 -0.44039997866717001 0 -0.33088429849729611 -0.42859556559202472 0 -0.33793151966906948 -0.44943307620625722 0 -0.31919836215297109 -0.44734244538232909 0 -0.32443392215323907 -0.46617247311877252 0 -0.31919836215297109 -0.44734244538232909 0 -0.32443392215323907 -0.46617247311877252 0 -0.30494134323750338 -0.45653468523889462 0 -0.37725375160424129 -0.5 0 -0.32443392215323907 -0.46617247311877252 0 -0.35211726509722469 -0.47017465815802179 0 -0.37601170279824381 -0.46006982485555908 0 -0.37725375160424129 -0.5 0 -0.35211726509722469 -0.47017465815802179 0 -0.37601170279824381 -0.46006982485555908 0 -0.35211726509722469 -0.47017465815802179 0 -0.3590957647502504 -0.44039997866717001 0 -0.33793151966906948 -0.44943307620625722 0 -0.35211726509722469 -0.47017465815802179 0 -0.3590957647502504 -0.44039997866717001 0 -0.38101291830193712 -0.43940146405441172 0 -0.37601170279824381 -0.46006982485555908 0 -0.3590957647502504 -0.44039997866717001 0 -0.37847701523905908 -0.41674415220347849 0 -0.38101291830193712 -0.43940146405441172 0 -0.3590957647502504 -0.44039997866717001 0 -0.37847701523905908 -0.41674415220347849 0 -0.3590957647502504 -0.44039997866717001 0 -0.35183341335980878 -0.41814271646751278 0 -0.37847701523905908 -0.41674415220347849 0 -0.35183341335980878 -0.41814271646751278 0 -0.36826613521356089 -0.40275541425354772 0 -0.35183341335980878 -0.41814271646751278 0 -0.35297089244303009 -0.3947582427792346 0 -0.33408626275172959 -0.40687790124265438 0 -0.3590957647502504 -0.44039997866717001 0 -0.35183341335980878 -0.41814271646751278 0 -0.33088429849729611 -0.42859556559202472 0 -0.38034876700654952 -0.37640696384383199 0 -0.36392320231562408 -0.375110591297523 0 -0.37407499816543738 -0.38738609566431481 0 -0.36392320231562408 -0.375110591297523 0 -0.37407499816543738 -0.38738609566431481 0 -0.35297089244303009 -0.3947582427792346 0 -0.37407499816543738 -0.38738609566431481 0 -0.35297089244303009 -0.3947582427792346 0 -0.37407499816543738 -0.38738609566431481 0 -0.36826613521356089 -0.40275541425354772 0 -0.35297089244303009 -0.3947582427792346 0 -0.35183341335980878 -0.41814271646751278 0 -0.36826613521356089 -0.40275541425354772 0 -0.35297089244303009 -0.3947582427792346 0 -0.36392320231562408 -0.375110591297523 0 -0.35297089244303009 -0.3947582427792346 0 -0.34457073042214381 -0.37923627656162079 0 -0.35297089244303009 -0.3947582427792346 0 -0.34457073042214381 -0.37923627656162079 0 -0.33248694107518462 -0.38725965325932149 0 -0.33120386333494972 -0.37220168229311718 0 -0.34457073042214381 -0.37923627656162079 0 -0.33248694107518462 -0.38725965325932149 0 -0.35297089244303009 -0.3947582427792346 0 -0.33248694107518462 -0.38725965325932149 0 -0.33408626275172959 -0.40687790124265438 0 -0.33248694107518462 -0.38725965325932149 0 -0.32119375825436169 -0.39680096876888771 0 -0.33408626275172959 -0.40687790124265438 0 -0.33120386333494972 -0.37220168229311718 0 -0.33248694107518462 -0.38725965325932149 0 -0.31661499096850348 -0.37685956869454201 0 -0.33248694107518462 -0.38725965325932149 0 -0.32119375825436169 -0.39680096876888771 0 -0.31661499096850348 -0.37685956869454201 0 -0.35183341335980878 -0.41814271646751278 0 -0.33088429849729611 -0.42859556559202472 0 -0.33408626275172959 -0.40687790124265438 0 -0.32119375825436169 -0.39680096876888771 0 -0.33408626275172959 -0.40687790124265438 0 -0.31514827288069602 -0.41571026058894528 0 -0.33088429849729611 -0.42859556559202472 0 -0.33408626275172959 -0.40687790124265438 0 -0.31514827288069602 -0.41571026058894528 0 -0.31919836215297109 -0.44734244538232909 0 -0.33088429849729611 -0.42859556559202472 0 -0.30942061765599671 -0.43349548205524863 0 -0.33088429849729611 -0.42859556559202472 0 -0.31514827288069602 -0.41571026058894528 0 -0.30942061765599671 -0.43349548205524863 0 -0.30942061765599671 -0.43349548205524863 0 -0.29517087544895582 -0.41524705449812349 0 -0.29198785421784629 -0.44425525198239801 0 -0.31514827288069602 -0.41571026058894528 0 -0.30942061765599671 -0.43349548205524863 0 -0.29517087544895582 -0.41524705449812349 0 -0.29517087544895582 -0.41524705449812349 0 -0.28200732229156972 -0.40790104876652139 0 -0.27829231598202292 -0.43127238324152128 0 -0.29517087544895582 -0.41524705449812349 0 -0.29198785421784629 -0.44425525198239801 0 -0.29517087544895582 -0.41524705449812349 0 -0.27829231598202292 -0.43127238324152128 0 -0.29198785421784629 -0.44425525198239801 0 -0.32119375825436169 -0.39680096876888771 0 -0.31661499096850348 -0.37685956869454201 0 -0.29835389668006518 -0.38623885701384908 0 -0.31514827288069602 -0.41571026058894528 0 -0.29517087544895582 -0.41524705449812349 0 -0.29835389668006518 -0.38623885701384908 0 -0.32119375825436169 -0.39680096876888771 0 -0.31514827288069602 -0.41571026058894528 0 -0.29835389668006518 -0.38623885701384908 0 -0.28200732229156972 -0.40790104876652139 0 -0.29835389668006518 -0.38623885701384908 0 -0.28005450428549628 -0.39273923021016249 0 -0.29517087544895582 -0.41524705449812349 0 -0.28200732229156972 -0.40790104876652139 0 -0.29835389668006518 -0.38623885701384908 0 -0.29517087544895582 -0.41524705449812349 0 -0.29835389668006518 -0.38623885701384908 0 -0.29079571109833569 -0.37498494486986872 0 -0.27711547654425861 -0.37968250865110947 0 -0.28005450428549628 -0.39273923021016249 0 -0.29079571109833569 -0.37498494486986872 0 -0.29835389668006518 -0.38623885701384908 0 -0.28005450428549628 -0.39273923021016249 0 -0.29079571109833569 -0.37498494486986872 0 -0.28005450428549628 -0.39273923021016249 0 -0.2664511301830953 -0.37848492658730809 0 -0.27711547654425861 -0.37968250865110947 0 -0.27431576151082981 -0.38883703071671522 0 -0.26861629898839462 -0.37277096833406098 0 -0.2664511301830953 -0.37848492658730809 0 -0.27711547654425861 -0.37968250865110947 0 -0.27711547654425861 -0.37968250865110947 0 -0.27431576151082981 -0.38883703071671522 0 -0.28005450428549628 -0.39273923021016249 0 -0.28200732229156972 -0.40790104876652139 0 -0.28005450428549628 -0.39273923021016249 0 -0.26931329747265842 -0.41049351555045721 0 -0.26861344294507861 -0.39676698268285171 0 -0.28005450428549628 -0.39273923021016249 0 -0.26931329747265842 -0.41049351555045721 0 -0.28005450428549628 -0.39273923021016249 0 -0.26931329747265842 -0.41049351555045721 0 -0.27431576151082981 -0.38883703071671522 0 -0.26861344294507861 -0.39676698268285171 0 -0.26336592746849119 -0.39204100240400108 0 -0.27431576151082981 -0.38883703071671522 0 -0.26861344294507861 -0.39676698268285171 0 -0.28005450428549628 -0.39273923021016249 0 -0.25781692183450111 -0.40363816761702281 0 -0.25271758358355523 -0.37892182859941531 0 -0.25781692183450111 -0.40363816761702281 0 -0.26336592746849119 -0.39204100240400108 0 -0.25271758358355523 -0.37892182859941531 0 -0.26861344294507861 -0.39676698268285171 0 -0.25781692183450111 -0.40363816761702281 0 -0.26931329747265842 -0.41049351555045721 0 -0.26861344294507861 -0.39676698268285171 0 -0.25781692183450111 -0.40363816761702281 0 -0.26336592746849119 -0.39204100240400108 0 -0.2664511301830953 -0.37848492658730809 0 -0.27431576151082981 -0.38883703071671522 0 -0.25271758358355523 -0.37892182859941531 0 -0.27431576151082981 -0.38883703071671522 0 -0.26336592746849119 -0.39204100240400108 0 -0.25271758358355523 -0.37892182859941531 0 -0.27431576151082981 -0.38883703071671522 0 -0.25271758358355523 -0.37892182859941531 0 -0.25158140160712861 -0.37341478875756517 0 -0.25271758358355523 -0.37892182859941531 0 -0.25949053028843799 -0.37221229663524019 0 -0.2664511301830953 -0.37848492658730809 0 -0.25271758358355523 -0.37892182859941531 0 -0.27829231598202292 -0.43127238324152128 0 -0.26179512583394571 -0.42292040266256892 0 -0.26543118104960661 -0.44054425285142168 0 -0.27829231598202292 -0.43127238324152128 0 -0.26459677774619961 -0.41828951450064422 0 -0.26179512583394571 -0.42292040266256892 0 -0.27829231598202292 -0.43127238324152128 0 -0.26459677774619961 -0.41828951450064422 0 -0.28200732229156972 -0.40790104876652139 0 -0.27829231598202292 -0.43127238324152128 0 -0.27085904388022097 -0.41141525208501573 0 -0.27829231598202292 -0.43127238324152128 0 -0.27085904388022097 -0.41141525208501573 0 -0.26459677774619961 -0.41828951450064422 0 -0.28200732229156972 -0.40790104876652139 0 -0.27085904388022097 -0.41141525208501573 0 -0.26931329747265842 -0.41049351555045721 0 -0.27085904388022097 -0.41141525208501573 0 -0.26931329747265842 -0.41049351555045721 0 -0.27085904388022097 -0.41141525208501573 0 -0.26931329747265842 -0.41049351555045721 0 -0.26459677774619961 -0.41828951450064422 0 -0.26931329747265842 -0.41049351555045721 0 -0.26459677774619961 -0.41828951450064422 0 -0.25992625191771812 -0.41386202704174357 0 -0.25271245921269192 -0.41968127680114148 0 -0.247178000789949 -0.40177715179130091 0 -0.26459677774619961 -0.41828951450064422 0 -0.25992625191771812 -0.41386202704174357 0 -0.26179512583394571 -0.42292040266256892 0 -0.26459677774619961 -0.41828951450064422 0 -0.26179512583394571 -0.42292040266256892 0 -0.25992625191771812 -0.41386202704174357 0 -0.26179512583394571 -0.42292040266256892 0 -0.25992625191771812 -0.41386202704174357 0 -0.25271245921269192 -0.41968127680114148 0 -0.26179512583394571 -0.42292040266256892 0 -0.26931329747265842 -0.41049351555045721 0 -0.26459677774619961 -0.41828951450064422 0 -0.25992625191771812 -0.41386202704174357 0 -0.26459677774619961 -0.41828951450064422 0 -0.25992625191771812 -0.41386202704174357 0 -0.25781692183450111 -0.40363816761702281 0 -0.25992625191771812 -0.41386202704174357 0 -0.25781692183450111 -0.40363816761702281 0 -0.26931329747265842 -0.41049351555045721 0 -0.25781692183450111 -0.40363816761702281 0 -0.26931329747265842 -0.41049351555045721 0 -0.25992625191771812 -0.41386202704174357 0 -0.25992625191771812 -0.41386202704174357 0 -0.247178000789949 -0.40177715179130091 0 -0.25781692183450111 -0.40363816761702281 0 -0.25992625191771812 -0.41386202704174357 0 -0.247178000789949 -0.40177715179130091 0 -0.26179512583394571 -0.42292040266256892 0 -0.25228283597107848 -0.43864339463243129 0 -0.26543118104960661 -0.44054425285142168 0 -0.26179512583394571 -0.42292040266256892 0 -0.26543118104960661 -0.44054425285142168 0 -0.26179512583394571 -0.42292040266256892 0 -0.25228283597107848 -0.43864339463243129 0 -0.25271245921269192 -0.41968127680114148 0 -0.26179512583394571 -0.42292040266256892 0 -0.25228283597107848 -0.43864339463243129 0 -0.25228283597107848 -0.43864339463243129 0 -0.26543118104960661 -0.44054425285142168 0 -0.26906723626526768 -0.45816810304027461 0 -0.25228283597107848 -0.43864339463243129 0 -0.26906723626526768 -0.45816810304027461 0 -0.24277054610821261 -0.45436638660229439 0 -0.32443392215323907 -0.46617247311877252 0 -0.29675057920925357 -0.46217028807952321 0 -0.25581245156141852 -0.5 0 -0.26906723626526768 -0.45816810304027461 0 -0.24277054610821261 -0.45436638660229439 0 -0.26906723626526768 -0.45816810304027461 0 -0.25402856420207431 -0.4716912147914476 0 -0.24277054610821261 -0.45436638660229439 0 -0.26906723626526768 -0.45816810304027461 0 -0.27182733126321879 -0.47154620041938761 0 -0.25402856420207431 -0.4716912147914476 0 -0.26906723626526768 -0.45816810304027461 0 -0.27903686653895948 -0.44658273226967671 0 -0.29040574518005358 -0.45867367023276823 0 -0.26906723626526768 -0.45816810304027461 0 -0.29675057920925357 -0.46217028807952321 0 -0.27182733126321879 -0.47154620041938761 0 -0.26906723626526768 -0.45816810304027461 0 -0.27182733126321879 -0.47154620041938761 0 -0.26543118104960661 -0.44054425285142168 0 -0.26906723626526768 -0.45816810304027461 0 -0.27903686653895948 -0.44658273226967671 0 -0.26543118104960661 -0.44054425285142168 0 -0.26906723626526768 -0.45816810304027461 0 -0.27829231598202292 -0.43127238324152128 0 -0.26543118104960661 -0.44054425285142168 0 -0.27903686653895948 -0.44658273226967671 0 -0.27829231598202292 -0.43127238324152128 0 -0.29198785421784629 -0.44425525198239801 0 -0.27829231598202292 -0.43127238324152128 0 -0.27903686653895948 -0.44658273226967671 0 -0.29198785421784629 -0.44425525198239801 0 -0.29198785421784629 -0.44425525198239801 0 -0.29040574518005358 -0.45867367023276823 0 -0.27903686653895948 -0.44658273226967671 0 -0.29198785421784629 -0.44425525198239801 0 -0.29040574518005358 -0.45867367023276823 0 -0.26906723626526768 -0.45816810304027461 0 -0.29675057920925357 -0.46217028807952321 0 -0.26906723626526768 -0.45816810304027461 0 -0.29675057920925357 -0.46217028807952321 0 -0.29040574518005358 -0.45867367023276823 0 -0.29198785421784629 -0.44425525198239801 0 -0.29040574518005358 -0.45867367023276823 0 -0.30494134323750338 -0.45653468523889462 0 -0.32443392215323907 -0.46617247311877252 0 -0.29675057920925357 -0.46217028807952321 0 -0.30494134323750338 -0.45653468523889462 0 -0.32443392215323907 -0.46617247311877252 0 -0.29675057920925357 -0.46217028807952321 0 -0.29675057920925357 -0.46217028807952321 0 -0.29040574518005358 -0.45867367023276823 0 -0.30494134323750338 -0.45653468523889462 0 -0.30942061765599671 -0.43349548205524863 0 -0.29198785421784629 -0.44425525198239801 0 -0.30638704431607933 -0.44540696616471748 0 -0.31919836215297109 -0.44734244538232909 0 -0.30494134323750338 -0.45653468523889462 0 -0.30638704431607933 -0.44540696616471748 0 -0.31919836215297109 -0.44734244538232909 0 -0.30942061765599671 -0.43349548205524863 0 -0.30638704431607933 -0.44540696616471748 0 -0.29198785421784629 -0.44425525198239801 0 -0.30494134323750338 -0.45653468523889462 0 -0.30638704431607933 -0.44540696616471748 0 -0.29198785421784629 -0.44425525198239801 0 -0.30494134323750338 -0.45653468523889462 0 -0.29675057920925357 -0.46217028807952321 0 -0.27182733126321879 -0.47154620041938761 0 -0.25581245156141852 -0.5 0 -0.27182733126321879 -0.47154620041938761 0 -0.25402856420207431 -0.4716912147914476 0 -0.25581245156141852 -0.5 0 -0.25581245156141852 -0.5 0 -0.23066525581225411 -0.47437538389528261 0 -0.20004718954048181 -0.47645337051179221 0 -0.25581245156141852 -0.5 0 -0.20004718954048181 -0.47645337051179221 0 -0.16006640168029149 -0.5 0 -0.25402856420207431 -0.4716912147914476 0 -0.25581245156141852 -0.5 0 -0.23066525581225411 -0.47437538389528261 0 -0.25228283597107848 -0.43864339463243129 0 -0.24277054610821261 -0.45436638660229439 0 -0.25228283597107848 -0.43864339463243129 0 -0.24277054610821261 -0.45436638660229439 0 -0.2312412118566505 -0.43610977953590191 0 -0.25402856420207431 -0.4716912147914476 0 -0.23066525581225411 -0.47437538389528261 0 -0.24277054610821261 -0.45436638660229439 0 -0.23066525581225411 -0.47437538389528261 0 -0.24277054610821261 -0.45436638660229439 0 -0.23066525581225411 -0.47437538389528261 0 -0.24277054610821261 -0.45436638660229439 0 -0.21611945252696721 -0.45051343400815569 0 -0.24277054610821261 -0.45436638660229439 0 -0.21611945252696721 -0.45051343400815569 0 -0.2312412118566505 -0.43610977953590191 0 -0.24277054610821261 -0.45436638660229439 0 -0.21611945252696721 -0.45051343400815569 0 -0.21611945252696721 -0.45051343400815569 0 -0.18946835894572189 -0.44666048141401588 0 -0.20705265258006009 -0.4280704581286604 0 -0.21611945252696721 -0.45051343400815569 0 -0.20705265258006009 -0.4280704581286604 0 -0.2312412118566505 -0.43610977953590191 0 -0.23066525581225411 -0.47437538389528261 0 -0.21611945252696721 -0.45051343400815569 0 -0.20004718954048181 -0.47645337051179221 0 -0.21611945252696721 -0.45051343400815569 0 -0.18946835894572189 -0.44666048141401588 0 -0.20004718954048181 -0.47645337051179221 0 -0.21611945252696721 -0.45051343400815569 0 -0.18946835894572189 -0.44666048141401588 0 -0.20004718954048181 -0.47645337051179221 0 -0.16006640168029149 -0.5 0 -0.17056320620828311 -0.46615972942175188 0 -0.18946835894572189 -0.44666048141401588 0 -0.20004718954048181 -0.47645337051179221 0 -0.17056320620828311 -0.46615972942175188 0 -0.16281726536447669 -0.44280752881987601 0 -0.17056320620828311 -0.46615972942175188 0 -0.136104030204481 -0.46037159047481019 0 -0.18946835894572189 -0.44666048141401588 0 -0.16281726536447669 -0.44280752881987601 0 -0.17056320620828311 -0.46615972942175188 0 -0.18946835894572189 -0.44666048141401588 0 -0.16281726536447669 -0.44280752881987601 0 -0.18176410644880109 -0.42966643281235101 0 -0.18946835894572189 -0.44666048141401588 0 -0.16281726536447669 -0.44280752881987601 0 -0.16281726536447669 -0.44280752881987601 0 -0.13934306767720839 -0.43937136883184269 0 -0.136104030204481 -0.46037159047481019 0 -0.1261271266846456 -0.44137596955658343 0 -0.136104030204481 -0.46037159047481019 0 -0.1149357294739201 -0.45152271240300279 0 -0.13934306767720839 -0.43937136883184269 0 -0.1261271266846456 -0.44137596955658343 0 -0.136104030204481 -0.46037159047481019 0 -0.13934306767720839 -0.43937136883184269 0 -0.1261271266846456 -0.44137596955658343 0 -0.12981760774986431 -0.43422179640727088 0 -0.16006640168029149 -0.5 0 -0.17056320620828311 -0.46615972942175188 0 -0.136104030204481 -0.46037159047481019 0 -0.16006640168029149 -0.5 0 -0.136104030204481 -0.46037159047481019 0 -0.1142906626399478 -0.47406141934357832 0 -0.1416630202731578 -0.39592551799726378 0 -0.1528808009257388 -0.3925395431432438 0 -0.1469887596057162 -0.38504839174443101 0 -0.1416630202731578 -0.39592551799726378 0 -0.15229677732162639 -0.40209392144219619 0 -0.1419945287735164 -0.40842209154538889 0 -0.15229677732162639 -0.40209392144219619 0 -0.1528808009257388 -0.3925395431432438 0 -0.1627141251175761 -0.3952729592493176 0 -0.1416630202731578 -0.39592551799726378 0 -0.15229677732162639 -0.40209392144219619 0 -0.1528808009257388 -0.3925395431432438 0 -0.1528808009257388 -0.3925395431432438 0 -0.1469887596057162 -0.38504839174443101 0 -0.16074132231061761 -0.38435692528301052 0 -0.1469887596057162 -0.38504839174443101 0 -0.16074132231061761 -0.38435692528301052 0 -0.15163534791255009 -0.37412207573276512 0 -0.14065417162953631 -0.37824453973008382 0 -0.1469887596057162 -0.38504839174443101 0 -0.15163534791255009 -0.37412207573276512 0 -0.14065417162953631 -0.37824453973008382 0 -0.1469887596057162 -0.38504839174443101 0 -0.13909118839577919 -0.38750395802635368 0 -0.1416630202731578 -0.39592551799726378 0 -0.1469887596057162 -0.38504839174443101 0 -0.13909118839577919 -0.38750395802635368 0 -0.13909118839577919 -0.38750395802635368 0 -0.13337852282146259 -0.38340030365278582 0 -0.1311738868006157 -0.39294605787947229 0 -0.14065417162953631 -0.37824453973008382 0 -0.13909118839577919 -0.38750395802635368 0 -0.13337852282146259 -0.38340030365278582 0 -0.14065417162953631 -0.37824453973008382 0 -0.13337852282146259 -0.38340030365278582 0 -0.13055655910924369 -0.37377856541919668 0 -0.12567362856320921 -0.38115826521129781 0 -0.13055655910924369 -0.37377856541919668 0 -0.1217151804778151 -0.37674412535991741 0 -0.13337852282146259 -0.38340030365278582 0 -0.12567362856320921 -0.38115826521129781 0 -0.13055655910924369 -0.37377856541919668 0 -0.13337852282146259 -0.38340030365278582 0 -0.12738701470526601 -0.38690346121604707 0 -0.1311738868006157 -0.39294605787947229 0 -0.12738701470526601 -0.38690346121604707 0 -0.1311738868006157 -0.39294605787947229 0 -0.1216570696254355 -0.39062396624006313 0 -0.13337852282146259 -0.38340030365278582 0 -0.12567362856320921 -0.38115826521129781 0 -0.12738701470526601 -0.38690346121604707 0 -0.12567362856320921 -0.38115826521129781 0 -0.12738701470526601 -0.38690346121604707 0 -0.12360907299130899 -0.38512805355994711 0 -0.1311738868006157 -0.39294605787947229 0 -0.1249410543110704 -0.3979547810014834 0 -0.1216570696254355 -0.39062396624006313 0 -0.1311738868006157 -0.39294605787947229 0 -0.12852121543636791 -0.40317620571829649 0 -0.1249410543110704 -0.3979547810014834 0 -0.1416630202731578 -0.39592551799726378 0 -0.13909118839577919 -0.38750395802635368 0 -0.1311738868006157 -0.39294605787947229 0 -0.1416630202731578 -0.39592551799726378 0 -0.1311738868006157 -0.39294605787947229 0 -0.12852121543636791 -0.40317620571829649 0 -0.1416630202731578 -0.39592551799726378 0 -0.12852121543636791 -0.40317620571829649 0 -0.1419945287735164 -0.40842209154538889 0 -0.12852121543636791 -0.40317620571829649 0 -0.12596341692495849 -0.41009708764360059 0 -0.13172541595441259 -0.4153891851754799 0 -0.12596341692495849 -0.41009708764360059 0 -0.12519499092719091 -0.41675006551252441 0 -0.13172541595441259 -0.4153891851754799 0 -0.13172541595441259 -0.4153891851754799 0 -0.12772057340569809 -0.42405702470195838 0 -0.1330271562352123 -0.42556793744505972 0 -0.12519499092719091 -0.41675006551252441 0 -0.13172541595441259 -0.4153891851754799 0 -0.12772057340569809 -0.42405702470195838 0 -0.13172541595441259 -0.4153891851754799 0 -0.1419945287735164 -0.40842209154538889 0 -0.14276214559192851 -0.42103252669541369 0 -0.13172541595441259 -0.4153891851754799 0 -0.1330271562352123 -0.42556793744505972 0 -0.14276214559192851 -0.42103252669541369 0 -0.12852121543636791 -0.40317620571829649 0 -0.13172541595441259 -0.4153891851754799 0 -0.1419945287735164 -0.40842209154538889 0 -0.13934306767720839 -0.43937136883184269 0 -0.1330271562352123 -0.42556793744505972 0 -0.14276214559192851 -0.42103252669541369 0 -0.1261271266846456 -0.44137596955658343 0 -0.12981760774986431 -0.43422179640727088 0 -0.1219693296733185 -0.42936432714325318 0 -0.12981760774986431 -0.43422179640727088 0 -0.12772057340569809 -0.42405702470195838 0 -0.1219693296733185 -0.42936432714325318 0 -0.12981760774986431 -0.43422179640727088 0 -0.12772057340569809 -0.42405702470195838 0 -0.1330271562352123 -0.42556793744505972 0 -0.13934306767720839 -0.43937136883184269 0 -0.12981760774986431 -0.43422179640727088 0 -0.1330271562352123 -0.42556793744505972 0 -0.13934306767720839 -0.43937136883184269 0 -0.1529594533894589 -0.42705984488626858 0 -0.14276214559192851 -0.42103252669541369 0 -0.16281726536447669 -0.44280752881987601 0 -0.13934306767720839 -0.43937136883184269 0 -0.1529594533894589 -0.42705984488626858 0 -0.1419945287735164 -0.40842209154538889 0 -0.14276214559192851 -0.42103252669541369 0 -0.15301947857494119 -0.4130298957271003 0 -0.1529594533894589 -0.42705984488626858 0 -0.14276214559192851 -0.42103252669541369 0 -0.15301947857494119 -0.4130298957271003 0 -0.15229677732162639 -0.40209392144219619 0 -0.1419945287735164 -0.40842209154538889 0 -0.15301947857494119 -0.4130298957271003 0 -0.15301947857494119 -0.4130298957271003 0 -0.16685530973873999 -0.41905790435711082 0 -0.16545208348910301 -0.40705353224412688 0 -0.15229677732162639 -0.40209392144219619 0 -0.15301947857494119 -0.4130298957271003 0 -0.16545208348910301 -0.40705353224412688 0 -0.1529594533894589 -0.42705984488626858 0 -0.15301947857494119 -0.4130298957271003 0 -0.16685530973873999 -0.41905790435711082 0 -0.16685530973873999 -0.41905790435711082 0 -0.16545208348910301 -0.40705353224412688 0 -0.1795814256002897 -0.41220705650408079 0 -0.16281726536447669 -0.44280752881987601 0 -0.16685530973873999 -0.41905790435711082 0 -0.18176410644880109 -0.42966643281235101 0 -0.16281726536447669 -0.44280752881987601 0 -0.1529594533894589 -0.42705984488626858 0 -0.16685530973873999 -0.41905790435711082 0 -0.16685530973873999 -0.41905790435711082 0 -0.18176410644880109 -0.42966643281235101 0 -0.1795814256002897 -0.41220705650408079 0 -0.18176410644880109 -0.42966643281235101 0 -0.1795814256002897 -0.41220705650408079 0 -0.19359132221067379 -0.41761365495553088 0 -0.1795814256002897 -0.41220705650408079 0 -0.17785158649900679 -0.39912342914551352 0 -0.19102902981756201 -0.39704092061519131 0 -0.17785158649900679 -0.39912342914551352 0 -0.1807604973296543 -0.3873878549767551 0 -0.19102902981756201 -0.39704092061519131 0 -0.17785158649900679 -0.39912342914551352 0 -0.1704242708007849 -0.38760858158278733 0 -0.1807604973296543 -0.3873878549767551 0 -0.16545208348910301 -0.40705353224412688 0 -0.1795814256002897 -0.41220705650408079 0 -0.17785158649900679 -0.39912342914551352 0 -0.16545208348910301 -0.40705353224412688 0 -0.17785158649900679 -0.39912342914551352 0 -0.1627141251175761 -0.3952729592493176 0 -0.17785158649900679 -0.39912342914551352 0 -0.1627141251175761 -0.3952729592493176 0 -0.1704242708007849 -0.38760858158278733 0 -0.1528808009257388 -0.3925395431432438 0 -0.1627141251175761 -0.3952729592493176 0 -0.16074132231061761 -0.38435692528301052 0 -0.15229677732162639 -0.40209392144219619 0 -0.16545208348910301 -0.40705353224412688 0 -0.1627141251175761 -0.3952729592493176 0 -0.16074132231061761 -0.38435692528301052 0 -0.16355446024595419 -0.37196251569442912 0 -0.15163534791255009 -0.37412207573276512 0 -0.16074132231061761 -0.38435692528301052 0 -0.1704242708007849 -0.38760858158278733 0 -0.17359695528497579 -0.37817529921262799 0 -0.1627141251175761 -0.3952729592493176 0 -0.16074132231061761 -0.38435692528301052 0 -0.1704242708007849 -0.38760858158278733 0 -0.16074132231061761 -0.38435692528301052 0 -0.17359695528497579 -0.37817529921262799 0 -0.16355446024595419 -0.37196251569442912 0 -0.17359695528497579 -0.37817529921262799 0 -0.1807604973296543 -0.3873878549767551 0 -0.18447513214406011 -0.37450568273202872 0 -0.1704242708007849 -0.38760858158278733 0 -0.17359695528497579 -0.37817529921262799 0 -0.1807604973296543 -0.3873878549767551 0 -0.1807604973296543 -0.3873878549767551 0 -0.1912277654513502 -0.38320556233692021 0 -0.18447513214406011 -0.37450568273202872 0 -0.19464555320477009 -0.37506989302398153 0 -0.1912277654513502 -0.38320556233692021 0 -0.18447513214406011 -0.37450568273202872 0 -0.19464555320477009 -0.37506989302398153 0 -0.19998114287803981 -0.38173394045446202 0 -0.1912277654513502 -0.38320556233692021 0 -0.19464555320477009 -0.37506989302398153 0 -0.19998114287803981 -0.38173394045446202 0 -0.20647393635643629 -0.37302208125453801 0 -0.19998114287803981 -0.38173394045446202 0 -0.1983214921236984 -0.38942547104940473 0 -0.1912277654513502 -0.38320556233692021 0 -0.19998114287803981 -0.38173394045446202 0 -0.1983214921236984 -0.38942547104940473 0 -0.207962606801573 -0.38855869883360539 0 -0.1983214921236984 -0.38942547104940473 0 -0.1912277654513502 -0.38320556233692021 0 -0.19102902981756201 -0.39704092061519131 0 -0.1807604973296543 -0.3873878549767551 0 -0.1912277654513502 -0.38320556233692021 0 -0.19102902981756201 -0.39704092061519131 0 -0.19102902981756201 -0.39704092061519131 0 -0.20318123592939211 -0.396572850277848 0 -0.20397660557472089 -0.40857775397744428 0 -0.1983214921236984 -0.38942547104940473 0 -0.19102902981756201 -0.39704092061519131 0 -0.20318123592939211 -0.396572850277848 0 -0.20318123592939211 -0.396572850277848 0 -0.21192536835218559 -0.40041810917485038 0 -0.207962606801573 -0.38855869883360539 0 -0.1983214921236984 -0.38942547104940473 0 -0.20318123592939211 -0.396572850277848 0 -0.207962606801573 -0.38855869883360539 0 -0.20318123592939211 -0.396572850277848 0 -0.21192536835218559 -0.40041810917485038 0 -0.20397660557472089 -0.40857775397744428 0 -0.21192536835218559 -0.40041810917485038 0 -0.2185030939320094 -0.39328168207092662 0 -0.22097931255920669 -0.40304127172042947 0 -0.21192536835218559 -0.40041810917485038 0 -0.2169493553162116 -0.41247639816884868 0 -0.22097931255920669 -0.40304127172042947 0 -0.21192536835218559 -0.40041810917485038 0 -0.2185030939320094 -0.39328168207092662 0 -0.207962606801573 -0.38855869883360539 0 -0.2185030939320094 -0.39328168207092662 0 -0.21397462022499211 -0.38442864463271698 0 -0.207962606801573 -0.38855869883360539 0 -0.2185030939320094 -0.39328168207092662 0 -0.21397462022499211 -0.38442864463271698 0 -0.2229588438099499 -0.38285211637179822 0 -0.22034112063694891 -0.3763367721259237 0 -0.2229588438099499 -0.38285211637179822 0 -0.20647393635643629 -0.37302208125453801 0 -0.2229588438099499 -0.38285211637179822 0 -0.20647393635643629 -0.37302208125453801 0 -0.21397462022499211 -0.38442864463271698 0 -0.2229588438099499 -0.38285211637179822 0 -0.20647393635643629 -0.37302208125453801 0 -0.21397462022499211 -0.38442864463271698 0 -0.207962606801573 -0.38855869883360539 0 -0.20647393635643629 -0.37302208125453801 0 -0.19998114287803981 -0.38173394045446202 0 -0.207962606801573 -0.38855869883360539 0 -0.20647393635643629 -0.37302208125453801 0 -0.18946835894572189 -0.44666048141401588 0 -0.18176410644880109 -0.42966643281235101 0 -0.20705265258006009 -0.4280704581286604 0 -0.18176410644880109 -0.42966643281235101 0 -0.19359132221067379 -0.41761365495553088 0 -0.20705265258006009 -0.4280704581286604 0 -0.19102902981756201 -0.39704092061519131 0 -0.19359132221067379 -0.41761365495553088 0 -0.20397660557472089 -0.40857775397744428 0 -0.19359132221067379 -0.41761365495553088 0 -0.20397660557472089 -0.40857775397744428 0 -0.20705265258006009 -0.4280704581286604 0 -0.1795814256002897 -0.41220705650408079 0 -0.19102902981756201 -0.39704092061519131 0 -0.19359132221067379 -0.41761365495553088 0 -0.20397660557472089 -0.40857775397744428 0 -0.2169493553162116 -0.41247639816884868 0 -0.20705265258006009 -0.4280704581286604 0 -0.2169493553162116 -0.41247639816884868 0 -0.20705265258006009 -0.4280704581286604 0 -0.22547596167695741 -0.42141753401861498 0 -0.21192536835218559 -0.40041810917485038 0 -0.20397660557472089 -0.40857775397744428 0 -0.2169493553162116 -0.41247639816884868 0 -0.2312412118566505 -0.43610977953590191 0 -0.22547596167695741 -0.42141753401861498 0 -0.2423800815507704 -0.42120340787766303 0 -0.20705265258006009 -0.4280704581286604 0 -0.2312412118566505 -0.43610977953590191 0 -0.22547596167695741 -0.42141753401861498 0 -0.2169493553162116 -0.41247639816884868 0 -0.23491345907683381 -0.41260638320722293 0 -0.22097931255920669 -0.40304127172042947 0 -0.2169493553162116 -0.41247639816884868 0 -0.22547596167695741 -0.42141753401861498 0 -0.23491345907683381 -0.41260638320722293 0 -0.22547596167695741 -0.42141753401861498 0 -0.2423800815507704 -0.42120340787766303 0 -0.23491345907683381 -0.41260638320722293 0 -0.25271245921269192 -0.41968127680114148 0 -0.2423800815507704 -0.42120340787766303 0 -0.247178000789949 -0.40177715179130091 0 -0.2423800815507704 -0.42120340787766303 0 -0.23491345907683381 -0.41260638320722293 0 -0.247178000789949 -0.40177715179130091 0 -0.25228283597107848 -0.43864339463243129 0 -0.2312412118566505 -0.43610977953590191 0 -0.2423800815507704 -0.42120340787766303 0 -0.25271245921269192 -0.41968127680114148 0 -0.25228283597107848 -0.43864339463243129 0 -0.2423800815507704 -0.42120340787766303 0 -0.22034112063694891 -0.3763367721259237 0 -0.2344297496621785 -0.38969227654085958 0 -0.23350495682265121 -0.37010177543659412 0 -0.2229588438099499 -0.38285211637179822 0 -0.2289361514433918 -0.39772924978951057 0 -0.2344297496621785 -0.38969227654085958 0 -0.22034112063694891 -0.3763367721259237 0 -0.2344297496621785 -0.38969227654085958 0 -0.2229588438099499 -0.38285211637179822 0 -0.2344297496621785 -0.38969227654085958 0 -0.22034112063694891 -0.3763367721259237 0 -0.2229588438099499 -0.38285211637179822 0 -0.2229588438099499 -0.38285211637179822 0 -0.2289361514433918 -0.39772924978951057 0 -0.22034112063694891 -0.3763367721259237 0 -0.2229588438099499 -0.38285211637179822 0 -0.2344297496621785 -0.38969227654085958 0 -0.2185030939320094 -0.39328168207092662 0 -0.2229588438099499 -0.38285211637179822 0 -0.2289361514433918 -0.39772924978951057 0 -0.2185030939320094 -0.39328168207092662 0 -0.22097931255920669 -0.40304127172042947 0 -0.2289361514433918 -0.39772924978951057 0 -0.23491345907683381 -0.41260638320722293 0 -0.22097931255920669 -0.40304127172042947 0 -0.2289361514433918 -0.39772924978951057 0 -0.23491345907683381 -0.41260638320722293 0 -0.2289361514433918 -0.39772924978951057 0 -0.23491345907683381 -0.41260638320722293 0 -0.2289361514433918 -0.39772924978951057 0 -0.247178000789949 -0.40177715179130091 0 -0.247178000789949 -0.40177715179130091 0 -0.2344297496621785 -0.38969227654085958 0 -0.2289361514433918 -0.39772924978951057 0 -0.247178000789949 -0.40177715179130091 0 -0.2344297496621785 -0.38969227654085958 0 -0.25781692183450111 -0.40363816761702281 0 -0.2344297496621785 -0.38969227654085958 0 -0.25781692183450111 -0.40363816761702281 0 -0.25271758358355523 -0.37892182859941531 0 -0.2344297496621785 -0.38969227654085958 0 -0.25781692183450111 -0.40363816761702281 0 -0.247178000789949 -0.40177715179130091 0 -0.2344297496621785 -0.38969227654085958 0 -0.25271758358355523 -0.37892182859941531 0 -0.2344297496621785 -0.38969227654085958 0 -0.23350495682265121 -0.37010177543659412 0 -0.25271758358355523 -0.37892182859941531 0 -0.24722259849715539 -0.37007378842482441 0 -0.23350495682265121 -0.37010177543659412 0 -0.25271758358355523 -0.37892182859941531 0 -0.23350495682265121 -0.37010177543659412 0 -0.2526032096357535 -0.36725306875829461 0 -0.24722259849715539 -0.37007378842482441 0 -0.24570584083668831 -0.36067748057225341 0 -0.24570584083668831 -0.36067748057225341 0 -0.23350495682265121 -0.37010177543659412 0 -0.2301551797325829 -0.35993802241808193 0 -0.24722259849715539 -0.37007378842482441 0 -0.24570584083668831 -0.36067748057225341 0 -0.23350495682265121 -0.37010177543659412 0 -0.23350495682265121 -0.37010177543659412 0 -0.21429233006174661 -0.36128172227377442 0 -0.23350495682265121 -0.37010177543659412 0 -0.2301551797325829 -0.35993802241808193 0 -0.21429233006174661 -0.36128172227377442 0 -0.22034112063694891 -0.3763367721259237 0 -0.23350495682265121 -0.37010177543659412 0 -0.21429233006174661 -0.36128172227377442 0 -0.2301551797325829 -0.35993802241808193 0 -0.21993197585897239 -0.35677432449744217 0 -0.21429233006174661 -0.36128172227377442 0 -0.21993197585897239 -0.35677432449744217 0 -0.22817839401450929 -0.34815873501087258 0 -0.21866784400637129 -0.34560673306263151 0 -0.2301551797325829 -0.35993802241808193 0 -0.21993197585897239 -0.35677432449744217 0 -0.22817839401450929 -0.34815873501087258 0 -0.2301551797325829 -0.35993802241808193 0 -0.22817839401450929 -0.34815873501087258 0 -0.2398887608132137 -0.35048070849865909 0 -0.22817839401450929 -0.34815873501087258 0 -0.2398887608132137 -0.35048070849865909 0 -0.2366545601212651 -0.33681424618151851 0 -0.25438146708189491 -0.34653832092238518 0 -0.2398887608132137 -0.35048070849865909 0 -0.2366545601212651 -0.33681424618151851 0 -0.24570584083668831 -0.36067748057225341 0 -0.2301551797325829 -0.35993802241808193 0 -0.2398887608132137 -0.35048070849865909 0 -0.25438146708189491 -0.34653832092238518 0 -0.24570584083668831 -0.36067748057225341 0 -0.2398887608132137 -0.35048070849865909 0 -0.25438146708189491 -0.34653832092238518 0 -0.2366545601212651 -0.33681424618151851 0 -0.24845744906554981 -0.32200891314904839 0 -0.2366545601212651 -0.33681424618151851 0 -0.24845744906554981 -0.32200891314904839 0 -0.22031683438703761 -0.32081373988153289 0 -0.24845744906554981 -0.32200891314904839 0 -0.22031683438703761 -0.32081373988153289 0 -0.2396201976988091 -0.30598341357572512 0 -0.24845744906554981 -0.32200891314904839 0 -0.22031683438703761 -0.32081373988153289 0 -0.2366545601212651 -0.33681424618151851 0 -0.22031683438703761 -0.32081373988153289 0 -0.22058604058909689 -0.33691353459005902 0 -0.22817839401450929 -0.34815873501087258 0 -0.2366545601212651 -0.33681424618151851 0 -0.22058604058909689 -0.33691353459005902 0 -0.22817839401450929 -0.34815873501087258 0 -0.22058604058909689 -0.33691353459005902 0 -0.21866784400637129 -0.34560673306263151 0 -0.22031683438703761 -0.32081373988153289 0 -0.22058604058909689 -0.33691353459005902 0 -0.21058662352335439 -0.32884012835111881 0 -0.22058604058909689 -0.33691353459005902 0 -0.20597496556290651 -0.34058033815215211 0 -0.21866784400637129 -0.34560673306263151 0 -0.21058662352335439 -0.32884012835111881 0 -0.20597496556290651 -0.34058033815215211 0 -0.19913420083598671 -0.32355411568500592 0 -0.22058604058909689 -0.33691353459005902 0 -0.21058662352335439 -0.32884012835111881 0 -0.20597496556290651 -0.34058033815215211 0 -0.22031683438703761 -0.32081373988153289 0 -0.20935239258775051 -0.32058355719159448 0 -0.2073719116046234 -0.30912624484872048 0 -0.22031683438703761 -0.32081373988153289 0 -0.21058662352335439 -0.32884012835111881 0 -0.20935239258775051 -0.32058355719159448 0 -0.21058662352335439 -0.32884012835111881 0 -0.20935239258775051 -0.32058355719159448 0 -0.19913420083598671 -0.32355411568500592 0 -0.20935239258775051 -0.32058355719159448 0 -0.19913420083598671 -0.32355411568500592 0 -0.2073719116046234 -0.30912624484872048 0 -0.19913420083598671 -0.32355411568500592 0 -0.2073719116046234 -0.30912624484872048 0 -0.1922934361090676 -0.30652789321785939 0 -0.19913420083598671 -0.32355411568500592 0 -0.19117867207415831 -0.31604086925084829 0 -0.1922934361090676 -0.30652789321785939 0 -0.19913420083598671 -0.32355411568500592 0 -0.1922934361090676 -0.30652789321785939 0 -0.19913420083598671 -0.32355411568500592 0 -0.19269547138419499 -0.32517245760748698 0 -0.19117867207415831 -0.31604086925084829 0 -0.19269547138419499 -0.32517245760748698 0 -0.19117867207415831 -0.31604086925084829 0 -0.179415977205483 -0.30976457706282229 0 -0.20597496556290651 -0.34058033815215211 0 -0.19913420083598671 -0.32355411568500592 0 -0.20597496556290651 -0.34058033815215211 0 -0.19913420083598671 -0.32355411568500592 0 -0.19269547138419499 -0.32517245760748698 0 -0.20597496556290651 -0.34058033815215211 0 -0.19424491209600089 -0.33380471696376579 0 -0.19221596126992591 -0.33901222780907098 0 -0.20597496556290651 -0.34058033815215211 0 -0.19269547138419499 -0.32517245760748698 0 -0.20597496556290651 -0.34058033815215211 0 -0.19269547138419499 -0.32517245760748698 0 -0.19424491209600089 -0.33380471696376579 0 -0.19269547138419499 -0.32517245760748698 0 -0.19424491209600089 -0.33380471696376579 0 -0.18609325016697609 -0.3304538442863531 0 -0.19424491209600089 -0.33380471696376579 0 -0.19221596126992591 -0.33901222780907098 0 -0.18609325016697609 -0.3304538442863531 0 -0.1952265583289752 -0.35252908670936189 0 -0.18998902890292249 -0.3631920461372779 0 -0.1795251684921168 -0.35650611641867469 0 -0.20597496556290651 -0.34058033815215211 0 -0.19221596126992591 -0.33901222780907098 0 -0.1952265583289752 -0.35252908670936189 0 -0.1952265583289752 -0.35252908670936189 0 -0.207783839482962 -0.36443292941764283 0 -0.18998902890292249 -0.3631920461372779 0 -0.207783839482962 -0.36443292941764283 0 -0.20647393635643629 -0.37302208125453801 0 -0.19464555320477009 -0.37506989302398153 0 -0.18998902890292249 -0.3631920461372779 0 -0.20647393635643629 -0.37302208125453801 0 -0.18998902890292249 -0.3631920461372779 0 -0.20647393635643629 -0.37302208125453801 0 -0.1952265583289752 -0.35252908670936189 0 -0.18998902890292249 -0.3631920461372779 0 -0.207783839482962 -0.36443292941764283 0 -0.19464555320477009 -0.37506989302398153 0 -0.18998902890292249 -0.3631920461372779 0 -0.18447513214406011 -0.37450568273202872 0 -0.1952265583289752 -0.35252908670936189 0 -0.207783839482962 -0.36443292941764283 0 -0.21429233006174661 -0.36128172227377442 0 -0.22034112063694891 -0.3763367721259237 0 -0.207783839482962 -0.36443292941764283 0 -0.21429233006174661 -0.36128172227377442 0 -0.22034112063694891 -0.3763367721259237 0 -0.21429233006174661 -0.36128172227377442 0 -0.22034112063694891 -0.3763367721259237 0 -0.207783839482962 -0.36443292941764283 0 -0.20647393635643629 -0.37302208125453801 0 -0.22034112063694891 -0.3763367721259237 0 -0.207783839482962 -0.36443292941764283 0 -0.20597496556290651 -0.34058033815215211 0 -0.1952265583289752 -0.35252908670936189 0 -0.21429233006174661 -0.36128172227377442 0 -0.21993197585897239 -0.35677432449744217 0 -0.20597496556290651 -0.34058033815215211 0 -0.21429233006174661 -0.36128172227377442 0 -0.21993197585897239 -0.35677432449744217 0 -0.20597496556290651 -0.34058033815215211 0 -0.21866784400637129 -0.34560673306263151 0 -0.21993197585897239 -0.35677432449744217 0 -0.20597496556290651 -0.34058033815215211 0 -0.20597496556290651 -0.34058033815215211 0 -0.21429233006174661 -0.36128172227377442 0 -0.1952265583289752 -0.35252908670936189 0 -0.21429233006174661 -0.36128172227377442 0 -0.22727717143418741 -0.25164840798112659 0 -0.2329755031229386 -0.26707496760018729 0 -0.21745517802934741 -0.27475001061663151 0 -0.22727717143418741 -0.25164840798112659 0 -0.24089276225510969 -0.2555074815248114 0 -0.2329755031229386 -0.26707496760018729 0 -0.25783009521265821 -0.25272765795920332 0 -0.24089276225510969 -0.2555074815248114 0 -0.24112191322007309 -0.24234000955789961 0 -0.25783009521265821 -0.25272765795920332 0 -0.24089276225510969 -0.2555074815248114 0 -0.24786283518622629 -0.26473533335263749 0 -0.24089276225510969 -0.2555074815248114 0 -0.24786283518622629 -0.26473533335263749 0 -0.2329755031229386 -0.26707496760018729 0 -0.24786283518622629 -0.26473533335263749 0 -0.2329755031229386 -0.26707496760018729 0 -0.24268907510016199 -0.2879419158610389 0 -0.2329755031229386 -0.26707496760018729 0 -0.24268907510016199 -0.2879419158610389 0 -0.21745517802934741 -0.27475001061663151 0 -0.24268907510016199 -0.2879419158610389 0 -0.2218076247974276 -0.29780629518095642 0 -0.21745517802934741 -0.27475001061663151 0 -0.24268907510016199 -0.2879419158610389 0 -0.21745517802934741 -0.27475001061663151 0 -0.24268907510016199 -0.2879419158610389 0 -0.2396201976988091 -0.30598341357572512 0 -0.2218076247974276 -0.29780629518095642 0 -0.22031683438703761 -0.32081373988153289 0 -0.2396201976988091 -0.30598341357572512 0 -0.2218076247974276 -0.29780629518095642 0 -0.22031683438703761 -0.32081373988153289 0 -0.2218076247974276 -0.29780629518095642 0 -0.2073719116046234 -0.30912624484872048 0 -0.2218076247974276 -0.29780629518095642 0 -0.2073719116046234 -0.30912624484872048 0 -0.20339255196458639 -0.28822244630208949 0 -0.2073719116046234 -0.30912624484872048 0 -0.19406016704936641 -0.29609322185646447 0 -0.20339255196458639 -0.28822244630208949 0 -0.19117867207415831 -0.31604086925084829 0 -0.1922934361090676 -0.30652789321785939 0 -0.179415977205483 -0.30976457706282229 0 -0.1922934361090676 -0.30652789321785939 0 -0.19406016704936641 -0.29609322185646447 0 -0.1823475885906809 -0.29682393852091082 0 -0.2073719116046234 -0.30912624484872048 0 -0.1922934361090676 -0.30652789321785939 0 -0.19406016704936641 -0.29609322185646447 0 -0.19406016704936641 -0.29609322185646447 0 -0.20339255196458639 -0.28822244630208949 0 -0.18390427495633821 -0.28301996990570139 0 -0.2218076247974276 -0.29780629518095642 0 -0.20339255196458639 -0.28822244630208949 0 -0.21745517802934741 -0.27475001061663151 0 -0.20339255196458639 -0.28822244630208949 0 -0.21745517802934741 -0.27475001061663151 0 -0.1922212809585328 -0.26155810537222413 0 -0.21745517802934741 -0.27475001061663151 0 -0.1922212809585328 -0.26155810537222413 0 -0.20339255196458639 -0.28822244630208949 0 -0.1922212809585328 -0.26155810537222413 0 -0.18390427495633821 -0.28301996990570139 0 -0.22727717143418741 -0.25164840798112659 0 -0.21745517802934741 -0.27475001061663151 0 -0.20802455160332309 -0.24704836985499651 0 -0.21745517802934741 -0.27475001061663151 0 -0.1922212809585328 -0.26155810537222413 0 -0.20802455160332309 -0.24704836985499651 0 -0.16808125878317751 -0.26496876885839848 0 -0.15089864300815159 -0.25158808846613379 0 -0.16923196282766101 -0.24040933853577029 0 -0.1922212809585328 -0.26155810537222413 0 -0.16808125878317751 -0.26496876885839848 0 -0.16923196282766101 -0.24040933853577029 0 -0.1922212809585328 -0.26155810537222413 0 -0.16808125878317751 -0.26496876885839848 0 -0.18390427495633821 -0.28301996990570139 0 -0.16808125878317751 -0.26496876885839848 0 -0.16185761429532919 -0.28939202712690631 0 -0.14429925138517549 -0.26901947719099017 0 -0.16808125878317751 -0.26496876885839848 0 -0.16185761429532919 -0.28939202712690631 0 -0.18390427495633821 -0.28301996990570139 0 -0.16185761429532919 -0.28939202712690631 0 -0.18390427495633821 -0.28301996990570139 0 -0.1823475885906809 -0.29682393852091082 0 -0.19406016704936641 -0.29609322185646447 0 -0.18390427495633821 -0.28301996990570139 0 -0.1823475885906809 -0.29682393852091082 0 -0.16185761429532919 -0.28939202712690631 0 -0.1823475885906809 -0.29682393852091082 0 -0.179415977205483 -0.30976457706282229 0 -0.1922934361090676 -0.30652789321785939 0 -0.1823475885906809 -0.29682393852091082 0 -0.179415977205483 -0.30976457706282229 0 -0.16185761429532919 -0.28939202712690631 0 -0.179415977205483 -0.30976457706282229 0 -0.16185761429532919 -0.28939202712690631 0 -0.179415977205483 -0.30976457706282229 0 -0.1564746074995583 -0.29752361178441872 0 -0.1564746074995583 -0.29752361178441872 0 -0.1686299667643463 -0.31522690301921819 0 -0.15334389116148001 -0.31282585190467882 0 -0.179415977205483 -0.30976457706282229 0 -0.1564746074995583 -0.29752361178441872 0 -0.1686299667643463 -0.31522690301921819 0 -0.179415977205483 -0.30976457706282229 0 -0.1564746074995583 -0.29752361178441872 0 -0.1564746074995583 -0.29752361178441872 0 -0.14221390853034099 -0.30452539908482712 0 -0.15334389116148001 -0.31282585190467882 0 -0.14221390853034099 -0.30452539908482712 0 -0.15334389116148001 -0.31282585190467882 0 -0.14084248766578281 -0.31700316499233372 0 -0.14221390853034099 -0.30452539908482712 0 -0.12750668858201289 -0.30944271864453993 0 -0.1335332377936336 -0.28528264650601509 0 -0.14221390853034099 -0.30452539908482712 0 -0.12750668858201289 -0.30944271864453993 0 -0.14084248766578281 -0.31700316499233372 0 -0.16185761429532919 -0.28939202712690631 0 -0.1564746074995583 -0.29752361178441872 0 -0.1335332377936336 -0.28528264650601509 0 -0.1564746074995583 -0.29752361178441872 0 -0.14221390853034099 -0.30452539908482712 0 -0.1335332377936336 -0.28528264650601509 0 -0.1564746074995583 -0.29752361178441872 0 -0.1335332377936336 -0.28528264650601509 0 -0.16185761429532919 -0.28939202712690631 0 -0.1335332377936336 -0.28528264650601509 0 -0.14429925138517549 -0.26901947719099017 0 -0.16185761429532919 -0.28939202712690631 0 -0.14429925138517549 -0.26901947719099017 0 -0.1335332377936336 -0.28528264650601509 0 -0.14429925138517549 -0.26901947719099017 0 -0.1243446621295385 -0.26485595411453711 0 -0.14429925138517549 -0.26901947719099017 0 -0.1243446621295385 -0.26485595411453711 0 -0.1267408884750218 -0.24864692725507401 0 -0.14429925138517549 -0.26901947719099017 0 -0.1267408884750218 -0.24864692725507401 0 -0.14429925138517549 -0.26901947719099017 0 -0.15089864300815159 -0.25158808846613379 0 -0.1267408884750218 -0.24864692725507401 0 -0.16808125878317751 -0.26496876885839848 0 -0.14429925138517549 -0.26901947719099017 0 -0.15089864300815159 -0.25158808846613379 0 -0.169109491484395 -0.35008480577060708 0 -0.17880480895581979 -0.34499025798488592 0 -0.16238305958266469 -0.33745142926040972 0 -0.169109491484395 -0.35008480577060708 0 -0.1659787291365353 -0.36040512386067541 0 -0.1795251684921168 -0.35650611641867469 0 -0.169109491484395 -0.35008480577060708 0 -0.15885569125483809 -0.35107110132838959 0 -0.1659787291365353 -0.36040512386067541 0 -0.169109491484395 -0.35008480577060708 0 -0.15885569125483809 -0.35107110132838959 0 -0.16238305958266469 -0.33745142926040972 0 -0.15885569125483809 -0.35107110132838959 0 -0.1659787291365353 -0.36040512386067541 0 -0.154987362093335 -0.36262283321095939 0 -0.16355446024595419 -0.37196251569442912 0 -0.1659787291365353 -0.36040512386067541 0 -0.154987362093335 -0.36262283321095939 0 -0.16355446024595419 -0.37196251569442912 0 -0.15163534791255009 -0.37412207573276512 0 -0.154987362093335 -0.36262283321095939 0 -0.17359695528497579 -0.37817529921262799 0 -0.16355446024595419 -0.37196251569442912 0 -0.1768271864736333 -0.36694241726308391 0 -0.16355446024595419 -0.37196251569442912 0 -0.1659787291365353 -0.36040512386067541 0 -0.1768271864736333 -0.36694241726308391 0 -0.1659787291365353 -0.36040512386067541 0 -0.1768271864736333 -0.36694241726308391 0 -0.1795251684921168 -0.35650611641867469 0 -0.17359695528497579 -0.37817529921262799 0 -0.1768271864736333 -0.36694241726308391 0 -0.18447513214406011 -0.37450568273202872 0 -0.18998902890292249 -0.3631920461372779 0 -0.1768271864736333 -0.36694241726308391 0 -0.18447513214406011 -0.37450568273202872 0 -0.18998902890292249 -0.3631920461372779 0 -0.1768271864736333 -0.36694241726308391 0 -0.1795251684921168 -0.35650611641867469 0 -0.1952265583289752 -0.35252908670936189 0 -0.17880480895581979 -0.34499025798488592 0 -0.1952265583289752 -0.35252908670936189 0 -0.1795251684921168 -0.35650611641867469 0 -0.17880480895581979 -0.34499025798488592 0 -0.169109491484395 -0.35008480577060708 0 -0.1795251684921168 -0.35650611641867469 0 -0.17880480895581979 -0.34499025798488592 0 -0.1952265583289752 -0.35252908670936189 0 -0.17428522474522759 -0.33267746930702019 0 -0.19221596126992591 -0.33901222780907098 0 -0.1952265583289752 -0.35252908670936189 0 -0.17428522474522759 -0.33267746930702019 0 -0.1952265583289752 -0.35252908670936189 0 -0.17880480895581979 -0.34499025798488592 0 -0.17428522474522759 -0.33267746930702019 0 -0.19221596126992591 -0.33901222780907098 0 -0.18609325016697609 -0.3304538442863531 0 -0.17428522474522759 -0.33267746930702019 0 -0.18609325016697609 -0.3304538442863531 0 -0.17428522474522759 -0.33267746930702019 0 -0.17963013320998261 -0.32334300503715069 0 -0.17428522474522759 -0.33267746930702019 0 -0.17963013320998261 -0.32334300503715069 0 -0.1686299667643463 -0.31522690301921819 0 -0.19117867207415831 -0.31604086925084829 0 -0.179415977205483 -0.30976457706282229 0 -0.19269547138419499 -0.32517245760748698 0 -0.179415977205483 -0.30976457706282229 0 -0.19269547138419499 -0.32517245760748698 0 -0.179415977205483 -0.30976457706282229 0 -0.17963013320998261 -0.32334300503715069 0 -0.19269547138419499 -0.32517245760748698 0 -0.18609325016697609 -0.3304538442863531 0 -0.17963013320998261 -0.32334300503715069 0 -0.179415977205483 -0.30976457706282229 0 -0.17963013320998261 -0.32334300503715069 0 -0.1686299667643463 -0.31522690301921819 0 -0.17428522474522759 -0.33267746930702019 0 -0.16238305958266469 -0.33745142926040972 0 -0.15334389116148001 -0.31282585190467882 0 -0.17428522474522759 -0.33267746930702019 0 -0.1686299667643463 -0.31522690301921819 0 -0.15334389116148001 -0.31282585190467882 0 -0.17428522474522759 -0.33267746930702019 0 -0.15334389116148001 -0.31282585190467882 0 -0.17880480895581979 -0.34499025798488592 0 -0.17428522474522759 -0.33267746930702019 0 -0.16238305958266469 -0.33745142926040972 0 -0.17880480895581979 -0.34499025798488592 0 -0.16238305958266469 -0.33745142926040972 0 -0.15885569125483809 -0.35107110132838959 0 -0.16238305958266469 -0.33745142926040972 0 -0.1476067216011786 -0.34182177387758361 0 -0.16238305958266469 -0.33745142926040972 0 -0.1476067216011786 -0.34182177387758361 0 -0.14807800573805899 -0.32794422169137771 0 -0.1476067216011786 -0.34182177387758361 0 -0.14807800573805899 -0.32794422169137771 0 -0.1330699443170211 -0.33027763363624463 0 -0.16238305958266469 -0.33745142926040972 0 -0.15334389116148001 -0.31282585190467882 0 -0.14807800573805899 -0.32794422169137771 0 -0.14807800573805899 -0.32794422169137771 0 -0.14084248766578281 -0.31700316499233372 0 -0.1330699443170211 -0.33027763363624463 0 -0.15334389116148001 -0.31282585190467882 0 -0.14807800573805899 -0.32794422169137771 0 -0.14084248766578281 -0.31700316499233372 0 -0.12750668858201289 -0.30944271864453993 0 -0.14084248766578281 -0.31700316499233372 0 -0.1330699443170211 -0.33027763363624463 0 -0.1330699443170211 -0.33027763363624463 0 -0.13482954621261861 -0.35064652894068732 0 -0.12136134001927271 -0.34157434864789821 0 -0.1476067216011786 -0.34182177387758361 0 -0.1330699443170211 -0.33027763363624463 0 -0.13482954621261861 -0.35064652894068732 0 -0.13482954621261861 -0.35064652894068732 0 -0.1203308220980519 -0.35934921165445349 0 -0.12136134001927271 -0.34157434864789821 0 -0.13482954621261861 -0.35064652894068732 0 -0.12961860898328631 -0.36343728010554333 0 -0.1203308220980519 -0.35934921165445349 0 -0.1476067216011786 -0.34182177387758361 0 -0.13482954621261861 -0.35064652894068732 0 -0.1484240825018702 -0.35353972840839287 0 -0.13482954621261861 -0.35064652894068732 0 -0.1484240825018702 -0.35353972840839287 0 -0.14147586150826241 -0.36463645424110458 0 -0.15885569125483809 -0.35107110132838959 0 -0.1484240825018702 -0.35353972840839287 0 -0.154987362093335 -0.36262283321095939 0 -0.15885569125483809 -0.35107110132838959 0 -0.1476067216011786 -0.34182177387758361 0 -0.1484240825018702 -0.35353972840839287 0 -0.15163534791255009 -0.37412207573276512 0 -0.154987362093335 -0.36262283321095939 0 -0.14147586150826241 -0.36463645424110458 0 -0.1484240825018702 -0.35353972840839287 0 -0.154987362093335 -0.36262283321095939 0 -0.14147586150826241 -0.36463645424110458 0 -0.14065417162953631 -0.37824453973008382 0 -0.15163534791255009 -0.37412207573276512 0 -0.14147586150826241 -0.36463645424110458 0 -0.14065417162953631 -0.37824453973008382 0 -0.14147586150826241 -0.36463645424110458 0 -0.13055655910924369 -0.37377856541919668 0 -0.14147586150826241 -0.36463645424110458 0 -0.12961860898328631 -0.36343728010554333 0 -0.13055655910924369 -0.37377856541919668 0 -0.13482954621261861 -0.35064652894068732 0 -0.14147586150826241 -0.36463645424110458 0 -0.12961860898328631 -0.36343728010554333 0 -0.12961860898328631 -0.36343728010554333 0 -0.13055655910924369 -0.37377856541919668 0 -0.1218268090033743 -0.37021323799896699 0 -0.1105548752874919 -0.35141906583052429 0 -0.114483460334677 -0.37824597999931298 0 -0.1129479076189079 -0.37362853431528908 0 -0.1105548752874919 -0.35141906583052429 0 -0.114483460334677 -0.37824597999931298 0 -0.13055655910924369 -0.37377856541919668 0 -0.1218268090033743 -0.37021323799896699 0 -0.1217151804778151 -0.37674412535991741 0 -0.1218268090033743 -0.37021323799896699 0 -0.1203308220980519 -0.35934921165445349 0 -0.114483460334677 -0.37824597999931298 0 -0.1105548752874919 -0.35141906583052429 0 -0.1203308220980519 -0.35934921165445349 0 -0.114483460334677 -0.37824597999931298 0 -0.12961860898328631 -0.36343728010554333 0 -0.1218268090033743 -0.37021323799896699 0 -0.1203308220980519 -0.35934921165445349 0 -0.1129479076189079 -0.37362853431528908 0 -0.093958447005538501 -0.35359084250050932 0 -0.1105548752874919 -0.35141906583052429 0 -0.1129479076189079 -0.37362853431528908 0 -0.097429051146106976 -0.37187325518225972 0 -0.1074287842802388 -0.37802799445307878 0 -0.1129479076189079 -0.37362853431528908 0 -0.093958447005538501 -0.35359084250050932 0 -0.1129479076189079 -0.37362853431528908 0 -0.097429051146106976 -0.37187325518225972 0 -0.093958447005538501 -0.35359084250050932 0 -0.093958447005538501 -0.35359084250050932 0 -0.1105548752874919 -0.35141906583052429 0 -0.093331711267881062 -0.3358271418563753 0 -0.1105548752874919 -0.35141906583052429 0 -0.1203308220980519 -0.35934921165445349 0 -0.12136134001927271 -0.34157434864789821 0 -0.1105548752874919 -0.35141906583052429 0 -0.12136134001927271 -0.34157434864789821 0 -0.1066262902403067 -0.32459215166173561 0 -0.1330699443170211 -0.33027763363624463 0 -0.12136134001927271 -0.34157434864789821 0 -0.1066262902403067 -0.32459215166173561 0 -0.12750668858201289 -0.30944271864453993 0 -0.1330699443170211 -0.33027763363624463 0 -0.1066262902403067 -0.32459215166173561 0 -0.1066262902403067 -0.32459215166173561 0 -0.093331711267881062 -0.3358271418563753 0 -0.084094128892510153 -0.31391410604972497 0 -0.1105548752874919 -0.35141906583052429 0 -0.1066262902403067 -0.32459215166173561 0 -0.1105548752874919 -0.35141906583052429 0 -0.1066262902403067 -0.32459215166173561 0 -0.093331711267881062 -0.3358271418563753 0 -0.093958447005538501 -0.35359084250050932 0 -0.074968986392169173 -0.33355315068572972 0 -0.093958447005538501 -0.35359084250050932 0 -0.093331711267881062 -0.3358271418563753 0 -0.074968986392169173 -0.33355315068572972 0 -0.093331711267881062 -0.3358271418563753 0 -0.084094128892510153 -0.31391410604972497 0 -0.074968986392169173 -0.33355315068572972 0 -0.084094128892510153 -0.31391410604972497 0 -0.074968986392169173 -0.33355315068572972 0 -0.055979525778799853 -0.31351545887095 0 -0.074968986392169173 -0.33355315068572972 0 -0.062476144348494633 -0.33593585717468571 0 -0.055979525778799853 -0.31351545887095 0 -0.074968986392169173 -0.33355315068572972 0 -0.055979525778799853 -0.31351545887095 0 -0.074968986392169173 -0.33355315068572972 0 -0.075858373440848795 -0.34530730842417628 0 -0.062476144348494633 -0.33593585717468571 0 -0.075858373440848795 -0.34530730842417628 0 -0.070017225244820402 -0.35981675851510042 0 -0.058383012832114459 -0.350804932222536 0 -0.075858373440848795 -0.34530730842417628 0 -0.058383012832114459 -0.350804932222536 0 -0.062476144348494633 -0.33593585717468571 0 -0.075858373440848795 -0.34530730842417628 0 -0.070017225244820402 -0.35981675851510042 0 -0.082505246918032016 -0.36664339502728083 0 -0.070017225244820402 -0.35981675851510042 0 -0.055639851159783628 -0.37316315398333649 0 -0.070503536618047827 -0.37992831710952618 0 -0.070017225244820402 -0.35981675851510042 0 -0.082505246918032016 -0.36664339502728083 0 -0.070503536618047827 -0.37992831710952618 0 -0.097429051146106976 -0.37187325518225972 0 -0.093958447005538501 -0.35359084250050932 0 -0.082505246918032016 -0.36664339502728083 0 -0.093958447005538501 -0.35359084250050932 0 -0.075858373440848795 -0.34530730842417628 0 -0.082505246918032016 -0.36664339502728083 0 -0.093958447005538501 -0.35359084250050932 0 -0.074968986392169173 -0.33355315068572972 0 -0.075858373440848795 -0.34530730842417628 0 -0.075858373440848795 -0.34530730842417628 0 -0.082505246918032016 -0.36664339502728083 0 -0.11059186808770891 -0.27304168122761152 0 -0.087650498381783043 -0.26080071594921023 0 -0.10655806490615249 -0.2482890383929946 0 -0.1243446621295385 -0.26485595411453711 0 -0.10655806490615249 -0.2482890383929946 0 -0.1267408884750218 -0.24864692725507401 0 -0.1243446621295385 -0.26485595411453711 0 -0.11059186808770891 -0.27304168122761152 0 -0.10655806490615249 -0.2482890383929946 0 -0.1335332377936336 -0.28528264650601509 0 -0.11059186808770891 -0.27304168122761152 0 -0.1335332377936336 -0.28528264650601509 0 -0.1243446621295385 -0.26485595411453711 0 -0.11059186808770891 -0.27304168122761152 0 -0.11059186808770891 -0.27304168122761152 0 -0.092638692276583112 -0.27282549081661778 0 -0.087650498381783043 -0.26080071594921023 0 -0.11059186808770891 -0.27304168122761152 0 -0.094011296238195305 -0.28230788204909357 0 -0.092638692276583112 -0.27282549081661778 0 -0.11059186808770891 -0.27304168122761152 0 -0.087650498381783043 -0.26080071594921023 0 -0.11059186808770891 -0.27304168122761152 0 -0.094011296238195305 -0.28230788204909357 0 -0.10628801813651691 -0.29804896357838628 0 -0.094011296238195305 -0.28230788204909357 0 -0.10628801813651691 -0.29804896357838628 0 -0.08563627750922187 -0.29521631645648277 0 -0.1335332377936336 -0.28528264650601509 0 -0.11059186808770891 -0.27304168122761152 0 -0.10628801813651691 -0.29804896357838628 0 -0.12750668858201289 -0.30944271864453993 0 -0.1335332377936336 -0.28528264650601509 0 -0.10628801813651691 -0.29804896357838628 0 -0.12750668858201289 -0.30944271864453993 0 -0.1066262902403067 -0.32459215166173561 0 -0.10628801813651691 -0.29804896357838628 0 -0.1066262902403067 -0.32459215166173561 0 -0.084094128892510153 -0.31391410604972497 0 -0.10628801813651691 -0.29804896357838628 0 -0.084094128892510153 -0.31391410604972497 0 -0.10628801813651691 -0.29804896357838628 0 -0.08563627750922187 -0.29521631645648277 0 -0.084094128892510153 -0.31391410604972497 0 -0.067036410141418409 -0.29533188650951542 0 -0.08563627750922187 -0.29521631645648277 0 -0.084094128892510153 -0.31391410604972497 0 -0.067036410141418409 -0.29533188650951542 0 -0.055979525778799853 -0.31351545887095 0 -0.067036410141418409 -0.29533188650951542 0 -0.078389390862960845 -0.27397640859733191 0 -0.058080822699503612 -0.27615796177922147 0 -0.067036410141418409 -0.29533188650951542 0 -0.08563627750922187 -0.29521631645648277 0 -0.078389390862960845 -0.27397640859733191 0 -0.094011296238195305 -0.28230788204909357 0 -0.08563627750922187 -0.29521631645648277 0 -0.078389390862960845 -0.27397640859733191 0 -0.094011296238195305 -0.28230788204909357 0 -0.092638692276583112 -0.27282549081661778 0 -0.078389390862960845 -0.27397640859733191 0 -0.092638692276583112 -0.27282549081661778 0 -0.078389390862960845 -0.27397640859733191 0 -0.087650498381783043 -0.26080071594921023 0 -0.078389390862960845 -0.27397640859733191 0 -0.058080822699503612 -0.27615796177922147 0 -0.061442194483430301 -0.24681659285028279 0 -0.078389390862960845 -0.27397640859733191 0 -0.087650498381783043 -0.26080071594921023 0 -0.061442194483430301 -0.24681659285028279 0 -0.087650498381783043 -0.26080071594921023 0 -0.061442194483430301 -0.24681659285028279 0 -0.038617516887092758 -0.27105810602391273 0 -0.02770244935630229 -0.25243561600558417 0 -0.061442194483430301 -0.24681659285028279 0 -0.058080822699503612 -0.27615796177922147 0 -0.038617516887092758 -0.27105810602391273 0 -0.061442194483430301 -0.24681659285028279 0 -0.058080822699503612 -0.27615796177922147 0 -0.038617516887092758 -0.27105810602391273 0 -0.04699822228547379 -0.29164431238491728 0 -0.038617516887092758 -0.27105810602391273 0 -0.04699822228547379 -0.29164431238491728 0 -0.02804439874655865 -0.28855740260937818 0 -0.04699822228547379 -0.29164431238491728 0 -0.034909959457169813 -0.30787591318451729 0 -0.02804439874655865 -0.28855740260937818 0 -0.067036410141418409 -0.29533188650951542 0 -0.058080822699503612 -0.27615796177922147 0 -0.04699822228547379 -0.29164431238491728 0 -0.067036410141418409 -0.29533188650951542 0 -0.04699822228547379 -0.29164431238491728 0 -0.055979525778799853 -0.31351545887095 0 -0.04699822228547379 -0.29164431238491728 0 -0.034909959457169813 -0.30787591318451729 0 -0.055979525778799853 -0.31351545887095 0 -0.034909959457169813 -0.30787591318451729 0 -0.020334742430802449 -0.30294625283009702 0 -0.02804439874655865 -0.28855740260937818 0 -0.034909959457169813 -0.30787591318451729 0 -0.020334742430802449 -0.30294625283009702 0 -0.022027002865298479 -0.3161882954426396 0 -0.020334742430802449 -0.30294625283009702 0 -0.0078124033176774649 -0.30757296452054123 0 -0.022027002865298479 -0.3161882954426396 0 -0.0078124033176774649 -0.30757296452054123 0 -0.022027002865298479 -0.3161882954426396 0 -0.0078124033176774649 -0.30757296452054123 0 0.00036434157870466298 -0.29075930243988252 0 -0.020334742430802449 -0.30294625283009702 0 -0.0078124033176774649 -0.30757296452054123 0 -0.014218531773212509 -0.29183854848252799 0 -0.014218531773212509 -0.29183854848252799 0 -0.015265455949727721 -0.26935682001274303 0 0.00036434157870466298 -0.29075930243988252 0 -0.0078124033176774649 -0.30757296452054123 0 -0.014218531773212509 -0.29183854848252799 0 0.00036434157870466298 -0.29075930243988252 0 -0.014218531773212509 -0.29183854848252799 0 -0.02804439874655865 -0.28855740260937818 0 -0.015265455949727721 -0.26935682001274303 0 -0.020334742430802449 -0.30294625283009702 0 -0.014218531773212509 -0.29183854848252799 0 -0.02804439874655865 -0.28855740260937818 0 -0.038617516887092758 -0.27105810602391273 0 -0.02804439874655865 -0.28855740260937818 0 -0.015265455949727721 -0.26935682001274303 0 -0.015265455949727721 -0.26935682001274303 0 0.0085410864750847994 -0.27394564035922259 0 -0.015265455949727721 -0.26935682001274303 0 0.00036434157870466298 -0.29075930243988252 0 0.0085410864750847994 -0.27394564035922259 0 -0.015265455949727721 -0.26935682001274303 0 -0.00065164570226031214 -0.25758910579233463 0 0.0085410864750847994 -0.27394564035922259 0 -0.015265455949727721 -0.26935682001274303 0 -0.00065164570226031214 -0.25758910579233463 0 -0.02770244935630229 -0.25243561600558417 0 -0.00065164570226031214 -0.25758910579233463 0 -0.02770244935630229 -0.25243561600558417 0 -0.0099150700101830989 -0.24127250326565719 0 -0.038617516887092758 -0.27105810602391273 0 -0.015265455949727721 -0.26935682001274303 0 -0.02770244935630229 -0.25243561600558417 0 -0.041878852379061707 -0.35543454755093079 0 -0.031578404460559609 -0.34255667592797262 0 -0.020386984727351849 -0.35325688661851917 0 -0.041878852379061707 -0.35543454755093079 0 -0.047190823298540831 -0.33649843567003612 0 -0.031578404460559609 -0.34255667592797262 0 -0.041878852379061707 -0.35543454755093079 0 -0.039937779421456217 -0.37228685021773772 0 -0.055639851159783628 -0.37316315398333649 0 -0.039937779421456217 -0.37228685021773772 0 -0.029638672334407569 -0.36567254853757858 0 -0.028400781222601049 -0.38130695557721078 0 -0.041878852379061707 -0.35543454755093079 0 -0.039937779421456217 -0.37228685021773772 0 -0.029638672334407569 -0.36567254853757858 0 -0.041878852379061707 -0.35543454755093079 0 -0.055639851159783628 -0.37316315398333649 0 -0.058383012832114459 -0.350804932222536 0 -0.055639851159783628 -0.37316315398333649 0 -0.058383012832114459 -0.350804932222536 0 -0.070017225244820402 -0.35981675851510042 0 -0.055639851159783628 -0.37316315398333649 0 -0.058383012832114459 -0.350804932222536 0 -0.041878852379061707 -0.35543454755093079 0 -0.058383012832114459 -0.350804932222536 0 -0.047190823298540831 -0.33649843567003612 0 -0.062476144348494633 -0.33593585717468571 0 -0.047190823298540831 -0.33649843567003612 0 -0.055979525778799853 -0.31351545887095 0 -0.058383012832114459 -0.350804932222536 0 -0.062476144348494633 -0.33593585717468571 0 -0.047190823298540831 -0.33649843567003612 0 -0.047190823298540831 -0.33649843567003612 0 -0.055979525778799853 -0.31351545887095 0 -0.040875035925112983 -0.32157455856310191 0 -0.034909959457169813 -0.30787591318451729 0 -0.055979525778799853 -0.31351545887095 0 -0.040875035925112983 -0.32157455856310191 0 -0.040875035925112983 -0.32157455856310191 0 -0.036467823437343977 -0.33169058192462719 0 -0.03020209081519018 -0.32205329323083581 0 -0.034909959457169813 -0.30787591318451729 0 -0.040875035925112983 -0.32157455856310191 0 -0.03020209081519018 -0.32205329323083581 0 -0.047190823298540831 -0.33649843567003612 0 -0.040875035925112983 -0.32157455856310191 0 -0.036467823437343977 -0.33169058192462719 0 -0.047190823298540831 -0.33649843567003612 0 -0.036467823437343977 -0.33169058192462719 0 -0.031578404460559609 -0.34255667592797262 0 -0.031578404460559609 -0.34255667592797262 0 -0.025534858756527449 -0.3311299563234873 0 -0.020817171953809759 -0.34042884957216718 0 -0.036467823437343977 -0.33169058192462719 0 -0.025534858756527449 -0.3311299563234873 0 -0.03020209081519018 -0.32205329323083581 0 -0.036467823437343977 -0.33169058192462719 0 -0.031578404460559609 -0.34255667592797262 0 -0.025534858756527449 -0.3311299563234873 0 -0.025534858756527449 -0.3311299563234873 0 -0.016020565800091809 -0.3308130302253724 0 -0.020817171953809759 -0.34042884957216718 0 -0.025534858756527449 -0.3311299563234873 0 -0.016020565800091809 -0.3308130302253724 0 -0.021397864449688421 -0.32386045394664159 0 -0.034909959457169813 -0.30787591318451729 0 -0.03020209081519018 -0.32205329323083581 0 -0.022027002865298479 -0.3161882954426396 0 -0.025534858756527449 -0.3311299563234873 0 -0.03020209081519018 -0.32205329323083581 0 -0.021397864449688421 -0.32386045394664159 0 -0.03020209081519018 -0.32205329323083581 0 -0.021397864449688421 -0.32386045394664159 0 -0.022027002865298479 -0.3161882954426396 0 -0.016020565800091809 -0.3308130302253724 0 -0.021397864449688421 -0.32386045394664159 0 -0.014142907555430261 -0.32059024222733579 0 -0.021397864449688421 -0.32386045394664159 0 -0.022027002865298479 -0.3161882954426396 0 -0.014142907555430261 -0.32059024222733579 0 -0.0078124033176774649 -0.30757296452054123 0 -0.014142907555430261 -0.32059024222733579 0 0.0020744687861405792 -0.32079512352696521 0 -0.014142907555430261 -0.32059024222733579 0 -0.0061703810492957896 -0.32981534346981001 0 0.0020744687861405792 -0.32079512352696521 0 -0.0078124033176774649 -0.30757296452054123 0 -0.022027002865298479 -0.3161882954426396 0 -0.014142907555430261 -0.32059024222733579 0 -0.0078124033176774649 -0.30757296452054123 0 -0.014142907555430261 -0.32059024222733579 0 -0.016020565800091809 -0.3308130302253724 0 -0.014142907555430261 -0.32059024222733579 0 -0.0061703810492957896 -0.32981534346981001 0 -0.0099375635590608531 -0.34183095200840541 0 0.0031906702821807619 -0.35001527304150343 0 0.006585875498222476 -0.33529718492815092 0 -0.0099375635590608531 -0.34183095200840541 0 -0.0061703810492957896 -0.32981534346981001 0 0.006585875498222476 -0.33529718492815092 0 -0.016020565800091809 -0.3308130302253724 0 -0.020817171953809759 -0.34042884957216718 0 -0.0099375635590608531 -0.34183095200840541 0 -0.016020565800091809 -0.3308130302253724 0 -0.0099375635590608531 -0.34183095200840541 0 -0.0061703810492957896 -0.32981534346981001 0 -0.0099375635590608531 -0.34183095200840541 0 -0.0061825426954895584 -0.36168837893979949 0 0.0031906702821807619 -0.35001527304150343 0 -0.0099375635590608531 -0.34183095200840541 0 -0.020386984727351849 -0.35325688661851917 0 -0.0061825426954895584 -0.36168837893979949 0 -0.041878852379061707 -0.35543454755093079 0 -0.020386984727351849 -0.35325688661851917 0 -0.029638672334407569 -0.36567254853757858 0 -0.020817171953809759 -0.34042884957216718 0 -0.0099375635590608531 -0.34183095200840541 0 -0.020386984727351849 -0.35325688661851917 0 -0.031578404460559609 -0.34255667592797262 0 -0.020817171953809759 -0.34042884957216718 0 -0.020386984727351849 -0.35325688661851917 0 -0.020386984727351849 -0.35325688661851917 0 -0.029638672334407569 -0.36567254853757858 0 -0.017080235452319278 -0.37093189655323427 0 -0.029638672334407569 -0.36567254853757858 0 -0.017080235452319278 -0.37093189655323427 0 -0.028400781222601049 -0.38130695557721078 0 -0.020386984727351849 -0.35325688661851917 0 -0.017080235452319278 -0.37093189655323427 0 -0.0061825426954895584 -0.36168837893979949 0 -0.017080235452319278 -0.37093189655323427 0 -0.0061825426954895584 -0.36168837893979949 0 0.0014485558108012571 -0.37909866288597172 0 -0.017080235452319278 -0.37093189655323427 0 -0.013637545816511141 -0.38421864496291108 0 0.0014485558108012571 -0.37909866288597172 0 -0.013637545816511141 -0.38421864496291108 0 -0.0041040463118962476 -0.39375790215505552 0 0.0014485558108012571 -0.37909866288597172 0 -0.0041040463118962476 -0.39375790215505552 0 -0.008469214302148231 -0.40579245978895512 0 0.0048893420236064741 -0.40420819009576697 0 -0.0041040463118962476 -0.39375790215505552 0 -0.008469214302148231 -0.40579245978895512 0 -0.018558520144645319 -0.39528264711698718 0 -0.013637545816511141 -0.38421864496291108 0 -0.0041040463118962476 -0.39375790215505552 0 -0.018558520144645319 -0.39528264711698718 0 -0.008469214302148231 -0.40579245978895512 0 -0.018558520144645319 -0.39528264711698718 0 -0.019640470443602481 -0.40754555197089232 0 -0.018558520144645319 -0.39528264711698718 0 -0.028400781222601049 -0.38130695557721078 0 -0.035314366344520128 -0.39560175672174902 0 -0.018558520144645319 -0.39528264711698718 0 -0.035314366344520128 -0.39560175672174902 0 -0.019640470443602481 -0.40754555197089232 0 -0.017080235452319278 -0.37093189655323427 0 -0.013637545816511141 -0.38421864496291108 0 -0.028400781222601049 -0.38130695557721078 0 -0.013637545816511141 -0.38421864496291108 0 -0.018558520144645319 -0.39528264711698718 0 -0.028400781222601049 -0.38130695557721078 0 -0.039937779421456217 -0.37228685021773772 0 -0.055639851159783628 -0.37316315398333649 0 -0.042935788937359172 -0.3839647984577631 0 -0.039937779421456217 -0.37228685021773772 0 -0.028400781222601049 -0.38130695557721078 0 -0.042935788937359172 -0.3839647984577631 0 -0.028400781222601049 -0.38130695557721078 0 -0.042935788937359172 -0.3839647984577631 0 -0.035314366344520128 -0.39560175672174902 0 -0.035314366344520128 -0.39560175672174902 0 -0.042410412568687383 -0.4077063004964967 0 -0.034659945775605043 -0.41286661873711322 0 -0.042935788937359172 -0.3839647984577631 0 -0.035314366344520128 -0.39560175672174902 0 -0.052896689487452818 -0.39552137574413698 0 -0.035314366344520128 -0.39560175672174902 0 -0.052896689487452818 -0.39552137574413698 0 -0.042410412568687383 -0.4077063004964967 0 -0.052896689487452818 -0.39552137574413698 0 -0.060065760990043127 -0.40774835127151321 0 -0.072810086502982901 -0.39644573775691749 0 -0.055639851159783628 -0.37316315398333649 0 -0.042935788937359172 -0.3839647984577631 0 -0.052896689487452818 -0.39552137574413698 0 -0.055639851159783628 -0.37316315398333649 0 -0.052896689487452818 -0.39552137574413698 0 -0.055639851159783628 -0.37316315398333649 0 -0.052896689487452818 -0.39552137574413698 0 -0.070503536618047827 -0.37992831710952618 0 -0.049542199935118048 -0.42286224378771292 0 -0.071225798399772791 -0.42637616988491328 0 -0.049542199935118048 -0.42286224378771292 0 -0.060236566146677932 -0.43366667452891661 0 -0.071225798399772791 -0.42637616988491328 0 -0.049542199935118048 -0.42286224378771292 0 -0.050153527815119538 -0.41787959750493719 0 -0.071225798399772791 -0.42637616988491328 0 -0.049542199935118048 -0.42286224378771292 0 -0.049079163352294113 -0.42663623739026341 0 -0.052547883876512443 -0.43220421611367849 0 -0.049542199935118048 -0.42286224378771292 0 -0.052547883876512443 -0.43220421611367849 0 -0.060236566146677932 -0.43366667452891661 0 -0.049542199935118048 -0.42286224378771292 0 -0.049079163352294113 -0.42663623739026341 0 -0.044680809414099971 -0.42746675204462292 0 -0.049542199935118048 -0.42286224378771292 0 -0.049079163352294113 -0.42663623739026341 0 -0.049079163352294113 -0.42663623739026341 0 -0.052547883876512443 -0.43220421611367849 0 -0.045966692838736757 -0.43269148211717612 0 -0.052547883876512443 -0.43220421611367849 0 -0.060236566146677932 -0.43366667452891661 0 -0.049783128034911119 -0.43965865874095422 0 -0.052547883876512443 -0.43220421611367849 0 -0.045966692838736757 -0.43269148211717612 0 -0.049783128034911119 -0.43965865874095422 0 -0.052896689487452818 -0.39552137574413698 0 -0.050153527815119538 -0.41787959750493719 0 -0.042410412568687383 -0.4077063004964967 0 -0.052896689487452818 -0.39552137574413698 0 -0.060065760990043127 -0.40774835127151321 0 -0.050153527815119538 -0.41787959750493719 0 -0.050153527815119538 -0.41787959750493719 0 -0.072976260843758411 -0.41359758286921322 0 -0.060065760990043127 -0.40774835127151321 0 -0.050153527815119538 -0.41787959750493719 0 -0.072976260843758411 -0.41359758286921322 0 -0.052896689487452818 -0.39552137574413698 0 -0.050153527815119538 -0.41787959750493719 0 -0.049542199935118048 -0.42286224378771292 0 -0.050153527815119538 -0.41787959750493719 0 -0.049542199935118048 -0.42286224378771292 0 -0.050153527815119538 -0.41787959750493719 0 -0.035620854570525613 -0.42060622623303212 0 -0.050153527815119538 -0.41787959750493719 0 -0.035620854570525613 -0.42060622623303212 0 -0.050153527815119538 -0.41787959750493719 0 -0.04071118518248433 -0.41476468574289449 0 -0.035620854570525613 -0.42060622623303212 0 -0.035314366344520128 -0.39560175672174902 0 -0.034659945775605043 -0.41286661873711322 0 -0.02485965531947151 -0.42262524878537422 0 -0.049542199935118048 -0.42286224378771292 0 -0.035620854570525613 -0.42060622623303212 0 -0.050153527815119538 -0.41787959750493719 0 -0.04071118518248433 -0.41476468574289449 0 -0.042410412568687383 -0.4077063004964967 0 -0.04071118518248433 -0.41476468574289449 0 -0.042410412568687383 -0.4077063004964967 0 -0.034659945775605043 -0.41286661873711322 0 -0.04071118518248433 -0.41476468574289449 0 -0.034659945775605043 -0.41286661873711322 0 -0.035620854570525613 -0.42060622623303212 0 -0.034659945775605043 -0.41286661873711322 0 -0.035620854570525613 -0.42060622623303212 0 -0.031303929261232169 -0.4199066487838039 0 -0.035620854570525613 -0.42060622623303212 0 -0.031303929261232169 -0.4199066487838039 0 -0.033013516388734898 -0.42677547471925031 0 -0.040433504050327328 -0.42562331507931539 0 -0.039310139943158372 -0.43040587861195961 0 -0.035620854570525613 -0.42060622623303212 0 -0.033013516388734898 -0.42677547471925031 0 -0.040433504050327328 -0.42562331507931539 0 -0.049542199935118048 -0.42286224378771292 0 -0.040433504050327328 -0.42562331507931539 0 -0.044680809414099971 -0.42746675204462292 0 -0.049542199935118048 -0.42286224378771292 0 -0.035620854570525613 -0.42060622623303212 0 -0.040433504050327328 -0.42562331507931539 0 -0.040433504050327328 -0.42562331507931539 0 -0.044680809414099971 -0.42746675204462292 0 -0.039310139943158372 -0.43040587861195961 0 -0.049079163352294113 -0.42663623739026341 0 -0.044680809414099971 -0.42746675204462292 0 -0.045966692838736757 -0.43269148211717612 0 -0.045966692838736757 -0.43269148211717612 0 -0.041046712537444352 -0.43695037064224229 0 -0.049783128034911119 -0.43965865874095422 0 -0.044680809414099971 -0.42746675204462292 0 -0.045966692838736757 -0.43269148211717612 0 -0.039310139943158372 -0.43040587861195961 0 -0.045966692838736757 -0.43269148211717612 0 -0.039310139943158372 -0.43040587861195961 0 -0.041046712537444352 -0.43695037064224229 0 -0.039310139943158372 -0.43040587861195961 0 -0.041046712537444352 -0.43695037064224229 0 -0.0344865498091236 -0.43408864440385608 0 -0.041046712537444352 -0.43695037064224229 0 -0.0344865498091236 -0.43408864440385608 0 -0.035181662272129592 -0.44041839998980231 0 -0.033013516388734898 -0.42677547471925031 0 -0.039310139943158372 -0.43040587861195961 0 -0.0344865498091236 -0.43408864440385608 0 -0.033013516388734898 -0.42677547471925031 0 -0.0344865498091236 -0.43408864440385608 0 -0.02910806061376113 -0.43185407948367932 0 -0.0344865498091236 -0.43408864440385608 0 -0.02910806061376113 -0.43185407948367932 0 -0.030252298046682329 -0.43831246754526038 0 -0.02910806061376113 -0.43185407948367932 0 -0.030252298046682329 -0.43831246754526038 0 -0.024918892028555521 -0.43922444161198848 0 -0.02485965531947151 -0.42262524878537422 0 -0.01266241219623152 -0.43371961722373048 0 -0.014445913899229969 -0.44954284200704858 0 -0.02485965531947151 -0.42262524878537422 0 -0.014445913899229969 -0.44954284200704858 0 -0.024918892028555521 -0.43922444161198848 0 -0.02485965531947151 -0.42262524878537422 0 -0.014445913899229969 -0.44954284200704858 0 -0.02910806061376113 -0.43185407948367932 0 -0.02485965531947151 -0.42262524878537422 0 -0.024918892028555521 -0.43922444161198848 0 -0.033013516388734898 -0.42677547471925031 0 -0.02910806061376113 -0.43185407948367932 0 -0.02485965531947151 -0.42262524878537422 0 -0.035620854570525613 -0.42060622623303212 0 -0.033013516388734898 -0.42677547471925031 0 -0.02485965531947151 -0.42262524878537422 0 -0.035314366344520128 -0.39560175672174902 0 -0.02485965531947151 -0.42262524878537422 0 -0.035314366344520128 -0.39560175672174902 0 -0.02485965531947151 -0.42262524878537422 0 -0.019640470443602481 -0.40754555197089232 0 -0.034659945775605043 -0.41286661873711322 0 -0.031303929261232169 -0.4199066487838039 0 -0.02485965531947151 -0.42262524878537422 0 -0.035620854570525613 -0.42060622623303212 0 -0.02485965531947151 -0.42262524878537422 0 -0.035620854570525613 -0.42060622623303212 0 -0.031303929261232169 -0.4199066487838039 0 -0.02485965531947151 -0.42262524878537422 0 -0.02485965531947151 -0.42262524878537422 0 -0.019640470443602481 -0.40754555197089232 0 -0.010553923124384581 -0.41644140573522798 0 -0.008469214302148231 -0.40579245978895512 0 -0.019640470443602481 -0.40754555197089232 0 -0.010553923124384581 -0.41644140573522798 0 -0.010553923124384581 -0.41644140573522798 0 0.001341861192652762 -0.41523507961119571 0 0.0007049587128220014 -0.42742169675265118 0 -0.008469214302148231 -0.40579245978895512 0 0.0048893420236064741 -0.40420819009576697 0 0.001341861192652762 -0.41523507961119571 0 -0.008469214302148231 -0.40579245978895512 0 -0.010553923124384581 -0.41644140573522798 0 0.001341861192652762 -0.41523507961119571 0 -0.02485965531947151 -0.42262524878537422 0 0.0007049587128220014 -0.42742169675265118 0 -0.02485965531947151 -0.42262524878537422 0 -0.010553923124384581 -0.41644140573522798 0 0.0007049587128220014 -0.42742169675265118 0 -0.02485965531947151 -0.42262524878537422 0 -0.01266241219623152 -0.43371961722373048 0 0.0007049587128220014 -0.42742169675265118 0 -0.01266241219623152 -0.43371961722373048 0 -0.0046569827687226676 -0.43480052184943208 0 0.0007049587128220014 -0.42742169675265118 0 -0.0046569827687226676 -0.43480052184943208 0 0.0007049587128220014 -0.42742169675265118 0 0.0036246384230930791 -0.43862311608576637 0 -0.014445913899229969 -0.44954284200704858 0 0.00092431969050615079 -0.45131483466567629 0 0.0036246384230930791 -0.43862311608576637 0 -0.01266241219623152 -0.43371961722373048 0 -0.0046569827687226676 -0.43480052184943208 0 -0.014445913899229969 -0.44954284200704858 0 -0.0046569827687226676 -0.43480052184943208 0 -0.014445913899229969 -0.44954284200704858 0 0.0036246384230930791 -0.43862311608576637 0 -0.014445913899229969 -0.44954284200704858 0 0.0036246384230930791 -0.43862311608576637 0 -0.014445913899229969 -0.44954284200704858 0 -0.0095652295488123529 -0.46215850727914631 0 0.00092431969050615079 -0.45131483466567629 0 -0.0095652295488123529 -0.46215850727914631 0 0.0003792062306327272 -0.47427243257955842 0 0.002110883457200916 -0.46882316696891002 0 -0.014445913899229969 -0.44954284200704858 0 -0.0095652295488123529 -0.46215850727914631 0 -0.014445913899229969 -0.44954284200704858 0 -0.0095652295488123529 -0.46215850727914631 0 -0.02909364146093912 -0.45839421342560971 0 -0.014445913899229969 -0.44954284200704858 0 -0.02909364146093912 -0.45839421342560971 0 -0.0095652295488123529 -0.46215850727914631 0 -0.037859755571579827 -0.46561641614347421 0 -0.0095652295488123529 -0.46215850727914631 0 -0.02909364146093912 -0.45839421342560971 0 -0.037859755571579827 -0.46561641614347421 0 -0.0095652295488123529 -0.46215850727914631 0 -0.022116765216906319 -0.47694458687320551 0 -0.037859755571579827 -0.46561641614347421 0 -0.014445913899229969 -0.44954284200704858 0 -0.03054839011102594 -0.44627932533441528 0 -0.024918892028555521 -0.43922444161198848 0 -0.014445913899229969 -0.44954284200704858 0 -0.02909364146093912 -0.45839421342560971 0 -0.03054839011102594 -0.44627932533441528 0 -0.03054839011102594 -0.44627932533441528 0 -0.030252298046682329 -0.43831246754526038 0 -0.024918892028555521 -0.43922444161198848 0 -0.0076594481425126754 -0.49999999999999878 0 -0.025339859304595608 -0.48928786472709401 0 -0.042660609885532892 -0.5 0 -0.0076594481425126754 -0.49999999999999878 0 -0.013736509841478331 -0.48775016364692558 0 -0.025339859304595608 -0.48928786472709401 0 -0.0076594481425126754 -0.49999999999999878 0 -0.013736509841478331 -0.48775016364692558 0 -0.0028820248650171972 -0.47943335383390762 0 -0.0076594481425126754 -0.49999999999999878 0 -0.0028820248650171972 -0.47943335383390762 0 0.0033233696681567401 -0.47962057600564473 0 -0.0076594481425126754 -0.49999999999999878 0 0.0033233696681567401 -0.47962057600564473 0 -0.0095652295488123529 -0.46215850727914631 0 -0.0028820248650171972 -0.47943335383390762 0 0.0003792062306327272 -0.47427243257955842 0 -0.0095652295488123529 -0.46215850727914631 0 -0.0028820248650171972 -0.47943335383390762 0 -0.01154770386572076 -0.47389714739109318 0 -0.0095652295488123529 -0.46215850727914631 0 -0.0028820248650171972 -0.47943335383390762 0 -0.013736509841478331 -0.48775016364692558 0 -0.0115904143137626 -0.48006267667893737 0 -0.0028820248650171972 -0.47943335383390762 0 -0.0115904143137626 -0.48006267667893737 0 -0.01154770386572076 -0.47389714739109318 0 -0.022116765216906319 -0.47694458687320551 0 -0.0115904143137626 -0.48006267667893737 0 -0.0028820248650171972 -0.47943335383390762 0 -0.01154770386572076 -0.47389714739109318 0 -0.0095652295488123529 -0.46215850727914631 0 -0.01154770386572076 -0.47389714739109318 0 -0.022116765216906319 -0.47694458687320551 0 -0.022116765216906319 -0.47694458687320551 0 -0.025339859304595608 -0.48928786472709401 0 -0.037545445540332088 -0.48181537907007121 0 -0.013736509841478331 -0.48775016364692558 0 -0.0115904143137626 -0.48006267667893737 0 -0.022116765216906319 -0.47694458687320551 0 -0.013736509841478331 -0.48775016364692558 0 -0.022116765216906319 -0.47694458687320551 0 -0.025339859304595608 -0.48928786472709401 0 -0.042660609885532892 -0.5 0 -0.037545445540332088 -0.48181537907007121 0 -0.056423402802653372 -0.47477610929050768 0 -0.025339859304595608 -0.48928786472709401 0 -0.042660609885532892 -0.5 0 -0.037545445540332088 -0.48181537907007121 0 -0.037545445540332088 -0.48181537907007121 0 -0.056423402802653372 -0.47477610929050768 0 -0.037859755571579827 -0.46561641614347421 0 -0.022116765216906319 -0.47694458687320551 0 -0.037545445540332088 -0.48181537907007121 0 -0.037859755571579827 -0.46561641614347421 0 -0.041344626762680421 -0.44445312999817971 0 -0.040092728607556763 -0.45376105931173838 0 -0.047640228461139633 -0.44959622946754713 0 -0.041046712537444352 -0.43695037064224229 0 -0.041344626762680421 -0.44445312999817971 0 -0.049783128034911119 -0.43965865874095422 0 -0.041344626762680421 -0.44445312999817971 0 -0.047640228461139633 -0.44959622946754713 0 -0.049783128034911119 -0.43965865874095422 0 -0.041046712537444352 -0.43695037064224229 0 -0.041344626762680421 -0.44445312999817971 0 -0.035181662272129592 -0.44041839998980231 0 -0.03054839011102594 -0.44627932533441528 0 -0.041344626762680421 -0.44445312999817971 0 -0.035181662272129592 -0.44041839998980231 0 -0.03054839011102594 -0.44627932533441528 0 -0.030252298046682329 -0.43831246754526038 0 -0.035181662272129592 -0.44041839998980231 0 -0.0344865498091236 -0.43408864440385608 0 -0.030252298046682329 -0.43831246754526038 0 -0.035181662272129592 -0.44041839998980231 0 -0.02909364146093912 -0.45839421342560971 0 -0.03054839011102594 -0.44627932533441528 0 -0.040092728607556763 -0.45376105931173838 0 -0.03054839011102594 -0.44627932533441528 0 -0.041344626762680421 -0.44445312999817971 0 -0.040092728607556763 -0.45376105931173838 0 -0.02909364146093912 -0.45839421342560971 0 -0.037859755571579827 -0.46561641614347421 0 -0.040092728607556763 -0.45376105931173838 0 -0.040092728607556763 -0.45376105931173838 0 -0.048444702576173018 -0.46068515944184307 0 -0.047640228461139633 -0.44959622946754713 0 -0.037859755571579827 -0.46561641614347421 0 -0.040092728607556763 -0.45376105931173838 0 -0.048444702576173018 -0.46068515944184307 0 -0.048444702576173018 -0.46068515944184307 0 -0.058535956324376887 -0.44942313984502008 0 -0.047640228461139633 -0.44959622946754713 0 -0.056423402802653372 -0.47477610929050768 0 -0.048444702576173018 -0.46068515944184307 0 -0.058535956324376887 -0.44942313984502008 0 -0.056423402802653372 -0.47477610929050768 0 -0.037859755571579827 -0.46561641614347421 0 -0.048444702576173018 -0.46068515944184307 0 -0.060236566146677932 -0.43366667452891661 0 -0.058535956324376887 -0.44942313984502008 0 -0.049783128034911119 -0.43965865874095422 0 -0.058535956324376887 -0.44942313984502008 0 -0.047640228461139633 -0.44959622946754713 0 -0.049783128034911119 -0.43965865874095422 0 -0.16006640168029149 -0.5 0 -0.091607318958167927 -0.5 0 -0.1142906626399478 -0.47406141934357832 0 -0.060236566146677932 -0.43366667452891661 0 -0.058535956324376887 -0.44942313984502008 0 -0.069898535996089944 -0.43630302000810861 0 -0.058535956324376887 -0.44942313984502008 0 -0.075180723101854738 -0.44515833623034928 0 -0.077346897875318885 -0.46379422169918549 0 -0.058535956324376887 -0.44942313984502008 0 -0.075180723101854738 -0.44515833623034928 0 -0.069898535996089944 -0.43630302000810861 0 -0.075180723101854738 -0.44515833623034928 0 -0.069898535996089944 -0.43630302000810861 0 -0.079434121603372682 -0.43663045452691762 0 -0.056423402802653372 -0.47477610929050768 0 -0.058535956324376887 -0.44942313984502008 0 -0.077346897875318885 -0.46379422169918549 0 -0.077346897875318885 -0.46379422169918549 0 -0.095517380772680655 -0.47385337242947828 0 -0.098824643617288002 -0.4575578486751497 0 -0.077346897875318885 -0.46379422169918549 0 -0.087956153654718899 -0.44542465052910019 0 -0.098824643617288002 -0.4575578486751497 0 -0.075180723101854738 -0.44515833623034928 0 -0.077346897875318885 -0.46379422169918549 0 -0.087956153654718899 -0.44542465052910019 0 -0.075180723101854738 -0.44515833623034928 0 -0.087956153654718899 -0.44542465052910019 0 -0.079434121603372682 -0.43663045452691762 0 -0.077346897875318885 -0.46379422169918549 0 -0.091607318958167927 -0.5 0 -0.095517380772680655 -0.47385337242947828 0 -0.056423402802653372 -0.47477610929050768 0 -0.077346897875318885 -0.46379422169918549 0 -0.091607318958167927 -0.5 0 -0.042660609885532892 -0.5 0 -0.056423402802653372 -0.47477610929050768 0 -0.091607318958167927 -0.5 0 -0.091607318958167927 -0.5 0 -0.095517380772680655 -0.47385337242947828 0 -0.1142906626399478 -0.47406141934357832 0 -0.1022604573647635 -0.44275187635910263 0 -0.098824643617288002 -0.4575578486751497 0 -0.1149357294739201 -0.45152271240300279 0 -0.087956153654718899 -0.44542465052910019 0 -0.1022604573647635 -0.44275187635910263 0 -0.092909396864427021 -0.42989009598211692 0 -0.087956153654718899 -0.44542465052910019 0 -0.1022604573647635 -0.44275187635910263 0 -0.098824643617288002 -0.4575578486751497 0 -0.1142906626399478 -0.47406141934357832 0 -0.098824643617288002 -0.4575578486751497 0 -0.1149357294739201 -0.45152271240300279 0 -0.095517380772680655 -0.47385337242947828 0 -0.1142906626399478 -0.47406141934357832 0 -0.098824643617288002 -0.4575578486751497 0 -0.136104030204481 -0.46037159047481019 0 -0.1142906626399478 -0.47406141934357832 0 -0.1149357294739201 -0.45152271240300279 0 -0.1022604573647635 -0.44275187635910263 0 -0.1149357294739201 -0.45152271240300279 0 -0.11459299532908131 -0.43340402207932049 0 -0.1261271266846456 -0.44137596955658343 0 -0.1149357294739201 -0.45152271240300279 0 -0.11459299532908131 -0.43340402207932049 0 -0.1261271266846456 -0.44137596955658343 0 -0.1219693296733185 -0.42936432714325318 0 -0.11459299532908131 -0.43340402207932049 0 -0.1219693296733185 -0.42936432714325318 0 -0.1157533622752135 -0.42271672296053192 0 -0.11459299532908131 -0.43340402207932049 0 -0.12519499092719091 -0.41675006551252441 0 -0.12772057340569809 -0.42405702470195838 0 -0.1219693296733185 -0.42936432714325318 0 -0.1157533622752135 -0.42271672296053192 0 -0.1099162638952111 -0.42451938748663359 0 -0.11459299532908131 -0.43340402207932049 0 -0.1022604573647635 -0.44275187635910263 0 -0.11459299532908131 -0.43340402207932049 0 -0.092909396864427021 -0.42989009598211692 0 -0.10127366242754419 -0.42688894356805113 0 -0.095798993872397376 -0.40931556823349002 0 -0.092909396864427021 -0.42989009598211692 0 -0.11459299532908131 -0.43340402207932049 0 -0.10127366242754419 -0.42688894356805113 0 -0.092909396864427021 -0.42989009598211692 0 -0.11459299532908131 -0.43340402207932049 0 -0.092909396864427021 -0.42989009598211692 0 -0.1099162638952111 -0.42451938748663359 0 -0.10127366242754419 -0.42688894356805113 0 -0.10471076390860511 -0.41967218938844653 0 -0.1099162638952111 -0.42451938748663359 0 -0.11459299532908131 -0.43340402207932049 0 -0.10127366242754419 -0.42688894356805113 0 -0.10127366242754419 -0.42688894356805113 0 -0.095798993872397376 -0.40931556823349002 0 -0.10471076390860511 -0.41967218938844653 0 -0.10127366242754419 -0.42688894356805113 0 -0.095798993872397376 -0.40931556823349002 0 -0.095798993872397376 -0.40931556823349002 0 -0.10471076390860511 -0.41967218938844653 0 -0.1118541354392677 -0.41796485826561158 0 -0.095798993872397376 -0.40931556823349002 0 -0.1184120453818626 -0.40507289416810172 0 -0.095798993872397376 -0.40931556823349002 0 -0.1118541354392677 -0.41796485826561158 0 -0.1184120453818626 -0.40507289416810172 0 -0.1099162638952111 -0.42451938748663359 0 -0.10471076390860511 -0.41967218938844653 0 -0.1118541354392677 -0.41796485826561158 0 -0.12519499092719091 -0.41675006551252441 0 -0.1219693296733185 -0.42936432714325318 0 -0.1184120453818626 -0.40507289416810172 0 -0.1219693296733185 -0.42936432714325318 0 -0.1184120453818626 -0.40507289416810172 0 -0.1219693296733185 -0.42936432714325318 0 -0.1157533622752135 -0.42271672296053192 0 -0.1184120453818626 -0.40507289416810172 0 -0.1157533622752135 -0.42271672296053192 0 -0.1118541354392677 -0.41796485826561158 0 -0.1184120453818626 -0.40507289416810172 0 -0.1157533622752135 -0.42271672296053192 0 -0.1099162638952111 -0.42451938748663359 0 -0.1118541354392677 -0.41796485826561158 0 -0.12596341692495849 -0.41009708764360059 0 -0.12519499092719091 -0.41675006551252441 0 -0.1184120453818626 -0.40507289416810172 0 -0.1184120453818626 -0.40507289416810172 0 -0.1216570696254355 -0.39062396624006313 0 -0.114483460334677 -0.37824597999931298 0 -0.12852121543636791 -0.40317620571829649 0 -0.1184120453818626 -0.40507289416810172 0 -0.1249410543110704 -0.3979547810014834 0 -0.12852121543636791 -0.40317620571829649 0 -0.1184120453818626 -0.40507289416810172 0 -0.12852121543636791 -0.40317620571829649 0 -0.12596341692495849 -0.41009708764360059 0 -0.1184120453818626 -0.40507289416810172 0 -0.1184120453818626 -0.40507289416810172 0 -0.10891882905112581 -0.38753995686726639 0 -0.10296092349226831 -0.39374454487093069 0 -0.1184120453818626 -0.40507289416810172 0 -0.114483460334677 -0.37824597999931298 0 -0.1184120453818626 -0.40507289416810172 0 -0.1249410543110704 -0.3979547810014834 0 -0.1216570696254355 -0.39062396624006313 0 -0.1184120453818626 -0.40507289416810172 0 -0.114483460334677 -0.37824597999931298 0 -0.10891882905112581 -0.38753995686726639 0 -0.1218268090033743 -0.37021323799896699 0 -0.1217151804778151 -0.37674412535991741 0 -0.114483460334677 -0.37824597999931298 0 -0.12567362856320921 -0.38115826521129781 0 -0.1197185790713252 -0.3818265215723804 0 -0.12360907299130899 -0.38512805355994711 0 -0.12567362856320921 -0.38115826521129781 0 -0.1217151804778151 -0.37674412535991741 0 -0.1197185790713252 -0.3818265215723804 0 -0.1217151804778151 -0.37674412535991741 0 -0.1197185790713252 -0.3818265215723804 0 -0.114483460334677 -0.37824597999931298 0 -0.1197185790713252 -0.3818265215723804 0 -0.12360907299130899 -0.38512805355994711 0 -0.1216570696254355 -0.39062396624006313 0 -0.1197185790713252 -0.3818265215723804 0 -0.1216570696254355 -0.39062396624006313 0 -0.114483460334677 -0.37824597999931298 0 -0.12738701470526601 -0.38690346121604707 0 -0.12360907299130899 -0.38512805355994711 0 -0.1216570696254355 -0.39062396624006313 0 -0.114483460334677 -0.37824597999931298 0 -0.1074287842802388 -0.37802799445307878 0 -0.10891882905112581 -0.38753995686726639 0 -0.1129479076189079 -0.37362853431528908 0 -0.114483460334677 -0.37824597999931298 0 -0.1074287842802388 -0.37802799445307878 0 -0.097429051146106976 -0.37187325518225972 0 -0.10130893176658221 -0.38260837084490767 0 -0.089152120395215237 -0.3879794816303852 0 -0.1074287842802388 -0.37802799445307878 0 -0.10891882905112581 -0.38753995686726639 0 -0.10130893176658221 -0.38260837084490767 0 -0.097429051146106976 -0.37187325518225972 0 -0.1074287842802388 -0.37802799445307878 0 -0.10130893176658221 -0.38260837084490767 0 -0.10891882905112581 -0.38753995686726639 0 -0.10130893176658221 -0.38260837084490767 0 -0.10296092349226831 -0.39374454487093069 0 -0.10130893176658221 -0.38260837084490767 0 -0.10296092349226831 -0.39374454487093069 0 -0.089152120395215237 -0.3879794816303852 0 -0.095798993872397376 -0.40931556823349002 0 -0.1184120453818626 -0.40507289416810172 0 -0.10296092349226831 -0.39374454487093069 0 -0.095798993872397376 -0.40931556823349002 0 -0.10296092349226831 -0.39374454487093069 0 -0.089152120395215237 -0.3879794816303852 0 -0.082684365403588478 -0.40183459262250149 0 -0.089152120395215237 -0.3879794816303852 0 -0.072810086502982901 -0.39644573775691749 0 -0.095798993872397376 -0.40931556823349002 0 -0.082684365403588478 -0.40183459262250149 0 -0.089152120395215237 -0.3879794816303852 0 -0.095798993872397376 -0.40931556823349002 0 -0.089152120395215237 -0.3879794816303852 0 -0.082505246918032016 -0.36664339502728083 0 -0.089152120395215237 -0.3879794816303852 0 -0.082505246918032016 -0.36664339502728083 0 -0.089152120395215237 -0.3879794816303852 0 -0.070503536618047827 -0.37992831710952618 0 -0.097429051146106976 -0.37187325518225972 0 -0.082505246918032016 -0.36664339502728083 0 -0.089152120395215237 -0.3879794816303852 0 -0.089152120395215237 -0.3879794816303852 0 -0.070503536618047827 -0.37992831710952618 0 -0.072810086502982901 -0.39644573775691749 0 -0.082684365403588478 -0.40183459262250149 0 -0.072810086502982901 -0.39644573775691749 0 -0.072976260843758411 -0.41359758286921322 0 -0.052896689487452818 -0.39552137574413698 0 -0.070503536618047827 -0.37992831710952618 0 -0.072810086502982901 -0.39644573775691749 0 -0.060065760990043127 -0.40774835127151321 0 -0.072810086502982901 -0.39644573775691749 0 -0.072976260843758411 -0.41359758286921322 0 -0.050153527815119538 -0.41787959750493719 0 -0.072976260843758411 -0.41359758286921322 0 -0.071225798399772791 -0.42637616988491328 0 -0.072976260843758411 -0.41359758286921322 0 -0.071225798399772791 -0.42637616988491328 0 -0.083164747611386369 -0.4210556917417736 0 -0.060236566146677932 -0.43366667452891661 0 -0.069898535996089944 -0.43630302000810861 0 -0.071225798399772791 -0.42637616988491328 0 -0.069898535996089944 -0.43630302000810861 0 -0.071225798399772791 -0.42637616988491328 0 -0.079434121603372682 -0.43663045452691762 0 -0.071225798399772791 -0.42637616988491328 0 -0.092909396864427021 -0.42989009598211692 0 -0.071225798399772791 -0.42637616988491328 0 -0.092909396864427021 -0.42989009598211692 0 -0.083164747611386369 -0.4210556917417736 0 -0.071225798399772791 -0.42637616988491328 0 -0.079434121603372682 -0.43663045452691762 0 -0.092909396864427021 -0.42989009598211692 0 -0.087956153654718899 -0.44542465052910019 0 -0.079434121603372682 -0.43663045452691762 0 -0.092909396864427021 -0.42989009598211692 0 -0.095798993872397376 -0.40931556823349002 0 -0.072976260843758411 -0.41359758286921322 0 -0.095798993872397376 -0.40931556823349002 0 -0.092909396864427021 -0.42989009598211692 0 -0.083164747611386369 -0.4210556917417736 0 -0.095798993872397376 -0.40931556823349002 0 -0.072976260843758411 -0.41359758286921322 0 -0.083164747611386369 -0.4210556917417736 0 -0.095798993872397376 -0.40931556823349002 0 -0.082684365403588478 -0.40183459262250149 0 -0.072976260843758411 -0.41359758286921322 0 -0.084627575327614432 -0.071281485310860232 0 -0.073281755172597926 -0.092764653357093815 0 -0.084759487620426011 -0.088794448694297187 0 -0.093514379012546181 -0.083342673144841034 0 -0.084627575327614432 -0.071281485310860232 0 -0.084759487620426011 -0.088794448694297187 0 -0.084627575327614432 -0.071281485310860232 0 -0.073281755172597926 -0.092764653357093815 0 -0.084759487620426011 -0.088794448694297187 0 -0.093514379012546181 -0.083342673144841034 0 -0.091551036302517277 -0.095440450539420088 0 -0.084627575327614432 -0.071281485310860232 0 -0.093436320872902823 -0.054602236191769307 0 -0.093514379012546181 -0.083342673144841034 0 -0.084627575327614432 -0.071281485310860232 0 -0.099029675533829215 -0.071970969165479806 0 -0.084627575327614432 -0.071281485310860232 0 -0.069575861066563729 -0.083069285290311545 0 -0.070186246006744932 -0.06644827527306317 0 -0.060510522282270163 -0.051507442424957292 0 -0.057297668593858458 -0.074095843246698503 0 -0.084627575327614432 -0.071281485310860232 0 -0.070186246006744932 -0.06644827527306317 0 -0.069575861066563729 -0.083069285290311545 0 -0.070186246006744932 -0.06644827527306317 0 -0.069575861066563729 -0.083069285290311545 0 -0.057297668593858458 -0.074095843246698503 0 -0.084627575327614432 -0.071281485310860232 0 -0.070186246006744932 -0.06644827527306317 0 -0.078919602763417862 -0.052287320092488251 0 -0.069575861066563729 -0.083069285290311545 0 -0.06295469847824714 -0.09115605759321363 0 -0.057297668593858458 -0.074095843246698503 0 -0.084627575327614432 -0.071281485310860232 0 -0.069575861066563729 -0.083069285290311545 0 -0.073281755172597926 -0.092764653357093815 0 -0.069575861066563729 -0.083069285290311545 0 -0.073281755172597926 -0.092764653357093815 0 -0.06295469847824714 -0.09115605759321363 0 -0.073281755172597926 -0.092764653357093815 0 -0.061935935017581017 -0.1142478214033272 0 -0.073281755172597926 -0.092764653357093815 0 -0.06295469847824714 -0.09115605759321363 0 -0.061935935017581017 -0.1142478214033272 0 -0.073281755172597926 -0.092764653357093815 0 -0.074661152509510539 -0.1070623384759672 0 -0.061935935017581017 -0.1142478214033272 0 -0.073281755172597926 -0.092764653357093815 0 -0.074661152509510539 -0.1070623384759672 0 -0.081593943735035632 -0.099717927788094102 0 -0.063562029795135824 -0.12139025997200439 0 -0.072992299901573049 -0.1163908283641328 0 -0.079719994455451873 -0.1265192519661926 0 -0.063562029795135824 -0.12139025997200439 0 -0.072992299901573049 -0.1163908283641328 0 -0.061935935017581017 -0.1142478214033272 0 -0.074661152509510539 -0.1070623384759672 0 -0.072992299901573049 -0.1163908283641328 0 -0.061935935017581017 -0.1142478214033272 0 -0.074661152509510539 -0.1070623384759672 0 -0.072992299901573049 -0.1163908283641328 0 -0.085082387730185963 -0.11273447000317249 0 -0.085082387730185963 -0.11273447000317249 0 -0.098913616421282213 -0.1080511224317188 0 -0.095266291953538418 -0.12504041918681369 0 -0.072992299901573049 -0.1163908283641328 0 -0.085082387730185963 -0.11273447000317249 0 -0.079719994455451873 -0.1265192519661926 0 -0.085082387730185963 -0.11273447000317249 0 -0.079719994455451873 -0.1265192519661926 0 -0.095266291953538418 -0.12504041918681369 0 -0.084759487620426011 -0.088794448694297187 0 -0.073281755172597926 -0.092764653357093815 0 -0.081593943735035632 -0.099717927788094102 0 -0.074661152509510539 -0.1070623384759672 0 -0.085082387730185963 -0.11273447000317249 0 -0.081593943735035632 -0.099717927788094102 0 -0.085082387730185963 -0.11273447000317249 0 -0.081593943735035632 -0.099717927788094102 0 -0.089569723628143111 -0.1045561362659497 0 -0.089569723628143111 -0.1045561362659497 0 -0.091551036302517277 -0.095440450539420088 0 -0.098913616421282213 -0.1080511224317188 0 -0.085082387730185963 -0.11273447000317249 0 -0.089569723628143111 -0.1045561362659497 0 -0.098913616421282213 -0.1080511224317188 0 -0.081593943735035632 -0.099717927788094102 0 -0.089569723628143111 -0.1045561362659497 0 -0.091551036302517277 -0.095440450539420088 0 -0.084759487620426011 -0.088794448694297187 0 -0.081593943735035632 -0.099717927788094102 0 -0.091551036302517277 -0.095440450539420088 0 -0.091551036302517277 -0.095440450539420088 0 -0.098913616421282213 -0.1080511224317188 0 -0.10142786943663459 -0.092061651525775751 0 -0.098913616421282213 -0.1080511224317188 0 -0.1097911090703774 -0.098308597848771814 0 -0.10142786943663459 -0.092061651525775751 0 -0.098913616421282213 -0.1080511224317188 0 -0.1158014985361667 -0.10948017701324481 0 -0.1097911090703774 -0.098308597848771814 0 -0.098913616421282213 -0.1080511224317188 0 -0.095266291953538418 -0.12504041918681369 0 -0.1125966138767521 -0.12543647078833309 0 -0.098913616421282213 -0.1080511224317188 0 -0.1158014985361667 -0.10948017701324481 0 -0.1125966138767521 -0.12543647078833309 0 -0.1158014985361667 -0.10948017701324481 0 -0.1125966138767521 -0.12543647078833309 0 -0.1267926195883918 -0.1168102518347761 0 -0.1158014985361667 -0.10948017701324481 0 -0.12784685045826491 -0.1052851109980257 0 -0.1267926195883918 -0.1168102518347761 0 -0.1125966138767521 -0.12543647078833309 0 -0.12819889191437051 -0.12870559378374119 0 -0.1267926195883918 -0.1168102518347761 0 -0.1158014985361667 -0.10948017701324481 0 -0.1097911090703774 -0.098308597848771814 0 -0.11960673975288939 -0.099758072251701302 0 -0.1158014985361667 -0.10948017701324481 0 -0.11960673975288939 -0.099758072251701302 0 -0.12784685045826491 -0.1052851109980257 0 -0.11960673975288939 -0.099758072251701302 0 -0.1231828409441334 -0.090502853074923187 0 -0.12784685045826491 -0.1052851109980257 0 -0.1097911090703774 -0.098308597848771814 0 -0.11960673975288939 -0.099758072251701302 0 -0.1231828409441334 -0.090502853074923187 0 -0.1231828409441334 -0.090502853074923187 0 -0.1197571942444613 -0.075385542509149139 0 -0.13014948843070559 -0.08042195490257438 0 -0.1231828409441334 -0.090502853074923187 0 -0.1122522111825428 -0.084605475632278646 0 -0.1197571942444613 -0.075385542509149139 0 -0.1097911090703774 -0.098308597848771814 0 -0.1231828409441334 -0.090502853074923187 0 -0.1122522111825428 -0.084605475632278646 0 -0.1097911090703774 -0.098308597848771814 0 -0.1122522111825428 -0.084605475632278646 0 -0.10142786943663459 -0.092061651525775751 0 -0.1122522111825428 -0.084605475632278646 0 -0.102359898093657 -0.080400571425330261 0 -0.10142786943663459 -0.092061651525775751 0 -0.1122522111825428 -0.084605475632278646 0 -0.102359898093657 -0.080400571425330261 0 -0.1084375914794046 -0.070450143116120981 0 -0.093514379012546181 -0.083342673144841034 0 -0.102359898093657 -0.080400571425330261 0 -0.10142786943663459 -0.092061651525775751 0 -0.093514379012546181 -0.083342673144841034 0 -0.102359898093657 -0.080400571425330261 0 -0.099029675533829215 -0.071970969165479806 0 -0.093514379012546181 -0.083342673144841034 0 -0.091551036302517277 -0.095440450539420088 0 -0.10142786943663459 -0.092061651525775751 0 -0.099029675533829215 -0.071970969165479806 0 -0.1084375914794046 -0.070450143116120981 0 -0.1062089337559239 -0.054379972830246509 0 -0.084627575327614432 -0.071281485310860232 0 -0.1062089337559239 -0.054379972830246509 0 -0.084627575327614432 -0.071281485310860232 0 -0.099029675533829215 -0.071970969165479806 0 -0.1062089337559239 -0.054379972830246509 0 -0.102359898093657 -0.080400571425330261 0 -0.099029675533829215 -0.071970969165479806 0 -0.1084375914794046 -0.070450143116120981 0 -0.1084375914794046 -0.070450143116120981 0 -0.11627642928208159 -0.063539855691743363 0 -0.1197571942444613 -0.075385542509149139 0 -0.1084375914794046 -0.070450143116120981 0 -0.11627642928208159 -0.063539855691743363 0 -0.1062089337559239 -0.054379972830246509 0 -0.1122522111825428 -0.084605475632278646 0 -0.1084375914794046 -0.070450143116120981 0 -0.1197571942444613 -0.075385542509149139 0 -0.11627642928208159 -0.063539855691743363 0 -0.1197571942444613 -0.075385542509149139 0 -0.1278464382491723 -0.067163484875903207 0 -0.11627642928208159 -0.063539855691743363 0 -0.1230621062449871 -0.055252475074138177 0 -0.1062089337559239 -0.054379972830246509 0 -0.1230621062449871 -0.055252475074138177 0 -0.1062089337559239 -0.054379972830246509 0 -0.12779029218423349 -0.037478460349633189 0 -0.11627642928208159 -0.063539855691743363 0 -0.1230621062449871 -0.055252475074138177 0 -0.1278464382491723 -0.067163484875903207 0 -0.11307553173605479 -0.035840483858992807 0 -0.1062089337559239 -0.054379972830246509 0 -0.12779029218423349 -0.037478460349633189 0 -0.1062089337559239 -0.054379972830246509 0 -0.12779029218423349 -0.037478460349633189 0 -0.11307553173605479 -0.035840483858992807 0 -0.11669945351767 -0.023670508370980281 0 -0.12779029218423349 -0.037478460349633189 0 -0.1022450664181908 -0.037922987072678188 0 -0.093436320872902823 -0.054602236191769307 0 -0.090310229215747717 -0.042610955146272111 0 -0.11307553173605479 -0.035840483858992807 0 -0.1022450664181908 -0.037922987072678188 0 -0.1062089337559239 -0.054379972830246509 0 -0.1022450664181908 -0.037922987072678188 0 -0.093436320872902823 -0.054602236191769307 0 -0.11307553173605479 -0.035840483858992807 0 -0.1022450664181908 -0.037922987072678188 0 -0.10322044017078361 -0.023075703527332719 0 -0.1022450664181908 -0.037922987072678188 0 -0.1062089337559239 -0.054379972830246509 0 -0.093436320872902823 -0.054602236191769307 0 -0.084627575327614432 -0.071281485310860232 0 -0.1062089337559239 -0.054379972830246509 0 -0.093436320872902823 -0.054602236191769307 0 -0.1206022179944108 -0.0093692107711630113 0 -0.1074584333959287 -0.00056959437903511328 0 -0.1216773418746592 0.002895350946264876 0 -0.1206022179944108 -0.0093692107711630113 0 -0.10941551550964319 -0.013017541897192781 0 -0.1074584333959287 -0.00056959437903511328 0 -0.1206022179944108 -0.0093692107711630113 0 -0.132233184108907 -0.0033595054462071069 0 -0.1216773418746592 0.002895350946264876 0 -0.1206022179944108 -0.0093692107711630113 0 -0.10941551550964319 -0.013017541897192781 0 -0.11669945351767 -0.023670508370980281 0 -0.11669945351767 -0.023670508370980281 0 -0.1293369423574354 -0.017224103438478602 0 -0.12779029218423349 -0.037478460349633189 0 -0.10941551550964319 -0.013017541897192781 0 -0.11669945351767 -0.023670508370980281 0 -0.10322044017078361 -0.023075703527332719 0 -0.1206022179944108 -0.0093692107711630113 0 -0.11669945351767 -0.023670508370980281 0 -0.1293369423574354 -0.017224103438478602 0 -0.11307553173605479 -0.035840483858992807 0 -0.11669945351767 -0.023670508370980281 0 -0.10322044017078361 -0.023075703527332719 0 -0.1022450664181908 -0.037922987072678188 0 -0.10322044017078361 -0.023075703527332719 0 -0.087820318386013618 -0.02717970908202514 0 -0.10322044017078361 -0.023075703527332719 0 -0.092268735128043941 -0.01535976324676043 0 -0.087820318386013618 -0.02717970908202514 0 -0.10941551550964319 -0.013017541897192781 0 -0.10322044017078361 -0.023075703527332719 0 -0.099098987034562505 -0.0079816838410133144 0 -0.10322044017078361 -0.023075703527332719 0 -0.099098987034562505 -0.0079816838410133144 0 -0.092268735128043941 -0.01535976324676043 0 -0.099098987034562505 -0.0079816838410133144 0 -0.091161577036279917 -0.00056137197281472533 0 -0.097007610351592638 0.0031946701451479489 0 -0.099098987034562505 -0.0079816838410133144 0 -0.1074584333959287 -0.00056959437903511328 0 -0.097007610351592638 0.0031946701451479489 0 -0.10941551550964319 -0.013017541897192781 0 -0.099098987034562505 -0.0079816838410133144 0 -0.1074584333959287 -0.00056959437903511328 0 -0.080823014929921499 -0.0049277144692325883 0 -0.076323624377389709 -0.002110515345892934 0 -0.080887431196540238 0.001475876248512083 0 -0.080823014929921499 -0.0049277144692325883 0 -0.085698831807295761 -0.00077379913826263011 0 -0.0885078942603712 -0.0070637730715723277 0 -0.080823014929921499 -0.0049277144692325883 0 -0.085698831807295761 -0.00077379913826263011 0 -0.080887431196540238 0.001475876248512083 0 -0.085698831807295761 -0.00077379913826263011 0 -0.091161577036279917 -0.00056137197281472533 0 -0.0885078942603712 -0.0070637730715723277 0 -0.099098987034562505 -0.0079816838410133144 0 -0.091161577036279917 -0.00056137197281472533 0 -0.0885078942603712 -0.0070637730715723277 0 -0.0885078942603712 -0.0070637730715723277 0 -0.092268735128043941 -0.01535976324676043 0 -0.083353808829379525 -0.013535246171211461 0 -0.099098987034562505 -0.0079816838410133144 0 -0.0885078942603712 -0.0070637730715723277 0 -0.092268735128043941 -0.01535976324676043 0 -0.080823014929921499 -0.0049277144692325883 0 -0.083353808829379525 -0.013535246171211461 0 -0.075987816039204889 -0.0092088430683976846 0 -0.083353808829379525 -0.013535246171211461 0 -0.075391911548855564 -0.019048211097635541 0 -0.075987816039204889 -0.0092088430683976846 0 -0.080823014929921499 -0.0049277144692325883 0 -0.0885078942603712 -0.0070637730715723277 0 -0.083353808829379525 -0.013535246171211461 0 -0.083353808829379525 -0.013535246171211461 0 -0.087820318386013618 -0.02717970908202514 0 -0.075391911548855564 -0.019048211097635541 0 -0.092268735128043941 -0.01535976324676043 0 -0.083353808829379525 -0.013535246171211461 0 -0.087820318386013618 -0.02717970908202514 0 -0.087820318386013618 -0.02717970908202514 0 -0.07604838965597091 -0.03004555120843665 0 -0.075391911548855564 -0.019048211097635541 0 -0.063723375970681867 -0.02891904160321605 0 -0.066936229659094348 -0.0063306407814748408 0 -0.063723375970681867 -0.02891904160321605 0 -0.075391911548855564 -0.019048211097635541 0 -0.066936229659094348 -0.0063306407814748408 0 -0.07604838965597091 -0.03004555120843665 0 -0.063723375970681867 -0.02891904160321605 0 -0.075391911548855564 -0.019048211097635541 0 -0.075391911548855564 -0.019048211097635541 0 -0.075987816039204889 -0.0092088430683976846 0 -0.066936229659094348 -0.0063306407814748408 0 -0.067632115072007892 -0.0014381246082149639 0 -0.05738571993513731 -0.0044452696602456342 0 -0.063614666328002376 0.0015794574162468599 0 -0.066936229659094348 -0.0063306407814748408 0 -0.067632115072007892 -0.0014381246082149639 0 -0.075987816039204889 -0.0092088430683976846 0 -0.066936229659094348 -0.0063306407814748408 0 -0.076323624377389709 -0.002110515345892934 0 -0.080823014929921499 -0.0049277144692325883 0 -0.075987816039204889 -0.0092088430683976846 0 -0.076323624377389709 -0.002110515345892934 0 -0.084627575327614432 -0.071281485310860232 0 -0.078919602763417862 -0.052287320092488251 0 -0.093436320872902823 -0.054602236191769307 0 -0.078919602763417862 -0.052287320092488251 0 -0.093436320872902823 -0.054602236191769307 0 -0.090310229215747717 -0.042610955146272111 0 -0.087820318386013618 -0.02717970908202514 0 -0.090310229215747717 -0.042610955146272111 0 -0.081195337122909328 -0.038433920335344908 0 -0.1022450664181908 -0.037922987072678188 0 -0.087820318386013618 -0.02717970908202514 0 -0.090310229215747717 -0.042610955146272111 0 -0.087820318386013618 -0.02717970908202514 0 -0.07604838965597091 -0.03004555120843665 0 -0.081195337122909328 -0.038433920335344908 0 -0.078919602763417862 -0.052287320092488251 0 -0.090310229215747717 -0.042610955146272111 0 -0.081195337122909328 -0.038433920335344908 0 -0.063723375970681867 -0.02891904160321605 0 -0.07207944555905002 -0.040238655132888643 0 -0.060510522282270163 -0.051507442424957292 0 -0.078919602763417862 -0.052287320092488251 0 -0.081195337122909328 -0.038433920335344908 0 -0.07207944555905002 -0.040238655132888643 0 -0.07604838965597091 -0.03004555120843665 0 -0.081195337122909328 -0.038433920335344908 0 -0.07207944555905002 -0.040238655132888643 0 -0.07604838965597091 -0.03004555120843665 0 -0.063723375970681867 -0.02891904160321605 0 -0.07207944555905002 -0.040238655132888643 0 -0.070186246006744932 -0.06644827527306317 0 -0.078919602763417862 -0.052287320092488251 0 -0.060510522282270163 -0.051507442424957292 0 -0.078919602763417862 -0.052287320092488251 0 -0.07207944555905002 -0.040238655132888643 0 -0.060510522282270163 -0.051507442424957292 0 -0.060510522282270163 -0.051507442424957292 0 -0.040378228168558232 -0.055359881679408557 0 -0.047816989437358827 -0.064979180419605168 0 -0.060510522282270163 -0.051507442424957292 0 -0.046401957520009467 -0.043340457861576469 0 -0.040378228168558232 -0.055359881679408557 0 -0.063723375970681867 -0.02891904160321605 0 -0.060510522282270163 -0.051507442424957292 0 -0.054668538535158753 -0.037559838984983093 0 -0.046401957520009467 -0.043340457861576469 0 -0.048038298367673461 -0.026472414050182559 0 -0.063723375970681867 -0.02891904160321605 0 -0.060510522282270163 -0.051507442424957292 0 -0.054668538535158753 -0.037559838984983093 0 -0.060510522282270163 -0.051507442424957292 0 -0.054668538535158753 -0.037559838984983093 0 -0.046401957520009467 -0.043340457861576469 0 -0.036202001685112097 -0.036515229605440618 0 -0.048038298367673461 -0.026472414050182559 0 -0.029140367076251911 -0.04661418731888959 0 -0.046401957520009467 -0.043340457861576469 0 -0.048038298367673461 -0.026472414050182559 0 -0.029140367076251911 -0.04661418731888959 0 -0.048038298367673461 -0.026472414050182559 0 -0.029140367076251911 -0.04661418731888959 0 -0.040378228168558232 -0.055359881679408557 0 -0.026868985050395242 -0.061487160099481408 0 -0.029140367076251911 -0.04661418731888959 0 -0.046401957520009467 -0.043340457861576469 0 -0.040378228168558232 -0.055359881679408557 0 -0.029140367076251911 -0.04661418731888959 0 -0.040378228168558232 -0.055359881679408557 0 -0.026868985050395242 -0.061487160099481408 0 -0.033481509900261532 -0.067546806868497997 0 -0.066936229659094348 -0.0063306407814748408 0 -0.067632115072007892 -0.0014381246082149639 0 -0.051917058378560782 -0.018976677106828502 0 -0.067632115072007892 -0.0014381246082149639 0 -0.05738571993513731 -0.0044452696602456342 0 -0.051917058378560782 -0.018976677106828502 0 -0.067632115072007892 -0.0014381246082149639 0 -0.051917058378560782 -0.018976677106828502 0 -0.052719705516032667 -0.0018085943883306679 0 -0.050231701488614999 -0.0084913867256013204 0 -0.042510259902712191 -0.0037351084679795418 0 -0.052719705516032667 -0.0018085943883306679 0 -0.05738571993513731 -0.0044452696602456342 0 -0.050231701488614999 -0.0084913867256013204 0 -0.052719705516032667 -0.0018085943883306679 0 -0.05738571993513731 -0.0044452696602456342 0 -0.058199072827605169 0.0024637074512547791 0 -0.05738571993513731 -0.0044452696602456342 0 -0.063614666328002376 0.0015794574162468599 0 -0.058199072827605169 0.0024637074512547791 0 -0.050231701488614999 -0.0084913867256013204 0 -0.051917058378560782 -0.018976677106828502 0 -0.043201030740620497 -0.01334042344917147 0 -0.05738571993513731 -0.0044452696602456342 0 -0.050231701488614999 -0.0084913867256013204 0 -0.051917058378560782 -0.018976677106828502 0 -0.063723375970681867 -0.02891904160321605 0 -0.054668538535158753 -0.037559838984983093 0 -0.048038298367673461 -0.026472414050182559 0 -0.066936229659094348 -0.0063306407814748408 0 -0.048038298367673461 -0.026472414050182559 0 -0.063723375970681867 -0.02891904160321605 0 -0.066936229659094348 -0.0063306407814748408 0 -0.048038298367673461 -0.026472414050182559 0 -0.066936229659094348 -0.0063306407814748408 0 -0.048038298367673461 -0.026472414050182559 0 -0.051917058378560782 -0.018976677106828502 0 -0.036202001685112097 -0.036515229605440618 0 -0.048038298367673461 -0.026472414050182559 0 -0.051917058378560782 -0.018976677106828502 0 -0.036202001685112097 -0.036515229605440618 0 -0.051917058378560782 -0.018976677106828502 0 -0.036202001685112097 -0.036515229605440618 0 -0.051917058378560782 -0.018976677106828502 0 -0.037367958105840898 -0.020946558747289849 0 -0.036202001685112097 -0.036515229605440618 0 -0.037367958105840898 -0.020946558747289849 0 -0.030277159291977409 -0.028399999358576861 0 -0.037367958105840898 -0.020946558747289849 0 -0.028083074727242269 -0.016448045019578628 0 -0.030277159291977409 -0.028399999358576861 0 -0.037367958105840898 -0.020946558747289849 0 -0.03433850281759103 -0.01058564292528145 0 -0.028083074727242269 -0.016448045019578628 0 -0.051917058378560782 -0.018976677106828502 0 -0.037367958105840898 -0.020946558747289849 0 -0.043201030740620497 -0.01334042344917147 0 -0.043201030740620497 -0.01334042344917147 0 -0.03433850281759103 -0.01058564292528145 0 -0.042510259902712191 -0.0037351084679795418 0 -0.050231701488614999 -0.0084913867256013204 0 -0.043201030740620497 -0.01334042344917147 0 -0.042510259902712191 -0.0037351084679795418 0 -0.037367958105840898 -0.020946558747289849 0 -0.043201030740620497 -0.01334042344917147 0 -0.03433850281759103 -0.01058564292528145 0 -0.03433850281759103 -0.01058564292528145 0 -0.042510259902712191 -0.0037351084679795418 0 -0.030051620778404758 -0.00065097970718036439 0 -0.01736386503777898 -0.0036560690413767459 0 -0.023628127233140089 -0.0019647398242849771 0 -0.02227995046565107 0.0048408316119060314 0 -0.01736386503777898 -0.0036560690413767459 0 -0.023628127233140089 -0.0019647398242849771 0 -0.024817072650725549 -0.008392742160488827 0 -0.03433850281759103 -0.01058564292528145 0 -0.030051620778404758 -0.00065097970718036439 0 -0.024817072650725549 -0.008392742160488827 0 -0.023628127233140089 -0.0019647398242849771 0 -0.030051620778404758 -0.00065097970718036439 0 -0.024817072650725549 -0.008392742160488827 0 -0.03433850281759103 -0.01058564292528145 0 -0.024817072650725549 -0.008392742160488827 0 -0.028083074727242269 -0.016448045019578628 0 -0.024817072650725549 -0.008392742160488827 0 -0.016077385088766358 -0.01455781814053541 0 -0.028083074727242269 -0.016448045019578628 0 -0.01736386503777898 -0.0036560690413767459 0 -0.024817072650725549 -0.008392742160488827 0 -0.016077385088766358 -0.01455781814053541 0 -0.016077385088766358 -0.01455781814053541 0 -0.022753698323215641 -0.023028105357747849 0 -0.028083074727242269 -0.016448045019578628 0 -0.016077385088766358 -0.01455781814053541 0 -0.022753698323215641 -0.023028105357747849 0 -0.01464039846587295 -0.02502580970691724 0 -0.022753698323215641 -0.023028105357747849 0 -0.028083074727242269 -0.016448045019578628 0 -0.030277159291977409 -0.028399999358576861 0 -0.022753698323215641 -0.023028105357747849 0 -0.030277159291977409 -0.028399999358576861 0 -0.021684597968720281 -0.029921797398485672 0 -0.022753698323215641 -0.023028105357747849 0 -0.021684597968720281 -0.029921797398485672 0 -0.01464039846587295 -0.02502580970691724 0 -0.021684597968720281 -0.029921797398485672 0 -0.01464039846587295 -0.02502580970691724 0 -0.01440999065721821 -0.033653490898519503 0 -0.01464039846587295 -0.02502580970691724 0 -0.0060313042623329916 -0.02974528241347664 0 -0.0064067127451799986 -0.020589233330411998 0 -0.01464039846587295 -0.02502580970691724 0 -0.0060313042623329916 -0.02974528241347664 0 -0.01440999065721821 -0.033653490898519503 0 -0.0060313042623329916 -0.02974528241347664 0 -0.0064067127451799986 -0.020589233330411998 0 0.0046228348747387538 -0.0262059837982749 0 -0.0060313042623329916 -0.02974528241347664 0 0.0046228348747387538 -0.0262059837982749 0 0.00138259972359069 -0.036225685931006883 0 -0.0064067127451799986 -0.020589233330411998 0 -0.0054906294540339471 -0.013226622498808009 0 0.0041450624216893567 -0.01617293028693156 0 -0.016077385088766358 -0.01455781814053541 0 -0.01464039846587295 -0.02502580970691724 0 -0.0064067127451799986 -0.020589233330411998 0 -0.016077385088766358 -0.01455781814053541 0 -0.0064067127451799986 -0.020589233330411998 0 -0.0054906294540339471 -0.013226622498808009 0 -0.016077385088766358 -0.01455781814053541 0 -0.0054906294540339471 -0.013226622498808009 0 -0.0091213695638044795 -0.0069261614343323168 0 -0.01736386503777898 -0.0036560690413767459 0 -0.016077385088766358 -0.01455781814053541 0 -0.0091213695638044795 -0.0069261614343323168 0 -0.0054906294540339471 -0.013226622498808009 0 -0.0091213695638044795 -0.0069261614343323168 0 7.2577058917493991e-06 -0.0078869693018287501 0 -0.0054906294540339471 -0.013226622498808009 0 7.2577058917493991e-06 -0.0078869693018287501 0 0.0041450624216893567 -0.01617293028693156 0 -0.003589021217499586 -8.108461533938181e-05 0 -0.0091213695638044795 -0.0069261614343323168 0 7.2577058917493991e-06 -0.0078869693018287501 0 -0.01736386503777898 -0.0036560690413767459 0 -0.0091213695638044795 -0.0069261614343323168 0 -0.012468209674940939 0.0013046379300993261 0 -0.003589021217499586 -8.108461533938181e-05 0 -0.0091213695638044795 -0.0069261614343323168 0 -0.012468209674940939 0.0013046379300993261 0 -0.026868985050395242 -0.061487160099481408 0 -0.029140367076251911 -0.04661418731888959 0 -0.010242435784830421 -0.066755960587596572 0 -0.020486944991663401 -0.054053782104052768 0 -0.029140367076251911 -0.04661418731888959 0 -0.010242435784830421 -0.066755960587596572 0 -0.029140367076251911 -0.04661418731888959 0 -0.010242435784830421 -0.066755960587596572 0 -0.020486944991663401 -0.054053782104052768 0 -0.016857523663772821 -0.047026227969039547 0 -0.010373996896917729 -0.05251212284499196 0 -0.036202001685112097 -0.036515229605440618 0 -0.020486944991663401 -0.054053782104052768 0 -0.036202001685112097 -0.036515229605440618 0 -0.020486944991663401 -0.054053782104052768 0 -0.02353018011289227 -0.039239265190312123 0 -0.036202001685112097 -0.036515229605440618 0 -0.020486944991663401 -0.054053782104052768 0 -0.029140367076251911 -0.04661418731888959 0 -0.030277159291977409 -0.028399999358576861 0 -0.021684597968720281 -0.029921797398485672 0 -0.02353018011289227 -0.039239265190312123 0 -0.036202001685112097 -0.036515229605440618 0 -0.030277159291977409 -0.028399999358576861 0 -0.02353018011289227 -0.039239265190312123 0 -0.021684597968720281 -0.029921797398485672 0 -0.02353018011289227 -0.039239265190312123 0 -0.01440999065721821 -0.033653490898519503 0 -0.02353018011289227 -0.039239265190312123 0 -0.01303897265361789 -0.042299741736801351 0 -0.01440999065721821 -0.033653490898519503 0 -0.020486944991663401 -0.054053782104052768 0 -0.016857523663772821 -0.047026227969039547 0 -0.02353018011289227 -0.039239265190312123 0 -0.016857523663772821 -0.047026227969039547 0 -0.02353018011289227 -0.039239265190312123 0 -0.01303897265361789 -0.042299741736801351 0 -0.01303897265361789 -0.042299741736801351 0 -0.0040007165620090553 -0.044984563591612292 0 -0.010373996896917729 -0.05251212284499196 0 -0.01303897265361789 -0.042299741736801351 0 -0.0067361583040562237 -0.036771490815729342 0 -0.0040007165620090553 -0.044984563591612292 0 -0.0060313042623329916 -0.02974528241347664 0 -0.01440999065721821 -0.033653490898519503 0 -0.0067361583040562237 -0.036771490815729342 0 -0.01303897265361789 -0.042299741736801351 0 -0.01440999065721821 -0.033653490898519503 0 -0.0067361583040562237 -0.036771490815729342 0 -0.0060313042623329916 -0.02974528241347664 0 -0.0067361583040562237 -0.036771490815729342 0 0.00138259972359069 -0.036225685931006883 0 -0.0067361583040562237 -0.036771490815729342 0 -0.0040007165620090553 -0.044984563591612292 0 0.00138259972359069 -0.036225685931006883 0 -0.0040007165620090553 -0.044984563591612292 0 -0.010373996896917729 -0.05251212284499196 0 -0.00071745433018911191 -0.056066980568571907 0 -0.020486944991663401 -0.054053782104052768 0 -0.010373996896917729 -0.05251212284499196 0 -0.0047718882982147257 -0.071592334602664898 0 -0.010373996896917729 -0.05251212284499196 0 -0.00071745433018911191 -0.056066980568571907 0 -0.0047718882982147257 -0.071592334602664898 0 -0.016857523663772821 -0.047026227969039547 0 -0.01303897265361789 -0.042299741736801351 0 -0.010373996896917729 -0.05251212284499196 0 -0.020486944991663401 -0.054053782104052768 0 -0.0047718882982147257 -0.071592334602664898 0 -0.010242435784830421 -0.066755960587596572 0 -0.0047718882982147257 -0.071592334602664898 0 -0.0025279519108222272 -0.085451521842497366 0 0.007265348320655206 -0.063846298629635118 0 -0.020486944991663401 -0.054053782104052768 0 -0.0047718882982147257 -0.071592334602664898 0 -0.0047718882982147257 -0.071592334602664898 0 -0.01257383495939492 -0.074905192115263627 0 -0.0025279519108222272 -0.085451521842497366 0 -0.01257383495939492 -0.074905192115263627 0 -0.010242435784830421 -0.066755960587596572 0 -0.021102384322074109 -0.071158964043014319 0 -0.0047718882982147257 -0.071592334602664898 0 -0.01257383495939492 -0.074905192115263627 0 -0.010242435784830421 -0.066755960587596572 0 -0.0025279519108222272 -0.085451521842497366 0 -0.01866705593760936 -0.083565910395308113 0 -0.01605835015504431 -0.10597775004087 0 -0.01257383495939492 -0.074905192115263627 0 -0.0025279519108222272 -0.085451521842497366 0 -0.01866705593760936 -0.083565910395308113 0 -0.01866705593760936 -0.083565910395308113 0 -0.032384549193501283 -0.089730587398129225 0 -0.01605835015504431 -0.10597775004087 0 -0.01866705593760936 -0.083565910395308113 0 -0.030706372555712909 -0.078726511155450887 0 -0.032384549193501283 -0.089730587398129225 0 -0.026868985050395242 -0.061487160099481408 0 -0.010242435784830421 -0.066755960587596572 0 -0.021102384322074109 -0.071158964043014319 0 -0.01257383495939492 -0.074905192115263627 0 -0.01866705593760936 -0.083565910395308113 0 -0.021102384322074109 -0.071158964043014319 0 -0.01866705593760936 -0.083565910395308113 0 -0.030706372555712909 -0.078726511155450887 0 -0.021102384322074109 -0.071158964043014319 0 -0.030706372555712909 -0.078726511155450887 0 -0.021102384322074109 -0.071158964043014319 0 -0.033481509900261532 -0.067546806868497997 0 -0.026868985050395242 -0.061487160099481408 0 -0.021102384322074109 -0.071158964043014319 0 -0.033481509900261532 -0.067546806868497997 0 -0.040378228168558232 -0.055359881679408557 0 -0.033481509900261532 -0.067546806868497997 0 -0.047816989437358827 -0.064979180419605168 0 -0.033481509900261532 -0.067546806868497997 0 -0.04333359315675097 -0.076344730260530624 0 -0.047816989437358827 -0.064979180419605168 0 -0.030706372555712909 -0.078726511155450887 0 -0.033481509900261532 -0.067546806868497997 0 -0.04333359315675097 -0.076344730260530624 0 -0.030706372555712909 -0.078726511155450887 0 -0.032384549193501283 -0.089730587398129225 0 -0.041391369413522797 -0.08592692384284055 0 -0.030706372555712909 -0.078726511155450887 0 -0.04333359315675097 -0.076344730260530624 0 -0.041391369413522797 -0.08592692384284055 0 -0.032384549193501283 -0.089730587398129225 0 -0.041391369413522797 -0.08592692384284055 0 -0.043447852099619093 -0.09390223810520909 0 -0.041391369413522797 -0.08592692384284055 0 -0.050873113877344833 -0.08831170660871264 0 -0.043447852099619093 -0.09390223810520909 0 -0.04333359315675097 -0.076344730260530624 0 -0.041391369413522797 -0.08592692384284055 0 -0.050873113877344833 -0.08831170660871264 0 -0.06295469847824714 -0.09115605759321363 0 -0.057297668593858458 -0.074095843246698503 0 -0.054084814905447087 -0.096684244068439812 0 -0.04333359315675097 -0.076344730260530624 0 -0.050873113877344833 -0.08831170660871264 0 -0.057297668593858458 -0.074095843246698503 0 -0.057297668593858458 -0.074095843246698503 0 -0.054084814905447087 -0.096684244068439812 0 -0.050873113877344833 -0.08831170660871264 0 -0.057297668593858458 -0.074095843246698503 0 -0.054084814905447087 -0.096684244068439812 0 -0.050873113877344833 -0.08831170660871264 0 -0.054084814905447087 -0.096684244068439812 0 -0.050873113877344833 -0.08831170660871264 0 -0.054084814905447087 -0.096684244068439812 0 -0.043447852099619093 -0.09390223810520909 0 -0.060510522282270163 -0.051507442424957292 0 -0.057297668593858458 -0.074095843246698503 0 -0.047816989437358827 -0.064979180419605168 0 -0.060510522282270163 -0.051507442424957292 0 -0.057297668593858458 -0.074095843246698503 0 -0.04333359315675097 -0.076344730260530624 0 -0.057297668593858458 -0.074095843246698503 0 -0.047816989437358827 -0.064979180419605168 0 -0.063562029795135824 -0.12139025997200439 0 -0.050734247848961897 -0.1202408572827241 0 -0.054084814905447087 -0.096684244068439812 0 -0.050734247848961897 -0.1202408572827241 0 -0.054084814905447087 -0.096684244068439812 0 -0.044357238719118557 -0.1120023312497936 0 -0.063562029795135824 -0.12139025997200439 0 -0.061935935017581017 -0.1142478214033272 0 -0.054084814905447087 -0.096684244068439812 0 -0.050734247848961897 -0.1202408572827241 0 -0.054084814905447087 -0.096684244068439812 0 -0.063562029795135824 -0.12139025997200439 0 -0.054084814905447087 -0.096684244068439812 0 -0.06295469847824714 -0.09115605759321363 0 -0.061935935017581017 -0.1142478214033272 0 -0.054084814905447087 -0.096684244068439812 0 -0.032384549193501283 -0.089730587398129225 0 -0.039278517682682222 -0.10444103164296489 0 -0.02854083221733833 -0.10616560724990649 0 -0.054084814905447087 -0.096684244068439812 0 -0.039278517682682222 -0.10444103164296489 0 -0.044357238719118557 -0.1120023312497936 0 -0.054084814905447087 -0.096684244068439812 0 -0.039278517682682222 -0.10444103164296489 0 -0.043447852099619093 -0.09390223810520909 0 -0.032384549193501283 -0.089730587398129225 0 -0.039278517682682222 -0.10444103164296489 0 -0.043447852099619093 -0.09390223810520909 0 -0.039278517682682222 -0.10444103164296489 0 -0.033403722287453523 -0.1151628754956265 0 -0.02854083221733833 -0.10616560724990649 0 -0.039278517682682222 -0.10444103164296489 0 -0.033403722287453523 -0.1151628754956265 0 -0.044357238719118557 -0.1120023312497936 0 -0.044284890871048407 -0.1234826477592128 0 -0.023454379615200482 -0.1262868968000464 0 -0.033403722287453523 -0.1151628754956265 0 -0.044284890871048407 -0.1234826477592128 0 -0.023454379615200482 -0.1262868968000464 0 -0.033403722287453523 -0.1151628754956265 0 -0.044357238719118557 -0.1120023312497936 0 -0.044284890871048407 -0.1234826477592128 0 -0.050734247848961897 -0.1202408572827241 0 -0.044357238719118557 -0.1120023312497936 0 -0.044284890871048407 -0.1234826477592128 0 -0.033403722287453523 -0.1151628754956265 0 -0.02221695336370666 -0.1150906356142081 0 -0.023454379615200482 -0.1262868968000464 0 -0.033403722287453523 -0.1151628754956265 0 -0.02221695336370666 -0.1150906356142081 0 -0.02854083221733833 -0.10616560724990649 0 -0.02221695336370666 -0.1150906356142081 0 -0.01605835015504431 -0.10597775004087 0 -0.01268955420283897 -0.1198192994074697 0 -0.02221695336370666 -0.1150906356142081 0 -0.01268955420283897 -0.1198192994074697 0 -0.023454379615200482 -0.1262868968000464 0 -0.032384549193501283 -0.089730587398129225 0 -0.01605835015504431 -0.10597775004087 0 -0.032384549193501283 -0.089730587398129225 0 -0.02854083221733833 -0.10616560724990649 0 -0.01605835015504431 -0.10597775004087 0 -0.02221695336370666 -0.1150906356142081 0 -0.02854083221733833 -0.10616560724990649 0 -0.01605835015504431 -0.10597775004087 0 -0.01605835015504431 -0.10597775004087 0 0.000267848883412811 -0.1222249126836107 0 0.011161824373436491 -0.096357730852011547 0 -0.0025279519108222272 -0.085451521842497366 0 -0.01605835015504431 -0.10597775004087 0 0.011161824373436491 -0.096357730852011547 0 -0.01605835015504431 -0.10597775004087 0 -0.01268955420283897 -0.1198192994074697 0 0.000267848883412811 -0.1222249126836107 0 -0.01605835015504431 -0.10597775004087 0 0.000267848883412811 -0.1222249126836107 0 -0.01268955420283897 -0.1198192994074697 0 -0.0026238683593527469 -0.1290911458408808 0 0.000267848883412811 -0.1222249126836107 0 -0.01268955420283897 -0.1198192994074697 0 -0.0026238683593527469 -0.1290911458408808 0 -0.023454379615200482 -0.1262868968000464 0 -0.0026238683593527469 -0.1290911458408808 0 -0.023454379615200482 -0.1262868968000464 0 -0.0026238683593527469 -0.1290911458408808 0 -0.015926442307981362 -0.13825467972174399 0 -0.023454379615200482 -0.1262868968000464 0 -0.0026238683593527469 -0.1290911458408808 0 0.000267848883412811 -0.1222249126836107 0 -0.015926442307981362 -0.13825467972174399 0 -0.023454379615200482 -0.1262868968000464 0 -0.023685014411960179 -0.14167400823484119 0 -0.023454379615200482 -0.1262868968000464 0 -0.023685014411960179 -0.14167400823484119 0 -0.034701991422671531 -0.1338102558227772 0 -0.023685014411960179 -0.14167400823484119 0 -0.013942506845412169 -0.15596666801120859 0 -0.033173823116671747 -0.1524052625908246 0 -0.015926442307981362 -0.13825467972174399 0 -0.023685014411960179 -0.14167400823484119 0 -0.013942506845412169 -0.15596666801120859 0 -0.0026238683593527469 -0.1290911458408808 0 -0.015926442307981362 -0.13825467972174399 0 -0.013942506845412169 -0.15596666801120859 0 -0.0026238683593527469 -0.1290911458408808 0 -0.013942506845412169 -0.15596666801120859 0 -0.0026238683593527469 -0.1290911458408808 0 -0.013942506845412169 -0.15596666801120859 0 0.0008154143862063284 -0.14636078732578861 0 -0.013942506845412169 -0.15596666801120859 0 0.0013946097700121591 -0.16079920152731589 0 0.0008154143862063284 -0.14636078732578861 0 -0.013942506845412169 -0.15596666801120859 0 -0.0054456702342067821 -0.17468636924605579 0 0.0013946097700121591 -0.16079920152731589 0 -0.013942506845412169 -0.15596666801120859 0 -0.0054456702342067821 -0.17468636924605579 0 -0.025261145331475009 -0.18284219018153519 0 -0.0054456702342067821 -0.17468636924605579 0 -0.0033510377911821739 -0.1932613130575494 0 0.0064997238694450071 -0.18338024842821099 0 -0.0054456702342067821 -0.17468636924605579 0 -0.025261145331475009 -0.18284219018153519 0 -0.0033510377911821739 -0.1932613130575494 0 -0.013942506845412169 -0.15596666801120859 0 -0.025261145331475009 -0.18284219018153519 0 -0.013942506845412169 -0.15596666801120859 0 -0.025261145331475009 -0.18284219018153519 0 -0.032390853538568867 -0.16500105954859109 0 -0.013942506845412169 -0.15596666801120859 0 -0.032390853538568867 -0.16500105954859109 0 -0.033173823116671747 -0.1524052625908246 0 -0.045090777277716897 -0.15991803765006349 0 -0.04279787376295674 -0.17603860480311859 0 -0.032390853538568867 -0.16500105954859109 0 -0.045090777277716897 -0.15991803765006349 0 -0.04279787376295674 -0.17603860480311859 0 -0.032390853538568867 -0.16500105954859109 0 -0.045090777277716897 -0.15991803765006349 0 -0.033173823116671747 -0.1524052625908246 0 -0.04279787376295674 -0.17603860480311859 0 -0.039255432597822743 -0.19250461929739951 0 -0.053898052557701782 -0.19278883460116211 0 -0.025261145331475009 -0.18284219018153519 0 -0.032390853538568867 -0.16500105954859109 0 -0.04279787376295674 -0.17603860480311859 0 -0.025261145331475009 -0.18284219018153519 0 -0.04279787376295674 -0.17603860480311859 0 -0.039255432597822743 -0.19250461929739951 0 -0.04279787376295674 -0.17603860480311859 0 -0.054670142612215818 -0.17583913153167899 0 -0.053898052557701782 -0.19278883460116211 0 -0.054670142612215818 -0.17583913153167899 0 -0.064002883182623177 -0.16756431611337841 0 -0.063557146610965495 -0.18509094920064351 0 -0.054670142612215818 -0.17583913153167899 0 -0.053898052557701782 -0.19278883460116211 0 -0.063557146610965495 -0.18509094920064351 0 -0.045090777277716897 -0.15991803765006349 0 -0.054670142612215818 -0.17583913153167899 0 -0.064002883182623177 -0.16756431611337841 0 -0.045090777277716897 -0.15991803765006349 0 -0.04279787376295674 -0.17603860480311859 0 -0.054670142612215818 -0.17583913153167899 0 -0.045090777277716897 -0.15991803765006349 0 -0.050441940679835318 -0.14407149855219739 0 -0.064002883182623177 -0.16756431611337841 0 -0.050441940679835318 -0.14407149855219739 0 -0.073039244684823479 -0.14609627587556959 0 -0.050441940679835318 -0.14407149855219739 0 -0.057416415781998902 -0.13478002042851081 0 -0.073039244684823479 -0.14609627587556959 0 -0.045090777277716897 -0.15991803765006349 0 -0.050441940679835318 -0.14407149855219739 0 -0.047383680792477359 -0.14379747049700839 0 -0.050441940679835318 -0.14407149855219739 0 -0.066654358385223628 -0.15492876036498129 0 -0.064002883182623177 -0.16756431611337841 0 -0.050441940679835318 -0.14407149855219739 0 -0.064002883182623177 -0.16756431611337841 0 -0.050441940679835318 -0.14407149855219739 0 -0.047383680792477359 -0.14379747049700839 0 -0.050441940679835318 -0.14407149855219739 0 -0.049304615901237379 -0.14210121046005739 0 -0.047383680792477359 -0.14379747049700839 0 -0.050441940679835318 -0.14407149855219739 0 -0.049304615901237379 -0.14210121046005739 0 -0.050734247848961897 -0.1202408572827241 0 -0.047383680792477359 -0.14379747049700839 0 -0.050734247848961897 -0.1202408572827241 0 -0.049304615901237379 -0.14210121046005739 0 -0.047383680792477359 -0.14379747049700839 0 -0.050734247848961897 -0.1202408572827241 0 -0.049304615901237379 -0.14210121046005739 0 -0.057416415781998902 -0.13478002042851081 0 -0.050734247848961897 -0.1202408572827241 0 -0.044284890871048407 -0.1234826477592128 0 -0.047383680792477359 -0.14379747049700839 0 -0.063562029795135824 -0.12139025997200439 0 -0.050734247848961897 -0.1202408572827241 0 -0.057416415781998902 -0.13478002042851081 0 -0.050441940679835318 -0.14407149855219739 0 -0.049304615901237379 -0.14210121046005739 0 -0.057416415781998902 -0.13478002042851081 0 -0.023685014411960179 -0.14167400823484119 0 -0.047383680792477359 -0.14379747049700839 0 -0.034701991422671531 -0.1338102558227772 0 -0.044284890871048407 -0.1234826477592128 0 -0.047383680792477359 -0.14379747049700839 0 -0.034701991422671531 -0.1338102558227772 0 -0.044284890871048407 -0.1234826477592128 0 -0.023454379615200482 -0.1262868968000464 0 -0.034701991422671531 -0.1338102558227772 0 -0.023685014411960179 -0.14167400823484119 0 -0.047383680792477359 -0.14379747049700839 0 -0.033173823116671747 -0.1524052625908246 0 -0.045090777277716897 -0.15991803765006349 0 -0.047383680792477359 -0.14379747049700839 0 -0.045090777277716897 -0.15991803765006349 0 -0.047383680792477359 -0.14379747049700839 0 -0.033173823116671747 -0.1524052625908246 0 -0.023685014411960179 -0.14167400823484119 0 -0.047383680792477359 -0.14379747049700839 0 -0.02770244935630229 -0.25243561600558417 0 -0.0099150700101830989 -0.24127250326565719 0 -0.035233890585076359 -0.2328324697513578 0 -0.00065164570226031214 -0.25758910579233463 0 -0.0099150700101830989 -0.24127250326565719 0 0.0086785074496121897 -0.2380249792104335 0 -0.0099150700101830989 -0.24127250326565719 0 0.0062627933820406994 -0.21773358435895249 0 -0.0099150700101830989 -0.24127250326565719 0 -0.0090255866867221951 -0.21884834665243261 0 0.0062627933820406994 -0.21773358435895249 0 -0.0090255866867221951 -0.21884834665243261 0 -0.035233890585076359 -0.2328324697513578 0 -0.0099150700101830989 -0.24127250326565719 0 -0.0090255866867221951 -0.21884834665243261 0 -0.035233890585076359 -0.2328324697513578 0 -0.0090255866867221951 -0.21884834665243261 0 -0.03073490929867928 -0.2071445553699795 0 -0.035233890585076359 -0.2328324697513578 0 -0.0090255866867221951 -0.21884834665243261 0 -0.03073490929867928 -0.2071445553699795 0 -0.015341474110753969 -0.20341633821104671 0 -0.0090255866867221951 -0.21884834665243261 0 0.00019707031352935689 -0.20549084954644581 0 0.0062627933820406994 -0.21773358435895249 0 -0.0090255866867221951 -0.21884834665243261 0 -0.015341474110753969 -0.20341633821104671 0 0.00019707031352935689 -0.20549084954644581 0 -0.025261145331475009 -0.18284219018153519 0 -0.015341474110753969 -0.20341633821104671 0 -0.0033510377911821739 -0.1932613130575494 0 -0.015341474110753969 -0.20341633821104671 0 -0.0033510377911821739 -0.1932613130575494 0 0.00019707031352935689 -0.20549084954644581 0 -0.025261145331475009 -0.18284219018153519 0 -0.03073490929867928 -0.2071445553699795 0 -0.015341474110753969 -0.20341633821104671 0 -0.03073490929867928 -0.2071445553699795 0 -0.039255432597822743 -0.19250461929739951 0 -0.046239729719259368 -0.20819678639746539 0 -0.039255432597822743 -0.19250461929739951 0 -0.053898052557701782 -0.19278883460116211 0 -0.046239729719259368 -0.20819678639746539 0 -0.025261145331475009 -0.18284219018153519 0 -0.03073490929867928 -0.2071445553699795 0 -0.039255432597822743 -0.19250461929739951 0 -0.053898052557701782 -0.19278883460116211 0 -0.060793605054145751 -0.2163978922043803 0 -0.067369017384759769 -0.19836053030132689 0 -0.053898052557701782 -0.19278883460116211 0 -0.067369017384759769 -0.19836053030132689 0 -0.063557146610965495 -0.18509094920064351 0 -0.053898052557701782 -0.19278883460116211 0 -0.060793605054145751 -0.2163978922043803 0 -0.046239729719259368 -0.20819678639746539 0 -0.03073490929867928 -0.2071445553699795 0 -0.046239729719259368 -0.20819678639746539 0 -0.035233890585076359 -0.2328324697513578 0 -0.02770244935630229 -0.25243561600558417 0 -0.035233890585076359 -0.2328324697513578 0 -0.061442194483430301 -0.24681659285028279 0 -0.060793605054145751 -0.2163978922043803 0 -0.046239729719259368 -0.20819678639746539 0 -0.035233890585076359 -0.2328324697513578 0 -0.060793605054145751 -0.2163978922043803 0 -0.035233890585076359 -0.2328324697513578 0 -0.061442194483430301 -0.24681659285028279 0 -0.035233890585076359 -0.2328324697513578 0 -0.061442194483430301 -0.24681659285028279 0 -0.087650498381783043 -0.26080071594921023 0 -0.061442194483430301 -0.24681659285028279 0 -0.089387633284986542 -0.23767533359247539 0 -0.087650498381783043 -0.26080071594921023 0 -0.089387633284986542 -0.23767533359247539 0 -0.061442194483430301 -0.24681659285028279 0 -0.089387633284986542 -0.23767533359247539 0 -0.076908895768781113 -0.22508471283216311 0 -0.060793605054145751 -0.2163978922043803 0 -0.061442194483430301 -0.24681659285028279 0 -0.076908895768781113 -0.22508471283216311 0 -0.089387633284986542 -0.23767533359247539 0 -0.076908895768781113 -0.22508471283216311 0 -0.091124768188196939 -0.21454995123574111 0 -0.089387633284986542 -0.23767533359247539 0 -0.091124768188196939 -0.21454995123574111 0 -0.095386079473211954 -0.2219321968701928 0 -0.089387633284986542 -0.23767533359247539 0 -0.091124768188196939 -0.21454995123574111 0 -0.091124768188196939 -0.21454995123574111 0 -0.074849804973405903 -0.20910245035485769 0 -0.077563825685410204 -0.19105713367455959 0 -0.076908895768781113 -0.22508471283216311 0 -0.091124768188196939 -0.21454995123574111 0 -0.074849804973405903 -0.20910245035485769 0 -0.091124768188196939 -0.21454995123574111 0 -0.091624162654713709 -0.207901827383242 0 -0.095386079473211954 -0.2219321968701928 0 -0.091124768188196939 -0.21454995123574111 0 -0.095386079473211954 -0.2219321968701928 0 -0.091124768188196939 -0.21454995123574111 0 -0.091624162654713709 -0.207901827383242 0 -0.091124768188196939 -0.21454995123574111 0 -0.091624162654713709 -0.207901827383242 0 -0.086123474331190025 -0.201519509844509 0 -0.091624162654713709 -0.207901827383242 0 -0.086123474331190025 -0.201519509844509 0 -0.060793605054145751 -0.2163978922043803 0 -0.074849804973405903 -0.20910245035485769 0 -0.067369017384759769 -0.19836053030132689 0 -0.060793605054145751 -0.2163978922043803 0 -0.076908895768781113 -0.22508471283216311 0 -0.074849804973405903 -0.20910245035485769 0 -0.074849804973405903 -0.20910245035485769 0 -0.067369017384759769 -0.19836053030132689 0 -0.077563825685410204 -0.19105713367455959 0 -0.067369017384759769 -0.19836053030132689 0 -0.077563825685410204 -0.19105713367455959 0 -0.063557146610965495 -0.18509094920064351 0 -0.091624162654713709 -0.207901827383242 0 -0.093755552647490498 -0.17952797544853419 0 -0.077563825685410204 -0.19105713367455959 0 -0.086123474331190025 -0.201519509844509 0 -0.093755552647490498 -0.17952797544853419 0 -0.091124768188196939 -0.21454995123574111 0 -0.077563825685410204 -0.19105713367455959 0 -0.086123474331190025 -0.201519509844509 0 -0.091624162654713709 -0.207901827383242 0 -0.086123474331190025 -0.201519509844509 0 -0.093755552647490498 -0.17952797544853419 0 -0.091124768188196939 -0.21454995123574111 0 -0.077563825685410204 -0.19105713367455959 0 -0.091624162654713709 -0.207901827383242 0 -0.10443877770674589 -0.19429908463699799 0 -0.093755552647490498 -0.17952797544853419 0 -0.10443877770674589 -0.19429908463699799 0 -0.1188559799086167 -0.19841564006702339 0 -0.1150188015650303 -0.1759769816827973 0 -0.10443877770674589 -0.19429908463699799 0 -0.1188559799086167 -0.19841564006702339 0 -0.1092074300096712 -0.2090928122006197 0 -0.1188559799086167 -0.19841564006702339 0 -0.1208033852945218 -0.2160550573120468 0 -0.1092074300096712 -0.2090928122006197 0 -0.1208033852945218 -0.2160550573120468 0 -0.1092074300096712 -0.2090928122006197 0 -0.109182525564868 -0.22827437731915781 0 -0.091624162654713709 -0.207901827383242 0 -0.109182525564868 -0.22827437731915781 0 -0.091624162654713709 -0.207901827383242 0 -0.1092074300096712 -0.2090928122006197 0 -0.109182525564868 -0.22827437731915781 0 -0.091624162654713709 -0.207901827383242 0 -0.10443877770674589 -0.19429908463699799 0 -0.1092074300096712 -0.2090928122006197 0 -0.089387633284986542 -0.23767533359247539 0 -0.095386079473211954 -0.2219321968701928 0 -0.098970380853626777 -0.23231221815186451 0 -0.091624162654713709 -0.207901827383242 0 -0.095386079473211954 -0.2219321968701928 0 -0.109182525564868 -0.22827437731915781 0 -0.095386079473211954 -0.2219321968701928 0 -0.098970380853626777 -0.23231221815186451 0 -0.109182525564868 -0.22827437731915781 0 -0.1208033852945218 -0.2160550573120468 0 -0.109182525564868 -0.22827437731915781 0 -0.12871056180692089 -0.22933695251737851 0 -0.109182525564868 -0.22827437731915781 0 -0.10655806490615249 -0.2482890383929946 0 -0.1267408884750218 -0.24864692725507401 0 -0.109182525564868 -0.22827437731915781 0 -0.1267408884750218 -0.24864692725507401 0 -0.12871056180692089 -0.22933695251737851 0 -0.109182525564868 -0.22827437731915781 0 -0.1267408884750218 -0.24864692725507401 0 -0.089387633284986542 -0.23767533359247539 0 -0.098970380853626777 -0.23231221815186451 0 -0.10655806490615249 -0.2482890383929946 0 -0.098970380853626777 -0.23231221815186451 0 -0.109182525564868 -0.22827437731915781 0 -0.10655806490615249 -0.2482890383929946 0 -0.087650498381783043 -0.26080071594921023 0 -0.089387633284986542 -0.23767533359247539 0 -0.10655806490615249 -0.2482890383929946 0 -0.089751366102902644 -0.13652979601149989 0 -0.073039244684823479 -0.14609627587556959 0 -0.09692191988758854 -0.1482362258077119 0 -0.073039244684823479 -0.14609627587556959 0 -0.079133364993611899 -0.16198295091877871 0 -0.09692191988758854 -0.1482362258077119 0 -0.073039244684823479 -0.14609627587556959 0 -0.09692191988758854 -0.1482362258077119 0 -0.089751366102902644 -0.13652979601149989 0 -0.079719994455451873 -0.1265192519661926 0 -0.073039244684823479 -0.14609627587556959 0 -0.089751366102902644 -0.13652979601149989 0 -0.079719994455451873 -0.1265192519661926 0 -0.095266291953538418 -0.12504041918681369 0 -0.063562029795135824 -0.12139025997200439 0 -0.057416415781998902 -0.13478002042851081 0 -0.073039244684823479 -0.14609627587556959 0 -0.063562029795135824 -0.12139025997200439 0 -0.073039244684823479 -0.14609627587556959 0 -0.063562029795135824 -0.12139025997200439 0 -0.079719994455451873 -0.1265192519661926 0 -0.073039244684823479 -0.14609627587556959 0 -0.050441940679835318 -0.14407149855219739 0 -0.073039244684823479 -0.14609627587556959 0 -0.066654358385223628 -0.15492876036498129 0 -0.073039244684823479 -0.14609627587556959 0 -0.066654358385223628 -0.15492876036498129 0 -0.079133364993611899 -0.16198295091877871 0 -0.073039244684823479 -0.14609627587556959 0 -0.079133364993611899 -0.16198295091877871 0 -0.064002883182623177 -0.16756431611337841 0 -0.081161308639104937 -0.17387367591656519 0 -0.079133364993611899 -0.16198295091877871 0 -0.066654358385223628 -0.15492876036498129 0 -0.064002883182623177 -0.16756431611337841 0 -0.079133364993611899 -0.16198295091877871 0 -0.077563825685410204 -0.19105713367455959 0 -0.064002883182623177 -0.16756431611337841 0 -0.081161308639104937 -0.17387367591656519 0 -0.077563825685410204 -0.19105713367455959 0 -0.064002883182623177 -0.16756431611337841 0 -0.077563825685410204 -0.19105713367455959 0 -0.064002883182623177 -0.16756431611337841 0 -0.063557146610965495 -0.18509094920064351 0 -0.077563825685410204 -0.19105713367455959 0 -0.081161308639104937 -0.17387367591656519 0 -0.093755552647490498 -0.17952797544853419 0 -0.081161308639104937 -0.17387367591656519 0 -0.097799257137196671 -0.16499566425237319 0 -0.093755552647490498 -0.17952797544853419 0 -0.081161308639104937 -0.17387367591656519 0 -0.079133364993611899 -0.16198295091877871 0 -0.097799257137196671 -0.16499566425237319 0 -0.079133364993611899 -0.16198295091877871 0 -0.097799257137196671 -0.16499566425237319 0 -0.09692191988758854 -0.1482362258077119 0 -0.10443877770674589 -0.19429908463699799 0 -0.093755552647490498 -0.17952797544853419 0 -0.1150188015650303 -0.1759769816827973 0 -0.097799257137196671 -0.16499566425237319 0 -0.093755552647490498 -0.17952797544853419 0 -0.1150188015650303 -0.1759769816827973 0 -0.1150188015650303 -0.1759769816827973 0 -0.12080459509035391 -0.1503761757398524 0 -0.13371503910089841 -0.16405285654916629 0 -0.097799257137196671 -0.16499566425237319 0 -0.1150188015650303 -0.1759769816827973 0 -0.12080459509035391 -0.1503761757398524 0 -0.12080459509035391 -0.1503761757398524 0 -0.09692191988758854 -0.1482362258077119 0 -0.1038093795331102 -0.1367568072212122 0 -0.12080459509035391 -0.1503761757398524 0 -0.09692191988758854 -0.1482362258077119 0 -0.097799257137196671 -0.16499566425237319 0 -0.12080459509035391 -0.1503761757398524 0 -0.09692191988758854 -0.1482362258077119 0 -0.095266291953538418 -0.12504041918681369 0 -0.1038093795331102 -0.1367568072212122 0 -0.1125966138767521 -0.12543647078833309 0 -0.089751366102902644 -0.13652979601149989 0 -0.095266291953538418 -0.12504041918681369 0 -0.1038093795331102 -0.1367568072212122 0 -0.089751366102902644 -0.13652979601149989 0 -0.09692191988758854 -0.1482362258077119 0 -0.1038093795331102 -0.1367568072212122 0 -0.12080459509035391 -0.1503761757398524 0 -0.1125966138767521 -0.12543647078833309 0 -0.12819889191437051 -0.12870559378374119 0 -0.12080459509035391 -0.1503761757398524 0 -0.1038093795331102 -0.1367568072212122 0 -0.1125966138767521 -0.12543647078833309 0 -0.12080459509035391 -0.1503761757398524 0 -0.12819889191437051 -0.12870559378374119 0 -0.13511060774401071 -0.139952300363821 0 -0.13511060774401071 -0.139952300363821 0 -0.13832857295137091 -0.1304671487293721 0 -0.1447266203542088 -0.13905376767579131 0 -0.12819889191437051 -0.12870559378374119 0 -0.13511060774401071 -0.139952300363821 0 -0.13832857295137091 -0.1304671487293721 0 -0.12819889191437051 -0.12870559378374119 0 -0.13832857295137091 -0.1304671487293721 0 -0.13865299923441779 -0.12134464652728789 0 -0.13832857295137091 -0.1304671487293721 0 -0.14275097923928781 -0.12614625332509899 0 -0.13865299923441779 -0.12134464652728789 0 -0.13832857295137091 -0.1304671487293721 0 -0.14692795097083089 -0.12740512382441271 0 -0.1447266203542088 -0.13905376767579131 0 -0.13832857295137091 -0.1304671487293721 0 -0.14275097923928781 -0.12614625332509899 0 -0.14692795097083089 -0.12740512382441271 0 -0.14275097923928781 -0.12614625332509899 0 -0.14692795097083089 -0.12740512382441271 0 -0.14895436667008979 -0.12557639966396639 0 -0.14692795097083089 -0.12740512382441271 0 -0.14895436667008979 -0.12557639966396639 0 -0.14692795097083089 -0.12740512382441271 0 -0.1447266203542088 -0.13905376767579131 0 -0.15374896822329279 -0.13505888956886289 0 -0.1447266203542088 -0.13905376767579131 0 -0.15374896822329279 -0.13505888956886289 0 -0.15785547455278759 -0.1477444080751909 0 -0.14692795097083089 -0.12740512382441271 0 -0.15374896822329279 -0.13505888956886289 0 -0.14895436667008979 -0.12557639966396639 0 -0.14349435840974961 -0.15115881589034841 0 -0.1487424168602873 -0.1615243804914786 0 -0.15785547455278759 -0.1477444080751909 0 -0.1447266203542088 -0.13905376767579131 0 -0.14349435840974961 -0.15115881589034841 0 -0.15785547455278759 -0.1477444080751909 0 -0.13511060774401071 -0.139952300363821 0 -0.1447266203542088 -0.13905376767579131 0 -0.14349435840974961 -0.15115881589034841 0 -0.12080459509035391 -0.1503761757398524 0 -0.13511060774401071 -0.139952300363821 0 -0.14349435840974961 -0.15115881589034841 0 -0.12080459509035391 -0.1503761757398524 0 -0.14349435840974961 -0.15115881589034841 0 -0.13371503910089841 -0.16405285654916629 0 -0.1188559799086167 -0.19841564006702339 0 -0.1150188015650303 -0.1759769816827973 0 -0.14250106404887261 -0.18102715400323691 0 -0.1150188015650303 -0.1759769816827973 0 -0.13371503910089841 -0.16405285654916629 0 -0.14250106404887261 -0.18102715400323691 0 -0.14250106404887261 -0.18102715400323691 0 -0.16614614818912851 -0.16363866793945051 0 -0.14250106404887261 -0.18102715400323691 0 -0.16614614818912851 -0.16363866793945051 0 -0.15849839830325541 -0.1864236422299114 0 -0.13371503910089841 -0.16405285654916629 0 -0.14250106404887261 -0.18102715400323691 0 -0.1487424168602873 -0.1615243804914786 0 -0.14250106404887261 -0.18102715400323691 0 -0.1487424168602873 -0.1615243804914786 0 -0.16614614818912851 -0.16363866793945051 0 -0.14349435840974961 -0.15115881589034841 0 -0.13371503910089841 -0.16405285654916629 0 -0.1487424168602873 -0.1615243804914786 0 -0.1487424168602873 -0.1615243804914786 0 -0.16614614818912851 -0.16363866793945051 0 -0.15785547455278759 -0.1477444080751909 0 -0.16614614818912851 -0.16363866793945051 0 -0.15849839830325541 -0.1864236422299114 0 -0.17406437273557929 -0.17844381724049729 0 -0.15849839830325541 -0.1864236422299114 0 -0.17406437273557929 -0.17844381724049729 0 -0.1731434408336647 -0.193240247004766 0 -0.18232288687650039 -0.1664311393397683 0 -0.19068494665923089 -0.18228261827912159 0 -0.17406437273557929 -0.17844381724049729 0 -0.1731434408336647 -0.193240247004766 0 -0.19068494665923089 -0.18228261827912159 0 -0.17406437273557929 -0.17844381724049729 0 -0.18232288687650039 -0.1664311393397683 0 -0.19068494665923089 -0.18228261827912159 0 -0.16614614818912851 -0.16363866793945051 0 -0.18232288687650039 -0.1664311393397683 0 -0.18979123232938461 -0.14625018187566391 0 -0.16614614818912851 -0.16363866793945051 0 -0.17406437273557929 -0.17844381724049729 0 -0.18232288687650039 -0.1664311393397683 0 -0.17512637528634961 -0.1510794089170357 0 -0.1812603248932447 -0.1457066829406721 0 -0.1679739769306518 -0.13338956581701519 0 -0.16614614818912851 -0.16363866793945051 0 -0.17512637528634961 -0.1510794089170357 0 -0.18979123232938461 -0.14625018187566391 0 -0.16614614818912851 -0.16363866793945051 0 -0.18979123232938461 -0.14625018187566391 0 -0.18699358719121351 -0.1412027319700648 0 -0.1812603248932447 -0.1457066829406721 0 -0.18979123232938461 -0.14625018187566391 0 -0.17512637528634961 -0.1510794089170357 0 -0.1812603248932447 -0.1457066829406721 0 -0.18979123232938461 -0.14625018187566391 0 -0.18699358719121351 -0.1412027319700648 0 -0.1679739769306518 -0.13338956581701519 0 -0.18699358719121351 -0.1412027319700648 0 -0.1812603248932447 -0.1457066829406721 0 -0.1679739769306518 -0.13338956581701519 0 -0.1679739769306518 -0.13338956581701519 0 -0.1891625619746784 -0.13057328171258589 0 -0.1809579660252206 -0.1207628356012149 0 -0.18699358719121351 -0.1412027319700648 0 -0.1679739769306518 -0.13338956581701519 0 -0.1891625619746784 -0.13057328171258589 0 -0.14895436667008979 -0.12557639966396639 0 -0.1679739769306518 -0.13338956581701519 0 -0.15374896822329279 -0.13505888956886289 0 -0.14895436667008979 -0.12557639966396639 0 -0.1679739769306518 -0.13338956581701519 0 -0.14895436667008979 -0.12557639966396639 0 -0.1679739769306518 -0.13338956581701519 0 -0.1659722712432696 -0.122479996975383 0 -0.1679739769306518 -0.13338956581701519 0 -0.1809579660252206 -0.1207628356012149 0 -0.1659722712432696 -0.122479996975383 0 -0.15374896822329279 -0.13505888956886289 0 -0.1679739769306518 -0.13338956581701519 0 -0.15785547455278759 -0.1477444080751909 0 -0.17512637528634961 -0.1510794089170357 0 -0.1679739769306518 -0.13338956581701519 0 -0.15785547455278759 -0.1477444080751909 0 -0.16614614818912851 -0.16363866793945051 0 -0.17512637528634961 -0.1510794089170357 0 -0.15785547455278759 -0.1477444080751909 0 -0.15089864300815159 -0.25158808846613379 0 -0.14613985356972209 -0.23489593049043611 0 -0.1267408884750218 -0.24864692725507401 0 -0.15089864300815159 -0.25158808846613379 0 -0.14613985356972209 -0.23489593049043611 0 -0.16923196282766101 -0.24040933853577029 0 -0.14613985356972209 -0.23489593049043611 0 -0.1267408884750218 -0.24864692725507401 0 -0.12871056180692089 -0.22933695251737851 0 -0.1208033852945218 -0.2160550573120468 0 -0.12871056180692089 -0.22933695251737851 0 -0.13806042918253231 -0.2151555044560545 0 -0.14613985356972209 -0.23489593049043611 0 -0.12871056180692089 -0.22933695251737851 0 -0.13806042918253231 -0.2151555044560545 0 -0.14613985356972209 -0.23489593049043611 0 -0.13806042918253231 -0.2151555044560545 0 -0.15771606996774759 -0.22230857059608661 0 -0.15560193500809849 -0.20419787573041021 0 -0.13806042918253231 -0.2151555044560545 0 -0.1395334290041885 -0.19799409146110761 0 -0.15560193500809849 -0.20419787573041021 0 -0.13806042918253231 -0.2151555044560545 0 -0.15771606996774759 -0.22230857059608661 0 -0.15560193500809849 -0.20419787573041021 0 -0.13806042918253231 -0.2151555044560545 0 -0.1188559799086167 -0.19841564006702339 0 -0.13806042918253231 -0.2151555044560545 0 -0.1395334290041885 -0.19799409146110761 0 -0.1188559799086167 -0.19841564006702339 0 -0.1208033852945218 -0.2160550573120468 0 -0.13806042918253231 -0.2151555044560545 0 -0.1188559799086167 -0.19841564006702339 0 -0.14250106404887261 -0.18102715400323691 0 -0.1395334290041885 -0.19799409146110761 0 -0.1188559799086167 -0.19841564006702339 0 -0.14250106404887261 -0.18102715400323691 0 -0.15849839830325541 -0.1864236422299114 0 -0.15560193500809849 -0.20419787573041021 0 -0.1395334290041885 -0.19799409146110761 0 -0.14250106404887261 -0.18102715400323691 0 -0.15849839830325541 -0.1864236422299114 0 -0.1395334290041885 -0.19799409146110761 0 -0.15849839830325541 -0.1864236422299114 0 -0.15560193500809849 -0.20419787573041021 0 -0.1731434408336647 -0.193240247004766 0 -0.15560193500809849 -0.20419787573041021 0 -0.1731434408336647 -0.193240247004766 0 -0.1731434408336647 -0.193240247004766 0 -0.18581637683488311 -0.20025278113283551 0 -0.17454389764974951 -0.2138850937357776 0 -0.1731434408336647 -0.193240247004766 0 -0.19068494665923089 -0.18228261827912159 0 -0.1731434408336647 -0.193240247004766 0 -0.18581637683488311 -0.20025278113283551 0 -0.19068494665923089 -0.18228261827912159 0 -0.17454389764974951 -0.2138850937357776 0 -0.1891820190961887 -0.2288305623355914 0 -0.19080108801979759 -0.21208874443724471 0 -0.18581637683488311 -0.20025278113283551 0 -0.17454389764974951 -0.2138850937357776 0 -0.19080108801979759 -0.21208874443724471 0 -0.15560193500809849 -0.20419787573041021 0 -0.17454389764974951 -0.2138850937357776 0 -0.15771606996774759 -0.22230857059608661 0 -0.15560193500809849 -0.20419787573041021 0 -0.1731434408336647 -0.193240247004766 0 -0.17454389764974951 -0.2138850937357776 0 -0.1922212809585328 -0.26155810537222413 0 -0.16923196282766101 -0.24040933853577029 0 -0.1891820190961887 -0.2288305623355914 0 -0.14613985356972209 -0.23489593049043611 0 -0.15771606996774759 -0.22230857059608661 0 -0.16923196282766101 -0.24040933853577029 0 -0.17454389764974951 -0.2138850937357776 0 -0.15771606996774759 -0.22230857059608661 0 -0.16923196282766101 -0.24040933853577029 0 -0.17454389764974951 -0.2138850937357776 0 -0.16923196282766101 -0.24040933853577029 0 -0.1891820190961887 -0.2288305623355914 0 -0.16923196282766101 -0.24040933853577029 0 -0.1891820190961887 -0.2288305623355914 0 -0.1922212809585328 -0.26155810537222413 0 -0.20802455160332309 -0.24704836985499651 0 -0.1891820190961887 -0.2288305623355914 0 -0.22727717143418741 -0.25164840798112659 0 -0.21820462339945179 -0.23445009705826961 0 -0.20802455160332309 -0.24704836985499651 0 -0.21820462339945179 -0.23445009705826961 0 -0.20802455160332309 -0.24704836985499651 0 -0.20499519010207221 -0.23148271335793771 0 -0.20802455160332309 -0.24704836985499651 0 -0.1891820190961887 -0.2288305623355914 0 -0.20499519010207221 -0.23148271335793771 0 -0.1891820190961887 -0.2288305623355914 0 -0.20913207536471631 -0.21725178613541241 0 -0.1891820190961887 -0.2288305623355914 0 -0.20499519010207221 -0.23148271335793771 0 -0.20913207536471631 -0.21725178613541241 0 -0.1891820190961887 -0.2288305623355914 0 -0.20913207536471631 -0.21725178613541241 0 -0.19080108801979759 -0.21208874443724471 0 -0.21820462339945179 -0.23445009705826961 0 -0.20913207536471631 -0.21725178613541241 0 -0.21820462339945179 -0.23445009705826961 0 -0.20499519010207221 -0.23148271335793771 0 -0.20913207536471631 -0.21725178613541241 0 -0.21820462339945179 -0.23445009705826961 0 -0.20913207536471631 -0.21725178613541241 0 -0.2217981043817043 -0.22030292778239971 0 -0.20913207536471631 -0.21725178613541241 0 -0.2261076729774624 -0.2073993504842728 0 -0.20913207536471631 -0.21725178613541241 0 -0.21340894912720251 -0.20220723901554249 0 -0.2261076729774624 -0.2073993504842728 0 -0.20913207536471631 -0.21725178613541241 0 -0.19990851101197279 -0.19976720220726751 0 -0.21340894912720251 -0.20220723901554249 0 -0.20913207536471631 -0.21725178613541241 0 -0.19990851101197279 -0.19976720220726751 0 -0.20913207536471631 -0.21725178613541241 0 -0.19080108801979759 -0.21208874443724471 0 -0.19990851101197279 -0.19976720220726751 0 -0.18581637683488311 -0.20025278113283551 0 -0.19080108801979759 -0.21208874443724471 0 -0.19990851101197279 -0.19976720220726751 0 -0.18581637683488311 -0.20025278113283551 0 -0.19990851101197279 -0.19976720220726751 0 -0.19068494665923089 -0.18228261827912159 0 -0.19990851101197279 -0.19976720220726751 0 -0.19068494665923089 -0.18228261827912159 0 -0.19990851101197279 -0.19976720220726751 0 -0.19068494665923089 -0.18228261827912159 0 -0.2048607770558924 -0.18458276706967519 0 -0.21340894912720251 -0.20220723901554249 0 -0.21838237481253739 -0.18942128399132441 0 -0.2048607770558924 -0.18458276706967519 0 -0.19990851101197279 -0.19976720220726751 0 -0.21340894912720251 -0.20220723901554249 0 -0.2048607770558924 -0.18458276706967519 0 -0.21340894912720251 -0.20220723901554249 0 -0.21838237481253739 -0.18942128399132441 0 -0.2261076729774624 -0.2073993504842728 0 -0.2317101500507581 -0.1901714961372821 0 -0.238816709063573 -0.20002317657376559 0 -0.2261076729774624 -0.2073993504842728 0 -0.21838237481253739 -0.18942128399132441 0 -0.2317101500507581 -0.1901714961372821 0 -0.2261076729774624 -0.2073993504842728 0 -0.21838237481253739 -0.18942128399132441 0 -0.2261076729774624 -0.2073993504842728 0 -0.2317101500507581 -0.1901714961372821 0 -0.24945084820485081 -0.19086950092544649 0 -0.238816709063573 -0.20002317657376559 0 -0.24945084820485081 -0.19086950092544649 0 -0.238816709063573 -0.20002317657376559 0 -0.24843330845073699 -0.2140361993483276 0 -0.238816709063573 -0.20002317657376559 0 -0.24843330845073699 -0.2140361993483276 0 -0.2372169836012 -0.21190369923119021 0 -0.24843330845073699 -0.2140361993483276 0 -0.2372169836012 -0.21190369923119021 0 -0.23361479309876779 -0.22486968002108629 0 -0.2261076729774624 -0.2073993504842728 0 -0.2217981043817043 -0.22030292778239971 0 -0.23361479309876779 -0.22486968002108629 0 -0.2372169836012 -0.21190369923119021 0 -0.2261076729774624 -0.2073993504842728 0 -0.23361479309876779 -0.22486968002108629 0 -0.20913207536471631 -0.21725178613541241 0 -0.2261076729774624 -0.2073993504842728 0 -0.2217981043817043 -0.22030292778239971 0 -0.2261076729774624 -0.2073993504842728 0 -0.23361479309876779 -0.22486968002108629 0 -0.238816709063573 -0.20002317657376559 0 -0.2261076729774624 -0.2073993504842728 0 -0.238816709063573 -0.20002317657376559 0 -0.2372169836012 -0.21190369923119021 0 -0.2261076729774624 -0.2073993504842728 0 -0.21820462339945179 -0.23445009705826961 0 -0.2217981043817043 -0.22030292778239971 0 -0.23361479309876779 -0.22486968002108629 0 -0.21820462339945179 -0.23445009705826961 0 -0.23361479309876779 -0.22486968002108629 0 -0.22982231774232861 -0.23869646130506911 0 -0.23361479309876779 -0.22486968002108629 0 -0.24813053249196171 -0.22840723965215329 0 -0.24112191322007309 -0.24234000955789961 0 -0.23361479309876779 -0.22486968002108629 0 -0.24112191322007309 -0.24234000955789961 0 -0.24843330845073699 -0.2140361993483276 0 -0.23361479309876779 -0.22486968002108629 0 -0.24813053249196171 -0.22840723965215329 0 -0.23361479309876779 -0.22486968002108629 0 -0.24112191322007309 -0.24234000955789961 0 -0.22982231774232861 -0.23869646130506911 0 -0.24813053249196171 -0.22840723965215329 0 -0.24112191322007309 -0.24234000955789961 0 -0.25909383427646271 -0.23730408664819691 0 -0.22727717143418741 -0.25164840798112659 0 -0.24089276225510969 -0.2555074815248114 0 -0.24112191322007309 -0.24234000955789961 0 -0.22727717143418741 -0.25164840798112659 0 -0.21820462339945179 -0.23445009705826961 0 -0.22982231774232861 -0.23869646130506911 0 -0.22727717143418741 -0.25164840798112659 0 -0.24112191322007309 -0.24234000955789961 0 -0.22982231774232861 -0.23869646130506911 0 -0.22727717143418741 -0.25164840798112659 0 -0.21820462339945179 -0.23445009705826961 0 -0.20601319745177521 -0.14901589812311411 0 -0.21200775646464731 -0.16093228971630999 0 -0.22224033798562429 -0.15568193088839899 0 -0.20601319745177521 -0.14901589812311411 0 -0.22224033798562429 -0.15568193088839899 0 -0.20601319745177521 -0.14901589812311411 0 -0.22224033798562429 -0.15568193088839899 0 -0.22547435027163731 -0.1366417562057152 0 -0.20601319745177521 -0.14901589812311411 0 -0.22547435027163731 -0.1366417562057152 0 -0.20601319745177521 -0.14901589812311411 0 -0.2126652391457344 -0.13595457301237729 0 -0.2034790780536351 -0.1328969997954636 0 -0.20601319745177521 -0.14901589812311411 0 -0.2126652391457344 -0.13595457301237729 0 -0.22547435027163731 -0.1366417562057152 0 -0.2126652391457344 -0.13595457301237729 0 -0.21569433080589001 -0.1252636379252165 0 -0.22547435027163731 -0.1366417562057152 0 -0.2126652391457344 -0.13595457301237729 0 -0.21569433080589001 -0.1252636379252165 0 -0.2034790780536351 -0.1328969997954636 0 -0.21569433080589001 -0.1252636379252165 0 -0.2034790780536351 -0.1328969997954636 0 -0.20092361882965001 -0.1173877071182175 0 -0.2034790780536351 -0.1328969997954636 0 -0.19641210616782551 -0.13842222790030709 0 -0.1891625619746784 -0.13057328171258589 0 -0.20601319745177521 -0.14901589812311411 0 -0.2034790780536351 -0.1328969997954636 0 -0.19641210616782551 -0.13842222790030709 0 -0.2034790780536351 -0.1328969997954636 0 -0.1891625619746784 -0.13057328171258589 0 -0.20092361882965001 -0.1173877071182175 0 -0.18699358719121351 -0.1412027319700648 0 -0.19641210616782551 -0.13842222790030709 0 -0.1891625619746784 -0.13057328171258589 0 -0.18699358719121351 -0.1412027319700648 0 -0.20601319745177521 -0.14901589812311411 0 -0.18979123232938461 -0.14625018187566391 0 -0.18699358719121351 -0.1412027319700648 0 -0.20601319745177521 -0.14901589812311411 0 -0.20601319745177521 -0.14901589812311411 0 -0.18979123232938461 -0.14625018187566391 0 -0.19225018736616831 -0.1577669439417389 0 -0.18699358719121351 -0.1412027319700648 0 -0.20601319745177521 -0.14901589812311411 0 -0.19641210616782551 -0.13842222790030709 0 -0.20601319745177521 -0.14901589812311411 0 -0.19225018736616831 -0.1577669439417389 0 -0.20289295358102191 -0.16191701472404429 0 -0.20601319745177521 -0.14901589812311411 0 -0.19225018736616831 -0.1577669439417389 0 -0.18232288687650039 -0.1664311393397683 0 -0.18979123232938461 -0.14625018187566391 0 -0.19225018736616831 -0.1577669439417389 0 -0.18232288687650039 -0.1664311393397683 0 -0.19225018736616831 -0.1577669439417389 0 -0.19656047040843591 -0.1703499453136173 0 -0.19656047040843591 -0.1703499453136173 0 -0.20289295358102191 -0.16191701472404429 0 -0.20423319857420111 -0.1671290209789475 0 -0.19225018736616831 -0.1577669439417389 0 -0.19656047040843591 -0.1703499453136173 0 -0.20289295358102191 -0.16191701472404429 0 -0.19068494665923089 -0.18228261827912159 0 -0.2048607770558924 -0.18458276706967519 0 -0.21065707664761249 -0.1714432174983759 0 -0.19068494665923089 -0.18228261827912159 0 -0.21065707664761249 -0.1714432174983759 0 -0.19656047040843591 -0.1703499453136173 0 -0.19068494665923089 -0.18228261827912159 0 -0.21065707664761249 -0.1714432174983759 0 -0.18232288687650039 -0.1664311393397683 0 -0.19656047040843591 -0.1703499453136173 0 -0.19068494665923089 -0.18228261827912159 0 -0.21838237481253739 -0.18942128399132441 0 -0.21065707664761249 -0.1714432174983759 0 -0.21838237481253739 -0.18942128399132441 0 -0.2048607770558924 -0.18458276706967519 0 -0.21065707664761249 -0.1714432174983759 0 -0.21838237481253739 -0.18942128399132441 0 -0.21065707664761249 -0.1714432174983759 0 -0.22185862702549131 -0.17727867465076469 0 -0.21065707664761249 -0.1714432174983759 0 -0.21370960954762061 -0.16862048925262441 0 -0.22185862702549131 -0.17727867465076469 0 -0.20601319745177521 -0.14901589812311411 0 -0.20289295358102191 -0.16191701472404429 0 -0.21200775646464731 -0.16093228971630999 0 -0.20289295358102191 -0.16191701472404429 0 -0.20827338188744701 -0.16557357156161209 0 -0.21200775646464731 -0.16093228971630999 0 -0.20289295358102191 -0.16191701472404429 0 -0.20423319857420111 -0.1671290209789475 0 -0.20827338188744701 -0.16557357156161209 0 -0.19656047040843591 -0.1703499453136173 0 -0.20423319857420111 -0.1671290209789475 0 -0.21065707664761249 -0.1714432174983759 0 -0.20423319857420111 -0.1671290209789475 0 -0.21065707664761249 -0.1714432174983759 0 -0.20827338188744701 -0.16557357156161209 0 -0.21065707664761249 -0.1714432174983759 0 -0.20827338188744701 -0.16557357156161209 0 -0.21370960954762061 -0.16862048925262441 0 -0.21370960954762061 -0.16862048925262441 0 -0.21959965548455029 -0.16619134292844839 0 -0.22185862702549131 -0.17727867465076469 0 -0.20827338188744701 -0.16557357156161209 0 -0.21370960954762061 -0.16862048925262441 0 -0.21200775646464731 -0.16093228971630999 0 -0.21370960954762061 -0.16862048925262441 0 -0.21200775646464731 -0.16093228971630999 0 -0.21959965548455029 -0.16619134292844839 0 -0.21200775646464731 -0.16093228971630999 0 -0.21959965548455029 -0.16619134292844839 0 -0.22224033798562429 -0.15568193088839899 0 -0.2285081232523431 -0.16817423088359809 0 -0.23846747851947361 -0.1623479636536837 0 -0.22224033798562429 -0.15568193088839899 0 -0.23846747851947361 -0.1623479636536837 0 -0.22224033798562429 -0.15568193088839899 0 -0.21959965548455029 -0.16619134292844839 0 -0.2285081232523431 -0.16817423088359809 0 -0.22224033798562429 -0.15568193088839899 0 -0.21959965548455029 -0.16619134292844839 0 -0.2285081232523431 -0.16817423088359809 0 -0.22185862702549131 -0.17727867465076469 0 -0.21838237481253739 -0.18942128399132441 0 -0.2317101500507581 -0.1901714961372821 0 -0.22185862702549131 -0.17727867465076469 0 -0.2285081232523431 -0.16817423088359809 0 -0.22185862702549131 -0.17727867465076469 0 -0.2371005709334047 -0.1766981876628976 0 -0.2317101500507581 -0.1901714961372821 0 -0.22185862702549131 -0.17727867465076469 0 -0.2371005709334047 -0.1766981876628976 0 -0.2317101500507581 -0.1901714961372821 0 -0.24945084820485081 -0.19086950092544649 0 -0.2371005709334047 -0.1766981876628976 0 -0.24945084820485081 -0.19086950092544649 0 -0.2371005709334047 -0.1766981876628976 0 -0.25016913230936261 -0.17240238288739451 0 -0.23846747851947361 -0.1623479636536837 0 -0.25016913230936261 -0.17240238288739451 0 -0.25420230619477863 -0.15482733906928389 0 -0.2285081232523431 -0.16817423088359809 0 -0.2371005709334047 -0.1766981876628976 0 -0.23846747851947361 -0.1623479636536837 0 -0.2371005709334047 -0.1766981876628976 0 -0.23846747851947361 -0.1623479636536837 0 -0.25016913230936261 -0.17240238288739451 0 -0.23729214241455199 -0.13296785983586229 0 -0.24773158637179599 -0.13784907590133449 0 -0.25420230619477863 -0.15482733906928389 0 -0.23729214241455199 -0.13296785983586229 0 -0.25420230619477863 -0.15482733906928389 0 -0.23846747851947361 -0.1623479636536837 0 -0.2355353230772132 -0.14849336993058879 0 -0.25420230619477863 -0.15482733906928389 0 -0.2355353230772132 -0.14849336993058879 0 -0.23729214241455199 -0.13296785983586229 0 -0.25420230619477863 -0.15482733906928389 0 -0.23846747851947361 -0.1623479636536837 0 -0.2355353230772132 -0.14849336993058879 0 -0.22224033798562429 -0.15568193088839899 0 -0.2355353230772132 -0.14849336993058879 0 -0.22224033798562429 -0.15568193088839899 0 -0.22547435027163731 -0.1366417562057152 0 -0.22547435027163731 -0.1366417562057152 0 -0.2270273735879359 -0.12561369443712059 0 -0.24493550309149989 -0.1242676142883176 0 -0.21569433080589001 -0.1252636379252165 0 -0.22547435027163731 -0.1366417562057152 0 -0.2270273735879359 -0.12561369443712059 0 -0.2355353230772132 -0.14849336993058879 0 -0.22547435027163731 -0.1366417562057152 0 -0.23729214241455199 -0.13296785983586229 0 -0.22547435027163731 -0.1366417562057152 0 -0.23729214241455199 -0.13296785983586229 0 -0.24493550309149989 -0.1242676142883176 0 -0.22547435027163731 -0.1366417562057152 0 -0.24493550309149989 -0.1242676142883176 0 -0.24773158637179599 -0.13784907590133449 0 -0.25015781114086699 -0.13021156449678339 0 -0.25054680590234762 -0.1357199074809729 0 -0.23729214241455199 -0.13296785983586229 0 -0.24773158637179599 -0.13784907590133449 0 -0.24493550309149989 -0.1242676142883176 0 -0.24773158637179599 -0.13784907590133449 0 -0.24493550309149989 -0.1242676142883176 0 -0.25015781114086699 -0.13021156449678339 0 -0.24773158637179599 -0.13784907590133449 0 -0.24493550309149989 -0.1242676142883176 0 -0.2270273735879359 -0.12561369443712059 0 -0.24493550309149989 -0.1242676142883176 0 -0.23473697846743069 -0.11995610709599699 0 -0.24493550309149989 -0.1242676142883176 0 -0.23925258761060059 -0.096663894829112307 0 -0.24493550309149989 -0.1242676142883176 0 -0.23925258761060059 -0.096663894829112307 0 -0.23435905162283749 -0.1112971573060849 0 -0.24493550309149989 -0.1242676142883176 0 -0.2499414275722204 -0.1082810029409224 0 -0.23925258761060059 -0.096663894829112307 0 -0.24493550309149989 -0.1242676142883176 0 -0.23473697846743069 -0.11995610709599699 0 -0.23435905162283749 -0.1112971573060849 0 -0.23925258761060059 -0.096663894829112307 0 -0.24223472559176951 -0.087403199618550517 0 -0.2547936636837686 -0.09800193806183824 0 -0.2499414275722204 -0.1082810029409224 0 -0.23925258761060059 -0.096663894829112307 0 -0.2547936636837686 -0.09800193806183824 0 -0.22676873953520649 -0.1009778318978804 0 -0.22610144940944951 -0.1146203384191173 0 -0.23435905162283749 -0.1112971573060849 0 -0.23925258761060059 -0.096663894829112307 0 -0.22676873953520649 -0.1009778318978804 0 -0.23435905162283749 -0.1112971573060849 0 -0.23925258761060059 -0.096663894829112307 0 -0.22676873953520649 -0.1009778318978804 0 -0.22630336821911001 -0.087407059595431658 0 -0.22676873953520649 -0.1009778318978804 0 -0.22610144940944951 -0.1146203384191173 0 -0.214236085789724 -0.1082312386933716 0 -0.21569433080589001 -0.1252636379252165 0 -0.2270273735879359 -0.12561369443712059 0 -0.22610144940944951 -0.1146203384191173 0 -0.2270273735879359 -0.12561369443712059 0 -0.23473697846743069 -0.11995610709599699 0 -0.22610144940944951 -0.1146203384191173 0 -0.23473697846743069 -0.11995610709599699 0 -0.22610144940944951 -0.1146203384191173 0 -0.23435905162283749 -0.1112971573060849 0 -0.2482121184291475 -0.071109788353828224 0 -0.24223472559176951 -0.087403199618550517 0 -0.23356967212970109 -0.069060175369907162 0 -0.2482121184291475 -0.071109788353828224 0 -0.23356967212970109 -0.069060175369907162 0 -0.24255062164387331 -0.057276019828858819 0 -0.2482121184291475 -0.071109788353828224 0 -0.24255062164387331 -0.057276019828858819 0 -0.256303446774929 -0.05919404156470072 0 -0.23925258761060059 -0.096663894829112307 0 -0.24223472559176951 -0.087403199618550517 0 -0.23356967212970109 -0.069060175369907162 0 -0.23925258761060059 -0.096663894829112307 0 -0.23356967212970109 -0.069060175369907162 0 -0.23925258761060059 -0.096663894829112307 0 -0.22630336821911001 -0.087407059595431658 0 -0.23356967212970109 -0.069060175369907162 0 -0.22630336821911001 -0.087407059595431658 0 -0.23356967212970109 -0.069060175369907162 0 -0.2164112688140358 -0.078664616014084587 0 -0.22676873953520649 -0.1009778318978804 0 -0.22630336821911001 -0.087407059595431658 0 -0.2149439165033423 -0.091390547057791885 0 -0.22630336821911001 -0.087407059595431658 0 -0.2164112688140358 -0.078664616014084587 0 -0.2149439165033423 -0.091390547057791885 0 -0.23356967212970109 -0.069060175369907162 0 -0.21714800137819201 -0.064035548285439753 0 -0.2164112688140358 -0.078664616014084587 0 -0.21714800137819201 -0.064035548285439753 0 -0.2000995927011667 -0.07942076113007171 0 -0.21714800137819201 -0.064035548285439753 0 -0.2000995927011667 -0.07942076113007171 0 -0.1989158121004205 -0.065243369760241199 0 -0.21714800137819201 -0.064035548285439753 0 -0.2164112688140358 -0.078664616014084587 0 -0.2000995927011667 -0.07942076113007171 0 -0.2149439165033423 -0.091390547057791885 0 -0.2000995927011667 -0.07942076113007171 0 -0.20098445965480571 -0.099747369742006167 0 -0.2164112688140358 -0.078664616014084587 0 -0.2149439165033423 -0.091390547057791885 0 -0.2000995927011667 -0.07942076113007171 0 -0.2000995927011667 -0.07942076113007171 0 -0.20098445965480571 -0.099747369742006167 0 -0.18305118402414139 -0.094805973974703667 0 -0.2000995927011667 -0.07942076113007171 0 -0.18305118402414139 -0.094805973974703667 0 -0.18053999260355769 -0.073897100869581026 0 -0.2000995927011667 -0.07942076113007171 0 -0.18305118402414139 -0.094805973974703667 0 -0.2000995927011667 -0.07942076113007171 0 -0.1989158121004205 -0.065243369760241199 0 -0.18053999260355769 -0.073897100869581026 0 -0.1989158121004205 -0.065243369760241199 0 -0.18053999260355769 -0.073897100869581026 0 -0.18608275497537291 -0.058143926465828062 0 -0.21569433080589001 -0.1252636379252165 0 -0.22610144940944951 -0.1146203384191173 0 -0.214236085789724 -0.1082312386933716 0 -0.21569433080589001 -0.1252636379252165 0 -0.214236085789724 -0.1082312386933716 0 -0.20092361882965001 -0.1173877071182175 0 -0.214236085789724 -0.1082312386933716 0 -0.20098445965480571 -0.099747369742006167 0 -0.20092361882965001 -0.1173877071182175 0 -0.22676873953520649 -0.1009778318978804 0 -0.2149439165033423 -0.091390547057791885 0 -0.214236085789724 -0.1082312386933716 0 -0.2149439165033423 -0.091390547057791885 0 -0.214236085789724 -0.1082312386933716 0 -0.20098445965480571 -0.099747369742006167 0 -0.20098445965480571 -0.099747369742006167 0 -0.18783938629229871 -0.1088507325782526 0 -0.18305118402414139 -0.094805973974703667 0 -0.20098445965480571 -0.099747369742006167 0 -0.18783938629229871 -0.1088507325782526 0 -0.20092361882965001 -0.1173877071182175 0 -0.18783938629229871 -0.1088507325782526 0 -0.20092361882965001 -0.1173877071182175 0 -0.1809579660252206 -0.1207628356012149 0 -0.1891625619746784 -0.13057328171258589 0 -0.20092361882965001 -0.1173877071182175 0 -0.1809579660252206 -0.1207628356012149 0 -0.18783938629229871 -0.1088507325782526 0 -0.1809579660252206 -0.1207628356012149 0 -0.16600277534711619 -0.1101911868193356 0 -0.14895436667008979 -0.12557639966396639 0 -0.1659722712432696 -0.122479996975383 0 -0.16600277534711619 -0.1101911868193356 0 -0.1809579660252206 -0.1207628356012149 0 -0.1659722712432696 -0.122479996975383 0 -0.16600277534711619 -0.1101911868193356 0 -0.14895436667008979 -0.12557639966396639 0 -0.16600277534711619 -0.1101911868193356 0 -0.16600277534711619 -0.1101911868193356 0 -0.16504319061480099 -0.088094172409503874 0 -0.1510006781380063 -0.095656316894009066 0 -0.16600277534711619 -0.1101911868193356 0 -0.18305118402414139 -0.094805973974703667 0 -0.16504319061480099 -0.088094172409503874 0 -0.16600277534711619 -0.1101911868193356 0 -0.18305118402414139 -0.094805973974703667 0 -0.18783938629229871 -0.1088507325782526 0 -0.16600277534711619 -0.1101911868193356 0 -0.18305118402414139 -0.094805973974703667 0 -0.18305118402414139 -0.094805973974703667 0 -0.18053999260355769 -0.073897100869581026 0 -0.16504319061480099 -0.088094172409503874 0 -0.18053999260355769 -0.073897100869581026 0 -0.17072246200587321 -0.060135076793704723 0 -0.18608275497537291 -0.058143926465828062 0 -0.16082585728203461 -0.071555209350158688 0 -0.15509463803128301 -0.05768518991580418 0 -0.17072246200587321 -0.060135076793704723 0 -0.18053999260355769 -0.073897100869581026 0 -0.16082585728203461 -0.071555209350158688 0 -0.17072246200587321 -0.060135076793704723 0 -0.18053999260355769 -0.073897100869581026 0 -0.16082585728203461 -0.071555209350158688 0 -0.16504319061480099 -0.088094172409503874 0 -0.16082585728203461 -0.071555209350158688 0 -0.16504319061480099 -0.088094172409503874 0 -0.1506106359484464 -0.080837510081492869 0 -0.1506106359484464 -0.080837510081492869 0 -0.13861249239295639 -0.072605921684260971 0 -0.1390575092420494 -0.088326784376590903 0 -0.16504319061480099 -0.088094172409503874 0 -0.1506106359484464 -0.080837510081492869 0 -0.1510006781380063 -0.095656316894009066 0 -0.1506106359484464 -0.080837510081492869 0 -0.1390575092420494 -0.088326784376590903 0 -0.1510006781380063 -0.095656316894009066 0 -0.1491360788553345 -0.067923699234500923 0 -0.13861249239295639 -0.072605921684260971 0 -0.13922091889984209 -0.055775159393553209 0 -0.16082585728203461 -0.071555209350158688 0 -0.1491360788553345 -0.067923699234500923 0 -0.15509463803128301 -0.05768518991580418 0 -0.16082585728203461 -0.071555209350158688 0 -0.1506106359484464 -0.080837510081492869 0 -0.1491360788553345 -0.067923699234500923 0 -0.1506106359484464 -0.080837510081492869 0 -0.1491360788553345 -0.067923699234500923 0 -0.13861249239295639 -0.072605921684260971 0 -0.13861249239295639 -0.072605921684260971 0 -0.1278464382491723 -0.067163484875903207 0 -0.13922091889984209 -0.055775159393553209 0 -0.1197571942444613 -0.075385542509149139 0 -0.1278464382491723 -0.067163484875903207 0 -0.13014948843070559 -0.08042195490257438 0 -0.13861249239295639 -0.072605921684260971 0 -0.1278464382491723 -0.067163484875903207 0 -0.13014948843070559 -0.08042195490257438 0 -0.1231828409441334 -0.090502853074923187 0 -0.1390575092420494 -0.088326784376590903 0 -0.13772789856827011 -0.099631852409035521 0 -0.1231828409441334 -0.090502853074923187 0 -0.1390575092420494 -0.088326784376590903 0 -0.13014948843070559 -0.08042195490257438 0 -0.13861249239295639 -0.072605921684260971 0 -0.1390575092420494 -0.088326784376590903 0 -0.13014948843070559 -0.08042195490257438 0 -0.1231828409441334 -0.090502853074923187 0 -0.13772789856827011 -0.099631852409035521 0 -0.12784685045826491 -0.1052851109980257 0 -0.13772789856827011 -0.099631852409035521 0 -0.12784685045826491 -0.1052851109980257 0 -0.13772944435431581 -0.11030069730263579 0 -0.12784685045826491 -0.1052851109980257 0 -0.1267926195883918 -0.1168102518347761 0 -0.13772944435431581 -0.11030069730263579 0 -0.12819889191437051 -0.12870559378374119 0 -0.1267926195883918 -0.1168102518347761 0 -0.13865299923441779 -0.12134464652728789 0 -0.1267926195883918 -0.1168102518347761 0 -0.13865299923441779 -0.12134464652728789 0 -0.13772944435431581 -0.11030069730263579 0 -0.13772944435431581 -0.11030069730263579 0 -0.14737084402093939 -0.1155439034522607 0 -0.14756205910735501 -0.10685639526809571 0 -0.14895436667008979 -0.12557639966396639 0 -0.16600277534711619 -0.1101911868193356 0 -0.14737084402093939 -0.1155439034522607 0 -0.13865299923441779 -0.12134464652728789 0 -0.13772944435431581 -0.11030069730263579 0 -0.14737084402093939 -0.1155439034522607 0 -0.16600277534711619 -0.1101911868193356 0 -0.14737084402093939 -0.1155439034522607 0 -0.14756205910735501 -0.10685639526809571 0 -0.14275097923928781 -0.12614625332509899 0 -0.14895436667008979 -0.12557639966396639 0 -0.13865299923441779 -0.12134464652728789 0 -0.14895436667008979 -0.12557639966396639 0 -0.13865299923441779 -0.12134464652728789 0 -0.14737084402093939 -0.1155439034522607 0 -0.14895436667008979 -0.12557639966396639 0 -0.13865299923441779 -0.12134464652728789 0 -0.16600277534711619 -0.1101911868193356 0 -0.1510006781380063 -0.095656316894009066 0 -0.14756205910735501 -0.10685639526809571 0 -0.13772789856827011 -0.099631852409035521 0 -0.1510006781380063 -0.095656316894009066 0 -0.14756205910735501 -0.10685639526809571 0 -0.1390575092420494 -0.088326784376590903 0 -0.13772789856827011 -0.099631852409035521 0 -0.1510006781380063 -0.095656316894009066 0 -0.13772789856827011 -0.099631852409035521 0 -0.13772944435431581 -0.11030069730263579 0 -0.14756205910735501 -0.10685639526809571 0 -0.14510192289955709 -0.027759041100953109 0 -0.14937165061254329 -0.020576947869019809 0 -0.1723461797371191 -0.030621444644780529 0 -0.14510192289955709 -0.027759041100953109 0 -0.14937165061254329 -0.020576947869019809 0 -0.12779029218423349 -0.037478460349633189 0 -0.14937165061254329 -0.020576947869019809 0 -0.14025647051483309 -0.010274204549250199 0 -0.13668883891726141 -0.021388429051595451 0 -0.14937165061254329 -0.020576947869019809 0 -0.14025647051483309 -0.010274204549250199 0 -0.1484602837215527 0.0030264476282307702 0 -0.14025647051483309 -0.010274204549250199 0 -0.132233184108907 -0.0033595054462071069 0 -0.1293369423574354 -0.017224103438478602 0 -0.14025647051483309 -0.010274204549250199 0 -0.132233184108907 -0.0033595054462071069 0 -0.1484602837215527 0.0030264476282307702 0 -0.1206022179944108 -0.0093692107711630113 0 -0.132233184108907 -0.0033595054462071069 0 -0.1293369423574354 -0.017224103438478602 0 -0.1293369423574354 -0.017224103438478602 0 -0.13668883891726141 -0.021388429051595451 0 -0.12779029218423349 -0.037478460349633189 0 -0.14937165061254329 -0.020576947869019809 0 -0.12779029218423349 -0.037478460349633189 0 -0.14937165061254329 -0.020576947869019809 0 -0.13668883891726141 -0.021388429051595451 0 -0.12779029218423349 -0.037478460349633189 0 -0.14025647051483309 -0.010274204549250199 0 -0.1293369423574354 -0.017224103438478602 0 -0.13668883891726141 -0.021388429051595451 0 -0.12779029218423349 -0.037478460349633189 0 -0.13922091889984209 -0.055775159393553209 0 -0.14230500325582271 -0.040090421036544359 0 -0.14510192289955709 -0.027759041100953109 0 -0.12779029218423349 -0.037478460349633189 0 -0.14230500325582271 -0.040090421036544359 0 -0.1230621062449871 -0.055252475074138177 0 -0.1278464382491723 -0.067163484875903207 0 -0.13922091889984209 -0.055775159393553209 0 -0.1230621062449871 -0.055252475074138177 0 -0.12779029218423349 -0.037478460349633189 0 -0.13922091889984209 -0.055775159393553209 0 -0.13922091889984209 -0.055775159393553209 0 -0.15509463803128301 -0.05768518991580418 0 -0.1519436296212566 -0.046330209004437128 0 -0.13922091889984209 -0.055775159393553209 0 -0.14230500325582271 -0.040090421036544359 0 -0.1519436296212566 -0.046330209004437128 0 -0.1491360788553345 -0.067923699234500923 0 -0.13922091889984209 -0.055775159393553209 0 -0.15509463803128301 -0.05768518991580418 0 -0.14510192289955709 -0.027759041100953109 0 -0.14230500325582271 -0.040090421036544359 0 -0.15186080832887469 -0.034368008644160661 0 -0.1519436296212566 -0.046330209004437128 0 -0.15186080832887469 -0.034368008644160661 0 -0.16341869185618679 -0.042192188583974263 0 -0.14230500325582271 -0.040090421036544359 0 -0.1519436296212566 -0.046330209004437128 0 -0.15186080832887469 -0.034368008644160661 0 -0.15186080832887469 -0.034368008644160661 0 -0.1772027911021837 -0.036730824399674608 0 -0.1723461797371191 -0.030621444644780529 0 -0.15186080832887469 -0.034368008644160661 0 -0.16341869185618679 -0.042192188583974263 0 -0.1772027911021837 -0.036730824399674608 0 -0.15186080832887469 -0.034368008644160661 0 -0.1772027911021837 -0.036730824399674608 0 -0.1519436296212566 -0.046330209004437128 0 -0.16341869185618679 -0.042192188583974263 0 -0.16405580404261819 -0.049540199738263041 0 -0.16341869185618679 -0.042192188583974263 0 -0.16405580404261819 -0.049540199738263041 0 -0.17203042618600101 -0.043991701133335823 0 -0.16341869185618679 -0.042192188583974263 0 -0.1772027911021837 -0.036730824399674608 0 -0.17203042618600101 -0.043991701133335823 0 -0.15509463803128301 -0.05768518991580418 0 -0.16405580404261819 -0.049540199738263041 0 -0.17072246200587321 -0.060135076793704723 0 -0.15509463803128301 -0.05768518991580418 0 -0.1519436296212566 -0.046330209004437128 0 -0.16405580404261819 -0.049540199738263041 0 -0.16405580404261819 -0.049540199738263041 0 -0.17072246200587321 -0.060135076793704723 0 -0.17773572510037239 -0.049988834422593331 0 -0.16405580404261819 -0.049540199738263041 0 -0.17773572510037239 -0.049988834422593331 0 -0.17203042618600101 -0.043991701133335823 0 -0.17072246200587321 -0.060135076793704723 0 -0.17773572510037239 -0.049988834422593331 0 -0.18608275497537291 -0.058143926465828062 0 -0.17773572510037239 -0.049988834422593331 0 -0.18608275497537291 -0.058143926465828062 0 -0.1899306960032307 -0.044759921237936283 0 -0.1772027911021837 -0.036730824399674608 0 -0.1723461797371191 -0.030621444644780529 0 -0.19959043657468109 -0.033483848188607959 0 -0.1723461797371191 -0.030621444644780529 0 -0.19959043657468109 -0.033483848188607959 0 -0.17773572510037239 -0.049988834422593331 0 -0.17203042618600101 -0.043991701133335823 0 -0.1792249095979469 -0.043867820298385013 0 -0.1772027911021837 -0.036730824399674608 0 -0.17203042618600101 -0.043991701133335823 0 -0.1792249095979469 -0.043867820298385013 0 -0.1772027911021837 -0.036730824399674608 0 -0.1792249095979469 -0.043867820298385013 0 -0.1899306960032307 -0.044759921237936283 0 -0.17773572510037239 -0.049988834422593331 0 -0.1792249095979469 -0.043867820298385013 0 -0.1899306960032307 -0.044759921237936283 0 -0.18412337285506941 -0.02618317743118366 0 -0.1723461797371191 -0.030621444644780529 0 -0.19959043657468109 -0.033483848188607959 0 -0.17697601927902881 -0.018398752565645639 0 -0.18698596558121 -0.01173268712993312 0 -0.18758085582944889 -0.022228664325700531 0 -0.18412337285506941 -0.02618317743118366 0 -0.17697601927902881 -0.018398752565645639 0 -0.18758085582944889 -0.022228664325700531 0 -0.17697601927902881 -0.018398752565645639 0 -0.1723461797371191 -0.030621444644780529 0 -0.1663377991876461 -0.01829839169429082 0 -0.18412337285506941 -0.02618317743118366 0 -0.17697601927902881 -0.018398752565645639 0 -0.1723461797371191 -0.030621444644780529 0 -0.14510192289955709 -0.027759041100953109 0 -0.1723461797371191 -0.030621444644780529 0 -0.14937165061254329 -0.020576947869019809 0 -0.1723461797371191 -0.030621444644780529 0 -0.1663377991876461 -0.01829839169429082 0 -0.14510192289955709 -0.027759041100953109 0 -0.15186080832887469 -0.034368008644160661 0 -0.1723461797371191 -0.030621444644780529 0 -0.14937165061254329 -0.020576947869019809 0 -0.1663377991876461 -0.01829839169429082 0 -0.17095300904085309 -0.0036754353884064089 0 -0.14937165061254329 -0.020576947869019809 0 -0.17095300904085309 -0.0036754353884064089 0 -0.14937165061254329 -0.020576947869019809 0 -0.17095300904085309 -0.0036754353884064089 0 -0.1484602837215527 0.0030264476282307702 0 -0.17697601927902881 -0.018398752565645639 0 -0.1663377991876461 -0.01829839169429082 0 -0.17095300904085309 -0.0036754353884064089 0 -0.17697601927902881 -0.018398752565645639 0 -0.17095300904085309 -0.0036754353884064089 0 -0.18698596558121 -0.01173268712993312 0 -0.17095300904085309 -0.0036754353884064089 0 -0.18698596558121 -0.01173268712993312 0 -0.19127727227941829 -0.0018809895930268191 0 -0.18698596558121 -0.01173268712993312 0 -0.19127727227941829 -0.0018809895930268191 0 -0.19929053205538791 -0.0096169741230928488 0 -0.19127727227941829 -0.0018809895930268191 0 -0.19929053205538791 -0.0096169741230928488 0 -0.20662248725047749 0.002394071584091299 0 -0.19929053205538791 -0.0096169741230928488 0 -0.19428883709130601 -0.017395647292101371 0 -0.2026016582604819 -0.019735983162180851 0 -0.18698596558121 -0.01173268712993312 0 -0.19929053205538791 -0.0096169741230928488 0 -0.19428883709130601 -0.017395647292101371 0 -0.18698596558121 -0.01173268712993312 0 -0.19428883709130601 -0.017395647292101371 0 -0.18758085582944889 -0.022228664325700531 0 -0.19428883709130601 -0.017395647292101371 0 -0.18758085582944889 -0.022228664325700531 0 -0.19737690641107219 -0.02423575152048579 0 -0.18758085582944889 -0.022228664325700531 0 -0.19737690641107219 -0.02423575152048579 0 -0.19959043657468109 -0.033483848188607959 0 -0.18412337285506941 -0.02618317743118366 0 -0.18758085582944889 -0.022228664325700531 0 -0.19959043657468109 -0.033483848188607959 0 -0.19737690641107219 -0.02423575152048579 0 -0.2040791721479919 -0.02674331771318585 0 -0.19959043657468109 -0.033483848188607959 0 -0.19737690641107219 -0.02423575152048579 0 -0.2026016582604819 -0.019735983162180851 0 -0.2040791721479919 -0.02674331771318585 0 -0.19428883709130601 -0.017395647292101371 0 -0.19737690641107219 -0.02423575152048579 0 -0.2026016582604819 -0.019735983162180851 0 -0.2026016582604819 -0.019735983162180851 0 -0.21072248339171079 -0.023932229125637208 0 -0.21236658361128419 -0.01330292491806781 0 -0.2026016582604819 -0.019735983162180851 0 -0.2040791721479919 -0.02674331771318585 0 -0.21072248339171079 -0.023932229125637208 0 -0.2040791721479919 -0.02674331771318585 0 -0.19959043657468109 -0.033483848188607959 0 -0.20998394558271449 -0.031390978137718302 0 -0.2040791721479919 -0.02674331771318585 0 -0.21072248339171079 -0.023932229125637208 0 -0.20998394558271449 -0.031390978137718302 0 -0.21072248339171079 -0.023932229125637208 0 -0.21798135014313341 -0.028681335819257268 0 -0.20998394558271449 -0.031390978137718302 0 -0.21072248339171079 -0.023932229125637208 0 -0.21732219060465899 -0.02373883500341321 0 -0.21798135014313341 -0.028681335819257268 0 -0.21072248339171079 -0.023932229125637208 0 -0.21732219060465899 -0.02373883500341321 0 -0.21236658361128419 -0.01330292491806781 0 -0.19929053205538791 -0.0096169741230928488 0 -0.21236658361128419 -0.01330292491806781 0 -0.20662248725047749 0.002394071584091299 0 -0.21236658361128419 -0.01330292491806781 0 -0.22037676966889599 -0.0049780718079740771 0 -0.20662248725047749 0.002394071584091299 0 -0.21732219060465899 -0.02373883500341321 0 -0.21236658361128419 -0.01330292491806781 0 -0.22037676966889599 -0.0049780718079740771 0 -0.19929053205538791 -0.0096169741230928488 0 -0.2026016582604819 -0.019735983162180851 0 -0.21236658361128419 -0.01330292491806781 0 -0.1989158121004205 -0.065243369760241199 0 -0.20075340873013989 -0.052939505331573093 0 -0.20762822533045849 -0.057917542082475147 0 -0.1989158121004205 -0.065243369760241199 0 -0.18608275497537291 -0.058143926465828062 0 -0.20075340873013989 -0.052939505331573093 0 -0.18608275497537291 -0.058143926465828062 0 -0.20075340873013989 -0.052939505331573093 0 -0.1899306960032307 -0.044759921237936283 0 -0.1772027911021837 -0.036730824399674608 0 -0.2025447738754925 -0.039093640155188542 0 -0.1899306960032307 -0.044759921237936283 0 -0.1772027911021837 -0.036730824399674608 0 -0.2025447738754925 -0.039093640155188542 0 -0.1772027911021837 -0.036730824399674608 0 -0.2025447738754925 -0.039093640155188542 0 -0.19959043657468109 -0.033483848188607959 0 -0.20075340873013989 -0.052939505331573093 0 -0.2025447738754925 -0.039093640155188542 0 -0.1899306960032307 -0.044759921237936283 0 -0.21798135014313341 -0.028681335819257268 0 -0.20998394558271449 -0.031390978137718302 0 -0.2268346934122433 -0.03634625173243472 0 -0.2025447738754925 -0.039093640155188542 0 -0.21369567911308171 -0.049451744952646599 0 -0.22788675664880129 -0.041456455910701837 0 -0.19959043657468109 -0.033483848188607959 0 -0.20998394558271449 -0.031390978137718302 0 -0.2268346934122433 -0.03634625173243472 0 -0.2025447738754925 -0.039093640155188542 0 -0.19959043657468109 -0.033483848188607959 0 -0.2268346934122433 -0.03634625173243472 0 -0.19959043657468109 -0.033483848188607959 0 -0.2268346934122433 -0.03634625173243472 0 -0.2025447738754925 -0.039093640155188542 0 -0.22788675664880129 -0.041456455910701837 0 -0.21714800137819201 -0.064035548285439753 0 -0.1989158121004205 -0.065243369760241199 0 -0.20762822533045849 -0.057917542082475147 0 -0.20075340873013989 -0.052939505331573093 0 -0.21369567911308171 -0.049451744952646599 0 -0.20762822533045849 -0.057917542082475147 0 -0.20075340873013989 -0.052939505331573093 0 -0.2025447738754925 -0.039093640155188542 0 -0.21369567911308171 -0.049451744952646599 0 -0.21714800137819201 -0.064035548285439753 0 -0.21369567911308171 -0.049451744952646599 0 -0.20762822533045849 -0.057917542082475147 0 -0.23356967212970109 -0.069060175369907162 0 -0.22788675664880129 -0.041456455910701837 0 -0.21714800137819201 -0.064035548285439753 0 -0.21369567911308171 -0.049451744952646599 0 -0.22788675664880129 -0.041456455910701837 0 -0.23356967212970109 -0.069060175369907162 0 -0.21714800137819201 -0.064035548285439753 0 -0.22788675664880129 -0.041456455910701837 0 -0.2025447738754925 -0.039093640155188542 0 -0.22788675664880129 -0.041456455910701837 0 -0.2268346934122433 -0.03634625173243472 0 -0.2268346934122433 -0.03634625173243472 0 -0.24291505644455169 -0.038035726633664897 0 -0.22492300720503869 -0.027060586665783291 0 -0.22788675664880129 -0.041456455910701837 0 -0.2268346934122433 -0.03634625173243472 0 -0.24291505644455169 -0.038035726633664897 0 -0.2268346934122433 -0.03634625173243472 0 -0.22492300720503869 -0.027060586665783291 0 -0.22788675664880129 -0.041456455910701837 0 -0.2268346934122433 -0.03634625173243472 0 -0.2454582211301865 -0.036035001466110099 0 -0.24291505644455169 -0.038035726633664897 0 -0.22492300720503869 -0.027060586665783291 0 -0.2268346934122433 -0.03634625173243472 0 -0.24291505644455169 -0.038035726633664897 0 -0.22788675664880129 -0.041456455910701837 0 -0.24694009585206789 -0.043232936088569457 0 -0.2454582211301865 -0.036035001466110099 0 -0.22492300720503869 -0.027060586665783291 0 -0.22788675664880129 -0.041456455910701837 0 -0.24291505644455169 -0.038035726633664897 0 -0.24694009585206789 -0.043232936088569457 0 -0.2454582211301865 -0.036035001466110099 0 -0.24291505644455169 -0.038035726633664897 0 -0.24694009585206789 -0.043232936088569457 0 -0.24694009585206789 -0.043232936088569457 0 -0.24255062164387331 -0.057276019828858819 0 -0.256303446774929 -0.05919404156470072 0 -0.22788675664880129 -0.041456455910701837 0 -0.24694009585206789 -0.043232936088569457 0 -0.24255062164387331 -0.057276019828858819 0 -0.23356967212970109 -0.069060175369907162 0 -0.22788675664880129 -0.041456455910701837 0 -0.24255062164387331 -0.057276019828858819 0 -0.2318885639295932 -0.010697354837414521 0 -0.22037676966889599 -0.0049780718079740771 0 -0.22492300720503869 -0.027060586665783291 0 -0.2318885639295932 -0.010697354837414521 0 -0.22037676966889599 -0.0049780718079740771 0 -0.23352814825952689 0.0028281717398327298 0 -0.21732219060465899 -0.02373883500341321 0 -0.22037676966889599 -0.0049780718079740771 0 -0.22492300720503869 -0.027060586665783291 0 -0.22037676966889599 -0.0049780718079740771 0 -0.22492300720503869 -0.027060586665783291 0 -0.2318885639295932 -0.010697354837414521 0 -0.22492300720503869 -0.027060586665783291 0 -0.24103266044871349 -0.017952771731104839 0 -0.21798135014313341 -0.028681335819257268 0 -0.2268346934122433 -0.03634625173243472 0 -0.22492300720503869 -0.027060586665783291 0 -0.21732219060465899 -0.02373883500341321 0 -0.22492300720503869 -0.027060586665783291 0 -0.21732219060465899 -0.02373883500341321 0 -0.21798135014313341 -0.028681335819257268 0 -0.22492300720503869 -0.027060586665783291 0 -0.2454582211301865 -0.036035001466110099 0 -0.22492300720503869 -0.027060586665783291 0 -0.24103266044871349 -0.017952771731104839 0 -0.2454582211301865 -0.036035001466110099 0 -0.24103266044871349 -0.017952771731104839 0 -0.25604075244497909 -0.020361333684389318 0 -0.24103266044871349 -0.017952771731104839 0 -0.2395822340657911 -0.0063235157220421466 0 -0.25149437788016937 -0.0046167200476420773 0 -0.24103266044871349 -0.017952771731104839 0 -0.25149437788016937 -0.0046167200476420773 0 -0.25604075244497909 -0.020361333684389318 0 -0.2318885639295932 -0.010697354837414521 0 -0.24103266044871349 -0.017952771731104839 0 -0.2395822340657911 -0.0063235157220421466 0 -0.2318885639295932 -0.010697354837414521 0 -0.2395822340657911 -0.0063235157220421466 0 -0.23352814825952689 0.0028281717398327298 0 -0.2395822340657911 -0.0063235157220421466 0 -0.25149437788016937 -0.0046167200476420773 0 -0.24602198530169611 0.0071378954861516129 0 -0.25149437788016937 -0.0046167200476420773 0 -0.25604075244497909 -0.020361333684389318 0 -0.26646340826468679 -0.0083020357734775695 0 -0.25149437788016937 -0.0046167200476420773 0 -0.26646340826468679 -0.0083020357734775695 0 -0.26469448791009648 0.0023388586813538189 0 -0.25604075244497909 -0.020361333684389318 0 -0.26486897555295591 -0.026808804108635408 0 -0.27268734481347578 -0.02027939047945183 0 -0.25604075244497909 -0.020361333684389318 0 -0.27268734481347578 -0.02027939047945183 0 -0.26646340826468679 -0.0083020357734775695 0 -0.2454582211301865 -0.036035001466110099 0 -0.25604075244497909 -0.020361333684389318 0 -0.25993804990782782 -0.032834526483139378 0 -0.26486897555295591 -0.026808804108635408 0 -0.27080975504554111 -0.03375996578756113 0 -0.25993804990782782 -0.032834526483139378 0 -0.25604075244497909 -0.020361333684389318 0 -0.26486897555295591 -0.026808804108635408 0 -0.25993804990782782 -0.032834526483139378 0 -0.26486897555295591 -0.026808804108635408 0 -0.27268734481347578 -0.02027939047945183 0 -0.27080975504554111 -0.03375996578756113 0 -0.27268734481347578 -0.02027939047945183 0 -0.2782961858127932 -0.01185968647510938 0 -0.28660855099377852 -0.023731272346318461 0 -0.27268734481347578 -0.02027939047945183 0 -0.27818190171700902 -0.02786353740840487 0 -0.27080975504554111 -0.03375996578756113 0 -0.27268734481347578 -0.02027939047945183 0 -0.27818190171700902 -0.02786353740840487 0 -0.28660855099377852 -0.023731272346318461 0 -0.26646340826468679 -0.0083020357734775695 0 -0.26469448791009648 0.0023388586813538189 0 -0.27682146079248299 0.001653796049062162 0 -0.27268734481347578 -0.02027939047945183 0 -0.26646340826468679 -0.0083020357734775695 0 -0.2782961858127932 -0.01185968647510938 0 -0.26646340826468679 -0.0083020357734775695 0 -0.2782961858127932 -0.01185968647510938 0 -0.27682146079248299 0.001653796049062162 0 -0.28890016419954201 -0.0086395298253611856 0 -0.27682146079248299 0.001653796049062162 0 -0.29041810818679209 0.0058595739231274606 0 -0.2782961858127932 -0.01185968647510938 0 -0.28890016419954201 -0.0086395298253611856 0 -0.27682146079248299 0.001653796049062162 0 -0.28890016419954201 -0.0086395298253611856 0 -0.30188481379518062 -0.0054870724596643933 0 -0.29041810818679209 0.0058595739231274606 0 -0.2782961858127932 -0.01185968647510938 0 -0.28890016419954201 -0.0086395298253611856 0 -0.28660855099377852 -0.023731272346318461 0 -0.27818190171700902 -0.02786353740840487 0 -0.28660855099377852 -0.023731272346318461 0 -0.28147772054009079 -0.03566366035219326 0 -0.28660855099377852 -0.023731272346318461 0 -0.30157826526378639 -0.020140071563004 0 -0.30099329447803802 -0.031710541869634741 0 -0.28660855099377852 -0.023731272346318461 0 -0.30099329447803802 -0.031710541869634741 0 -0.29149759838698669 -0.037196197566466423 0 -0.28890016419954201 -0.0086395298253611856 0 -0.28660855099377852 -0.023731272346318461 0 -0.30157826526378639 -0.020140071563004 0 -0.30157826526378639 -0.020140071563004 0 -0.32060632386614712 -0.0143177953310733 0 -0.31368550702650838 -0.025478739189447801 0 -0.30157826526378639 -0.020140071563004 0 -0.30099329447803802 -0.031710541869634741 0 -0.31368550702650838 -0.025478739189447801 0 -0.30188481379518062 -0.0054870724596643933 0 -0.32060632386614712 -0.0143177953310733 0 -0.31367260191526247 0.0029315258150356639 0 -0.30157826526378639 -0.020140071563004 0 -0.30188481379518062 -0.0054870724596643933 0 -0.32060632386614712 -0.0143177953310733 0 -0.28890016419954201 -0.0086395298253611856 0 -0.30157826526378639 -0.020140071563004 0 -0.30188481379518062 -0.0054870724596643933 0 -0.29989774462329061 -0.044890207646679448 0 -0.31269210057387747 -0.038826762905892327 0 -0.31569081652453568 -0.059079905784750378 0 -0.29062026033468452 -0.055771970096049409 0 -0.29120545288028032 -0.068521003729350438 0 -0.31569081652453568 -0.059079905784750378 0 -0.29989774462329061 -0.044890207646679448 0 -0.29062026033468452 -0.055771970096049409 0 -0.31569081652453568 -0.059079905784750378 0 -0.30099329447803802 -0.031710541869634741 0 -0.31368550702650838 -0.025478739189447801 0 -0.31269210057387747 -0.038826762905892327 0 -0.30099329447803802 -0.031710541869634741 0 -0.29989774462329061 -0.044890207646679448 0 -0.29149759838698669 -0.037196197566466423 0 -0.30099329447803802 -0.031710541869634741 0 -0.29989774462329061 -0.044890207646679448 0 -0.31269210057387747 -0.038826762905892327 0 -0.29989774462329061 -0.044890207646679448 0 -0.29149759838698669 -0.037196197566466423 0 -0.28739147159278611 -0.04451352773769271 0 -0.28660855099377852 -0.023731272346318461 0 -0.29149759838698669 -0.037196197566466423 0 -0.28147772054009079 -0.03566366035219326 0 -0.29149759838698669 -0.037196197566466423 0 -0.28147772054009079 -0.03566366035219326 0 -0.28739147159278611 -0.04451352773769271 0 -0.29062026033468452 -0.055771970096049409 0 -0.27379725576387881 -0.061415512327704043 0 -0.29120545288028032 -0.068521003729350438 0 -0.28739147159278611 -0.04451352773769271 0 -0.29062026033468452 -0.055771970096049409 0 -0.27469410095336932 -0.045820642075057552 0 -0.29989774462329061 -0.044890207646679448 0 -0.28739147159278611 -0.04451352773769271 0 -0.29062026033468452 -0.055771970096049409 0 -0.29062026033468452 -0.055771970096049409 0 -0.26599343505533463 -0.045009416266436182 0 -0.29062026033468452 -0.055771970096049409 0 -0.27379725576387881 -0.061415512327704043 0 -0.26599343505533463 -0.045009416266436182 0 -0.29062026033468452 -0.055771970096049409 0 -0.27469410095336932 -0.045820642075057552 0 -0.26599343505533463 -0.045009416266436182 0 -0.28147772054009079 -0.03566366035219326 0 -0.27469410095336932 -0.045820642075057552 0 -0.27080975504554111 -0.03375996578756113 0 -0.27818190171700902 -0.02786353740840487 0 -0.28147772054009079 -0.03566366035219326 0 -0.27080975504554111 -0.03375996578756113 0 -0.28147772054009079 -0.03566366035219326 0 -0.28739147159278611 -0.04451352773769271 0 -0.27469410095336932 -0.045820642075057552 0 -0.27469410095336932 -0.045820642075057552 0 -0.26599343505533463 -0.045009416266436182 0 -0.27469410095336932 -0.045820642075057552 0 -0.26599343505533463 -0.045009416266436182 0 -0.27080975504554111 -0.03375996578756113 0 -0.2454582211301865 -0.036035001466110099 0 -0.26599343505533463 -0.045009416266436182 0 -0.2454582211301865 -0.036035001466110099 0 -0.26599343505533463 -0.045009416266436182 0 -0.25993804990782782 -0.032834526483139378 0 -0.2454582211301865 -0.036035001466110099 0 -0.24694009585206789 -0.043232936088569457 0 -0.26599343505533463 -0.045009416266436182 0 -0.24694009585206789 -0.043232936088569457 0 -0.26599343505533463 -0.045009416266436182 0 -0.26599343505533463 -0.045009416266436182 0 -0.27080975504554111 -0.03375996578756113 0 -0.25993804990782782 -0.032834526483139378 0 -0.27379725576387881 -0.061415512327704043 0 -0.26599343505533463 -0.045009416266436182 0 -0.256303446774929 -0.05919404156470072 0 -0.24694009585206789 -0.043232936088569457 0 -0.26599343505533463 -0.045009416266436182 0 -0.256303446774929 -0.05919404156470072 0 -0.27379725576387881 -0.061415512327704043 0 -0.256303446774929 -0.05919404156470072 0 -0.26672008923602492 -0.077962101673950485 0 -0.2482121184291475 -0.071109788353828224 0 -0.256303446774929 -0.05919404156470072 0 -0.26672008923602492 -0.077962101673950485 0 -0.24223472559176951 -0.087403199618550517 0 -0.26672008923602492 -0.077962101673950485 0 -0.24223472559176951 -0.087403199618550517 0 -0.26672008923602492 -0.077962101673950485 0 -0.2547936636837686 -0.09800193806183824 0 -0.2482121184291475 -0.071109788353828224 0 -0.24223472559176951 -0.087403199618550517 0 -0.26672008923602492 -0.077962101673950485 0 -0.26672008923602492 -0.077962101673950485 0 -0.2547936636837686 -0.09800193806183824 0 -0.27147650868744788 -0.1032248007913828 0 -0.26672008923602492 -0.077962101673950485 0 -0.27147650868744788 -0.1032248007913828 0 -0.2868849803777595 -0.092127989173780955 0 -0.26672008923602492 -0.077962101673950485 0 -0.29120545288028032 -0.068521003729350438 0 -0.27379725576387881 -0.061415512327704043 0 -0.26672008923602492 -0.077962101673950485 0 -0.29120545288028032 -0.068521003729350438 0 -0.24493550309149989 -0.1242676142883176 0 -0.2499414275722204 -0.1082810029409224 0 -0.26078395590301229 -0.1141905645844216 0 -0.24493550309149989 -0.1242676142883176 0 -0.26078395590301229 -0.1141905645844216 0 -0.24493550309149989 -0.1242676142883176 0 -0.26078395590301229 -0.1141905645844216 0 -0.25686259725314797 -0.12552450948530031 0 -0.26078395590301229 -0.1141905645844216 0 -0.27049496985601512 -0.12126929027558619 0 -0.25686259725314797 -0.12552450948530031 0 -0.26078395590301229 -0.1141905645844216 0 -0.2547936636837686 -0.09800193806183824 0 -0.27147650868744788 -0.1032248007913828 0 -0.2499414275722204 -0.1082810029409224 0 -0.26078395590301229 -0.1141905645844216 0 -0.2547936636837686 -0.09800193806183824 0 -0.27147650868744788 -0.1032248007913828 0 -0.28532311841400171 -0.11808463937231101 0 -0.2868849803777595 -0.092127989173780955 0 -0.26078395590301229 -0.1141905645844216 0 -0.27147650868744788 -0.1032248007913828 0 -0.27049496985601512 -0.12126929027558619 0 -0.27147650868744788 -0.1032248007913828 0 -0.27049496985601512 -0.12126929027558619 0 -0.28532311841400171 -0.11808463937231101 0 -0.28532311841400171 -0.11808463937231101 0 -0.30337456020764958 -0.1079433137451032 0 -0.30170837443558002 -0.121505740645745 0 -0.28532311841400171 -0.11808463937231101 0 -0.30337456020764958 -0.1079433137451032 0 -0.2868849803777595 -0.092127989173780955 0 -0.30337456020764958 -0.1079433137451032 0 -0.2868849803777595 -0.092127989173780955 0 -0.30110395339415102 -0.093523143116526292 0 -0.30337456020764958 -0.1079433137451032 0 -0.30110395339415102 -0.093523143116526292 0 -0.31762279907574242 -0.10185535623900149 0 -0.30337456020764958 -0.1079433137451032 0 -0.30170837443558002 -0.121505740645745 0 -0.31771481730251838 -0.12507388098997449 0 -0.29120545288028032 -0.068521003729350438 0 -0.2868849803777595 -0.092127989173780955 0 -0.29833954001822671 -0.081881803726048433 0 -0.26672008923602492 -0.077962101673950485 0 -0.29120545288028032 -0.068521003729350438 0 -0.2868849803777595 -0.092127989173780955 0 -0.2868849803777595 -0.092127989173780955 0 -0.29833954001822671 -0.081881803726048433 0 -0.30110395339415102 -0.093523143116526292 0 -0.29833954001822671 -0.081881803726048433 0 -0.30926557677103123 -0.083460591839776277 0 -0.30614074290065618 -0.072996066300316187 0 -0.30110395339415102 -0.093523143116526292 0 -0.30926557677103123 -0.083460591839776277 0 -0.31762279907574242 -0.10185535623900149 0 -0.29833954001822671 -0.081881803726048433 0 -0.30110395339415102 -0.093523143116526292 0 -0.30926557677103123 -0.083460591839776277 0 -0.30926557677103123 -0.083460591839776277 0 -0.30614074290065618 -0.072996066300316187 0 -0.31706201783817178 -0.07437567454127246 0 -0.29120545288028032 -0.068521003729350438 0 -0.31569081652453568 -0.059079905784750378 0 -0.29120545288028032 -0.068521003729350438 0 -0.30614074290065618 -0.072996066300316187 0 -0.31569081652453568 -0.059079905784750378 0 -0.29120545288028032 -0.068521003729350438 0 -0.29833954001822671 -0.081881803726048433 0 -0.30614074290065618 -0.072996066300316187 0 -0.30614074290065618 -0.072996066300316187 0 -0.31706201783817178 -0.07437567454127246 0 -0.31569081652453568 -0.059079905784750378 0 -0.31706201783817178 -0.07437567454127246 0 -0.32925076199855818 -0.072253978182437811 0 -0.31569081652453568 -0.059079905784750378 0 -0.30926557677103123 -0.083460591839776277 0 -0.326681570054007 -0.088765126838315792 0 -0.31762279907574242 -0.10185535623900149 0 -0.30926557677103123 -0.083460591839776277 0 -0.31706201783817178 -0.07437567454127246 0 -0.326681570054007 -0.088765126838315792 0 -0.31706201783817178 -0.07437567454127246 0 -0.326681570054007 -0.088765126838315792 0 -0.32925076199855818 -0.072253978182437811 0 -0.326681570054007 -0.088765126838315792 0 -0.3413954408383002 -0.084749241971869532 0 -0.32925076199855818 -0.072253978182437811 0 -0.3413954408383002 -0.084749241971869532 0 -0.32925076199855818 -0.072253978182437811 0 -0.326681570054007 -0.088765126838315792 0 -0.3413954408383002 -0.084749241971869532 0 -0.34034667699695381 -0.1000701459171025 0 -0.32925076199855818 -0.072253978182437811 0 -0.34682641773223449 -0.070064737679399414 0 -0.33617035928819139 -0.052266641389336829 0 -0.3413954408383002 -0.084749241971869532 0 -0.32925076199855818 -0.072253978182437811 0 -0.34682641773223449 -0.070064737679399414 0 -0.31762279907574242 -0.10185535623900149 0 -0.33091252137027299 -0.1088607961431242 0 -0.31771481730251838 -0.12507388098997449 0 -0.33091252137027299 -0.1088607961431242 0 -0.33254476808501371 -0.1235674953542242 0 -0.31771481730251838 -0.12507388098997449 0 -0.30337456020764958 -0.1079433137451032 0 -0.31762279907574242 -0.10185535623900149 0 -0.31771481730251838 -0.12507388098997449 0 -0.326681570054007 -0.088765126838315792 0 -0.31762279907574242 -0.10185535623900149 0 -0.33091252137027299 -0.1088607961431242 0 -0.326681570054007 -0.088765126838315792 0 -0.33091252137027299 -0.1088607961431242 0 -0.34034667699695381 -0.1000701459171025 0 -0.33091252137027299 -0.1088607961431242 0 -0.34034667699695381 -0.1000701459171025 0 -0.34878661977855557 -0.1253180937282963 0 -0.33091252137027299 -0.1088607961431242 0 -0.33254476808501371 -0.1235674953542242 0 -0.34878661977855557 -0.1253180937282963 0 -0.36443651223705997 -0.1084554485268331 0 -0.34878661977855557 -0.1253180937282963 0 -0.36114523128295362 -0.12641806659196711 0 -0.35359626171401748 -0.09718993892639341 0 -0.36443651223705997 -0.1084554485268331 0 -0.34878661977855557 -0.1253180937282963 0 -0.35359626171401748 -0.09718993892639341 0 -0.34878661977855557 -0.1253180937282963 0 -0.35359626171401748 -0.09718993892639341 0 -0.36443651223705997 -0.1084554485268331 0 -0.3564959759558084 -0.084536548192711197 0 -0.34034667699695381 -0.1000701459171025 0 -0.35359626171401748 -0.09718993892639341 0 -0.34878661977855557 -0.1253180937282963 0 -0.35359626171401748 -0.09718993892639341 0 -0.36443651223705997 -0.1084554485268331 0 -0.3413954408383002 -0.084749241971869532 0 -0.34034667699695381 -0.1000701459171025 0 -0.35359626171401748 -0.09718993892639341 0 -0.37101338915222848 -0.098215606805811109 0 -0.36443651223705997 -0.1084554485268331 0 -0.38108173257082439 -0.1081409674856041 0 -0.36443651223705997 -0.1084554485268331 0 -0.3564959759558084 -0.084536548192711197 0 -0.37101338915222848 -0.098215606805811109 0 -0.36443651223705997 -0.1084554485268331 0 -0.3564959759558084 -0.084536548192711197 0 -0.36443651223705997 -0.1084554485268331 0 -0.37237231000091098 -0.1323600752500218 0 -0.36443651223705997 -0.1084554485268331 0 -0.36114523128295362 -0.12641806659196711 0 -0.37237231000091098 -0.1323600752500218 0 -0.36443651223705997 -0.1084554485268331 0 -0.37808018615973571 -0.1224929794463793 0 -0.38108173257082439 -0.1081409674856041 0 -0.36443651223705997 -0.1084554485268331 0 -0.37237231000091098 -0.1323600752500218 0 -0.37808018615973571 -0.1224929794463793 0 -0.36443651223705997 -0.1084554485268331 0 -0.37808018615973571 -0.1224929794463793 0 -0.34682641773223449 -0.070064737679399414 0 -0.36413846785426041 -0.071637641365822652 0 -0.35519338524783162 -0.054422980640452243 0 -0.34682641773223449 -0.070064737679399414 0 -0.3564959759558084 -0.084536548192711197 0 -0.36413846785426041 -0.071637641365822652 0 -0.3413954408383002 -0.084749241971869532 0 -0.34682641773223449 -0.070064737679399414 0 -0.3564959759558084 -0.084536548192711197 0 -0.3413954408383002 -0.084749241971869532 0 -0.35359626171401748 -0.09718993892639341 0 -0.3413954408383002 -0.084749241971869532 0 -0.35359626171401748 -0.09718993892639341 0 -0.3564959759558084 -0.084536548192711197 0 -0.3564959759558084 -0.084536548192711197 0 -0.37109169597679209 -0.084924201564034504 0 -0.36413846785426041 -0.071637641365822652 0 -0.37101338915222848 -0.098215606805811109 0 -0.3564959759558084 -0.084536548192711197 0 -0.37109169597679209 -0.084924201564034504 0 -0.36413846785426041 -0.071637641365822652 0 -0.37649380180932701 -0.061343147102957643 0 -0.38118639673849047 -0.076263530907057411 0 -0.37109169597679209 -0.084924201564034504 0 -0.36413846785426041 -0.071637641365822652 0 -0.38118639673849047 -0.076263530907057411 0 -0.35519338524783162 -0.054422980640452243 0 -0.37119862759260702 -0.043844527297022297 0 -0.37649380180932701 -0.061343147102957643 0 -0.36413846785426041 -0.071637641365822652 0 -0.35519338524783162 -0.054422980640452243 0 -0.37649380180932701 -0.061343147102957643 0 -0.34682641773223449 -0.070064737679399414 0 -0.35519338524783162 -0.054422980640452243 0 -0.33617035928819139 -0.052266641389336829 0 -0.35519338524783162 -0.054422980640452243 0 -0.34997214657680781 -0.03267034407704824 0 -0.33617035928819139 -0.052266641389336829 0 -0.35519338524783162 -0.054422980640452243 0 -0.34997214657680781 -0.03267034407704824 0 -0.37119862759260702 -0.043844527297022297 0 -0.34997214657680781 -0.03267034407704824 0 -0.37119862759260702 -0.043844527297022297 0 -0.36663136539874158 -0.02557685058354555 0 -0.36663136539874158 -0.02557685058354555 0 -0.36767503845995908 -0.01050290338112116 0 -0.37926818666156548 -0.011964041464868361 0 -0.36767503845995908 -0.01050290338112116 0 -0.35141205754482607 -0.004948375945262231 0 -0.37532756199792711 0.001896406901583601 0 -0.36663136539874158 -0.02557685058354555 0 -0.36767503845995908 -0.01050290338112116 0 -0.35141205754482607 -0.004948375945262231 0 -0.36767503845995908 -0.01050290338112116 0 -0.37926818666156548 -0.011964041464868361 0 -0.37532756199792711 0.001896406901583601 0 -0.36663136539874158 -0.02557685058354555 0 -0.35141205754482607 -0.004948375945262231 0 -0.34997214657680781 -0.03267034407704824 0 -0.36663136539874158 -0.02557685058354555 0 -0.35141205754482607 -0.004948375945262231 0 -0.34997214657680781 -0.03267034407704824 0 -0.35141205754482607 -0.004948375945262231 0 -0.33638292505619177 -0.016555002701577441 0 -0.34997214657680781 -0.03267034407704824 0 -0.33638292505619177 -0.016555002701577441 0 -0.33136151101777239 -0.031434931925386989 0 -0.33638292505619177 -0.016555002701577441 0 -0.32060632386614712 -0.0143177953310733 0 -0.33136151101777239 -0.031434931925386989 0 -0.33638292505619177 -0.016555002701577441 0 -0.32060632386614712 -0.0143177953310733 0 -0.32856258627540569 0.00059643377088357198 0 -0.35141205754482607 -0.004948375945262231 0 -0.33638292505619177 -0.016555002701577441 0 -0.32856258627540569 0.00059643377088357198 0 -0.32060632386614712 -0.0143177953310733 0 -0.31367260191526247 0.0029315258150356639 0 -0.32856258627540569 0.00059643377088357198 0 -0.32060632386614712 -0.0143177953310733 0 -0.31368550702650838 -0.025478739189447801 0 -0.33136151101777239 -0.031434931925386989 0 -0.31269210057387747 -0.038826762905892327 0 -0.32397869685109432 -0.045402060501341629 0 -0.33136151101777239 -0.031434931925386989 0 -0.31368550702650838 -0.025478739189447801 0 -0.31269210057387747 -0.038826762905892327 0 -0.33136151101777239 -0.031434931925386989 0 -0.31269210057387747 -0.038826762905892327 0 -0.32397869685109432 -0.045402060501341629 0 -0.31569081652453568 -0.059079905784750378 0 -0.32397869685109432 -0.045402060501341629 0 -0.31569081652453568 -0.059079905784750378 0 -0.33617035928819139 -0.052266641389336829 0 -0.32925076199855818 -0.072253978182437811 0 -0.31569081652453568 -0.059079905784750378 0 -0.33617035928819139 -0.052266641389336829 0 -0.32397869685109432 -0.045402060501341629 0 -0.33617035928819139 -0.052266641389336829 0 -0.33136151101777239 -0.031434931925386989 0 -0.34997214657680781 -0.03267034407704824 0 -0.33617035928819139 -0.052266641389336829 0 -0.33136151101777239 -0.031434931925386989 0 -0.30408682548571869 -0.25489799507937688 0 -0.30622793601561787 -0.23753501100840649 0 -0.28998462699906652 -0.2433045036425783 0 -0.31480406971123059 -0.25081407358946478 0 -0.30408682548571869 -0.25489799507937688 0 -0.30622793601561787 -0.23753501100840649 0 -0.30622793601561787 -0.23753501100840649 0 -0.30493279753545882 -0.2204057767695487 0 -0.32079994499768788 -0.24091696666410409 0 -0.30622793601561787 -0.23753501100840649 0 -0.30493279753545882 -0.2204057767695487 0 -0.28998462699906652 -0.2433045036425783 0 -0.30493279753545882 -0.2204057767695487 0 -0.28998462699906652 -0.2433045036425783 0 -0.30493279753545882 -0.2204057767695487 0 -0.28998462699906652 -0.2433045036425783 0 -0.28519461417776448 -0.21820447444671451 0 -0.28998462699906652 -0.2433045036425783 0 -0.27507936454695531 -0.2329185898266902 0 -0.28519461417776448 -0.21820447444671451 0 -0.27190929522860202 -0.2464400154452242 0 -0.25909383427646271 -0.23730408664819691 0 -0.27507936454695531 -0.2329185898266902 0 -0.28998462699906652 -0.2433045036425783 0 -0.27190929522860202 -0.2464400154452242 0 -0.27507936454695531 -0.2329185898266902 0 -0.25783009521265821 -0.25272765795920332 0 -0.24112191322007309 -0.24234000955789961 0 -0.25909383427646271 -0.23730408664819691 0 -0.25783009521265821 -0.25272765795920332 0 -0.27190929522860202 -0.2464400154452242 0 -0.25909383427646271 -0.23730408664819691 0 -0.24813053249196171 -0.22840723965215329 0 -0.25909383427646271 -0.23730408664819691 0 -0.26417025476249401 -0.2198558516830488 0 -0.24843330845073699 -0.2140361993483276 0 -0.24813053249196171 -0.22840723965215329 0 -0.26417025476249401 -0.2198558516830488 0 -0.25909383427646271 -0.23730408664819691 0 -0.26417025476249401 -0.2198558516830488 0 -0.27507936454695531 -0.2329185898266902 0 -0.26417025476249401 -0.2198558516830488 0 -0.27507936454695531 -0.2329185898266902 0 -0.28519461417776448 -0.21820447444671451 0 -0.26417025476249401 -0.2198558516830488 0 -0.27513934484992802 -0.20896100812416499 0 -0.26316987670422182 -0.19923740883076929 0 -0.26417025476249401 -0.2198558516830488 0 -0.27513934484992802 -0.20896100812416499 0 -0.28519461417776448 -0.21820447444671451 0 -0.24843330845073699 -0.2140361993483276 0 -0.26417025476249401 -0.2198558516830488 0 -0.26316987670422182 -0.19923740883076929 0 -0.24945084820485081 -0.19086950092544649 0 -0.24843330845073699 -0.2140361993483276 0 -0.26316987670422182 -0.19923740883076929 0 -0.24945084820485081 -0.19086950092544649 0 -0.26316987670422182 -0.19923740883076929 0 -0.27111246997500499 -0.17668681830270561 0 -0.28802263375523168 -0.1985462975361274 0 -0.27111246997500499 -0.17668681830270561 0 -0.26316987670422182 -0.19923740883076929 0 -0.28802263375523168 -0.1985462975361274 0 -0.27111246997500499 -0.17668681830270561 0 -0.27513934484992802 -0.20896100812416499 0 -0.26316987670422182 -0.19923740883076929 0 -0.28802263375523168 -0.1985462975361274 0 -0.28802263375523168 -0.1985462975361274 0 -0.3037727153873726 -0.1968544526576278 0 -0.29404315023315619 -0.1742346915190916 0 -0.30493279753545882 -0.2204057767695487 0 -0.28802263375523168 -0.1985462975361274 0 -0.30493279753545882 -0.2204057767695487 0 -0.28802263375523168 -0.1985462975361274 0 -0.28519461417776448 -0.21820447444671451 0 -0.27513934484992802 -0.20896100812416499 0 -0.28802263375523168 -0.1985462975361274 0 -0.28519461417776448 -0.21820447444671451 0 -0.30493279753545882 -0.2204057767695487 0 -0.31115934379822019 -0.21086748699113569 0 -0.3037727153873726 -0.1968544526576278 0 -0.30493279753545882 -0.2204057767695487 0 -0.28802263375523168 -0.1985462975361274 0 -0.3037727153873726 -0.1968544526576278 0 -0.30493279753545882 -0.2204057767695487 0 -0.31115934379822019 -0.21086748699113569 0 -0.31424849788073661 -0.21729305050872219 0 -0.30493279753545882 -0.2204057767695487 0 -0.31115934379822019 -0.21086748699113569 0 -0.31115934379822019 -0.21086748699113569 0 -0.3037727153873726 -0.1968544526576278 0 -0.32201972437803772 -0.1968930132373686 0 -0.31056287614144562 -0.16270751865473121 0 -0.29404315023315619 -0.1742346915190916 0 -0.31494338007997652 -0.1799968826102771 0 -0.3037727153873726 -0.1968544526576278 0 -0.29404315023315619 -0.1742346915190916 0 -0.31494338007997652 -0.1799968826102771 0 -0.31056287614144562 -0.16270751865473121 0 -0.29404315023315619 -0.1742346915190916 0 -0.2972618918727194 -0.14458307800558581 0 -0.29404315023315619 -0.1742346915190916 0 -0.27272362519361998 -0.15773699669709321 0 -0.2972618918727194 -0.14458307800558581 0 -0.28802263375523168 -0.1985462975361274 0 -0.29404315023315619 -0.1742346915190916 0 -0.27111246997500499 -0.17668681830270561 0 -0.24945084820485081 -0.19086950092544649 0 -0.27111246997500499 -0.17668681830270561 0 -0.25016913230936261 -0.17240238288739451 0 -0.27111246997500499 -0.17668681830270561 0 -0.25016913230936261 -0.17240238288739451 0 -0.25420230619477863 -0.15482733906928389 0 -0.27111246997500499 -0.17668681830270561 0 -0.25420230619477863 -0.15482733906928389 0 -0.29404315023315619 -0.1742346915190916 0 -0.27111246997500499 -0.17668681830270561 0 -0.27272362519361998 -0.15773699669709321 0 -0.27111246997500499 -0.17668681830270561 0 -0.27272362519361998 -0.15773699669709321 0 -0.25420230619477863 -0.15482733906928389 0 -0.27272362519361998 -0.15773699669709321 0 -0.2551569869082092 -0.14474130804615071 0 -0.27390434888753362 -0.14015149274327929 0 -0.24773158637179599 -0.13784907590133449 0 -0.25420230619477863 -0.15482733906928389 0 -0.2551569869082092 -0.14474130804615071 0 -0.27272362519361998 -0.15773699669709321 0 -0.25420230619477863 -0.15482733906928389 0 -0.2551569869082092 -0.14474130804615071 0 -0.2551569869082092 -0.14474130804615071 0 -0.25054680590234762 -0.1357199074809729 0 -0.27390434888753362 -0.14015149274327929 0 -0.25054680590234762 -0.1357199074809729 0 -0.27390434888753362 -0.14015149274327929 0 -0.25686259725314797 -0.12552450948530031 0 -0.25054680590234762 -0.1357199074809729 0 -0.27390434888753362 -0.14015149274327929 0 -0.25686259725314797 -0.12552450948530031 0 -0.25015781114086699 -0.13021156449678339 0 -0.25054680590234762 -0.1357199074809729 0 -0.24493550309149989 -0.1242676142883176 0 -0.25686259725314797 -0.12552450948530031 0 -0.25015781114086699 -0.13021156449678339 0 -0.24773158637179599 -0.13784907590133449 0 -0.2551569869082092 -0.14474130804615071 0 -0.25054680590234762 -0.1357199074809729 0 -0.27049496985601512 -0.12126929027558619 0 -0.25686259725314797 -0.12552450948530031 0 -0.27390434888753362 -0.14015149274327929 0 -0.27049496985601512 -0.12126929027558619 0 -0.28532311841400171 -0.11808463937231101 0 -0.27390434888753362 -0.14015149274327929 0 -0.28532311841400171 -0.11808463937231101 0 -0.30170837443558002 -0.121505740645745 0 -0.2972618918727194 -0.14458307800558581 0 -0.28532311841400171 -0.11808463937231101 0 -0.27390434888753362 -0.14015149274327929 0 -0.2972618918727194 -0.14458307800558581 0 -0.27272362519361998 -0.15773699669709321 0 -0.27390434888753362 -0.14015149274327929 0 -0.2972618918727194 -0.14458307800558581 0 -0.27390434888753362 -0.14015149274327929 0 -0.2972618918727194 -0.14458307800558581 0 -0.31056287614144562 -0.16270751865473121 0 -0.2972618918727194 -0.14458307800558581 0 -0.32061943485790512 -0.1490146632678922 0 -0.2972618918727194 -0.14458307800558581 0 -0.32061943485790512 -0.1490146632678922 0 -0.30170837443558002 -0.121505740645745 0 -0.2972618918727194 -0.14458307800558581 0 -0.31771481730251838 -0.12507388098997449 0 -0.2972618918727194 -0.14458307800558581 0 -0.31771481730251838 -0.12507388098997449 0 -0.32061943485790512 -0.1490146632678922 0 -0.31771481730251838 -0.12507388098997449 0 -0.32061943485790512 -0.1490146632678922 0 -0.33276511388870772 -0.13501721055550189 0 -0.33254476808501371 -0.1235674953542242 0 -0.31771481730251838 -0.12507388098997449 0 -0.33276511388870772 -0.13501721055550189 0 -0.32061943485790512 -0.1490146632678922 0 -0.34397697784309089 -0.15344624853019859 0 -0.32061943485790512 -0.1490146632678922 0 -0.34397697784309089 -0.15344624853019859 0 -0.3259465236634706 -0.1657082778708093 0 -0.32061943485790512 -0.1490146632678922 0 -0.33276511388870772 -0.13501721055550189 0 -0.34397697784309089 -0.15344624853019859 0 -0.33276511388870772 -0.13501721055550189 0 -0.34878661977855557 -0.1253180937282963 0 -0.34397697784309089 -0.15344624853019859 0 -0.33254476808501371 -0.1235674953542242 0 -0.33276511388870772 -0.13501721055550189 0 -0.34878661977855557 -0.1253180937282963 0 -0.34878661977855557 -0.1253180937282963 0 -0.35898548311528788 -0.13953864886271741 0 -0.34397697784309089 -0.15344624853019859 0 -0.34878661977855557 -0.1253180937282963 0 -0.34397697784309089 -0.15344624853019859 0 -0.34878661977855557 -0.1253180937282963 0 -0.35898548311528788 -0.13953864886271741 0 -0.36114523128295362 -0.12641806659196711 0 -0.35898548311528788 -0.13953864886271741 0 -0.36114523128295362 -0.12641806659196711 0 -0.37237231000091098 -0.1323600752500218 0 -0.35898548311528788 -0.13953864886271741 0 -0.37237231000091098 -0.1323600752500218 0 -0.36695920150111822 -0.1499119160729436 0 -0.37237231000091098 -0.1323600752500218 0 -0.36695920150111822 -0.1499119160729436 0 -0.38030810776476109 -0.1562647019732108 0 -0.35898548311528788 -0.13953864886271741 0 -0.36695920150111822 -0.1499119160729436 0 -0.35733794072219438 -0.15598120035380489 0 -0.35898548311528788 -0.13953864886271741 0 -0.35733794072219438 -0.15598120035380489 0 -0.34397697784309089 -0.15344624853019859 0 -0.35733794072219438 -0.15598120035380489 0 -0.34397697784309089 -0.15344624853019859 0 -0.34397697784309089 -0.15344624853019859 0 -0.35408787841661882 -0.1705048304494981 0 -0.33917971175055511 -0.18150202588067799 0 -0.35733794072219438 -0.15598120035380489 0 -0.34397697784309089 -0.15344624853019859 0 -0.35408787841661882 -0.1705048304494981 0 -0.35733794072219438 -0.15598120035380489 0 -0.35408787841661882 -0.1705048304494981 0 -0.36641362603189831 -0.16412028950558871 0 -0.36641362603189831 -0.16412028950558871 0 -0.37480938442898393 -0.17400258424434359 0 -0.38030810776476109 -0.1562647019732108 0 -0.36695920150111822 -0.1499119160729436 0 -0.35733794072219438 -0.15598120035380489 0 -0.36641362603189831 -0.16412028950558871 0 -0.35408787841661882 -0.1705048304494981 0 -0.36641362603189831 -0.16412028950558871 0 -0.36497924335771309 -0.17805650393973099 0 -0.36695920150111822 -0.1499119160729436 0 -0.36641362603189831 -0.16412028950558871 0 -0.38030810776476109 -0.1562647019732108 0 -0.36497924335771309 -0.17805650393973099 0 -0.35481435900564001 -0.19167065822613241 0 -0.37472349959139761 -0.1901074326874127 0 -0.37480938442898393 -0.17400258424434359 0 -0.36497924335771309 -0.17805650393973099 0 -0.37472349959139761 -0.1901074326874127 0 -0.36641362603189831 -0.16412028950558871 0 -0.37480938442898393 -0.17400258424434359 0 -0.36497924335771309 -0.17805650393973099 0 -0.35408787841661882 -0.1705048304494981 0 -0.36497924335771309 -0.17805650393973099 0 -0.35481435900564001 -0.19167065822613241 0 -0.35408787841661882 -0.1705048304494981 0 -0.33917971175055511 -0.18150202588067799 0 -0.35481435900564001 -0.19167065822613241 0 -0.34397697784309089 -0.15344624853019859 0 -0.33917971175055511 -0.18150202588067799 0 -0.34397697784309089 -0.15344624853019859 0 -0.33917971175055511 -0.18150202588067799 0 -0.3259465236634706 -0.1657082778708093 0 -0.31056287614144562 -0.16270751865473121 0 -0.32061943485790512 -0.1490146632678922 0 -0.3259465236634706 -0.1657082778708093 0 -0.31056287614144562 -0.16270751865473121 0 -0.3259465236634706 -0.1657082778708093 0 -0.31494338007997652 -0.1799968826102771 0 -0.33917971175055511 -0.18150202588067799 0 -0.3259465236634706 -0.1657082778708093 0 -0.31494338007997652 -0.1799968826102771 0 -0.33917971175055511 -0.18150202588067799 0 -0.31494338007997652 -0.1799968826102771 0 -0.32201972437803772 -0.1968930132373686 0 -0.3037727153873726 -0.1968544526576278 0 -0.31494338007997652 -0.1799968826102771 0 -0.32201972437803772 -0.1968930132373686 0 -0.32201972437803772 -0.1968930132373686 0 -0.32099300532182212 -0.21268551802671479 0 -0.33438244565801661 -0.20955780323115689 0 -0.31115934379822019 -0.21086748699113569 0 -0.32201972437803772 -0.1968930132373686 0 -0.32099300532182212 -0.21268551802671479 0 -0.32099300532182212 -0.21268551802671479 0 -0.33438244565801661 -0.20955780323115689 0 -0.31990884486744509 -0.22521342024748961 0 -0.31424849788073661 -0.21729305050872219 0 -0.32099300532182212 -0.21268551802671479 0 -0.31990884486744509 -0.22521342024748961 0 -0.31115934379822019 -0.21086748699113569 0 -0.31424849788073661 -0.21729305050872219 0 -0.32099300532182212 -0.21268551802671479 0 -0.33917971175055511 -0.18150202588067799 0 -0.32201972437803772 -0.1968930132373686 0 -0.33438244565801661 -0.20955780323115689 0 -0.33917971175055511 -0.18150202588067799 0 -0.33438244565801661 -0.20955780323115689 0 -0.35481435900564001 -0.19167065822613241 0 -0.33917971175055511 -0.18150202588067799 0 -0.33438244565801661 -0.20955780323115689 0 -0.35481435900564001 -0.19167065822613241 0 -0.36374109359513418 -0.20254875713031831 0 -0.35260664067004488 -0.2094172542641316 0 -0.35481435900564001 -0.19167065822613241 0 -0.36374109359513418 -0.20254875713031831 0 -0.37472349959139761 -0.1901074326874127 0 -0.36374109359513418 -0.20254875713031831 0 -0.37472349959139761 -0.1901074326874127 0 -0.37773511818468403 -0.2052811655269407 0 -0.36374109359513418 -0.20254875713031831 0 -0.36737390965969807 -0.22131837274943311 0 -0.37773511818468403 -0.2052811655269407 0 -0.36374109359513418 -0.20254875713031831 0 -0.35260664067004488 -0.2094172542641316 0 -0.36737390965969807 -0.22131837274943311 0 -0.33438244565801661 -0.20955780323115689 0 -0.35481435900564001 -0.19167065822613241 0 -0.35260664067004488 -0.2094172542641316 0 -0.33438244565801661 -0.20955780323115689 0 -0.35260664067004488 -0.2094172542641316 0 -0.34934507284344279 -0.22240552148072909 0 -0.35260664067004488 -0.2094172542641316 0 -0.34934507284344279 -0.22240552148072909 0 -0.36737390965969807 -0.22131837274943311 0 -0.34934507284344279 -0.22240552148072909 0 -0.36737390965969807 -0.22131837274943311 0 -0.35568548472361539 -0.2355450484710386 0 -0.34934507284344279 -0.22240552148072909 0 -0.35568548472361539 -0.2355450484710386 0 -0.34219184958628068 -0.2325804005113658 0 -0.36737390965969807 -0.22131837274943311 0 -0.37036067373425979 -0.24077411563576559 0 -0.35568548472361539 -0.2355450484710386 0 -0.36737390965969807 -0.22131837274943311 0 -0.37036067373425979 -0.24077411563576559 0 -0.38691855283391008 -0.22989071806530439 0 -0.37036067373425979 -0.24077411563576559 0 -0.35811933379322303 -0.2468033702023453 0 -0.35568548472361539 -0.2355450484710386 0 -0.36829210260803058 -0.2527328000417573 0 -0.37036067373425979 -0.24077411563576559 0 -0.35811933379322303 -0.2468033702023453 0 -0.35611018223130519 -0.25575694607252492 0 -0.35811933379322303 -0.2468033702023453 0 -0.34726966315039781 -0.2466177650615749 0 -0.35811933379322303 -0.2468033702023453 0 -0.35568548472361539 -0.2355450484710386 0 -0.34726966315039781 -0.2466177650615749 0 -0.35568548472361539 -0.2355450484710386 0 -0.34726966315039781 -0.2466177650615749 0 -0.34219184958628068 -0.2325804005113658 0 -0.33666709245991761 -0.26142815655865892 0 -0.32738176335397368 -0.24459429636882909 0 -0.32079994499768788 -0.24091696666410409 0 -0.3407208022141 -0.25138375839962762 0 -0.34726966315039781 -0.2466177650615749 0 -0.3367020449751934 -0.24271700146288261 0 -0.3407208022141 -0.25138375839962762 0 -0.3367020449751934 -0.24271700146288261 0 -0.32738176335397368 -0.24459429636882909 0 -0.3367020449751934 -0.24271700146288261 0 -0.32958517956547789 -0.23761358058163581 0 -0.32738176335397368 -0.24459429636882909 0 -0.3367020449751934 -0.24271700146288261 0 -0.32958517956547789 -0.23761358058163581 0 -0.34219184958628068 -0.2325804005113658 0 -0.34726966315039781 -0.2466177650615749 0 -0.3367020449751934 -0.24271700146288261 0 -0.34219184958628068 -0.2325804005113658 0 -0.33438244565801661 -0.20955780323115689 0 -0.34934507284344279 -0.22240552148072909 0 -0.34219184958628068 -0.2325804005113658 0 -0.33438244565801661 -0.20955780323115689 0 -0.32958517956547789 -0.23761358058163581 0 -0.33438244565801661 -0.20955780323115689 0 -0.32958517956547789 -0.23761358058163581 0 -0.34219184958628068 -0.2325804005113658 0 -0.33438244565801661 -0.20955780323115689 0 -0.32958517956547789 -0.23761358058163581 0 -0.31990884486744509 -0.22521342024748961 0 -0.30493279753545882 -0.2204057767695487 0 -0.32079994499768788 -0.24091696666410409 0 -0.30493279753545882 -0.2204057767695487 0 -0.31990884486744509 -0.22521342024748961 0 -0.32079994499768788 -0.24091696666410409 0 -0.30493279753545882 -0.2204057767695487 0 -0.31424849788073661 -0.21729305050872219 0 -0.31990884486744509 -0.22521342024748961 0 -0.32958517956547789 -0.23761358058163581 0 -0.31990884486744509 -0.22521342024748961 0 -0.32079994499768788 -0.24091696666410409 0 -0.31480406971123059 -0.25081407358946478 0 -0.30622793601561787 -0.23753501100840649 0 -0.32079994499768788 -0.24091696666410409 0 -0.32374846536732987 -0.25622503692540788 0 -0.31480406971123059 -0.25081407358946478 0 -0.32079994499768788 -0.24091696666410409 0 -0.32958517956547789 -0.23761358058163581 0 -0.32738176335397368 -0.24459429636882909 0 -0.32079994499768788 -0.24091696666410409 0 -0.41941724054935842 -0.24294963387959709 0 -0.4429281000126748 -0.2398075687022167 0 -0.42551000319278459 -0.2389679356276937 0 -0.41941724054935842 -0.24294963387959709 0 -0.4429281000126748 -0.2398075687022167 0 -0.42748611559276362 -0.24710901093599391 0 -0.41941724054935842 -0.24294963387959709 0 -0.4429281000126748 -0.2398075687022167 0 -0.42551000319278459 -0.2389679356276937 0 -0.43954529285815852 -0.2315043067914257 0 -0.4429281000126748 -0.2398075687022167 0 -0.42551000319278459 -0.2389679356276937 0 -0.42336607431223389 -0.2319657983858337 0 -0.41839945651254912 -0.23405168938667151 0 -0.41904583908846932 -0.25106818268403841 0 -0.42748611559276362 -0.24710901093599391 0 -0.41941724054935842 -0.24294963387959709 0 -0.43291121202806843 -0.25438743732024688 0 -0.42748611559276362 -0.24710901093599391 0 -0.43647407341708883 -0.24790598373119391 0 -0.42748611559276362 -0.24710901093599391 0 -0.43647407341708883 -0.24790598373119391 0 -0.4429281000126748 -0.2398075687022167 0 -0.42551000319278459 -0.2389679356276937 0 -0.43954529285815852 -0.2315043067914257 0 -0.42551000319278459 -0.2389679356276937 0 -0.42847657399233369 -0.2276181114239349 0 -0.43954529285815852 -0.2315043067914257 0 -0.43616022657596182 -0.2247523181531707 0 -0.42847657399233369 -0.2276181114239349 0 -0.43954529285815852 -0.2315043067914257 0 -0.43616022657596182 -0.2247523181531707 0 -0.42847657399233369 -0.2276181114239349 0 -0.43424163020364792 -0.21745058826118729 0 -0.42847657399233369 -0.2276181114239349 0 -0.42289934568503501 -0.21787399697871709 0 -0.43424163020364792 -0.21745058826118729 0 -0.42847657399233369 -0.2276181114239349 0 -0.42107826355126832 -0.22722545710503481 0 -0.42289934568503501 -0.21787399697871709 0 -0.42551000319278459 -0.2389679356276937 0 -0.42847657399233369 -0.2276181114239349 0 -0.42336607431223389 -0.2319657983858337 0 -0.42847657399233369 -0.2276181114239349 0 -0.42336607431223389 -0.2319657983858337 0 -0.42107826355126832 -0.22722545710503481 0 -0.42336607431223389 -0.2319657983858337 0 -0.41839945651254912 -0.23405168938667151 0 -0.42107826355126832 -0.22722545710503481 0 -0.41839945651254912 -0.23405168938667151 0 -0.41232274301861882 -0.2265656537318273 0 -0.41155721553465741 -0.23887424471325561 0 -0.41839945651254912 -0.23405168938667151 0 -0.42107826355126832 -0.22722545710503481 0 -0.41232274301861882 -0.2265656537318273 0 -0.41232274301861882 -0.2265656537318273 0 -0.41212683621557339 -0.21544113177007801 0 -0.42289934568503501 -0.21787399697871709 0 -0.42107826355126832 -0.22722545710503481 0 -0.41232274301861882 -0.2265656537318273 0 -0.42289934568503501 -0.21787399697871709 0 -0.41232274301861882 -0.2265656537318273 0 -0.40151372612494729 -0.22131411344766111 0 -0.41212683621557339 -0.21544113177007801 0 -0.41232274301861882 -0.2265656537318273 0 -0.41155721553465741 -0.23887424471325561 0 -0.4014509872408743 -0.23713111730940201 0 -0.40890597421300012 -0.25022013990914388 0 -0.41155721553465741 -0.23887424471325561 0 -0.4014509872408743 -0.23713111730940201 0 -0.42551000319278459 -0.2389679356276937 0 -0.41839945651254912 -0.23405168938667151 0 -0.41941724054935842 -0.24294963387959709 0 -0.41839945651254912 -0.23405168938667151 0 -0.41155721553465741 -0.23887424471325561 0 -0.41941724054935842 -0.24294963387959709 0 -0.40890597421300012 -0.25022013990914388 0 -0.41904583908846932 -0.25106818268403841 0 -0.41941724054935842 -0.24294963387959709 0 -0.40890597421300012 -0.25022013990914388 0 -0.41155721553465741 -0.23887424471325561 0 -0.41941724054935842 -0.24294963387959709 0 -0.38924492620998102 -0.25559145599897348 0 -0.4014509872408743 -0.23713111730940201 0 -0.38691855283391008 -0.22989071806530439 0 -0.38924492620998102 -0.25559145599897348 0 -0.40890597421300012 -0.25022013990914388 0 -0.4014509872408743 -0.23713111730940201 0 -0.38924492620998102 -0.25559145599897348 0 -0.37036067373425979 -0.24077411563576559 0 -0.38691855283391008 -0.22989071806530439 0 -0.38924492620998102 -0.25559145599897348 0 -0.36829210260803058 -0.2527328000417573 0 -0.37036067373425979 -0.24077411563576559 0 -0.38924492620998102 -0.25559145599897348 0 -0.38691855283391008 -0.22989071806530439 0 -0.36737390965969807 -0.22131837274943311 0 -0.38691855283391008 -0.22989071806530439 0 -0.39079836951840158 -0.21343084886232 0 -0.41232274301861882 -0.2265656537318273 0 -0.4014509872408743 -0.23713111730940201 0 -0.40151372612494729 -0.22131411344766111 0 -0.38691855283391008 -0.22989071806530439 0 -0.40151372612494729 -0.22131411344766111 0 -0.39079836951840158 -0.21343084886232 0 -0.4014509872408743 -0.23713111730940201 0 -0.38691855283391008 -0.22989071806530439 0 -0.40151372612494729 -0.22131411344766111 0 -0.40151372612494729 -0.22131411344766111 0 -0.40546486792230602 -0.20542521094703509 0 -0.39079836951840158 -0.21343084886232 0 -0.40546486792230602 -0.20542521094703509 0 -0.39079836951840158 -0.21343084886232 0 -0.39203871855878852 -0.19900041620521941 0 -0.36737390965969807 -0.22131837274943311 0 -0.39079836951840158 -0.21343084886232 0 -0.37773511818468403 -0.2052811655269407 0 -0.39079836951840158 -0.21343084886232 0 -0.37773511818468403 -0.2052811655269407 0 -0.39203871855878852 -0.19900041620521941 0 -0.37472349959139761 -0.1901074326874127 0 -0.37773511818468403 -0.2052811655269407 0 -0.39203871855878852 -0.19900041620521941 0 -0.37472349959139761 -0.1901074326874127 0 -0.39203871855878852 -0.19900041620521941 0 -0.38824390552861132 -0.1801693286963999 0 -0.40546486792230602 -0.20542521094703509 0 -0.39203871855878852 -0.19900041620521941 0 -0.4057117997039465 -0.1885843139198585 0 -0.40546486792230602 -0.20542521094703509 0 -0.4057117997039465 -0.1885843139198585 0 -0.41590849371864158 -0.19578022521312269 0 -0.4057117997039465 -0.1885843139198585 0 -0.41590849371864158 -0.19578022521312269 0 -0.41956187889649971 -0.18262381478212611 0 -0.41590849371864158 -0.19578022521312269 0 -0.42790626136054583 -0.1948454278502201 0 -0.41956187889649971 -0.18262381478212611 0 -0.41590849371864158 -0.19578022521312269 0 -0.41962606201242991 -0.20641567853607701 0 -0.42790626136054583 -0.1948454278502201 0 -0.40546486792230602 -0.20542521094703509 0 -0.41590849371864158 -0.19578022521312269 0 -0.41962606201242991 -0.20641567853607701 0 -0.40151372612494729 -0.22131411344766111 0 -0.40546486792230602 -0.20542521094703509 0 -0.41212683621557339 -0.21544113177007801 0 -0.40546486792230602 -0.20542521094703509 0 -0.41212683621557339 -0.21544113177007801 0 -0.41962606201242991 -0.20641567853607701 0 -0.41212683621557339 -0.21544113177007801 0 -0.41962606201242991 -0.20641567853607701 0 -0.42289934568503501 -0.21787399697871709 0 -0.41962606201242991 -0.20641567853607701 0 -0.42289934568503501 -0.21787399697871709 0 -0.43105561252865282 -0.20683384219180889 0 -0.42289934568503501 -0.21787399697871709 0 -0.43424163020364792 -0.21745058826118729 0 -0.43105561252865282 -0.20683384219180889 0 -0.43424163020364792 -0.21745058826118729 0 -0.43105561252865282 -0.20683384219180889 0 -0.44159238240880799 -0.20822211704581181 0 -0.43105561252865282 -0.20683384219180889 0 -0.42790626136054583 -0.1948454278502201 0 -0.44006799350145048 -0.19619524447884051 0 -0.42790626136054583 -0.1948454278502201 0 -0.43636809185981212 -0.18224651918039211 0 -0.44006799350145048 -0.19619524447884051 0 -0.41962606201242991 -0.20641567853607701 0 -0.43105561252865282 -0.20683384219180889 0 -0.42790626136054583 -0.1948454278502201 0 -0.42790626136054583 -0.1948454278502201 0 -0.43636809185981212 -0.18224651918039211 0 -0.41956187889649971 -0.18262381478212611 0 -0.43636809185981212 -0.18224651918039211 0 -0.42954934590456711 -0.1707685724939485 0 -0.41956187889649971 -0.18262381478212611 0 -0.42748425423286679 -0.15671674859718771 0 -0.42954934590456711 -0.1707685724939485 0 -0.43895401409019258 -0.15996091340454399 0 -0.42748425423286679 -0.15671674859718771 0 -0.42954934590456711 -0.1707685724939485 0 -0.41514586184022251 -0.16911000785793309 0 -0.41514586184022251 -0.16911000785793309 0 -0.41387522738666499 -0.15727429328154491 0 -0.39787852463074508 -0.17328437482034789 0 -0.42748425423286679 -0.15671674859718771 0 -0.41514586184022251 -0.16911000785793309 0 -0.41387522738666499 -0.15727429328154491 0 -0.41514586184022251 -0.16911000785793309 0 -0.40835039308916998 -0.17795542112078891 0 -0.39787852463074508 -0.17328437482034789 0 -0.42954934590456711 -0.1707685724939485 0 -0.41514586184022251 -0.16911000785793309 0 -0.41956187889649971 -0.18262381478212611 0 -0.41514586184022251 -0.16911000785793309 0 -0.40835039308916998 -0.17795542112078891 0 -0.41956187889649971 -0.18262381478212611 0 -0.4057117997039465 -0.1885843139198585 0 -0.40835039308916998 -0.17795542112078891 0 -0.41956187889649971 -0.18262381478212611 0 -0.39203871855878852 -0.19900041620521941 0 -0.39787852463074508 -0.17328437482034789 0 -0.38824390552861132 -0.1801693286963999 0 -0.4057117997039465 -0.1885843139198585 0 -0.40835039308916998 -0.17795542112078891 0 -0.39787852463074508 -0.17328437482034789 0 -0.39203871855878852 -0.19900041620521941 0 -0.39787852463074508 -0.17328437482034789 0 -0.39203871855878852 -0.19900041620521941 0 -0.4057117997039465 -0.1885843139198585 0 -0.39787852463074508 -0.17328437482034789 0 -0.37480938442898393 -0.17400258424434359 0 -0.37472349959139761 -0.1901074326874127 0 -0.38824390552861132 -0.1801693286963999 0 -0.37480938442898393 -0.17400258424434359 0 -0.38824390552861132 -0.1801693286963999 0 -0.38030810776476109 -0.1562647019732108 0 -0.38824390552861132 -0.1801693286963999 0 -0.38030810776476109 -0.1562647019732108 0 -0.39302647333229301 -0.15884004946898311 0 -0.38824390552861132 -0.1801693286963999 0 -0.38030810776476109 -0.1562647019732108 0 -0.41387522738666499 -0.15727429328154491 0 -0.39787852463074508 -0.17328437482034789 0 -0.4037183307027018 -0.1475683334354764 0 -0.39787852463074508 -0.17328437482034789 0 -0.39302647333229301 -0.15884004946898311 0 -0.4037183307027018 -0.1475683334354764 0 -0.39787852463074508 -0.17328437482034789 0 -0.4037183307027018 -0.1475683334354764 0 -0.39787852463074508 -0.17328437482034789 0 -0.38824390552861132 -0.1801693286963999 0 -0.39302647333229301 -0.15884004946898311 0 -0.39302647333229301 -0.15884004946898311 0 -0.4037183307027018 -0.1475683334354764 0 -0.39172386008241178 -0.1365305103659249 0 -0.37237231000091098 -0.1323600752500218 0 -0.38030810776476109 -0.1562647019732108 0 -0.38030810776476109 -0.1562647019732108 0 -0.39302647333229301 -0.15884004946898311 0 -0.39172386008241178 -0.1365305103659249 0 -0.37237231000091098 -0.1323600752500218 0 -0.38030810776476109 -0.1562647019732108 0 -0.39172386008241178 -0.1365305103659249 0 -0.37237231000091098 -0.1323600752500218 0 -0.39172386008241178 -0.1365305103659249 0 -0.37808018615973571 -0.1224929794463793 0 -0.39172386008241178 -0.1365305103659249 0 -0.37808018615973571 -0.1224929794463793 0 -0.4037183307027018 -0.1475683334354764 0 -0.39172386008241178 -0.1365305103659249 0 -0.40955813677465852 -0.1218522920506049 0 -0.4037183307027018 -0.1475683334354764 0 -0.40955813677465852 -0.1218522920506049 0 -0.4037183307027018 -0.1475683334354764 0 -0.42514916552678861 -0.13969200169677931 0 -0.40955813677465852 -0.1218522920506049 0 -0.42514916552678861 -0.13969200169677931 0 -0.40955813677465852 -0.1218522920506049 0 -0.43022847710853163 -0.12016356940183991 0 -0.41387522738666499 -0.15727429328154491 0 -0.4037183307027018 -0.1475683334354764 0 -0.42514916552678861 -0.13969200169677931 0 -0.42748425423286679 -0.15671674859718771 0 -0.41387522738666499 -0.15727429328154491 0 -0.42514916552678861 -0.13969200169677931 0 -0.42748425423286679 -0.15671674859718771 0 -0.42514916552678861 -0.13969200169677931 0 -0.44631639654133087 -0.1488199816558331 0 -0.42514916552678861 -0.13969200169677931 0 -0.44326246844427319 -0.1268328724809368 0 -0.43022847710853163 -0.12016356940183991 0 -0.44326246844427319 -0.1268328724809368 0 -0.44631639654133087 -0.1488199816558331 0 -0.45962320387549122 -0.13122262036056659 0 -0.42514916552678861 -0.13969200169677931 0 -0.44326246844427319 -0.1268328724809368 0 -0.44631639654133087 -0.1488199816558331 0 -0.42748425423286679 -0.15671674859718771 0 -0.44631639654133087 -0.1488199816558331 0 -0.43895401409019258 -0.15996091340454399 0 -0.44631639654133087 -0.1488199816558331 0 -0.47272308490548798 -0.14491182836144259 0 -0.46455375748196981 -0.16908134747903539 0 -0.44631639654133087 -0.1488199816558331 0 -0.45962320387549122 -0.13122262036056659 0 -0.47272308490548798 -0.14491182836144259 0 -0.45962320387549122 -0.13122262036056659 0 -0.47272308490548798 -0.14491182836144259 0 -0.4789560503317894 -0.1232744845068903 0 -0.5 -0.13965221985102871 0 -0.47272308490548798 -0.14491182836144259 0 -0.4789560503317894 -0.1232744845068903 0 -0.5 -0.13965221985102871 0 -0.48419908138144019 -0.159164352068733 0 -0.5 -0.1695040850794646 0 -0.5 -0.13965221985102871 0 -0.47272308490548798 -0.14491182836144259 0 -0.48419908138144019 -0.159164352068733 0 -0.47272308490548798 -0.14491182836144259 0 -0.48419908138144019 -0.159164352068733 0 -0.46455375748196981 -0.16908134747903539 0 -0.48419908138144019 -0.159164352068733 0 -0.48459056698335728 -0.183975581216032 0 -0.46455375748196981 -0.16908134747903539 0 -0.48419908138144019 -0.159164352068733 0 -0.5 -0.1695040850794646 0 -0.48459056698335728 -0.183975581216032 0 -0.5 -0.1695040850794646 0 -0.48459056698335728 -0.183975581216032 0 -0.49999999999999939 -0.19935595030790049 0 -0.48459056698335728 -0.183975581216032 0 -0.46455375748196981 -0.16908134747903539 0 -0.46519455559550837 -0.19243188411826501 0 -0.46455375748196981 -0.16908134747903539 0 -0.45064160148175159 -0.1851151094324667 0 -0.46519455559550837 -0.19243188411826501 0 -0.46455375748196981 -0.16908134747903539 0 -0.44659320883596998 -0.17082580236077369 0 -0.45064160148175159 -0.1851151094324667 0 -0.44631639654133087 -0.1488199816558331 0 -0.46455375748196981 -0.16908134747903539 0 -0.44659320883596998 -0.17082580236077369 0 -0.44631639654133087 -0.1488199816558331 0 -0.44659320883596998 -0.17082580236077369 0 -0.43895401409019258 -0.15996091340454399 0 -0.42954934590456711 -0.1707685724939485 0 -0.44659320883596998 -0.17082580236077369 0 -0.43895401409019258 -0.15996091340454399 0 -0.43636809185981212 -0.18224651918039211 0 -0.42954934590456711 -0.1707685724939485 0 -0.44659320883596998 -0.17082580236077369 0 -0.43636809185981212 -0.18224651918039211 0 -0.44659320883596998 -0.17082580236077369 0 -0.45064160148175159 -0.1851151094324667 0 -0.45064160148175159 -0.1851151094324667 0 -0.45107200161579958 -0.19990985897749369 0 -0.44006799350145048 -0.19619524447884051 0 -0.43636809185981212 -0.18224651918039211 0 -0.45064160148175159 -0.1851151094324667 0 -0.44006799350145048 -0.19619524447884051 0 -0.45107200161579958 -0.19990985897749369 0 -0.44006799350145048 -0.19619524447884051 0 -0.44159238240880799 -0.20822211704581181 0 -0.43105561252865282 -0.20683384219180889 0 -0.44006799350145048 -0.19619524447884051 0 -0.44159238240880799 -0.20822211704581181 0 -0.44159238240880799 -0.20822211704581181 0 -0.44318114230655659 -0.21583600171132089 0 -0.44974059702586339 -0.21262420575875299 0 -0.43424163020364792 -0.21745058826118729 0 -0.44159238240880799 -0.20822211704581181 0 -0.44318114230655659 -0.21583600171132089 0 -0.43424163020364792 -0.21745058826118729 0 -0.44318114230655659 -0.21583600171132089 0 -0.44237740924970698 -0.2224362661361349 0 -0.44974059702586339 -0.21262420575875299 0 -0.45358058252353362 -0.22404067795516011 0 -0.44899978481938613 -0.21954308294774619 0 -0.44318114230655659 -0.21583600171132089 0 -0.44974059702586339 -0.21262420575875299 0 -0.44899978481938613 -0.21954308294774619 0 -0.45107200161579958 -0.19990985897749369 0 -0.44159238240880799 -0.20822211704581181 0 -0.44974059702586339 -0.21262420575875299 0 -0.44974059702586339 -0.21262420575875299 0 -0.46022800478830012 -0.2061725928636369 0 -0.45358058252353362 -0.22404067795516011 0 -0.45107200161579958 -0.19990985897749369 0 -0.44974059702586339 -0.21262420575875299 0 -0.46022800478830012 -0.2061725928636369 0 -0.46022800478830012 -0.2061725928636369 0 -0.47679029126176581 -0.21169831413152909 0 -0.45358058252353362 -0.22404067795516011 0 -0.46022800478830012 -0.2061725928636369 0 -0.46519455559550837 -0.19243188411826501 0 -0.47679029126176581 -0.21169831413152909 0 -0.47679029126176581 -0.21169831413152909 0 -0.45358058252353362 -0.22404067795516011 0 -0.45107200161579958 -0.19990985897749369 0 -0.46022800478830012 -0.2061725928636369 0 -0.46519455559550837 -0.19243188411826501 0 -0.45064160148175159 -0.1851151094324667 0 -0.45107200161579958 -0.19990985897749369 0 -0.46519455559550837 -0.19243188411826501 0 -0.48459056698335728 -0.183975581216032 0 -0.46519455559550837 -0.19243188411826501 0 -0.47679029126176581 -0.21169831413152909 0 -0.48459056698335728 -0.183975581216032 0 -0.49999999999999939 -0.19935595030790049 0 -0.47679029126176581 -0.21169831413152909 0 -0.49999999999999939 -0.19935595030790049 0 -0.47679029126176581 -0.21169831413152909 0 -0.5 -0.21576812543019791 0 -0.47679029126176581 -0.21169831413152909 0 -0.4866839976508181 -0.22379919974133131 0 -0.49999999999999939 -0.19935595030790049 0 -0.5 -0.21576812543019791 0 -0.47679029126176581 -0.21169831413152909 0 -0.47334266213002102 -0.22612531947830469 0 -0.48321947973799723 -0.23442290203866589 0 -0.46643895947599151 -0.2366655035248367 0 -0.47334266213002102 -0.22612531947830469 0 -0.4866839976508181 -0.22379919974133131 0 -0.48321947973799723 -0.23442290203866589 0 -0.47679029126176581 -0.21169831413152909 0 -0.47334266213002102 -0.22612531947830469 0 -0.4866839976508181 -0.22379919974133131 0 -0.50000000000000278 -0.23218030055249519 0 -0.48321947973799723 -0.23442290203866589 0 -0.50000000000000278 -0.23218030055249519 0 -0.4866839976508181 -0.22379919974133131 0 -0.48321947973799723 -0.23442290203866589 0 -0.5 -0.21576812543019791 0 -0.50000000000000278 -0.23218030055249519 0 -0.4866839976508181 -0.22379919974133131 0 -0.50000000000000067 -0.25768548495738491 0 -0.50000000000000278 -0.23218030055249519 0 -0.49030939104401178 -0.24648507358491811 0 -0.50000000000000278 -0.23218030055249519 0 -0.49030939104401178 -0.24648507358491811 0 -0.48321947973799723 -0.23442290203866589 0 -0.47825547831934989 -0.2482673946336271 0 -0.48321947973799723 -0.23442290203866589 0 -0.46643895947599151 -0.2366655035248367 0 -0.46234078134488998 -0.25149105520213227 0 -0.47825547831934989 -0.2482673946336271 0 -0.46643895947599151 -0.2366655035248367 0 -0.48321947973799723 -0.23442290203866589 0 -0.46643895947599151 -0.2366655035248367 0 -0.49030939104401178 -0.24648507358491811 0 -0.47825547831934989 -0.2482673946336271 0 -0.48321947973799723 -0.23442290203866589 0 -0.47825547831934989 -0.2482673946336271 0 -0.46643895947599151 -0.2366655035248367 0 -0.46643895947599151 -0.2366655035248367 0 -0.4429281000126748 -0.2398075687022167 0 -0.46643895947599151 -0.2366655035248367 0 -0.4429281000126748 -0.2398075687022167 0 -0.45302917889609079 -0.2469787380825835 0 -0.46234078134488998 -0.25149105520213227 0 -0.46643895947599151 -0.2366655035248367 0 -0.45302917889609079 -0.2469787380825835 0 -0.46643895947599151 -0.2366655035248367 0 -0.45358058252353362 -0.22404067795516011 0 -0.44906020651136769 -0.23246858485554819 0 -0.47334266213002102 -0.22612531947830469 0 -0.46643895947599151 -0.2366655035248367 0 -0.45358058252353362 -0.22404067795516011 0 -0.47679029126176581 -0.21169831413152909 0 -0.47334266213002102 -0.22612531947830469 0 -0.45358058252353362 -0.22404067795516011 0 -0.46643895947599151 -0.2366655035248367 0 -0.45358058252353362 -0.22404067795516011 0 -0.45358058252353362 -0.22404067795516011 0 -0.44906020651136769 -0.23246858485554819 0 -0.43954529285815852 -0.2315043067914257 0 -0.45358058252353362 -0.22404067795516011 0 -0.43954529285815852 -0.2315043067914257 0 -0.45358058252353362 -0.22404067795516011 0 -0.44899978481938613 -0.21954308294774619 0 -0.44237740924970698 -0.2224362661361349 0 -0.45358058252353362 -0.22404067795516011 0 -0.44899978481938613 -0.21954308294774619 0 -0.43616022657596182 -0.2247523181531707 0 -0.44237740924970698 -0.2224362661361349 0 -0.43954529285815852 -0.2315043067914257 0 -0.43616022657596182 -0.2247523181531707 0 -0.43424163020364792 -0.21745058826118729 0 -0.44237740924970698 -0.2224362661361349 0 -0.45358058252353362 -0.22404067795516011 0 -0.44237740924970698 -0.2224362661361349 0 -0.43954529285815852 -0.2315043067914257 0 -0.44318114230655659 -0.21583600171132089 0 -0.44899978481938613 -0.21954308294774619 0 -0.44237740924970698 -0.2224362661361349 0 -0.46643895947599151 -0.2366655035248367 0 -0.44906020651136769 -0.23246858485554819 0 -0.4429281000126748 -0.2398075687022167 0 -0.44906020651136769 -0.23246858485554819 0 -0.43954529285815852 -0.2315043067914257 0 -0.4429281000126748 -0.2398075687022167 0 -0.4425708660348483 -0.25031991796631831 0 -0.43647407341708883 -0.24790598373119391 0 -0.4429281000126748 -0.2398075687022167 0 -0.4425708660348483 -0.25031991796631831 0 -0.4429281000126748 -0.2398075687022167 0 -0.45302917889609079 -0.2469787380825835 0 -0.42008324956623933 -0.050286658849875113 0 -0.42962642393052192 -0.032945603458161693 0 -0.41537017242097157 -0.02064095216521698 0 -0.40983990120588382 -0.040101112126478218 0 -0.42008324956623933 -0.050286658849875113 0 -0.41537017242097157 -0.02064095216521698 0 -0.42008324956623933 -0.050286658849875113 0 -0.41537017242097157 -0.02064095216521698 0 -0.40983990120588382 -0.040101112126478218 0 -0.42008324956623933 -0.050286658849875113 0 -0.41761578333271537 -0.067342302895860115 0 -0.40983990120588382 -0.040101112126478218 0 -0.40367540449034311 -0.057333404357432421 0 -0.41761578333271537 -0.067342302895860115 0 -0.40983990120588382 -0.040101112126478218 0 -0.41761578333271537 -0.067342302895860115 0 -0.42008324956623933 -0.050286658849875113 0 -0.43141096546999291 -0.060999004398635842 0 -0.41761578333271537 -0.067342302895860115 0 -0.42008324956623933 -0.050286658849875113 0 -0.43141096546999291 -0.060999004398635842 0 -0.43789413871577398 -0.046996915995667153 0 -0.42008324956623933 -0.050286658849875113 0 -0.42962642393052192 -0.032945603458161693 0 -0.43789413871577398 -0.046996915995667153 0 -0.42962642393052192 -0.032945603458161693 0 -0.43789413871577398 -0.046996915995667153 0 -0.44409415689212978 -0.028982309230464201 0 -0.42962642393052192 -0.032945603458161693 0 -0.43156922908366602 -0.017487737698598099 0 -0.41537017242097157 -0.02064095216521698 0 -0.42962642393052192 -0.032945603458161693 0 -0.43156922908366602 -0.017487737698598099 0 -0.44409415689212978 -0.028982309230464201 0 -0.43156922908366602 -0.017487737698598099 0 -0.42402428445473223 -0.0046771554928525102 0 -0.41537017242097157 -0.02064095216521698 0 -0.4365994942171969 -0.003372175856666619 0 -0.42402428445473223 -0.0046771554928525102 0 -0.42996138606541989 0.0079864926970191624 0 -0.43156922908366602 -0.017487737698598099 0 -0.4365994942171969 -0.003372175856666619 0 -0.42402428445473223 -0.0046771554928525102 0 -0.43156922908366602 -0.017487737698598099 0 -0.4365994942171969 -0.003372175856666619 0 -0.44409493738853101 -0.013906038304638419 0 -0.42402428445473223 -0.0046771554928525102 0 -0.41537017242097157 -0.02064095216521698 0 -0.41065709527570382 0.0090047545194412576 0 -0.41537017242097157 -0.02064095216521698 0 -0.41065709527570382 0.0090047545194412576 0 -0.41537017242097157 -0.02064095216521698 0 -0.40206401907905209 -0.01285992135709633 0 -0.41065709527570382 0.0090047545194412576 0 -0.40983990120588382 -0.040101112126478218 0 -0.41537017242097157 -0.02064095216521698 0 -0.40206401907905209 -0.01285992135709633 0 -0.40983990120588382 -0.040101112126478218 0 -0.40206401907905209 -0.01285992135709633 0 -0.39010361545582911 -0.025760004498397351 0 -0.40983990120588382 -0.040101112126478218 0 -0.40206401907905209 -0.01285992135709633 0 -0.40206401907905209 -0.01285992135709633 0 -0.39010361545582911 -0.025760004498397351 0 -0.39099334625972287 0.00079996332830187949 0 -0.39010361545582911 -0.025760004498397351 0 -0.39099334625972287 0.00079996332830187949 0 -0.37926818666156548 -0.011964041464868361 0 -0.37532756199792711 0.001896406901583601 0 -0.39099334625972287 0.00079996332830187949 0 -0.37926818666156548 -0.011964041464868361 0 -0.39010361545582911 -0.025760004498397351 0 -0.39099334625972287 0.00079996332830187949 0 -0.36663136539874158 -0.02557685058354555 0 -0.37926818666156548 -0.011964041464868361 0 -0.39010361545582911 -0.025760004498397351 0 -0.37119862759260702 -0.043844527297022297 0 -0.36663136539874158 -0.02557685058354555 0 -0.39010361545582911 -0.025760004498397351 0 -0.37119862759260702 -0.043844527297022297 0 -0.39010361545582911 -0.025760004498397351 0 -0.38921388465193529 -0.052319972325096539 0 -0.39010361545582911 -0.025760004498397351 0 -0.38921388465193529 -0.052319972325096539 0 -0.40983990120588382 -0.040101112126478218 0 -0.39010361545582911 -0.025760004498397351 0 -0.38921388465193529 -0.052319972325096539 0 -0.40367540449034311 -0.057333404357432421 0 -0.38921388465193529 -0.052319972325096539 0 -0.39803204877083792 -0.069570230082294821 0 -0.40983990120588382 -0.040101112126478218 0 -0.40367540449034311 -0.057333404357432421 0 -0.38921388465193529 -0.052319972325096539 0 -0.37119862759260702 -0.043844527297022297 0 -0.38921388465193529 -0.052319972325096539 0 -0.37649380180932701 -0.061343147102957643 0 -0.38921388465193529 -0.052319972325096539 0 -0.37649380180932701 -0.061343147102957643 0 -0.39803204877083792 -0.069570230082294821 0 -0.37649380180932701 -0.061343147102957643 0 -0.38118639673849047 -0.076263530907057411 0 -0.39803204877083792 -0.069570230082294821 0 -0.37101338915222848 -0.098215606805811109 0 -0.37109169597679209 -0.084924201564034504 0 -0.39820252730588768 -0.096399550235527362 0 -0.37109169597679209 -0.084924201564034504 0 -0.38118639673849047 -0.076263530907057411 0 -0.39820252730588768 -0.096399550235527362 0 -0.38118639673849047 -0.076263530907057411 0 -0.39803204877083792 -0.069570230082294821 0 -0.39820252730588768 -0.096399550235527362 0 -0.39803204877083792 -0.069570230082294821 0 -0.39820252730588768 -0.096399550235527362 0 -0.41102643834172731 -0.083953595055073396 0 -0.37808018615973571 -0.1224929794463793 0 -0.38108173257082439 -0.1081409674856041 0 -0.39440568136839121 -0.1148925824301204 0 -0.39172386008241178 -0.1365305103659249 0 -0.37808018615973571 -0.1224929794463793 0 -0.39440568136839121 -0.1148925824301204 0 -0.37101338915222848 -0.098215606805811109 0 -0.39820252730588768 -0.096399550235527362 0 -0.37101338915222848 -0.098215606805811109 0 -0.38108173257082439 -0.1081409674856041 0 -0.39820252730588768 -0.096399550235527362 0 -0.38108173257082439 -0.1081409674856041 0 -0.39820252730588768 -0.096399550235527362 0 -0.39440568136839121 -0.1148925824301204 0 -0.39820252730588768 -0.096399550235527362 0 -0.39440568136839121 -0.1148925824301204 0 -0.41185051249468002 -0.10371846895923589 0 -0.39172386008241178 -0.1365305103659249 0 -0.39440568136839121 -0.1148925824301204 0 -0.40955813677465852 -0.1218522920506049 0 -0.39440568136839121 -0.1148925824301204 0 -0.40955813677465852 -0.1218522920506049 0 -0.41185051249468002 -0.10371846895923589 0 -0.40955813677465852 -0.1218522920506049 0 -0.42064525600342662 -0.11107831818011341 0 -0.41185051249468002 -0.10371846895923589 0 -0.40955813677465852 -0.1218522920506049 0 -0.42064525600342662 -0.11107831818011341 0 -0.43022847710853163 -0.12016356940183991 0 -0.39820252730588768 -0.096399550235527362 0 -0.41185051249468002 -0.10371846895923589 0 -0.42539166545954682 -0.094583493665242088 0 -0.39820252730588768 -0.096399550235527362 0 -0.42539166545954682 -0.094583493665242088 0 -0.42064525600342662 -0.11107831818011341 0 -0.41185051249468002 -0.10371846895923589 0 -0.42273429132268692 -0.10293441247935051 0 -0.41185051249468002 -0.10371846895923589 0 -0.42539166545954682 -0.094583493665242088 0 -0.42273429132268692 -0.10293441247935051 0 -0.42539166545954682 -0.094583493665242088 0 -0.43581191772638039 -0.1004215567455726 0 -0.44285866483163822 -0.093416812367971253 0 -0.42539166545954682 -0.094583493665242088 0 -0.44285866483163822 -0.093416812367971253 0 -0.42539166545954682 -0.094583493665242088 0 -0.42626865339102471 -0.097655839047303461 0 -0.42273429132268692 -0.10293441247935051 0 -0.42539166545954682 -0.094583493665242088 0 -0.42626865339102471 -0.097655839047303461 0 -0.43581191772638039 -0.1004215567455726 0 -0.42539166545954682 -0.094583493665242088 0 -0.42626865339102471 -0.097655839047303461 0 -0.43581191772638039 -0.1004215567455726 0 -0.42951536926475631 -0.10763594254485739 0 -0.44160130878574427 -0.11200744611858229 0 -0.42626865339102471 -0.097655839047303461 0 -0.43581191772638039 -0.1004215567455726 0 -0.42951536926475631 -0.10763594254485739 0 -0.42064525600342662 -0.11107831818011341 0 -0.42273429132268692 -0.10293441247935051 0 -0.42951536926475631 -0.10763594254485739 0 -0.42626865339102471 -0.097655839047303461 0 -0.42273429132268692 -0.10293441247935051 0 -0.42951536926475631 -0.10763594254485739 0 -0.42064525600342662 -0.11107831818011341 0 -0.42951536926475631 -0.10763594254485739 0 -0.43022847710853163 -0.12016356940183991 0 -0.42951536926475631 -0.10763594254485739 0 -0.43022847710853163 -0.12016356940183991 0 -0.44160130878574427 -0.11200744611858229 0 -0.39803204877083792 -0.069570230082294821 0 -0.41761578333271537 -0.067342302895860115 0 -0.41102643834172731 -0.083953595055073396 0 -0.40367540449034311 -0.057333404357432421 0 -0.39803204877083792 -0.069570230082294821 0 -0.41761578333271537 -0.067342302895860115 0 -0.42539166545954682 -0.094583493665242088 0 -0.41761578333271537 -0.067342302895860115 0 -0.41102643834172731 -0.083953595055073396 0 -0.39820252730588768 -0.096399550235527362 0 -0.42539166545954682 -0.094583493665242088 0 -0.41102643834172731 -0.083953595055073396 0 -0.42539166545954682 -0.094583493665242088 0 -0.41761578333271537 -0.067342302895860115 0 -0.42539166545954682 -0.094583493665242088 0 -0.41761578333271537 -0.067342302895860115 0 -0.4345487223645409 -0.076828313412825394 0 -0.42539166545954682 -0.094583493665242088 0 -0.4345487223645409 -0.076828313412825394 0 -0.44285866483163822 -0.093416812367971253 0 -0.43141096546999291 -0.060999004398635842 0 -0.41761578333271537 -0.067342302895860115 0 -0.4345487223645409 -0.076828313412825394 0 -0.4345487223645409 -0.076828313412825394 0 -0.44691293337069471 -0.063540830838951415 0 -0.44815268759133892 -0.079760133364057295 0 -0.43141096546999291 -0.060999004398635842 0 -0.4345487223645409 -0.076828313412825394 0 -0.44691293337069471 -0.063540830838951415 0 -0.44691293337069471 -0.063540830838951415 0 -0.44815268759133892 -0.079760133364057295 0 -0.46133409022279848 -0.074602035231843569 0 -0.4345487223645409 -0.076828313412825394 0 -0.44815268759133892 -0.079760133364057295 0 -0.44285866483163822 -0.093416812367971253 0 -0.44815268759133892 -0.079760133364057295 0 -0.44285866483163822 -0.093416812367971253 0 -0.46032566420372939 -0.09225013107069889 0 -0.44285866483163822 -0.093416812367971253 0 -0.46032566420372939 -0.09225013107069889 0 -0.46032566420372939 -0.09225013107069889 0 -0.46133409022279848 -0.074602035231843569 0 -0.47896401899303692 -0.075889599338857985 0 -0.44815268759133892 -0.079760133364057295 0 -0.46032566420372939 -0.09225013107069889 0 -0.46133409022279848 -0.074602035231843569 0 -0.44691293337069471 -0.063540830838951415 0 -0.46133409022279848 -0.074602035231843569 0 -0.46307702250785959 -0.060464952939110347 0 -0.46133409022279848 -0.074602035231843569 0 -0.47896401899303692 -0.075889599338857985 0 -0.46307702250785959 -0.060464952939110347 0 -0.44160130878574427 -0.11200744611858229 0 -0.44902435824097259 -0.1032842290691503 0 -0.45961463366759731 -0.1132206698292957 0 -0.44326246844427319 -0.1268328724809368 0 -0.44160130878574427 -0.11200744611858229 0 -0.45961463366759731 -0.1132206698292957 0 -0.44326246844427319 -0.1268328724809368 0 -0.43022847710853163 -0.12016356940183991 0 -0.44160130878574427 -0.11200744611858229 0 -0.44285866483163822 -0.093416812367971253 0 -0.46032566420372939 -0.09225013107069889 0 -0.44902435824097259 -0.1032842290691503 0 -0.43581191772638039 -0.1004215567455726 0 -0.44160130878574427 -0.11200744611858229 0 -0.44902435824097259 -0.1032842290691503 0 -0.43581191772638039 -0.1004215567455726 0 -0.44285866483163822 -0.093416812367971253 0 -0.44902435824097259 -0.1032842290691503 0 -0.46032566420372939 -0.09225013107069889 0 -0.45961463366759731 -0.1132206698292957 0 -0.48177537954215988 -0.1008392140164158 0 -0.46032566420372939 -0.09225013107069889 0 -0.44902435824097259 -0.1032842290691503 0 -0.45961463366759731 -0.1132206698292957 0 -0.44326246844427319 -0.1268328724809368 0 -0.45962320387549122 -0.13122262036056659 0 -0.45961463366759731 -0.1132206698292957 0 -0.45962320387549122 -0.13122262036056659 0 -0.45961463366759731 -0.1132206698292957 0 -0.4789560503317894 -0.1232744845068903 0 -0.45961463366759731 -0.1132206698292957 0 -0.4789560503317894 -0.1232744845068903 0 -0.48177537954215988 -0.1008392140164158 0 -0.48177537954215988 -0.1008392140164158 0 -0.5 -0.1098003546225927 0 -0.5 -0.079948489394156885 0 -0.4789560503317894 -0.1232744845068903 0 -0.48177537954215988 -0.1008392140164158 0 -0.5 -0.1098003546225927 0 -0.5 -0.13965221985102871 0 -0.4789560503317894 -0.1232744845068903 0 -0.5 -0.1098003546225927 0 -0.47896401899303692 -0.075889599338857985 0 -0.47615265844391402 -0.050939984661300203 0 -0.46032566420372939 -0.09225013107069889 0 -0.48177537954215988 -0.1008392140164158 0 -0.47896401899303692 -0.075889599338857985 0 -0.48177537954215988 -0.1008392140164158 0 -0.47896401899303692 -0.075889599338857985 0 -0.48177537954215988 -0.1008392140164158 0 -0.47896401899303692 -0.075889599338857985 0 -0.5 -0.079948489394156885 0 -0.47896401899303692 -0.075889599338857985 0 -0.5 -0.079948489394156885 0 -0.5 -0.06290660844117224 0 -0.47896401899303692 -0.075889599338857985 0 -0.5 -0.06290660844117224 0 -0.47615265844391402 -0.050939984661300203 0 -0.5 -0.06290660844117224 0 -0.49234242583375049 -0.03563397423989681 0 -0.47615265844391402 -0.050939984661300203 0 -0.5 -0.06290660844117224 0 -0.49234242583375049 -0.03563397423989681 0 -0.5 -0.06290660844117224 0 -0.5 -0.050096624165721033 0 -0.49234242583375049 -0.03563397423989681 0 -0.5 -0.050096624165721033 0 -0.49234242583375049 -0.03563397423989681 0 -0.5 -0.020244758937285171 0 -0.49234242583375049 -0.03563397423989681 0 -0.47615265844391402 -0.050939984661300203 0 -0.47334129789479101 -0.025990369983742469 0 -0.47615265844391402 -0.050939984661300203 0 -0.4610014360747765 -0.033874074309024629 0 -0.47334129789479101 -0.025990369983742469 0 -0.47615265844391402 -0.050939984661300203 0 -0.47334129789479101 -0.025990369983742469 0 -0.47896401899303692 -0.075889599338857985 0 -0.47615265844391402 -0.050939984661300203 0 -0.46307702250785959 -0.060464952939110347 0 -0.44691293337069471 -0.063540830838951415 0 -0.46307702250785959 -0.060464952939110347 0 -0.45440132218141938 -0.046582641859950438 0 -0.47615265844391402 -0.050939984661300203 0 -0.46307702250785959 -0.060464952939110347 0 -0.45440132218141938 -0.046582641859950438 0 -0.47615265844391402 -0.050939984661300203 0 -0.4610014360747765 -0.033874074309024629 0 -0.45440132218141938 -0.046582641859950438 0 -0.4610014360747765 -0.033874074309024629 0 -0.45440132218141938 -0.046582641859950438 0 -0.44409415689212978 -0.028982309230464201 0 -0.45440132218141938 -0.046582641859950438 0 -0.43789413871577398 -0.046996915995667153 0 -0.44409415689212978 -0.028982309230464201 0 -0.43141096546999291 -0.060999004398635842 0 -0.44691293337069471 -0.063540830838951415 0 -0.43789413871577398 -0.046996915995667153 0 -0.44691293337069471 -0.063540830838951415 0 -0.45440132218141938 -0.046582641859950438 0 -0.43789413871577398 -0.046996915995667153 0 -0.45119406178803412 -0.002812902927797368 0 -0.44409493738853101 -0.013906038304638419 0 -0.45701774496162839 -0.016875065809665829 0 -0.4365994942171969 -0.003372175856666619 0 -0.45119406178803412 -0.002812902927797368 0 -0.44409493738853101 -0.013906038304638419 0 -0.43156922908366602 -0.017487737698598099 0 -0.44409493738853101 -0.013906038304638419 0 -0.44409415689212978 -0.028982309230464201 0 -0.44409493738853101 -0.013906038304638419 0 -0.44409415689212978 -0.028982309230464201 0 -0.45701774496162839 -0.016875065809665829 0 -0.4610014360747765 -0.033874074309024629 0 -0.44409415689212978 -0.028982309230464201 0 -0.45701774496162839 -0.016875065809665829 0 -0.4610014360747765 -0.033874074309024629 0 -0.45701774496162839 -0.016875065809665829 0 -0.47334129789479101 -0.025990369983742469 0 -0.45701774496162839 -0.016875065809665829 0 -0.47052993734566811 -0.001040755306184811 0 -0.47334129789479101 -0.025990369983742469 0 -0.45119406178803412 -0.002812902927797368 0 -0.45701774496162839 -0.016875065809665829 0 -0.47052993734566811 -0.001040755306184811 0 -0.47052993734566811 -0.001040755306184811 0 -0.47334129789479101 -0.025990369983742469 0 -0.48567066712505602 -0.0083613400386212747 0 -0.47052993734566811 -0.001040755306184811 0 -0.47334129789479101 -0.025990369983742469 0 -0.49234242583375049 -0.03563397423989681 0 -0.47334129789479101 -0.025990369983742469 0 -0.48567066712505602 -0.0083613400386212747 0 -0.49234242583375049 -0.03563397423989681 0 -0.48567066712505602 -0.0083613400386212747 0 -0.49234242583375049 -0.03563397423989681 0 -0.5 -0.020244758937285171 0 -0.48567066712505602 -0.0083613400386212747 0 -0.5 -0.020244758937285171 0 -0.48567066712505602 -0.0083613400386212747 0 -0.49999999999999728 0.0096071062911506425 0 -0.48567066712505602 -0.0083613400386212747 0 -0.49999999999999728 0.0096071062911506425 0 -0.47899890841636111 0.01891129416265409 0 -0.49999999999999728 0.0096071062911506425 0 -0.47899890841636111 0.01891129416265409 0 -0.49999999999999728 0.0096071062911506425 0 -0.48714536892841442 0.028111907047845639 0 -0.47899890841636111 0.01891129416265409 0 -0.49999999999999728 0.0096071062911506425 0 -0.5 0.02959793653792742 0 -0.48714536892841442 0.028111907047845639 0 -0.48714536892841442 0.028111907047845639 0 -0.47899890841636111 0.01891129416265409 0 -0.47510164534296689 0.034842420396029278 0 -0.47899890841636111 0.01891129416265409 0 -0.47510164534296689 0.034842420396029278 0 -0.47899890841636111 0.01891129416265409 0 -0.46980087902175133 0.03038337064138923 0 -0.47510164534296689 0.034842420396029278 0 -0.47899890841636111 0.01891129416265409 0 -0.46980087902175133 0.03038337064138923 0 -0.46771857679654699 0.0239088593713731 0 -0.47899890841636111 0.01891129416265409 0 -0.46771857679654699 0.0239088593713731 0 -0.47052993734566811 -0.001040755306184811 0 -0.47899890841636111 0.01891129416265409 0 -0.46771857679654699 0.0239088593713731 0 -0.47052993734566811 -0.001040755306184811 0 -0.48567066712505602 -0.0083613400386212747 0 -0.47899890841636111 0.01891129416265409 0 -0.48567066712505602 -0.0083613400386212747 0 -0.47899890841636111 0.01891129416265409 0 -0.47052993734566811 -0.001040755306184811 0 -0.46771857679654699 0.0239088593713731 0 -0.48615256991401079 0.060020567997673642 0 -0.49999999999999989 0.049588766784704197 0 -0.49193756089728558 0.076128278800707605 0 -0.48615256991401079 0.060020567997673642 0 -0.48780200915252858 0.045455379567168393 0 -0.47997681725345998 0.053111292498539513 0 -0.48615256991401079 0.060020567997673642 0 -0.49999999999999989 0.049588766784704197 0 -0.48780200915252858 0.045455379567168393 0 -0.5 0.02959793653792742 0 -0.48780200915252858 0.045455379567168393 0 -0.48545359093148482 0.036227241225710777 0 -0.5 0.02959793653792742 0 -0.49999999999999989 0.049588766784704197 0 -0.48780200915252858 0.045455379567168393 0 -0.48780200915252858 0.045455379567168393 0 -0.48545359093148482 0.036227241225710777 0 -0.47990768899000252 0.04408197606337045 0 -0.5 0.02959793653792742 0 -0.48714536892841442 0.028111907047845639 0 -0.48545359093148482 0.036227241225710777 0 -0.47510164534296689 0.034842420396029278 0 -0.47120438226957251 0.050773546629404302 0 -0.47510164534296689 0.034842420396029278 0 -0.47990768899000252 0.04408197606337045 0 -0.47120438226957251 0.050773546629404302 0 -0.46980087902175133 0.03038337064138923 0 -0.47510164534296689 0.034842420396029278 0 -0.47120438226957251 0.050773546629404302 0 -0.46980087902175133 0.03038337064138923 0 -0.47120438226957251 0.050773546629404302 0 -0.48545359093148482 0.036227241225710777 0 -0.47510164534296689 0.034842420396029278 0 -0.47990768899000252 0.04408197606337045 0 -0.48714536892841442 0.028111907047845639 0 -0.48545359093148482 0.036227241225710777 0 -0.47510164534296689 0.034842420396029278 0 -0.47120438226957251 0.050773546629404302 0 -0.47270354991604019 0.072553540508626169 0 -0.47120438226957251 0.050773546629404302 0 -0.4783363707808625 0.061539068101246368 0 -0.47270354991604019 0.072553540508626169 0 -0.47990768899000252 0.04408197606337045 0 -0.47997681725345998 0.053111292498539513 0 -0.47120438226957251 0.050773546629404302 0 -0.48780200915252858 0.045455379567168393 0 -0.47990768899000252 0.04408197606337045 0 -0.47997681725345998 0.053111292498539513 0 -0.47997681725345998 0.053111292498539513 0 -0.47120438226957251 0.050773546629404302 0 -0.4783363707808625 0.061539068101246368 0 -0.48615256991401079 0.060020567997673642 0 -0.47997681725345998 0.053111292498539513 0 -0.4783363707808625 0.061539068101246368 0 -0.47120438226957251 0.050773546629404302 0 -0.46440751672205283 0.053293092232788247 0 -0.46609427141744381 0.071662519100254313 0 -0.47120438226957251 0.050773546629404302 0 -0.46609427141744381 0.071662519100254313 0 -0.46440751672205283 0.053293092232788247 0 -0.45255592134578199 0.056782870349862638 0 -0.45611872332323 0.067801617217473173 0 -0.46440751672205283 0.053293092232788247 0 -0.45623556582270569 0.048602941673260361 0 -0.45255592134578199 0.056782870349862638 0 -0.46980087902175133 0.03038337064138923 0 -0.46440751672205283 0.053293092232788247 0 -0.46771857679654699 0.0239088593713731 0 -0.46980087902175133 0.03038337064138923 0 -0.47120438226957251 0.050773546629404302 0 -0.46440751672205283 0.053293092232788247 0 -0.46440751672205283 0.053293092232788247 0 -0.45835488584878759 0.037815767460462613 0 -0.46771857679654699 0.0239088593713731 0 -0.45835488584878759 0.037815767460462613 0 -0.44192197029536351 0.035337621175420039 0 -0.46771857679654699 0.0239088593713731 0 -0.46440751672205283 0.053293092232788247 0 -0.46771857679654699 0.0239088593713731 0 -0.45623556582270569 0.048602941673260361 0 -0.45835488584878759 0.037815767460462613 0 -0.44722117384345578 0.049117651825823887 0 -0.46440751672205283 0.053293092232788247 0 -0.45623556582270569 0.048602941673260361 0 -0.45835488584878759 0.037815767460462613 0 -0.45835488584878759 0.037815767460462613 0 -0.44192197029536351 0.035337621175420039 0 -0.44722117384345578 0.049117651825823887 0 -0.44192197029536351 0.035337621175420039 0 -0.44722117384345578 0.049117651825823887 0 -0.43526531143239661 0.047033639917084653 0 -0.45623556582270569 0.048602941673260361 0 -0.44722117384345578 0.049117651825823887 0 -0.45255592134578199 0.056782870349862638 0 -0.44722117384345578 0.049117651825823887 0 -0.43985175410726052 0.057664533488982747 0 -0.45255592134578199 0.056782870349862638 0 -0.44722117384345578 0.049117651825823887 0 -0.43793151917464651 0.052386156264789117 0 -0.43985175410726052 0.057664533488982747 0 -0.44722117384345578 0.049117651825823887 0 -0.43793151917464651 0.052386156264789117 0 -0.43526531143239661 0.047033639917084653 0 -0.43985175410726052 0.057664533488982747 0 -0.45255592134578199 0.056782870349862638 0 -0.442669944067828 0.067926035561326398 0 -0.47052993734566811 -0.001040755306184811 0 -0.46771857679654699 0.0239088593713731 0 -0.46016749465053958 0.016173891115659381 0 -0.45119406178803412 -0.002812902927797368 0 -0.47052993734566811 -0.001040755306184811 0 -0.4553739063786843 0.0094055478796492287 0 -0.47052993734566811 -0.001040755306184811 0 -0.4553739063786843 0.0094055478796492287 0 -0.46016749465053958 0.016173891115659381 0 -0.44192197029536351 0.035337621175420039 0 -0.46771857679654699 0.0239088593713731 0 -0.44192197029536351 0.035337621175420039 0 -0.46771857679654699 0.0239088593713731 0 -0.45070563752341197 0.022425876520329451 0 -0.46771857679654699 0.0239088593713731 0 -0.46016749465053958 0.016173891115659381 0 -0.45070563752341197 0.022425876520329451 0 -0.4553739063786843 0.0094055478796492287 0 -0.46016749465053958 0.016173891115659381 0 -0.45070563752341197 0.022425876520329451 0 -0.44192197029536351 0.035337621175420039 0 -0.45070563752341197 0.022425876520329451 0 -0.43780654555156551 0.01747673465341797 0 -0.45070563752341197 0.022425876520329451 0 -0.43780654555156551 0.01747673465341797 0 -0.44411748251338329 0.008214316159738784 0 -0.4553739063786843 0.0094055478796492287 0 -0.45070563752341197 0.022425876520329451 0 -0.44411748251338329 0.008214316159738784 0 -0.45119406178803412 -0.002812902927797368 0 -0.4553739063786843 0.0094055478796492287 0 -0.44411748251338329 0.008214316159738784 0 -0.4365994942171969 -0.003372175856666619 0 -0.45119406178803412 -0.002812902927797368 0 -0.44411748251338329 0.008214316159738784 0 -0.4365994942171969 -0.003372175856666619 0 -0.44411748251338329 0.008214316159738784 0 -0.42996138606541989 0.0079864926970191624 0 -0.42996138606541989 0.0079864926970191624 0 -0.41065709527570382 0.0090047545194412576 0 -0.42638371142174603 0.02137944517808071 0 -0.43780654555156551 0.01747673465341797 0 -0.44411748251338329 0.008214316159738784 0 -0.42996138606541989 0.0079864926970191624 0 -0.43780654555156551 0.01747673465341797 0 -0.42996138606541989 0.0079864926970191624 0 -0.42638371142174603 0.02137944517808071 0 -0.42402428445473223 -0.0046771554928525102 0 -0.42996138606541989 0.0079864926970191624 0 -0.41065709527570382 0.0090047545194412576 0 -0.41065709527570382 0.0090047545194412576 0 -0.41910965146524271 0.031882155808581662 0 -0.40594401813043568 0.038650461204099339 0 -0.41065709527570382 0.0090047545194412576 0 -0.40594401813043568 0.038650461204099339 0 -0.41065709527570382 0.0090047545194412576 0 -0.42638371142174603 0.02137944517808071 0 -0.41910965146524271 0.031882155808581662 0 -0.44192197029536351 0.035337621175420039 0 -0.43780654555156551 0.01747673465341797 0 -0.42638371142174603 0.02137944517808071 0 -0.44192197029536351 0.035337621175420039 0 -0.42638371142174603 0.02137944517808071 0 -0.41910965146524271 0.031882155808581662 0 -0.44192197029536351 0.035337621175420039 0 -0.41612536379417819 0.046766382979462388 0 -0.44192197029536351 0.035337621175420039 0 -0.41910965146524271 0.031882155808581662 0 -0.41612536379417819 0.046766382979462388 0 -0.44192197029536351 0.035337621175420039 0 -0.43526531143239661 0.047033639917084653 0 -0.41612536379417819 0.046766382979462388 0 -0.43526531143239661 0.047033639917084653 0 -0.4285299110241636 0.056654499766991759 0 -0.41612536379417819 0.046766382979462388 0 -0.43793151917464651 0.052386156264789117 0 -0.43985175410726052 0.057664533488982747 0 -0.4285299110241636 0.056654499766991759 0 -0.43985175410726052 0.057664533488982747 0 -0.4285299110241636 0.056654499766991759 0 -0.442669944067828 0.067926035561326398 0 -0.4285299110241636 0.056654499766991759 0 -0.442669944067828 0.067926035561326398 0 -0.43793151917464651 0.052386156264789117 0 -0.43526531143239661 0.047033639917084653 0 -0.4285299110241636 0.056654499766991759 0 -0.4285299110241636 0.056654499766991759 0 -0.41612536379417819 0.046766382979462388 0 -0.4285299110241636 0.056654499766991759 0 -0.41336367508694882 0.058326148072272689 0 -0.41612536379417819 0.046766382979462388 0 -0.40711363730708139 0.050758880033658901 0 -0.41612536379417819 0.046766382979462388 0 -0.40711363730708139 0.050758880033658901 0 -0.41336367508694882 0.058326148072272689 0 -0.41612536379417819 0.046766382979462388 0 -0.40711363730708139 0.050758880033658901 0 -0.41336367508694882 0.058326148072272689 0 -0.40187825843122771 0.064224479149902938 0 -0.40711363730708139 0.050758880033658901 0 -0.41612536379417819 0.046766382979462388 0 -0.40594401813043568 0.038650461204099339 0 -0.41612536379417819 0.046766382979462388 0 -0.40594401813043568 0.038650461204099339 0 -0.41910965146524271 0.031882155808581662 0 -0.41612536379417819 0.046766382979462388 0 -0.40594401813043568 0.038650461204099339 0 -0.40594401813043568 0.038650461204099339 0 -0.39027055385478659 0.03218237185614807 0 -0.39178430767190142 0.027363239825058949 0 -0.40594401813043568 0.038650461204099339 0 -0.39145267277808038 0.037287965499393783 0 -0.39027055385478659 0.03218237185614807 0 -0.40594401813043568 0.038650461204099339 0 -0.39178430767190142 0.027363239825058949 0 -0.40594401813043568 0.038650461204099339 0 -0.39252708285071258 0.046465870329485209 0 -0.39145267277808038 0.037287965499393783 0 -0.40594401813043568 0.038650461204099339 0 -0.40187825843122771 0.064224479149902938 0 -0.40711363730708139 0.050758880033658901 0 -0.40594401813043568 0.038650461204099339 0 -0.40187825843122771 0.064224479149902938 0 -0.40594401813043568 0.038650461204099339 0 -0.39252708285071258 0.046465870329485209 0 -0.40187825843122771 0.064224479149902938 0 -0.39252708285071258 0.046465870329485209 0 -0.38240654519008871 0.055436662967183171 0 -0.40187825843122771 0.064224479149902938 0 -0.38240654519008871 0.055436662967183171 0 -0.38050409013001613 0.069754291069488522 0 -0.36482557676380267 0.062116409314423693 0 -0.38240654519008871 0.055436662967183171 0 -0.38182778586106558 0.03744362386130369 0 -0.37194409271123219 0.047996753346284317 0 -0.39252708285071258 0.046465870329485209 0 -0.38240654519008871 0.055436662967183171 0 -0.38182778586106558 0.03744362386130369 0 -0.39145267277808038 0.037287965499393783 0 -0.3869011788575728 0.031899862681118697 0 -0.38182778586106558 0.03744362386130369 0 -0.3869011788575728 0.031899862681118697 0 -0.38182778586106558 0.03744362386130369 0 -0.38382939624706869 0.029243296408879609 0 -0.39145267277808038 0.037287965499393783 0 -0.3869011788575728 0.031899862681118697 0 -0.39027055385478659 0.03218237185614807 0 -0.3869011788575728 0.031899862681118697 0 -0.39027055385478659 0.03218237185614807 0 -0.38956864118080048 0.029963554499715321 0 -0.39252708285071258 0.046465870329485209 0 -0.39145267277808038 0.037287965499393783 0 -0.38182778586106558 0.03744362386130369 0 -0.38182778586106558 0.03744362386130369 0 -0.37724479330281657 0.030961133850392088 0 -0.38382939624706869 0.029243296408879609 0 -0.38182778586106558 0.03744362386130369 0 -0.37724479330281657 0.030961133850392088 0 -0.37018974322863402 0.037046599085976982 0 -0.38757597198175298 0.020301618836280878 0 -0.39099334625972287 0.00079996332830187949 0 -0.39178430767190142 0.027363239825058949 0 -0.37724479330281657 0.030961133850392088 0 -0.3790655981982507 0.025776957271346771 0 -0.36989037023964189 0.024282585045291721 0 -0.3790655981982507 0.025776957271346771 0 -0.38382939624706869 0.029243296408879609 0 -0.384528185832409 0.024528036179244029 0 -0.37724479330281657 0.030961133850392088 0 -0.3790655981982507 0.025776957271346771 0 -0.38382939624706869 0.029243296408879609 0 -0.38382939624706869 0.029243296408879609 0 -0.38714763994014928 0.026556065166841149 0 -0.3879623877010428 0.028661829638051729 0 -0.3869011788575728 0.031899862681118697 0 -0.38382939624706869 0.029243296408879609 0 -0.3879623877010428 0.028661829638051729 0 -0.38382939624706869 0.029243296408879609 0 -0.384528185832409 0.024528036179244029 0 -0.38714763994014928 0.026556065166841149 0 -0.384528185832409 0.024528036179244029 0 -0.38714763994014928 0.026556065166841149 0 -0.38839964854610942 0.024868201252638829 0 -0.38839964854610942 0.024868201252638829 0 -0.38757597198175298 0.020301618836280878 0 -0.39178430767190142 0.027363239825058949 0 -0.38714763994014928 0.026556065166841149 0 -0.38839964854610942 0.024868201252638829 0 -0.38923075362263648 0.02701743700048832 0 -0.38839964854610942 0.024868201252638829 0 -0.38923075362263648 0.02701743700048832 0 -0.39178430767190142 0.027363239825058949 0 -0.39027055385478659 0.03218237185614807 0 -0.38956864118080048 0.029963554499715321 0 -0.39178430767190142 0.027363239825058949 0 -0.38923075362263648 0.02701743700048832 0 -0.38956864118080048 0.029963554499715321 0 -0.39178430767190142 0.027363239825058949 0 -0.38923075362263648 0.02701743700048832 0 -0.38956864118080048 0.029963554499715321 0 -0.3879623877010428 0.028661829638051729 0 -0.3869011788575728 0.031899862681118697 0 -0.38956864118080048 0.029963554499715321 0 -0.3879623877010428 0.028661829638051729 0 -0.38714763994014928 0.026556065166841149 0 -0.38923075362263648 0.02701743700048832 0 -0.3879623877010428 0.028661829638051729 0 -0.38757597198175298 0.020301618836280878 0 -0.37983524536931712 0.019869734872926439 0 -0.38183856720314419 0.011655764802877149 0 -0.384528185832409 0.024528036179244029 0 -0.38839964854610942 0.024868201252638829 0 -0.38757597198175298 0.020301618836280878 0 -0.384528185832409 0.024528036179244029 0 -0.38757597198175298 0.020301618836280878 0 -0.37983524536931712 0.019869734872926439 0 -0.3790655981982507 0.025776957271346771 0 -0.37983524536931712 0.019869734872926439 0 -0.36989037023964189 0.024282585045291721 0 -0.3790655981982507 0.025776957271346771 0 -0.384528185832409 0.024528036179244029 0 -0.37983524536931712 0.019869734872926439 0 -0.38757597198175298 0.020301618836280878 0 -0.38183856720314419 0.011655764802877149 0 -0.39099334625972287 0.00079996332830187949 0 -0.38183856720314419 0.011655764802877149 0 -0.37532756199792711 0.001896406901583601 0 -0.37452935489823119 0.01420724725220366 0 -0.37983524536931712 0.019869734872926439 0 -0.38183856720314419 0.011655764802877149 0 -0.37452935489823119 0.01420724725220366 0 -0.38183856720314419 0.011655764802877149 0 -0.37532756199792711 0.001896406901583601 0 -0.39099334625972287 0.00079996332830187949 0 -0.39099334625972287 0.00079996332830187949 0 -0.39178430767190142 0.027363239825058949 0 -0.39099334625972287 0.00079996332830187949 0 -0.39428813695222042 0.01438126941228556 0 -0.39178430767190142 0.027363239825058949 0 -0.40206401907905209 -0.01285992135709633 0 -0.41065709527570382 0.0090047545194412576 0 -0.39428813695222042 0.01438126941228556 0 -0.40206401907905209 -0.01285992135709633 0 -0.39428813695222042 0.01438126941228556 0 -0.40206401907905209 -0.01285992135709633 0 -0.39099334625972287 0.00079996332830187949 0 -0.39428813695222042 0.01438126941228556 0 -0.41065709527570382 0.0090047545194412576 0 -0.39428813695222042 0.01438126941228556 0 -0.39178430767190142 0.027363239825058949 0 -0.41065709527570382 0.0090047545194412576 0 -0.40594401813043568 0.038650461204099339 0 -0.39178430767190142 0.027363239825058949 0 -0.38819448184622701 0.100176308967958 0 -0.41141791032526842 0.1167919971458992 0 -0.40606105377689189 0.1064336717056607 0 -0.38819448184622701 0.100176308967958 0 -0.41141791032526842 0.1167919971458992 0 -0.39614297723030167 0.1002999472562129 0 -0.40606105377689189 0.1064336717056607 0 -0.38819448184622701 0.100176308967958 0 -0.39614297723030167 0.1002999472562129 0 -0.38819448184622701 0.100176308967958 0 -0.39781249873201951 0.089798497095706406 0 -0.38819448184622701 0.100176308967958 0 -0.39781249873201951 0.089798497095706406 0 -0.39614297723030167 0.1002999472562129 0 -0.39781249873201951 0.089798497095706406 0 -0.39614297723030167 0.1002999472562129 0 -0.40513221559484558 0.096850078360634625 0 -0.39781249873201951 0.089798497095706406 0 -0.39614297723030167 0.1002999472562129 0 -0.40513221559484558 0.096850078360634625 0 -0.40606105377689189 0.1064336717056607 0 -0.39328037993891951 0.1176051610422874 0 -0.38819448184622701 0.100176308967958 0 -0.41141791032526842 0.1167919971458992 0 -0.39328037993891951 0.1176051610422874 0 -0.40293871567343009 0.12421719683744981 0 -0.41141791032526842 0.1167919971458992 0 -0.39328037993891951 0.1176051610422874 0 -0.38819448184622701 0.100176308967958 0 -0.36929640858505602 0.1205672743178057 0 -0.38819448184622701 0.100176308967958 0 -0.36929640858505602 0.1205672743178057 0 -0.39328037993891951 0.1176051610422874 0 -0.3892943401345571 0.13531794542860401 0 -0.36929640858505602 0.1205672743178057 0 -0.38819448184622701 0.100176308967958 0 -0.3707397541843262 0.087687958579784786 0 -0.38819448184622701 0.100176308967958 0 -0.3707397541843262 0.087687958579784786 0 -0.36626698736670799 0.10439010821825399 0 -0.38782581666476318 0.082328306972568155 0 -0.38050409013001613 0.069754291069488522 0 -0.3707397541843262 0.087687958579784786 0 -0.38819448184622701 0.100176308967958 0 -0.38782581666476318 0.082328306972568155 0 -0.3707397541843262 0.087687958579784786 0 -0.38782581666476318 0.082328306972568155 0 -0.38050409013001613 0.069754291069488522 0 -0.40187825843122771 0.064224479149902938 0 -0.38240654519008871 0.055436662967183171 0 -0.38050409013001613 0.069754291069488522 0 -0.40187825843122771 0.064224479149902938 0 -0.40187825843122771 0.064224479149902938 0 -0.39781249873201951 0.089798497095706406 0 -0.41317120487809172 0.073226498431349166 0 -0.40187825843122771 0.064224479149902938 0 -0.39781249873201951 0.089798497095706406 0 -0.38782581666476318 0.082328306972568155 0 -0.40187825843122771 0.064224479149902938 0 -0.39781249873201951 0.089798497095706406 0 -0.38819448184622701 0.100176308967958 0 -0.38782581666476318 0.082328306972568155 0 -0.39781249873201951 0.089798497095706406 0 -0.39781249873201951 0.089798497095706406 0 -0.41317120487809172 0.073226498431349166 0 -0.40513221559484558 0.096850078360634625 0 -0.39781249873201951 0.089798497095706406 0 -0.41174920129623821 0.087344321433102834 0 -0.39781249873201951 0.089798497095706406 0 -0.41174920129623821 0.087344321433102834 0 -0.41317120487809172 0.073226498431349166 0 -0.41174920129623821 0.087344321433102834 0 -0.41317120487809172 0.073226498431349166 0 -0.42604592602289809 0.085914846457598726 0 -0.41174920129623821 0.087344321433102834 0 -0.42604592602289809 0.085914846457598726 0 -0.41575806437787372 0.097476743531910409 0 -0.4285299110241636 0.056654499766991759 0 -0.41336367508694882 0.058326148072272689 0 -0.41317120487809172 0.073226498431349166 0 -0.4285299110241636 0.056654499766991759 0 -0.41317120487809172 0.073226498431349166 0 -0.41336367508694882 0.058326148072272689 0 -0.40187825843122771 0.064224479149902938 0 -0.41317120487809172 0.073226498431349166 0 -0.4285299110241636 0.056654499766991759 0 -0.43033876023925721 0.072907853890782762 0 -0.442669944067828 0.067926035561326398 0 -0.41317120487809172 0.073226498431349166 0 -0.43033876023925721 0.072907853890782762 0 -0.42604592602289809 0.085914846457598726 0 -0.4285299110241636 0.056654499766991759 0 -0.41317120487809172 0.073226498431349166 0 -0.43033876023925721 0.072907853890782762 0 -0.42604592602289809 0.085914846457598726 0 -0.44127681520330408 0.080817389236647719 0 -0.44216647773964213 0.092828620965635295 0 -0.43033876023925721 0.072907853890782762 0 -0.42604592602289809 0.085914846457598726 0 -0.44127681520330408 0.080817389236647719 0 -0.42650590331643617 0.10251140771285649 0 -0.43774918284312742 0.1158036227082145 0 -0.44216647773964213 0.092828620965635295 0 -0.42604592602289809 0.085914846457598726 0 -0.42650590331643617 0.10251140771285649 0 -0.44216647773964213 0.092828620965635295 0 -0.42604592602289809 0.085914846457598726 0 -0.42650590331643617 0.10251140771285649 0 -0.41575806437787372 0.097476743531910409 0 -0.42650590331643617 0.10251140771285649 0 -0.41628619956978002 0.1077767281297095 0 -0.4216880660524302 0.1156698205522205 0 -0.42650590331643617 0.10251140771285649 0 -0.41575806437787372 0.097476743531910409 0 -0.41628619956978002 0.1077767281297095 0 -0.40606105377689189 0.1064336717056607 0 -0.41575806437787372 0.097476743531910409 0 -0.41628619956978002 0.1077767281297095 0 -0.40513221559484558 0.096850078360634625 0 -0.40606105377689189 0.1064336717056607 0 -0.41575806437787372 0.097476743531910409 0 -0.40513221559484558 0.096850078360634625 0 -0.41174920129623821 0.087344321433102834 0 -0.41575806437787372 0.097476743531910409 0 -0.40293871567343009 0.12421719683744981 0 -0.41141791032526842 0.1167919971458992 0 -0.41670447298929841 0.1257632163116866 0 -0.40606105377689189 0.1064336717056607 0 -0.41628619956978002 0.1077767281297095 0 -0.41141791032526842 0.1167919971458992 0 -0.41628619956978002 0.1077767281297095 0 -0.41141791032526842 0.1167919971458992 0 -0.4216880660524302 0.1156698205522205 0 -0.41141791032526842 0.1167919971458992 0 -0.4216880660524302 0.1156698205522205 0 -0.41670447298929841 0.1257632163116866 0 -0.42650590331643617 0.10251140771285649 0 -0.4216880660524302 0.1156698205522205 0 -0.43774918284312742 0.1158036227082145 0 -0.4216880660524302 0.1156698205522205 0 -0.43774918284312742 0.1158036227082145 0 -0.42985513285125732 0.12619801812854861 0 -0.45048226985183998 0.1204639231444611 0 -0.43774918284312742 0.1158036227082145 0 -0.44434229694142191 0.12997474137256029 0 -0.45048226985183998 0.1204639231444611 0 -0.44820880727005008 0.1080834794617785 0 -0.45676139518142828 0.1115668254282946 0 -0.45048226985183998 0.1204639231444611 0 -0.43774918284312742 0.1158036227082145 0 -0.44820880727005008 0.1080834794617785 0 -0.43774918284312742 0.1158036227082145 0 -0.44820880727005008 0.1080834794617785 0 -0.44216647773964213 0.092828620965635295 0 -0.43774918284312742 0.1158036227082145 0 -0.44216647773964213 0.092828620965635295 0 -0.44820880727005008 0.1080834794617785 0 -0.4538847107342126 0.099754405062287138 0 -0.44216647773964213 0.092828620965635295 0 -0.44820880727005008 0.1080834794617785 0 -0.4538847107342126 0.099754405062287138 0 -0.45676139518142828 0.1115668254282946 0 -0.4538847107342126 0.099754405062287138 0 -0.46570863921875422 0.1039637104494405 0 -0.45676139518142828 0.1115668254282946 0 -0.4538847107342126 0.099754405062287138 0 -0.46570863921875422 0.1039637104494405 0 -0.46098416056531522 0.092551491571104316 0 -0.46570863921875422 0.1039637104494405 0 -0.46098416056531522 0.092551491571104316 0 -0.47420271756250798 0.09433353438784807 0 -0.46570863921875422 0.1039637104494405 0 -0.46548422543874629 0.1136420041136043 0 -0.45676139518142828 0.1115668254282946 0 -0.46548422543874629 0.1136420041136043 0 -0.46376498214582729 0.1229239523096122 0 -0.45676139518142828 0.1115668254282946 0 -0.46548422543874629 0.1136420041136043 0 -0.46376498214582729 0.1229239523096122 0 -0.47570188520897572 0.11611352826707 0 -0.45048226985183998 0.1204639231444611 0 -0.46376498214582729 0.1229239523096122 0 -0.45676139518142828 0.1115668254282946 0 -0.45255592134578199 0.056782870349862638 0 -0.442669944067828 0.067926035561326398 0 -0.45611872332323 0.067801617217473173 0 -0.43033876023925721 0.072907853890782762 0 -0.442669944067828 0.067926035561326398 0 -0.44127681520330408 0.080817389236647719 0 -0.442669944067828 0.067926035561326398 0 -0.44127681520330408 0.080817389236647719 0 -0.45680997711149202 0.079197571355661633 0 -0.442669944067828 0.067926035561326398 0 -0.45680997711149202 0.079197571355661633 0 -0.45611872332323 0.067801617217473173 0 -0.442669944067828 0.067926035561326398 0 -0.45680997711149202 0.079197571355661633 0 -0.44127681520330408 0.080817389236647719 0 -0.45270309966692113 0.087971133880923272 0 -0.45680997711149202 0.079197571355661633 0 -0.44127681520330408 0.080817389236647719 0 -0.44216647773964213 0.092828620965635295 0 -0.45270309966692113 0.087971133880923272 0 -0.4538847107342126 0.099754405062287138 0 -0.44216647773964213 0.092828620965635295 0 -0.45270309966692113 0.087971133880923272 0 -0.46098416056531522 0.092551491571104316 0 -0.46109645664756072 0.082677325094203613 0 -0.46609427141744381 0.071662519100254313 0 -0.46098416056531522 0.092551491571104316 0 -0.46820753454822073 0.082971288318716252 0 -0.46609427141744381 0.071662519100254313 0 -0.46098416056531522 0.092551491571104316 0 -0.46609427141744381 0.071662519100254313 0 -0.45270309966692113 0.087971133880923272 0 -0.46098416056531522 0.092551491571104316 0 -0.46109645664756072 0.082677325094203613 0 -0.4538847107342126 0.099754405062287138 0 -0.45270309966692113 0.087971133880923272 0 -0.46098416056531522 0.092551491571104316 0 -0.46098416056531522 0.092551491571104316 0 -0.46820753454822073 0.082971288318716252 0 -0.47420271756250798 0.09433353438784807 0 -0.45270309966692113 0.087971133880923272 0 -0.46109645664756072 0.082677325094203613 0 -0.45680997711149202 0.079197571355661633 0 -0.46440751672205283 0.053293092232788247 0 -0.46109645664756072 0.082677325094203613 0 -0.45611872332323 0.067801617217473173 0 -0.46440751672205283 0.053293092232788247 0 -0.46109645664756072 0.082677325094203613 0 -0.46440751672205283 0.053293092232788247 0 -0.46109645664756072 0.082677325094203613 0 -0.46609427141744381 0.071662519100254313 0 -0.46109645664756072 0.082677325094203613 0 -0.45680997711149202 0.079197571355661633 0 -0.45611872332323 0.067801617217473173 0 -0.47120438226957251 0.050773546629404302 0 -0.46609427141744381 0.071662519100254313 0 -0.47270354991604019 0.072553540508626169 0 -0.4783363707808625 0.061539068101246368 0 -0.47270354991604019 0.072553540508626169 0 -0.48164453455122902 0.071236392871988213 0 -0.48615256991401079 0.060020567997673642 0 -0.4783363707808625 0.061539068101246368 0 -0.48164453455122902 0.071236392871988213 0 -0.46820753454822073 0.082971288318716252 0 -0.46609427141744381 0.071662519100254313 0 -0.47270354991604019 0.072553540508626169 0 -0.47270354991604019 0.072553540508626169 0 -0.48164453455122902 0.071236392871988213 0 -0.48072177246398701 0.082943220135460211 0 -0.46820753454822073 0.082971288318716252 0 -0.47270354991604019 0.072553540508626169 0 -0.47420271756250798 0.09433353438784807 0 -0.47270354991604019 0.072553540508626169 0 -0.48072177246398701 0.082943220135460211 0 -0.47420271756250798 0.09433353438784807 0 -0.47270354991604019 0.072553540508626169 0 -0.47420271756250798 0.09433353438784807 0 -0.48072177246398701 0.082943220135460211 0 -0.48387512179457132 0.102667790816711 0 -0.47420271756250798 0.09433353438784807 0 -0.48072177246398701 0.082943220135460211 0 -0.49193756089728558 0.076128278800707605 0 -0.48387512179457132 0.102667790816711 0 -0.5 0.078205921377065057 0 -0.49193756089728558 0.076128278800707605 0 -0.48387512179457132 0.102667790816711 0 -0.49193756089728558 0.076128278800707605 0 -0.48387512179457132 0.102667790816711 0 -0.48615256991401079 0.060020567997673642 0 -0.48164453455122902 0.071236392871988213 0 -0.49193756089728558 0.076128278800707605 0 -0.49999999999999989 0.049588766784704197 0 -0.49193756089728558 0.076128278800707605 0 -0.49999999999999989 0.049588766784704197 0 -0.5 0.078205921377065057 0 -0.49193756089728558 0.076128278800707605 0 -0.48164453455122902 0.071236392871988213 0 -0.48072177246398701 0.082943220135460211 0 -0.49193756089728558 0.076128278800707605 0 -0.47570188520897572 0.11611352826707 0 -0.48387512179457132 0.102667790816711 0 -0.47581268269185689 0.12920730283271439 0 -0.48387512179457132 0.102667790816711 0 -0.48878493078205443 0.1185328139990461 0 -0.47581268269185689 0.12920730283271439 0 -0.48387512179457132 0.102667790816711 0 -0.47581268269185689 0.12920730283271439 0 -0.46376498214582729 0.1229239523096122 0 -0.47570188520897572 0.11611352826707 0 -0.47581268269185689 0.12920730283271439 0 -0.46570863921875422 0.1039637104494405 0 -0.46548422543874629 0.1136420041136043 0 -0.47570188520897572 0.11611352826707 0 -0.47570188520897572 0.11611352826707 0 -0.47420271756250798 0.09433353438784807 0 -0.46570863921875422 0.1039637104494405 0 -0.47570188520897572 0.11611352826707 0 -0.47420271756250798 0.09433353438784807 0 -0.47570188520897572 0.11611352826707 0 -0.48387512179457132 0.102667790816711 0 -0.47420271756250798 0.09433353438784807 0 -0.5 0.078205921377065057 0 -0.48387512179457132 0.102667790816711 0 -0.5 0.106823075969426 0 -0.48387512179457132 0.102667790816711 0 -0.5 0.106823075969426 0 -0.48878493078205443 0.1185328139990461 0 -0.5 0.106823075969426 0 -0.48878493078205443 0.1185328139990461 0 -0.5 0.13544023056178689 0 -0.48878493078205443 0.1185328139990461 0 -0.5 0.13544023056178689 0 -0.47581268269185689 0.12920730283271439 0 -0.5 0.13544023056178689 0 -0.47581268269185689 0.12920730283271439 0 -0.48446669641799489 0.1476583591382844 0 -0.47581268269185689 0.12920730283271439 0 -0.46326994749729827 0.13742837609025971 0 -0.46775024358914258 0.15574681484871791 0 -0.47581268269185689 0.12920730283271439 0 -0.46775024358914258 0.15574681484871791 0 -0.47581268269185689 0.12920730283271439 0 -0.48446669641799489 0.1476583591382844 0 -0.46775024358914258 0.15574681484871791 0 -0.5 0.13544023056178689 0 -0.48446669641799489 0.1476583591382844 0 -0.5 0.16405738515414789 0 -0.48446669641799489 0.1476583591382844 0 -0.5 0.16405738515414789 0 -0.48100871321356359 0.1733832849246171 0 -0.48100871321356359 0.1733832849246171 0 -0.49999999999999628 0.19267453974650889 0 -0.48011265460994262 0.1959143271373199 0 -0.5 0.16405738515414789 0 -0.48100871321356359 0.1733832849246171 0 -0.49999999999999628 0.19267453974650889 0 -0.48100871321356359 0.1733832849246171 0 -0.45968780448643048 0.18228632686472199 0 -0.48011265460994262 0.1959143271373199 0 -0.48100871321356359 0.1733832849246171 0 -0.45968780448643048 0.18228632686472199 0 -0.46775024358914258 0.15574681484871791 0 -0.48446669641799489 0.1476583591382844 0 -0.48100871321356359 0.1733832849246171 0 -0.46775024358914258 0.15574681484871791 0 -0.45554955229517757 0.16316771957470599 0 -0.45968780448643048 0.18228632686472199 0 -0.46775024358914258 0.15574681484871791 0 -0.45968780448643048 0.18228632686472199 0 -0.46775024358914258 0.15574681484871791 0 -0.45554955229517757 0.16316771957470599 0 -0.45968780448643048 0.18228632686472199 0 -0.45283819245508022 0.17771608453413079 0 -0.45283819245508022 0.17771608453413079 0 -0.45759962547674138 0.18916008444765159 0 -0.44961317414250912 0.18784960617564481 0 -0.45283819245508022 0.17771608453413079 0 -0.45759962547674138 0.18916008444765159 0 -0.45968780448643048 0.18228632686472199 0 -0.45283819245508022 0.17771608453413079 0 -0.45759962547674138 0.18916008444765159 0 -0.45968780448643048 0.18228632686472199 0 -0.45283819245508022 0.17771608453413079 0 -0.45968780448643048 0.18228632686472199 0 -0.45759962547674138 0.18916008444765159 0 -0.45283819245508022 0.17771608453413079 0 -0.42751141620550059 0.16905175575117279 0 -0.43710447093077082 0.18235883891237689 0 -0.45283819245508022 0.17771608453413079 0 -0.44518220187856461 0.1837484517956606 0 -0.43710447093077082 0.18235883891237689 0 -0.44518220187856461 0.1837484517956606 0 -0.44179508565735442 0.18711123388588649 0 -0.44961317414250912 0.18784960617564481 0 -0.45283819245508022 0.17771608453413079 0 -0.44518220187856461 0.1837484517956606 0 -0.44961317414250912 0.18784960617564481 0 -0.44179508565735442 0.18711123388588649 0 -0.43860988080934921 0.19084406506677509 0 -0.43710447093077082 0.18235883891237689 0 -0.44518220187856461 0.1837484517956606 0 -0.44179508565735442 0.18711123388588649 0 -0.43710447093077082 0.18235883891237689 0 -0.45283819245508022 0.17771608453413079 0 -0.44199951280171562 0.15166555553342481 0 -0.42891459305009361 0.16175362619337211 0 -0.45554955229517757 0.16316771957470599 0 -0.45283819245508022 0.17771608453413079 0 -0.44199951280171562 0.15166555553342481 0 -0.45283819245508022 0.17771608453413079 0 -0.42891459305009361 0.16175362619337211 0 -0.45283819245508022 0.17771608453413079 0 -0.44199951280171562 0.15166555553342481 0 -0.45554955229517757 0.16316771957470599 0 -0.44199951280171562 0.15166555553342481 0 -0.45509405456946322 0.1463632109535257 0 -0.44199951280171562 0.15166555553342481 0 -0.4455008986431106 0.14015958599904979 0 -0.45509405456946322 0.1463632109535257 0 -0.44199951280171562 0.15166555553342481 0 -0.4455008986431106 0.14015958599904979 0 -0.4333318879466127 0.1387786244507937 0 -0.43774918284312742 0.1158036227082145 0 -0.44434229694142191 0.12997474137256029 0 -0.4333318879466127 0.1387786244507937 0 -0.44434229694142191 0.12997474137256029 0 -0.4455008986431106 0.14015958599904979 0 -0.4333318879466127 0.1387786244507937 0 -0.45048226985183998 0.1204639231444611 0 -0.44434229694142191 0.12997474137256029 0 -0.45392777449020189 0.13290059950672811 0 -0.4455008986431106 0.14015958599904979 0 -0.45392777449020189 0.13290059950672811 0 -0.45509405456946322 0.1463632109535257 0 -0.44434229694142191 0.12997474137256029 0 -0.4455008986431106 0.14015958599904979 0 -0.45392777449020189 0.13290059950672811 0 -0.45392777449020189 0.13290059950672811 0 -0.46326994749729827 0.13742837609025971 0 -0.45509405456946322 0.1463632109535257 0 -0.46376498214582729 0.1229239523096122 0 -0.45392777449020189 0.13290059950672811 0 -0.46326994749729827 0.13742837609025971 0 -0.45048226985183998 0.1204639231444611 0 -0.46376498214582729 0.1229239523096122 0 -0.45392777449020189 0.13290059950672811 0 -0.46376498214582729 0.1229239523096122 0 -0.47581268269185689 0.12920730283271439 0 -0.46326994749729827 0.13742837609025971 0 -0.45554955229517757 0.16316771957470599 0 -0.46775024358914258 0.15574681484871791 0 -0.45509405456946322 0.1463632109535257 0 -0.46326994749729827 0.13742837609025971 0 -0.46775024358914258 0.15574681484871791 0 -0.45509405456946322 0.1463632109535257 0 -0.47312257009580572 0.22646914163062021 0 -0.4845846384119043 0.25401797161969808 0 -0.47312257009580572 0.22646914163062021 0 -0.46112332677026491 0.2422572031956759 0 -0.4845846384119043 0.25401797161969808 0 -0.5 0.23900809058125971 0 -0.47312257009580572 0.22646914163062021 0 -0.4845846384119043 0.25401797161969808 0 -0.5 0.23900809058125971 0 -0.47312257009580572 0.22646914163062021 0 -0.48327367299178381 0.21271445436014341 0 -0.5 0.23900809058125971 0 -0.48327367299178381 0.21271445436014341 0 -0.50000000000000155 0.20918369003389761 0 -0.47312257009580572 0.22646914163062021 0 -0.48327367299178381 0.21271445436014341 0 -0.46166050177970691 0.1989203116415422 0 -0.48327367299178381 0.21271445436014341 0 -0.50000000000000155 0.20918369003389761 0 -0.48011265460994262 0.1959143271373199 0 -0.49999999999999628 0.19267453974650889 0 -0.48011265460994262 0.1959143271373199 0 -0.50000000000000155 0.20918369003389761 0 -0.48011265460994262 0.1959143271373199 0 -0.50000000000000155 0.20918369003389761 0 -0.49999999999999628 0.19267453974650889 0 -0.48011265460994262 0.1959143271373199 0 -0.45968780448643048 0.18228632686472199 0 -0.48011265460994262 0.1959143271373199 0 -0.48011265460994262 0.1959143271373199 0 -0.46166050177970691 0.1989203116415422 0 -0.48327367299178381 0.21271445436014341 0 -0.48011265460994262 0.1959143271373199 0 -0.46166050177970691 0.1989203116415422 0 -0.45968780448643048 0.18228632686472199 0 -0.48011265460994262 0.1959143271373199 0 -0.45759962547674138 0.18916008444765159 0 -0.48011265460994262 0.1959143271373199 0 -0.46166050177970691 0.1989203116415422 0 -0.45759962547674138 0.18916008444765159 0 -0.46166050177970691 0.1989203116415422 0 -0.45426875164427272 0.20012447933788441 0 -0.45281112302878462 0.20492262437348921 0 -0.46166050177970691 0.1989203116415422 0 -0.45426875164427272 0.20012447933788441 0 -0.45759962547674138 0.18916008444765159 0 -0.46166050177970691 0.1989203116415422 0 -0.45426875164427272 0.20012447933788441 0 -0.45426875164427272 0.20012447933788441 0 -0.45281112302878462 0.20492262437348921 0 -0.45426875164427272 0.20012447933788441 0 -0.45759962547674138 0.18916008444765159 0 -0.45426875164427272 0.20012447933788441 0 -0.45759962547674138 0.18916008444765159 0 -0.44993771895776341 0.19305343009196271 0 -0.46166050177970691 0.1989203116415422 0 -0.45759962547674138 0.18916008444765159 0 -0.45759962547674138 0.18916008444765159 0 -0.44961317414250912 0.18784960617564481 0 -0.44993771895776341 0.19305343009196271 0 -0.44993771895776341 0.19305343009196271 0 -0.44389054918067539 0.191121066636429 0 -0.44271173573127592 0.19586385998931999 0 -0.44961317414250912 0.18784960617564481 0 -0.44993771895776341 0.19305343009196271 0 -0.44389054918067539 0.191121066636429 0 -0.44179508565735442 0.18711123388588649 0 -0.44389054918067539 0.191121066636429 0 -0.43860988080934921 0.19084406506677509 0 -0.44179508565735442 0.18711123388588649 0 -0.44961317414250912 0.18784960617564481 0 -0.44389054918067539 0.191121066636429 0 -0.44389054918067539 0.191121066636429 0 -0.43860988080934921 0.19084406506677509 0 -0.44271173573127592 0.19586385998931999 0 -0.45426875164427272 0.20012447933788441 0 -0.43895730941283428 0.20261882016134239 0 -0.45281112302878462 0.20492262437348921 0 -0.45426875164427272 0.20012447933788441 0 -0.43895730941283428 0.20261882016134239 0 -0.44271173573127592 0.19586385998931999 0 -0.45426875164427272 0.20012447933788441 0 -0.44993771895776341 0.19305343009196271 0 -0.44271173573127592 0.19586385998931999 0 -0.45426875164427272 0.20012447933788441 0 -0.43895730941283428 0.20261882016134239 0 -0.44545863343568137 0.20937834456204191 0 -0.45281112302878462 0.20492262437348921 0 -0.45253653487374429 0.21369186810727481 0 -0.43895730941283428 0.20261882016134239 0 -0.44545863343568137 0.20937834456204191 0 -0.45281112302878462 0.20492262437348921 0 -0.43895730941283428 0.20261882016134239 0 -0.44545863343568137 0.20937834456204191 0 -0.44091002233221049 0.21721750587870359 0 -0.44545863343568137 0.20937834456204191 0 -0.44091002233221049 0.21721750587870359 0 -0.45253653487374429 0.21369186810727481 0 -0.47312257009580572 0.22646914163062021 0 -0.46166050177970691 0.1989203116415422 0 -0.45875910339970499 0.2215595110235298 0 -0.46166050177970691 0.1989203116415422 0 -0.45253653487374429 0.21369186810727481 0 -0.45875910339970499 0.2215595110235298 0 -0.47312257009580572 0.22646914163062021 0 -0.46166050177970691 0.1989203116415422 0 -0.46166050177970691 0.1989203116415422 0 -0.45281112302878462 0.20492262437348921 0 -0.45253653487374429 0.21369186810727481 0 -0.47312257009580572 0.22646914163062021 0 -0.45875910339970499 0.2215595110235298 0 -0.46112332677026491 0.2422572031956759 0 -0.45875910339970499 0.2215595110235298 0 -0.44684311575423669 0.22850387263756791 0 -0.46112332677026491 0.2422572031956759 0 -0.45253653487374429 0.21369186810727481 0 -0.45875910339970499 0.2215595110235298 0 -0.44684311575423669 0.22850387263756791 0 -0.44091002233221049 0.21721750587870359 0 -0.45253653487374429 0.21369186810727481 0 -0.44684311575423669 0.22850387263756791 0 -0.44684311575423669 0.22850387263756791 0 -0.44126978873058992 0.24458098521907581 0 -0.43409850509861769 0.2289020828920483 0 -0.44091002233221049 0.21721750587870359 0 -0.44684311575423669 0.22850387263756791 0 -0.43409850509861769 0.2289020828920483 0 -0.44126978873058992 0.24458098521907581 0 -0.46112332677026491 0.2422572031956759 0 -0.45551282356995609 0.25929987534853671 0 -0.44684311575423669 0.22850387263756791 0 -0.44126978873058992 0.24458098521907581 0 -0.46112332677026491 0.2422572031956759 0 -0.41916559950287241 0.24974544454750311 0 -0.41726219852063112 0.2296076719894824 0 -0.40028091816802158 0.23868383598287229 0 -0.41916559950287241 0.24974544454750311 0 -0.43409850509861769 0.2289020828920483 0 -0.41726219852063112 0.2296076719894824 0 -0.44126978873058992 0.24458098521907581 0 -0.41916559950287241 0.24974544454750311 0 -0.43409850509861769 0.2289020828920483 0 -0.43409850509861769 0.2289020828920483 0 -0.41726219852063112 0.2296076719894824 0 -0.42696072029466908 0.21852499971769759 0 -0.44091002233221049 0.21721750587870359 0 -0.43409850509861769 0.2289020828920483 0 -0.42696072029466908 0.21852499971769759 0 -0.41726219852063112 0.2296076719894824 0 -0.4168083554308617 0.21835622723978679 0 -0.42696072029466908 0.21852499971769759 0 -0.41726219852063112 0.2296076719894824 0 -0.40938327095381338 0.22319630136983101 0 -0.4168083554308617 0.21835622723978679 0 -0.41726219852063112 0.2296076719894824 0 -0.40938327095381338 0.22319630136983101 0 -0.40028091816802158 0.23868383598287229 0 -0.41076277701361752 0.21455961383529731 0 -0.42364586718139507 0.20511316098479479 0 -0.40431038881801612 0.20826304538456381 0 -0.42364586718139507 0.20511316098479479 0 -0.40431038881801612 0.20826304538456381 0 -0.40938327095381338 0.22319630136983101 0 -0.41076277701361752 0.21455961383529731 0 -0.4018021056359351 0.2147741578017163 0 -0.40938327095381338 0.22319630136983101 0 -0.41076277701361752 0.21455961383529731 0 -0.4168083554308617 0.21835622723978679 0 -0.41076277701361752 0.21455961383529731 0 -0.4168083554308617 0.21835622723978679 0 -0.42364586718139507 0.20511316098479479 0 -0.44091002233221049 0.21721750587870359 0 -0.42696072029466908 0.21852499971769759 0 -0.42364586718139507 0.20511316098479479 0 -0.43895730941283428 0.20261882016134239 0 -0.44091002233221049 0.21721750587870359 0 -0.42364586718139507 0.20511316098479479 0 -0.44091002233221049 0.21721750587870359 0 -0.42364586718139507 0.20511316098479479 0 -0.4168083554308617 0.21835622723978679 0 -0.42696072029466908 0.21852499971769759 0 -0.42364586718139507 0.20511316098479479 0 -0.43895730941283428 0.20261882016134239 0 -0.42364586718139507 0.20511316098479479 0 -0.42364586718139507 0.20511316098479479 0 -0.43060620438276281 0.19742129864152749 0 -0.41926690489646151 0.19416331347127949 0 -0.43895730941283428 0.20261882016134239 0 -0.44271173573127592 0.19586385998931999 0 -0.43060620438276281 0.19742129864152749 0 -0.43895730941283428 0.20261882016134239 0 -0.42364586718139507 0.20511316098479479 0 -0.43060620438276281 0.19742129864152749 0 -0.43860988080934921 0.19084406506677509 0 -0.43060620438276281 0.19742129864152749 0 -0.43710447093077082 0.18235883891237689 0 -0.43860988080934921 0.19084406506677509 0 -0.44271173573127592 0.19586385998931999 0 -0.43060620438276281 0.19742129864152749 0 -0.43060620438276281 0.19742129864152749 0 -0.41926690489646151 0.19416331347127949 0 -0.41949225491784031 0.1832543146382353 0 -0.42364586718139507 0.20511316098479479 0 -0.40332329310384801 0.1908644796205603 0 -0.40431038881801612 0.20826304538456381 0 -0.42364586718139507 0.20511316098479479 0 -0.40332329310384801 0.1908644796205603 0 -0.42364586718139507 0.20511316098479479 0 -0.41926690489646151 0.19416331347127949 0 -0.40332329310384801 0.1908644796205603 0 -0.41926690489646151 0.19416331347127949 0 -0.40332329310384801 0.1908644796205603 0 -0.41949225491784031 0.1832543146382353 0 -0.40332329310384801 0.1908644796205603 0 -0.38939719523009042 0.20159636953392129 0 -0.4018021056359351 0.2147741578017163 0 -0.40332329310384801 0.1908644796205603 0 -0.4018021056359351 0.2147741578017163 0 -0.40332329310384801 0.1908644796205603 0 -0.39127018046396272 0.19114762633587001 0 -0.38864247507606481 0.1805713790789685 0 -0.40332329310384801 0.1908644796205603 0 -0.39127018046396272 0.19114762633587001 0 -0.38939719523009042 0.20159636953392129 0 -0.39127018046396272 0.19114762633587001 0 -0.37933531610205512 0.18879637824311191 0 -0.38939719523009042 0.20159636953392129 0 -0.37933531610205512 0.18879637824311191 0 -0.37847747035408191 0.2020123344684995 0 -0.37268190561378273 0.19425020878180749 0 -0.37933531610205512 0.18879637824311191 0 -0.37847747035408191 0.2020123344684995 0 -0.38939719523009042 0.20159636953392129 0 -0.37847747035408191 0.2020123344684995 0 -0.38579519060621659 0.22182301074380051 0 -0.36709415979597848 0.20238693603469321 0 -0.38579519060621659 0.22182301074380051 0 -0.36709415979597848 0.20238693603469321 0 -0.37847747035408191 0.2020123344684995 0 -0.38939719523009042 0.20159636953392129 0 -0.38579519060621659 0.22182301074380051 0 -0.38939719523009042 0.20159636953392129 0 -0.4018021056359351 0.2147741578017163 0 -0.38579519060621659 0.22182301074380051 0 -0.40332329310384801 0.1908644796205603 0 -0.40431038881801612 0.20826304538456381 0 -0.4018021056359351 0.2147741578017163 0 -0.41076277701361752 0.21455961383529731 0 -0.40431038881801612 0.20826304538456381 0 -0.4018021056359351 0.2147741578017163 0 -0.4018021056359351 0.2147741578017163 0 -0.38579519060621659 0.22182301074380051 0 -0.40028091816802158 0.23868383598287229 0 -0.4018021056359351 0.2147741578017163 0 -0.40028091816802158 0.23868383598287229 0 -0.40938327095381338 0.22319630136983101 0 -0.4018021056359351 0.2147741578017163 0 -0.40028091816802158 0.23868383598287229 0 -0.38579519060621659 0.22182301074380051 0 -0.37997521253329197 0.24407783265957789 0 -0.37411729263310978 0.2292106796348424 0 -0.38579519060621659 0.22182301074380051 0 -0.37411729263310978 0.2292106796348424 0 -0.37117532922738228 0.21717504041044811 0 -0.38579519060621659 0.22182301074380051 0 -0.37997521253329197 0.24407783265957789 0 -0.40028091816802158 0.23868383598287229 0 -0.37997521253329197 0.24407783265957789 0 -0.40028091816802158 0.23868383598287229 0 -0.39732377157701998 0.25712755887194189 0 -0.41916559950287241 0.24974544454750311 0 -0.40028091816802158 0.23868383598287229 0 -0.39732377157701998 0.25712755887194189 0 -0.41856214242651241 0.1466000585383109 0 -0.40791848377551088 0.1477444667044541 0 -0.4265426274164642 0.16017098798030471 0 -0.40791848377551088 0.1477444667044541 0 -0.4265426274164642 0.16017098798030471 0 -0.41856214242651241 0.1466000585383109 0 -0.41567211177962732 0.14056437520222301 0 -0.42411534673444667 0.13792040426626259 0 -0.40791848377551088 0.1477444667044541 0 -0.41137134116021368 0.15949013715821539 0 -0.40526035402141519 0.160418197269943 0 -0.41856214242651241 0.1466000585383109 0 -0.40791848377551088 0.1477444667044541 0 -0.41567211177962732 0.14056437520222301 0 -0.40791848377551088 0.1477444667044541 0 -0.40829316582338621 0.1343258575225208 0 -0.41567211177962732 0.14056437520222301 0 -0.4216880660524302 0.1156698205522205 0 -0.41670447298929841 0.1257632163116866 0 -0.42411534673444667 0.13792040426626259 0 -0.40829316582338621 0.1343258575225208 0 -0.41619627433168971 0.13464346332567331 0 -0.41567211177962732 0.14056437520222301 0 -0.40829316582338621 0.1343258575225208 0 -0.41670447298929841 0.1257632163116866 0 -0.41619627433168971 0.13464346332567331 0 -0.40293871567343009 0.12421719683744981 0 -0.40829316582338621 0.1343258575225208 0 -0.41670447298929841 0.1257632163116866 0 -0.41670447298929841 0.1257632163116866 0 -0.41619627433168971 0.13464346332567331 0 -0.42411534673444667 0.13792040426626259 0 -0.41619627433168971 0.13464346332567331 0 -0.41567211177962732 0.14056437520222301 0 -0.42411534673444667 0.13792040426626259 0 -0.43774918284312742 0.1158036227082145 0 -0.42985513285125732 0.12619801812854861 0 -0.4333318879466127 0.1387786244507937 0 -0.4216880660524302 0.1156698205522205 0 -0.42411534673444667 0.13792040426626259 0 -0.42411534673444667 0.13792040426626259 0 -0.42985513285125732 0.12619801812854861 0 -0.4333318879466127 0.1387786244507937 0 -0.43774918284312742 0.1158036227082145 0 -0.4333318879466127 0.1387786244507937 0 -0.4216880660524302 0.1156698205522205 0 -0.42411534673444667 0.13792040426626259 0 -0.42985513285125732 0.12619801812854861 0 -0.42411534673444667 0.13792040426626259 0 -0.4265426274164642 0.16017098798030471 0 -0.4333318879466127 0.1387786244507937 0 -0.42891459305009361 0.16175362619337211 0 -0.4265426274164642 0.16017098798030471 0 -0.4333318879466127 0.1387786244507937 0 -0.42891459305009361 0.16175362619337211 0 -0.41856214242651241 0.1466000585383109 0 -0.42411534673444667 0.13792040426626259 0 -0.4265426274164642 0.16017098798030471 0 -0.42411534673444667 0.13792040426626259 0 -0.4333318879466127 0.1387786244507937 0 -0.4265426274164642 0.16017098798030471 0 -0.44199951280171562 0.15166555553342481 0 -0.4333318879466127 0.1387786244507937 0 -0.42891459305009361 0.16175362619337211 0 -0.45283819245508022 0.17771608453413079 0 -0.42751141620550059 0.16905175575117279 0 -0.42891459305009361 0.16175362619337211 0 -0.42751141620550059 0.16905175575117279 0 -0.42891459305009361 0.16175362619337211 0 -0.42751141620550059 0.16905175575117279 0 -0.42387781579322109 0.16560529965086429 0 -0.4265426274164642 0.16017098798030471 0 -0.42751141620550059 0.16905175575117279 0 -0.4265426274164642 0.16017098798030471 0 -0.42426879105398668 0.16943161243025229 0 -0.4219150935536875 0.17341477723316101 0 -0.42079030037492782 0.16867132136664931 0 -0.42751141620550059 0.16905175575117279 0 -0.42426879105398668 0.16943161243025229 0 -0.4219150935536875 0.17341477723316101 0 -0.42751141620550059 0.16905175575117279 0 -0.42426879105398668 0.16943161243025229 0 -0.42387781579322109 0.16560529965086429 0 -0.42426879105398668 0.16943161243025229 0 -0.42387781579322109 0.16560529965086429 0 -0.42079030037492782 0.16867132136664931 0 -0.42387781579322109 0.16560529965086429 0 -0.4265426274164642 0.16017098798030471 0 -0.4186137163161201 0.16170765595740921 0 -0.42751141620550059 0.16905175575117279 0 -0.42891459305009361 0.16175362619337211 0 -0.4265426274164642 0.16017098798030471 0 -0.42891459305009361 0.16175362619337211 0 -0.4265426274164642 0.16017098798030471 0 -0.43060620438276281 0.19742129864152749 0 -0.42751141620550059 0.16905175575117279 0 -0.41949225491784031 0.1832543146382353 0 -0.43060620438276281 0.19742129864152749 0 -0.42751141620550059 0.16905175575117279 0 -0.43060620438276281 0.19742129864152749 0 -0.42751141620550059 0.16905175575117279 0 -0.43710447093077082 0.18235883891237689 0 -0.42751141620550059 0.16905175575117279 0 -0.4219150935536875 0.17341477723316101 0 -0.41949225491784031 0.1832543146382353 0 -0.40332329310384801 0.1908644796205603 0 -0.41949225491784031 0.1832543146382353 0 -0.41165953625954482 0.17965243299021369 0 -0.4219150935536875 0.17341477723316101 0 -0.41949225491784031 0.1832543146382353 0 -0.41785898972650409 0.17481727821970269 0 -0.41949225491784031 0.1832543146382353 0 -0.41785898972650409 0.17481727821970269 0 -0.41165953625954482 0.17965243299021369 0 -0.4219150935536875 0.17341477723316101 0 -0.41785898972650409 0.17481727821970269 0 -0.42079030037492782 0.16867132136664931 0 -0.41785898972650409 0.17481727821970269 0 -0.41187579001912228 0.17455031958905581 0 -0.4136928105278086 0.16809022870105519 0 -0.41187579001912228 0.17455031958905581 0 -0.4136928105278086 0.16809022870105519 0 -0.40429182356263188 0.17564133844525159 0 -0.41187579001912228 0.17455031958905581 0 -0.41165953625954482 0.17965243299021369 0 -0.40429182356263188 0.17564133844525159 0 -0.41785898972650409 0.17481727821970269 0 -0.41187579001912228 0.17455031958905581 0 -0.41165953625954482 0.17965243299021369 0 -0.40332329310384801 0.1908644796205603 0 -0.41165953625954482 0.17965243299021369 0 -0.40429182356263188 0.17564133844525159 0 -0.40791848377551088 0.1477444667044541 0 -0.4265426274164642 0.16017098798030471 0 -0.4186137163161201 0.16170765595740921 0 -0.4186137163161201 0.16170765595740921 0 -0.4136928105278086 0.16809022870105519 0 -0.41137134116021368 0.15949013715821539 0 -0.42387781579322109 0.16560529965086429 0 -0.4186137163161201 0.16170765595740921 0 -0.42079030037492782 0.16867132136664931 0 -0.41785898972650409 0.17481727821970269 0 -0.42079030037492782 0.16867132136664931 0 -0.4136928105278086 0.16809022870105519 0 -0.4186137163161201 0.16170765595740921 0 -0.42079030037492782 0.16867132136664931 0 -0.4136928105278086 0.16809022870105519 0 -0.4136928105278086 0.16809022870105519 0 -0.40526035402141519 0.160418197269943 0 -0.40429182356263188 0.17564133844525159 0 -0.40791848377551088 0.1477444667044541 0 -0.4186137163161201 0.16170765595740921 0 -0.41137134116021368 0.15949013715821539 0 -0.4136928105278086 0.16809022870105519 0 -0.41137134116021368 0.15949013715821539 0 -0.40526035402141519 0.160418197269943 0 -0.40526035402141519 0.160418197269943 0 -0.39281708962105261 0.1666069041835449 0 -0.40429182356263188 0.17564133844525159 0 -0.40526035402141519 0.160418197269943 0 -0.40429182356263188 0.17564133844525159 0 -0.40526035402141519 0.160418197269943 0 -0.39281708962105261 0.1666069041835449 0 -0.39602503651127607 0.1527159814307075 0 -0.39281708962105261 0.1666069041835449 0 -0.38483491500384481 0.1534923935669916 0 -0.39602503651127607 0.1527159814307075 0 -0.39281708962105261 0.1666069041835449 0 -0.40429182356263188 0.17564133844525159 0 -0.38864247507606481 0.1805713790789685 0 -0.40332329310384801 0.1908644796205603 0 -0.40429182356263188 0.17564133844525159 0 -0.38864247507606481 0.1805713790789685 0 -0.40332329310384801 0.1908644796205603 0 -0.40429182356263188 0.17564133844525159 0 -0.40332329310384801 0.1908644796205603 0 -0.38864247507606481 0.1805713790789685 0 -0.39281708962105261 0.1666069041835449 0 -0.38864247507606481 0.1805713790789685 0 -0.37396165704828221 0.17027827853737579 0 -0.37933531610205512 0.18879637824311191 0 -0.38864247507606481 0.1805713790789685 0 -0.37396165704828221 0.17027827853737579 0 -0.39127018046396272 0.19114762633587001 0 -0.37933531610205512 0.18879637824311191 0 -0.38864247507606481 0.1805713790789685 0 -0.38864247507606481 0.1805713790789685 0 -0.37396165704828221 0.17027827853737579 0 -0.38483491500384481 0.1534923935669916 0 -0.37052666022426523 0.1472623029793744 0 -0.37396165704828221 0.17027827853737579 0 -0.39281708962105261 0.1666069041835449 0 -0.38483491500384481 0.1534923935669916 0 -0.37396165704828221 0.17027827853737579 0 -0.38483491500384481 0.1534923935669916 0 -0.39602503651127607 0.1527159814307075 0 -0.3892943401345571 0.13531794542860401 0 -0.38483491500384481 0.1534923935669916 0 -0.3892943401345571 0.13531794542860401 0 -0.37052666022426523 0.1472623029793744 0 -0.40791848377551088 0.1477444667044541 0 -0.3892943401345571 0.13531794542860401 0 -0.40791848377551088 0.1477444667044541 0 -0.39602503651127607 0.1527159814307075 0 -0.3892943401345571 0.13531794542860401 0 -0.40791848377551088 0.1477444667044541 0 -0.40526035402141519 0.160418197269943 0 -0.39602503651127607 0.1527159814307075 0 -0.40293871567343009 0.12421719683744981 0 -0.40829316582338621 0.1343258575225208 0 -0.3892943401345571 0.13531794542860401 0 -0.40791848377551088 0.1477444667044541 0 -0.40829316582338621 0.1343258575225208 0 -0.3892943401345571 0.13531794542860401 0 -0.39328037993891951 0.1176051610422874 0 -0.40293871567343009 0.12421719683744981 0 -0.3892943401345571 0.13531794542860401 0 -0.3892943401345571 0.13531794542860401 0 -0.37052666022426523 0.1472623029793744 0 -0.36929640858505602 0.1205672743178057 0 -0.3503983353238852 0.14095823966765361 0 -0.36929640858505602 0.1205672743178057 0 -0.3503983353238852 0.14095823966765361 0 -0.37052666022426523 0.1472623029793744 0 -0.36929640858505602 0.1205672743178057 0 -0.3503983353238852 0.14095823966765361 0 -0.36929640858505602 0.1205672743178057 0 -0.34720043760159153 0.1160180569683254 0 -0.3503983353238852 0.14095823966765361 0 -0.37052666022426523 0.1472623029793744 0 -0.35537430524996572 0.16295968635781599 0 -0.3503983353238852 0.14095823966765361 0 -0.35537430524996572 0.16295968635781599 0 -0.33150026206271438 0.16134920501750141 0 -0.37052666022426523 0.1472623029793744 0 -0.37396165704828221 0.17027827853737579 0 -0.35537430524996572 0.16295968635781599 0 -0.37933531610205512 0.18879637824311191 0 -0.37396165704828221 0.17027827853737579 0 -0.36582067620301512 0.18380518638092549 0 -0.37396165704828221 0.17027827853737579 0 -0.36582067620301512 0.18380518638092549 0 -0.35537430524996572 0.16295968635781599 0 -0.36582067620301512 0.18380518638092549 0 -0.34839312898574037 0.18295086132558611 0 -0.35537430524996572 0.16295968635781599 0 -0.34839312898574037 0.18295086132558611 0 -0.35537430524996572 0.16295968635781599 0 -0.33150026206271438 0.16134920501750141 0 -0.34839312898574037 0.18295086132558611 0 -0.32958511849470168 0.1634156392828171 0 -0.33150026206271438 0.16134920501750141 0 -0.32958511849470168 0.1634156392828171 0 -0.33150026206271438 0.16134920501750141 0 -0.34839312898574037 0.18295086132558611 0 -0.32958511849470168 0.1634156392828171 0 -0.34839312898574037 0.18295086132558611 0 -0.32958511849470168 0.1634156392828171 0 -0.33045128548538538 0.18859733789955069 0 -0.32958511849470168 0.1634156392828171 0 -0.31260218880154361 0.1817401703673493 0 -0.32958511849470168 0.1634156392828171 0 -0.31260218880154361 0.1817401703673493 0 -0.33045128548538538 0.18859733789955069 0 -0.32958511849470168 0.1634156392828171 0 -0.31260218880154361 0.1817401703673493 0 -0.31653051835011281 0.1654793038749969 0 -0.32958511849470168 0.1634156392828171 0 -0.33150026206271438 0.16134920501750141 0 -0.31653051835011281 0.1654793038749969 0 -0.33150026206271438 0.16134920501750141 0 -0.3219045630394905 0.15701084880109159 0 -0.31653051835011281 0.1654793038749969 0 -0.3219045630394905 0.15701084880109159 0 -0.31653051835011281 0.1654793038749969 0 -0.31389060137752872 0.15138147583617609 0 -0.31389060137752872 0.15138147583617609 0 -0.32569687036760608 0.14983341047569221 0 -0.327440349328668 0.13535960109057471 0 -0.3219045630394905 0.15701084880109159 0 -0.31389060137752872 0.15138147583617609 0 -0.32569687036760608 0.14983341047569221 0 -0.33150026206271438 0.16134920501750141 0 -0.3219045630394905 0.15701084880109159 0 -0.32569687036760608 0.14983341047569221 0 -0.31389060137752872 0.15138147583617609 0 -0.327440349328668 0.13535960109057471 0 -0.30122754433967203 0.13093524396890241 0 -0.327440349328668 0.13535960109057471 0 -0.30122754433967203 0.13093524396890241 0 -0.32498735025700609 0.1160633130366574 0 -0.3503983353238852 0.14095823966765361 0 -0.327440349328668 0.13535960109057471 0 -0.34720043760159153 0.1160180569683254 0 -0.3503983353238852 0.14095823966765361 0 -0.32569687036760608 0.14983341047569221 0 -0.327440349328668 0.13535960109057471 0 -0.3503983353238852 0.14095823966765361 0 -0.33150026206271438 0.16134920501750141 0 -0.3503983353238852 0.14095823966765361 0 -0.33150026206271438 0.16134920501750141 0 -0.32569687036760608 0.14983341047569221 0 -0.35569698547480771 0.24686514723355099 0 -0.35057571174952018 0.23222561760400151 0 -0.33855399072669118 0.23744472984903831 0 -0.35569698547480771 0.24686514723355099 0 -0.33855399072669118 0.23744472984903831 0 -0.3371790503247063 0.25016142275936148 0 -0.35569698547480771 0.24686514723355099 0 -0.36249988359565871 0.23322718093386291 0 -0.35057571174952018 0.23222561760400151 0 -0.37997521253329197 0.24407783265957789 0 -0.35569698547480771 0.24686514723355099 0 -0.36249988359565871 0.23322718093386291 0 -0.37997521253329197 0.24407783265957789 0 -0.36249988359565871 0.23322718093386291 0 -0.37411729263310978 0.2292106796348424 0 -0.36249988359565871 0.23322718093386291 0 -0.37411729263310978 0.2292106796348424 0 -0.36671017897086849 0.22513700046659091 0 -0.37411729263310978 0.2292106796348424 0 -0.36671017897086849 0.22513700046659091 0 -0.37117532922738228 0.21717504041044811 0 -0.36671017897086849 0.22513700046659091 0 -0.35904821042732349 0.22093510088721019 0 -0.37117532922738228 0.21717504041044811 0 -0.36249988359565871 0.23322718093386291 0 -0.36671017897086849 0.22513700046659091 0 -0.35904821042732349 0.22093510088721019 0 -0.35904821042732349 0.22093510088721019 0 -0.35057571174952018 0.23222561760400151 0 -0.33786521489528981 0.2231549706489829 0 -0.36249988359565871 0.23322718093386291 0 -0.35904821042732349 0.22093510088721019 0 -0.35057571174952018 0.23222561760400151 0 -0.35939451571064662 0.20734872839423671 0 -0.33786521489528981 0.2231549706489829 0 -0.35904821042732349 0.22093510088721019 0 -0.35939451571064662 0.20734872839423671 0 -0.33786521489528981 0.2231549706489829 0 -0.35939451571064662 0.20734872839423671 0 -0.34098341737513521 0.20138074902616809 0 -0.33786521489528981 0.2231549706489829 0 -0.35904821042732349 0.22093510088721019 0 -0.36493341227746767 0.21152083794593049 0 -0.37117532922738228 0.21717504041044811 0 -0.35904821042732349 0.22093510088721019 0 -0.36493341227746767 0.21152083794593049 0 -0.35939451571064662 0.20734872839423671 0 -0.38579519060621659 0.22182301074380051 0 -0.37117532922738228 0.21717504041044811 0 -0.36709415979597848 0.20238693603469321 0 -0.36493341227746767 0.21152083794593049 0 -0.37117532922738228 0.21717504041044811 0 -0.36709415979597848 0.20238693603469321 0 -0.36493341227746767 0.21152083794593049 0 -0.35939451571064662 0.20734872839423671 0 -0.36709415979597848 0.20238693603469321 0 -0.36582067620301512 0.18380518638092549 0 -0.34839312898574037 0.18295086132558611 0 -0.36709415979597848 0.20238693603469321 0 -0.36582067620301512 0.18380518638092549 0 -0.36709415979597848 0.20238693603469321 0 -0.37268190561378273 0.19425020878180749 0 -0.37847747035408191 0.2020123344684995 0 -0.36709415979597848 0.20238693603469321 0 -0.37268190561378273 0.19425020878180749 0 -0.37933531610205512 0.18879637824311191 0 -0.36582067620301512 0.18380518638092549 0 -0.37268190561378273 0.19425020878180749 0 -0.34839312898574037 0.18295086132558611 0 -0.36709415979597848 0.20238693603469321 0 -0.34839312898574037 0.18295086132558611 0 -0.35939451571064662 0.20734872839423671 0 -0.34098341737513521 0.20138074902616809 0 -0.34839312898574037 0.18295086132558611 0 -0.35939451571064662 0.20734872839423671 0 -0.36709415979597848 0.20238693603469321 0 -0.34839312898574037 0.18295086132558611 0 -0.34098341737513521 0.20138074902616809 0 -0.33045128548538538 0.18859733789955069 0 -0.34098341737513521 0.20138074902616809 0 -0.33134404832277681 0.20192697503922491 0 -0.33045128548538538 0.18859733789955069 0 -0.31260218880154361 0.1817401703673493 0 -0.33045128548538538 0.18859733789955069 0 -0.31944181969499458 0.19951288862188521 0 -0.33134404832277681 0.20192697503922491 0 -0.33045128548538538 0.18859733789955069 0 -0.31944181969499458 0.19951288862188521 0 -0.33274861411661188 0.21432713211862631 0 -0.31841359680562997 0.22317117832113581 0 -0.30535676626759373 0.2123596323721943 0 -0.33274861411661188 0.21432713211862631 0 -0.30535676626759373 0.2123596323721943 0 -0.33134404832277681 0.20192697503922491 0 -0.31944181969499458 0.19951288862188521 0 -0.33274861411661188 0.21432713211862631 0 -0.31944181969499458 0.19951288862188521 0 -0.33274861411661188 0.21432713211862631 0 -0.30535676626759373 0.2123596323721943 0 -0.34098341737513521 0.20138074902616809 0 -0.33274861411661188 0.21432713211862631 0 -0.33786521489528981 0.2231549706489829 0 -0.34098341737513521 0.20138074902616809 0 -0.33134404832277681 0.20192697503922491 0 -0.33274861411661188 0.21432713211862631 0 -0.33786521489528981 0.2231549706489829 0 -0.31633591407993289 0.2389612129037291 0 -0.33855399072669118 0.23744472984903831 0 -0.33274861411661188 0.21432713211862631 0 -0.33786521489528981 0.2231549706489829 0 -0.31841359680562997 0.22317117832113581 0 -0.35057571174952018 0.23222561760400151 0 -0.33786521489528981 0.2231549706489829 0 -0.33855399072669118 0.23744472984903831 0 -0.33786521489528981 0.2231549706489829 0 -0.31841359680562997 0.22317117832113581 0 -0.31633591407993289 0.2389612129037291 0 -0.33786521489528981 0.2231549706489829 0 -0.31633591407993289 0.2389612129037291 0 -0.31633591407993289 0.2389612129037291 0 -0.33855399072669118 0.23744472984903831 0 -0.3371790503247063 0.25016142275936148 0 -0.28628408611465811 0.23985594511806421 0 -0.29995271627644798 0.23250209792845919 0 -0.29480661326457608 0.25476745515847532 0 -0.28628408611465811 0.23985594511806421 0 -0.29480661326457608 0.25476745515847532 0 -0.27557907769098688 0.2524389287326505 0 -0.28628408611465811 0.23985594511806421 0 -0.28211416772654241 0.23134933163909169 0 -0.27599676967791192 0.2399427896167837 0 -0.31633591407993289 0.2389612129037291 0 -0.29480661326457608 0.25476745515847532 0 -0.31633591407993289 0.2389612129037291 0 -0.29995271627644798 0.23250209792845919 0 -0.29480661326457608 0.25476745515847532 0 -0.29995271627644798 0.23250209792845919 0 -0.29448741547130958 0.2213573692236156 0 -0.30535676626759373 0.2123596323721943 0 -0.31841359680562997 0.22317117832113581 0 -0.29995271627644798 0.23250209792845919 0 -0.30535676626759373 0.2123596323721943 0 -0.31841359680562997 0.22317117832113581 0 -0.31633591407993289 0.2389612129037291 0 -0.29995271627644798 0.23250209792845919 0 -0.29448741547130958 0.2213573692236156 0 -0.28925517205148371 0.22813506763292479 0 -0.28727714420361811 0.21787991895779371 0 -0.28628408611465811 0.23985594511806421 0 -0.29995271627644798 0.23250209792845919 0 -0.28925517205148371 0.22813506763292479 0 -0.29995271627644798 0.23250209792845919 0 -0.29448741547130958 0.2213573692236156 0 -0.28925517205148371 0.22813506763292479 0 -0.28628408611465811 0.23985594511806421 0 -0.28925517205148371 0.22813506763292479 0 -0.28211416772654241 0.23134933163909169 0 -0.28925517205148371 0.22813506763292479 0 -0.28211416772654241 0.23134933163909169 0 -0.28160707021517711 0.22340033271002749 0 -0.28925517205148371 0.22813506763292479 0 -0.28160707021517711 0.22340033271002749 0 -0.28727714420361811 0.21787991895779371 0 -0.28160707021517711 0.22340033271002749 0 -0.28727714420361811 0.21787991895779371 0 -0.27639182293200981 0.21576526949116279 0 -0.28727714420361811 0.21787991895779371 0 -0.30535676626759373 0.2123596323721943 0 -0.27796491841857551 0.2103921326257624 0 -0.30535676626759373 0.2123596323721943 0 -0.29370411554037279 0.20213113571719721 0 -0.27796491841857551 0.2103921326257624 0 -0.30535676626759373 0.2123596323721943 0 -0.27796491841857551 0.2103921326257624 0 -0.29448741547130958 0.2213573692236156 0 -0.28727714420361811 0.21787991895779371 0 -0.30535676626759373 0.2123596323721943 0 -0.31944181969499458 0.19951288862188521 0 -0.30535676626759373 0.2123596323721943 0 -0.29370411554037279 0.20213113571719721 0 -0.31260218880154361 0.1817401703673493 0 -0.29370411554037279 0.20213113571719721 0 -0.31260218880154361 0.1817401703673493 0 -0.31944181969499458 0.19951288862188521 0 -0.29370411554037279 0.20213113571719721 0 -0.31260218880154361 0.1817401703673493 0 -0.29370411554037279 0.20213113571719721 0 -0.28571912705894098 0.18390650307347581 0 -0.27796491841857551 0.2103921326257624 0 -0.28571912705894098 0.18390650307347581 0 -0.29370411554037279 0.20213113571719721 0 -0.27796491841857551 0.2103921326257624 0 -0.28571912705894098 0.18390650307347581 0 -0.27117667743897811 0.19402682032647089 0 -0.27796491841857551 0.2103921326257624 0 -0.28571912705894098 0.18390650307347581 0 -0.26713923843048198 0.20164428007706209 0 -0.27117667743897811 0.19402682032647089 0 -0.27796491841857551 0.2103921326257624 0 -0.27117667743897811 0.19402682032647089 0 -0.25729614246839883 0.192904198787342 0 -0.26753713414433172 0.18107337729310849 0 -0.26713923843048198 0.20164428007706209 0 -0.25729614246839883 0.192904198787342 0 -0.26211921539597599 0.20925396856867329 0 -0.26713923843048198 0.20164428007706209 0 -0.27117667743897811 0.19402682032647089 0 -0.25729614246839883 0.192904198787342 0 -0.26211921539597599 0.20925396856867329 0 -0.25621783996658298 0.217675613388954 0 -0.2462735123733765 0.2081158045115844 0 -0.26211921539597599 0.20925396856867329 0 -0.2462735123733765 0.2081158045115844 0 -0.25729614246839883 0.192904198787342 0 -0.26211921539597599 0.20925396856867329 0 -0.2462735123733765 0.2081158045115844 0 -0.25621783996658298 0.217675613388954 0 -0.26797605214600168 0.2153141784905343 0 -0.26447801044014241 0.22298179775843929 0 -0.26211921539597599 0.20925396856867329 0 -0.25621783996658298 0.217675613388954 0 -0.26797605214600168 0.2153141784905343 0 -0.26211921539597599 0.20925396856867329 0 -0.27796491841857551 0.2103921326257624 0 -0.26211921539597599 0.20925396856867329 0 -0.26797605214600168 0.2153141784905343 0 -0.27796491841857551 0.2103921326257624 0 -0.26713923843048198 0.20164428007706209 0 -0.26211921539597599 0.20925396856867329 0 -0.27796491841857551 0.2103921326257624 0 -0.26797605214600168 0.2153141784905343 0 -0.27796491841857551 0.2103921326257624 0 -0.27639182293200981 0.21576526949116279 0 -0.28727714420361811 0.21787991895779371 0 -0.27796491841857551 0.2103921326257624 0 -0.27639182293200981 0.21576526949116279 0 -0.27796491841857551 0.2103921326257624 0 -0.27639182293200981 0.21576526949116279 0 -0.28160707021517711 0.22340033271002749 0 -0.27639182293200981 0.21576526949116279 0 -0.27356601474531472 0.22650179522836331 0 -0.28211416772654241 0.23134933163909169 0 -0.28160707021517711 0.22340033271002749 0 -0.27356601474531472 0.22650179522836331 0 -0.28211416772654241 0.23134933163909169 0 -0.27356601474531472 0.22650179522836331 0 -0.27599676967791192 0.2399427896167837 0 -0.27356601474531472 0.22650179522836331 0 -0.26447801044014241 0.22298179775843929 0 -0.26641261592387733 0.23677580043880969 0 -0.26797605214600168 0.2153141784905343 0 -0.27639182293200981 0.21576526949116279 0 -0.27356601474531472 0.22650179522836331 0 -0.26797605214600168 0.2153141784905343 0 -0.27356601474531472 0.22650179522836331 0 -0.26447801044014241 0.22298179775843929 0 -0.25621783996658298 0.217675613388954 0 -0.26447801044014241 0.22298179775843929 0 -0.26027244200518379 0.2306042930090752 0 -0.25621783996658298 0.217675613388954 0 -0.26027244200518379 0.2306042930090752 0 -0.24716767852323171 0.22371213450391961 0 -0.25201520924327259 0.23336243492396949 0 -0.26027244200518379 0.2306042930090752 0 -0.24716767852323171 0.22371213450391961 0 -0.26447801044014241 0.22298179775843929 0 -0.26027244200518379 0.2306042930090752 0 -0.26641261592387733 0.23677580043880969 0 -0.26027244200518379 0.2306042930090752 0 -0.25557464875475522 0.24355837738374531 0 -0.26641261592387733 0.23677580043880969 0 -0.25201520924327259 0.23336243492396949 0 -0.26027244200518379 0.2306042930090752 0 -0.25557464875475522 0.24355837738374531 0 -0.25201520924327259 0.23336243492396949 0 -0.25557464875475522 0.24355837738374531 0 -0.2491553456495661 0.23856422303762659 0 -0.25557464875475522 0.24355837738374531 0 -0.2486803751337151 0.24371598269619851 0 -0.2491553456495661 0.23856422303762659 0 -0.25557464875475522 0.24355837738374531 0 -0.24692216810694789 0.25001748358109999 0 -0.2486803751337151 0.24371598269619851 0 -0.25557464875475522 0.24355837738374531 0 -0.26032828748909698 0.25586670347249069 0 -0.24692216810694789 0.25001748358109999 0 -0.25557464875475522 0.24355837738374531 0 -0.26625560666838849 0.24670879665101769 0 -0.26032828748909698 0.25586670347249069 0 -0.25557464875475522 0.24355837738374531 0 -0.26625560666838849 0.24670879665101769 0 -0.26641261592387733 0.23677580043880969 0 -0.26625560666838849 0.24670879665101769 0 -0.27599676967791192 0.2399427896167837 0 -0.27557907769098688 0.2524389287326505 0 -0.27356601474531472 0.22650179522836331 0 -0.26641261592387733 0.23677580043880969 0 -0.27599676967791192 0.2399427896167837 0 -0.26625560666838849 0.24670879665101769 0 -0.26641261592387733 0.23677580043880969 0 -0.27599676967791192 0.2399427896167837 0 -0.28628408611465811 0.23985594511806421 0 -0.27599676967791192 0.2399427896167837 0 -0.27557907769098688 0.2524389287326505 0 -0.30122754433967203 0.13093524396890241 0 -0.2934733356993065 0.15742087352118911 0 -0.27492347358715669 0.13535209736162851 0 -0.30122754433967203 0.13093524396890241 0 -0.27492347358715669 0.13535209736162851 0 -0.28577533594717469 0.1100721607883572 0 -0.31389060137752872 0.15138147583617609 0 -0.30122754433967203 0.13093524396890241 0 -0.2934733356993065 0.15742087352118911 0 -0.30122754433967203 0.13093524396890241 0 -0.2934733356993065 0.15742087352118911 0 -0.31653051835011281 0.1654793038749969 0 -0.31389060137752872 0.15138147583617609 0 -0.2934733356993065 0.15742087352118911 0 -0.31260218880154361 0.1817401703673493 0 -0.31653051835011281 0.1654793038749969 0 -0.2934733356993065 0.15742087352118911 0 -0.31260218880154361 0.1817401703673493 0 -0.28571912705894098 0.18390650307347581 0 -0.2934733356993065 0.15742087352118911 0 -0.28571912705894098 0.18390650307347581 0 -0.2934733356993065 0.15742087352118911 0 -0.27236518709856711 0.16561894838737309 0 -0.28571912705894098 0.18390650307347581 0 -0.2934733356993065 0.15742087352118911 0 -0.28571912705894098 0.18390650307347581 0 -0.27236518709856711 0.16561894838737309 0 -0.26753713414433172 0.18107337729310849 0 -0.27117667743897811 0.19402682032647089 0 -0.28571912705894098 0.18390650307347581 0 -0.26753713414433172 0.18107337729310849 0 -0.25729614246839883 0.192904198787342 0 -0.26753713414433172 0.18107337729310849 0 -0.25112853665677348 0.16891041589088091 0 -0.27236518709856711 0.16561894838737309 0 -0.25112853665677348 0.16891041589088091 0 -0.26013507900845279 0.15016035797148461 0 -0.27236518709856711 0.16561894838737309 0 -0.26753713414433172 0.18107337729310849 0 -0.25112853665677348 0.16891041589088091 0 -0.26013507900845279 0.15016035797148461 0 -0.25659369134442539 0.13155704504436341 0 -0.24482246230367391 0.1460355056834739 0 -0.25112853665677348 0.16891041589088091 0 -0.26013507900845279 0.15016035797148461 0 -0.24482246230367391 0.1460355056834739 0 -0.2934733356993065 0.15742087352118911 0 -0.27236518709856711 0.16561894838737309 0 -0.27492347358715669 0.13535209736162851 0 -0.27236518709856711 0.16561894838737309 0 -0.26013507900845279 0.15016035797148461 0 -0.27492347358715669 0.13535209736162851 0 -0.27492347358715669 0.13535209736162851 0 -0.25659369134442539 0.13155704504436341 0 -0.26731975452124901 0.11557322396539189 0 -0.26013507900845279 0.15016035797148461 0 -0.27492347358715669 0.13535209736162851 0 -0.25659369134442539 0.13155704504436341 0 -0.25138888186549602 0.1146306297566234 0 -0.2586613634581052 0.1013230131205933 0 -0.26731975452124901 0.11557322396539189 0 -0.25659369134442539 0.13155704504436341 0 -0.25138888186549602 0.1146306297566234 0 -0.26731975452124901 0.11557322396539189 0 -0.2586613634581052 0.1013230131205933 0 -0.2480512341667262 0.090073525033484772 0 -0.2452530201353311 0.1017636010012952 0 -0.25138888186549602 0.1146306297566234 0 -0.2586613634581052 0.1013230131205933 0 -0.2452530201353311 0.1017636010012952 0 -0.2586613634581052 0.1013230131205933 0 -0.27531551827524892 0.098193997246154213 0 -0.26430878263574409 0.086231523529394366 0 -0.27531551827524892 0.098193997246154213 0 -0.26731975452124901 0.11557322396539189 0 -0.28577533594717469 0.1100721607883572 0 -0.2586613634581052 0.1013230131205933 0 -0.27531551827524892 0.098193997246154213 0 -0.26731975452124901 0.11557322396539189 0 -0.27492347358715669 0.13535209736162851 0 -0.28577533594717469 0.1100721607883572 0 -0.27492347358715669 0.13535209736162851 0 -0.26731975452124901 0.11557322396539189 0 -0.28577533594717469 0.1100721607883572 0 -0.28577533594717469 0.1100721607883572 0 -0.29662719830719259 0.084792224215086184 0 -0.28577533594717469 0.1100721607883572 0 -0.3044707812367462 0.094218455546984201 0 -0.29662719830719259 0.084792224215086184 0 -0.27531551827524892 0.098193997246154213 0 -0.28577533594717469 0.1100721607883572 0 -0.29662719830719259 0.084792224215086184 0 -0.30898175298003749 0.1044496144166157 0 -0.3044707812367462 0.094218455546984201 0 -0.321362128882763 0.094604994897654865 0 -0.28577533594717469 0.1100721607883572 0 -0.30898175298003749 0.1044496144166157 0 -0.3044707812367462 0.094218455546984201 0 -0.30122754433967203 0.13093524396890241 0 -0.28577533594717469 0.1100721607883572 0 -0.30898175298003749 0.1044496144166157 0 -0.30122754433967203 0.13093524396890241 0 -0.30898175298003749 0.1044496144166157 0 -0.32498735025700609 0.1160633130366574 0 -0.30122754433967203 0.13093524396890241 0 -0.30898175298003749 0.1044496144166157 0 -0.3070470913819775 0.070293290273365366 0 -0.29662719830719259 0.084792224215086184 0 -0.30747906066721048 0.059512287641815029 0 -0.29662719830719259 0.084792224215086184 0 -0.30747906066721048 0.059512287641815029 0 -0.29053482612916431 0.077565522607871085 0 -0.29724229617368231 0.061618104706374181 0 -0.30575413398307971 0.05693704796958781 0 -0.29053482612916431 0.077565522607871085 0 -0.30575413398307971 0.05693704796958781 0 -0.29662719830719259 0.084792224215086184 0 -0.29053482612916431 0.077565522607871085 0 -0.30747906066721048 0.059512287641815029 0 -0.29053482612916431 0.077565522607871085 0 -0.30747906066721048 0.059512287641815029 0 -0.30575413398307971 0.05693704796958781 0 -0.3070470913819775 0.070293290273365366 0 -0.30747906066721048 0.059512287641815029 0 -0.31258566436383428 0.063851179962364293 0 -0.3070470913819775 0.070293290273365366 0 -0.31149644218967248 0.073017469274195973 0 -0.31258566436383428 0.063851179962364293 0 -0.3070470913819775 0.070293290273365366 0 -0.31149644218967248 0.073017469274195973 0 -0.29662719830719259 0.084792224215086184 0 -0.31149644218967248 0.073017469274195973 0 -0.3120355939750355 0.084808546221637221 0 -0.29662719830719259 0.084792224215086184 0 -0.3044707812367462 0.094218455546984201 0 -0.3120355939750355 0.084808546221637221 0 -0.29662719830719259 0.084792224215086184 0 -0.27531551827524892 0.098193997246154213 0 -0.29662719830719259 0.084792224215086184 0 -0.29053482612916431 0.077565522607871085 0 -0.27531551827524892 0.098193997246154213 0 -0.29053482612916431 0.077565522607871085 0 -0.29053482612916431 0.077565522607871085 0 -0.29163955099687972 0.066681342719301054 0 -0.28373727113567349 0.068080839719700872 0 -0.29053482612916431 0.077565522607871085 0 -0.28373727113567349 0.068080839719700872 0 -0.27687569316781668 0.080868592061393588 0 -0.29053482612916431 0.077565522607871085 0 -0.29163955099687972 0.066681342719301054 0 -0.29724229617368231 0.061618104706374181 0 -0.29163955099687972 0.066681342719301054 0 -0.29064137882853552 0.061566835103398887 0 -0.29724229617368231 0.061618104706374181 0 -0.29163955099687972 0.066681342719301054 0 -0.28373727113567349 0.068080839719700872 0 -0.29064137882853552 0.061566835103398887 0 -0.28373727113567349 0.068080839719700872 0 -0.27677123346083149 0.061714931683801093 0 -0.28523271352753932 0.057725222252944353 0 -0.27048206766325289 0.074271077203847402 0 -0.27677123346083149 0.061714931683801093 0 -0.26703105787425502 0.055915818588178047 0 -0.28373727113567349 0.068080839719700872 0 -0.27048206766325289 0.074271077203847402 0 -0.27677123346083149 0.061714931683801093 0 -0.28373727113567349 0.068080839719700872 0 -0.27048206766325289 0.074271077203847402 0 -0.27687569316781668 0.080868592061393588 0 -0.27531551827524892 0.098193997246154213 0 -0.27687569316781668 0.080868592061393588 0 -0.26430878263574409 0.086231523529394366 0 -0.27531551827524892 0.098193997246154213 0 -0.29053482612916431 0.077565522607871085 0 -0.27687569316781668 0.080868592061393588 0 -0.27048206766325289 0.074271077203847402 0 -0.27687569316781668 0.080868592061393588 0 -0.26430878263574409 0.086231523529394366 0 -0.26430878263574409 0.086231523529394366 0 -0.25211752551207112 0.076600783114969664 0 -0.2480512341667262 0.090073525033484772 0 -0.27048206766325289 0.074271077203847402 0 -0.26430878263574409 0.086231523529394366 0 -0.25211752551207112 0.076600783114969664 0 -0.2586613634581052 0.1013230131205933 0 -0.26430878263574409 0.086231523529394366 0 -0.2480512341667262 0.090073525033484772 0 -0.27048206766325289 0.074271077203847402 0 -0.25211752551207112 0.076600783114969664 0 -0.25124864776390909 0.05920836057488791 0 -0.27048206766325289 0.074271077203847402 0 -0.25124864776390909 0.05920836057488791 0 -0.26703105787425502 0.055915818588178047 0 -0.27048206766325289 0.074271077203847402 0 -0.25124864776390909 0.05920836057488791 0 -0.25124864776390909 0.05920836057488791 0 -0.25759797742910012 0.044282927943460018 0 -0.26703105787425502 0.055915818588178047 0 -0.25759797742910012 0.044282927943460018 0 -0.26957173169188969 0.044742626160879963 0 -0.26703105787425502 0.055915818588178047 0 -0.25124864776390909 0.05920836057488791 0 -0.25759797742910012 0.044282927943460018 0 -0.24276240496295379 0.044296588512368007 0 -0.25759797742910012 0.044282927943460018 0 -0.25540072303481898 0.031301623829743053 0 -0.2478876971287258 0.037044445128330501 0 -0.25759797742910012 0.044282927943460018 0 -0.25540072303481898 0.031301623829743053 0 -0.26829716721467561 0.032993743387608708 0 -0.25759797742910012 0.044282927943460018 0 -0.26957173169188969 0.044742626160879963 0 -0.26829716721467561 0.032993743387608708 0 -0.26957173169188969 0.044742626160879963 0 -0.26829716721467561 0.032993743387608708 0 -0.27776588561939469 0.039517920683081402 0 -0.26829716721467561 0.032993743387608708 0 -0.27776588561939469 0.039517920683081402 0 -0.2796832587078022 0.028763553956933221 0 -0.27776588561939469 0.039517920683081402 0 -0.2771665703220233 0.051002720202071639 0 -0.28570510026124968 0.046628490973054618 0 -0.26957173169188969 0.044742626160879963 0 -0.27776588561939469 0.039517920683081402 0 -0.2771665703220233 0.051002720202071639 0 -0.2771665703220233 0.051002720202071639 0 -0.27677123346083149 0.061714931683801093 0 -0.28523271352753932 0.057725222252944353 0 -0.2771665703220233 0.051002720202071639 0 -0.27677123346083149 0.061714931683801093 0 -0.26703105787425502 0.055915818588178047 0 -0.26957173169188969 0.044742626160879963 0 -0.2771665703220233 0.051002720202071639 0 -0.26703105787425502 0.055915818588178047 0 -0.25149437788016937 -0.0046167200476420773 0 -0.26469448791009648 0.0023388586813538189 0 -0.25803661683608309 0.0097171995360433375 0 -0.25149437788016937 -0.0046167200476420773 0 -0.25803661683608309 0.0097171995360433375 0 -0.24602198530169611 0.0071378954861516129 0 -0.25803661683608309 0.0097171995360433375 0 -0.25032586324923339 0.019383212456312651 0 -0.24602198530169611 0.0071378954861516129 0 -0.26469448791009648 0.0023388586813538189 0 -0.25803661683608309 0.0097171995360433375 0 -0.26935475040909662 0.012159805177922939 0 -0.25803661683608309 0.0097171995360433375 0 -0.262705689543761 0.021474236103984828 0 -0.26935475040909662 0.012159805177922939 0 -0.25803661683608309 0.0097171995360433375 0 -0.262705689543761 0.021474236103984828 0 -0.25032586324923339 0.019383212456312651 0 -0.25540072303481898 0.031301623829743053 0 -0.262705689543761 0.021474236103984828 0 -0.25032586324923339 0.019383212456312651 0 -0.25540072303481898 0.031301623829743053 0 -0.25032586324923339 0.019383212456312651 0 -0.24575554110886871 0.029259261511837911 0 -0.25540072303481898 0.031301623829743053 0 -0.26829716721467561 0.032993743387608708 0 -0.262705689543761 0.021474236103984828 0 -0.26829716721467561 0.032993743387608708 0 -0.262705689543761 0.021474236103984828 0 -0.27351719115069473 0.022207583771417981 0 -0.26829716721467561 0.032993743387608708 0 -0.2796832587078022 0.028763553956933221 0 -0.27351719115069473 0.022207583771417981 0 -0.2796832587078022 0.028763553956933221 0 -0.27351719115069473 0.022207583771417981 0 -0.28035305622146162 0.01556715692567553 0 -0.27351719115069473 0.022207583771417981 0 -0.26935475040909662 0.012159805177922939 0 -0.28035305622146162 0.01556715692567553 0 -0.262705689543761 0.021474236103984828 0 -0.27351719115069473 0.022207583771417981 0 -0.26935475040909662 0.012159805177922939 0 -0.26935475040909662 0.012159805177922939 0 -0.28035305622146162 0.01556715692567553 0 -0.27682146079248299 0.001653796049062162 0 -0.26469448791009648 0.0023388586813538189 0 -0.26935475040909662 0.012159805177922939 0 -0.27682146079248299 0.001653796049062162 0 -0.28035305622146162 0.01556715692567553 0 -0.27682146079248299 0.001653796049062162 0 -0.29041810818679209 0.0058595739231274606 0 -0.28035305622146162 0.01556715692567553 0 -0.29041810818679209 0.0058595739231274606 0 -0.29116699863864159 0.020954314060427019 0 -0.29041810818679209 0.0058595739231274606 0 -0.29116699863864159 0.020954314060427019 0 -0.30266430325409988 0.012133120064459241 0 -0.2796832587078022 0.028763553956933221 0 -0.28035305622146162 0.01556715692567553 0 -0.29116699863864159 0.020954314060427019 0 -0.2796832587078022 0.028763553956933221 0 -0.29116699863864159 0.020954314060427019 0 -0.28851921139804348 0.033784904716627269 0 -0.29116699863864159 0.020954314060427019 0 -0.30296831937464691 0.03001056102156421 0 -0.28851921139804348 0.033784904716627269 0 -0.30296831937464691 0.03001056102156421 0 -0.30266430325409988 0.012133120064459241 0 -0.31739977813296388 0.016423023928396702 0 -0.29116699863864159 0.020954314060427019 0 -0.30296831937464691 0.03001056102156421 0 -0.30266430325409988 0.012133120064459241 0 -0.30188481379518062 -0.0054870724596643933 0 -0.30266430325409988 0.012133120064459241 0 -0.31367260191526247 0.0029315258150356639 0 -0.30188481379518062 -0.0054870724596643933 0 -0.29041810818679209 0.0058595739231274606 0 -0.30266430325409988 0.012133120064459241 0 -0.30266430325409988 0.012133120064459241 0 -0.31367260191526247 0.0029315258150356639 0 -0.31739977813296388 0.016423023928396702 0 -0.29535506230890263 0.053728666118674002 0 -0.28570510026124968 0.046628490973054618 0 -0.2953509887403995 0.04221296260460073 0 -0.29535506230890263 0.053728666118674002 0 -0.29064137882853552 0.061566835103398887 0 -0.29724229617368231 0.061618104706374181 0 -0.29535506230890263 0.053728666118674002 0 -0.29064137882853552 0.061566835103398887 0 -0.28523271352753932 0.057725222252944353 0 -0.28373727113567349 0.068080839719700872 0 -0.29064137882853552 0.061566835103398887 0 -0.28523271352753932 0.057725222252944353 0 -0.29535506230890263 0.053728666118674002 0 -0.28523271352753932 0.057725222252944353 0 -0.28570510026124968 0.046628490973054618 0 -0.2771665703220233 0.051002720202071639 0 -0.28523271352753932 0.057725222252944353 0 -0.28570510026124968 0.046628490973054618 0 -0.27776588561939469 0.039517920683081402 0 -0.28570510026124968 0.046628490973054618 0 -0.28851921139804348 0.033784904716627269 0 -0.27776588561939469 0.039517920683081402 0 -0.2796832587078022 0.028763553956933221 0 -0.28851921139804348 0.033784904716627269 0 -0.30296831937464691 0.03001056102156421 0 -0.28851921139804348 0.033784904716627269 0 -0.2953509887403995 0.04221296260460073 0 -0.28570510026124968 0.046628490973054618 0 -0.28851921139804348 0.033784904716627269 0 -0.2953509887403995 0.04221296260460073 0 -0.30296831937464691 0.03001056102156421 0 -0.30400644193886422 0.045409634021272967 0 -0.32097344183699522 0.036308573331304453 0 -0.30296831937464691 0.03001056102156421 0 -0.2953509887403995 0.04221296260460073 0 -0.30400644193886422 0.045409634021272967 0 -0.30400644193886422 0.045409634021272967 0 -0.30575413398307971 0.05693704796958781 0 -0.32097344183699522 0.036308573331304453 0 -0.29535506230890263 0.053728666118674002 0 -0.2953509887403995 0.04221296260460073 0 -0.30400644193886422 0.045409634021272967 0 -0.29535506230890263 0.053728666118674002 0 -0.30400644193886422 0.045409634021272967 0 -0.30127658312629579 0.053473892265068559 0 -0.30400644193886422 0.045409634021272967 0 -0.30127658312629579 0.053473892265068559 0 -0.30575413398307971 0.05693704796958781 0 -0.29535506230890263 0.053728666118674002 0 -0.30127658312629579 0.053473892265068559 0 -0.29990701889798999 0.056439427764926137 0 -0.29535506230890263 0.053728666118674002 0 -0.29724229617368231 0.061618104706374181 0 -0.29990701889798999 0.056439427764926137 0 -0.29724229617368231 0.061618104706374181 0 -0.29990701889798999 0.056439427764926137 0 -0.30575413398307971 0.05693704796958781 0 -0.30127658312629579 0.053473892265068559 0 -0.29990701889798999 0.056439427764926137 0 -0.30575413398307971 0.05693704796958781 0 -0.30575413398307971 0.05693704796958781 0 -0.31325842684979072 0.058257744611204032 0 -0.31839542991430098 0.05033506325352801 0 -0.30747906066721048 0.059512287641815029 0 -0.30575413398307971 0.05693704796958781 0 -0.31325842684979072 0.058257744611204032 0 -0.30747906066721048 0.059512287641815029 0 -0.31325842684979072 0.058257744611204032 0 -0.31258566436383428 0.063851179962364293 0 -0.30575413398307971 0.05693704796958781 0 -0.31839542991430098 0.05033506325352801 0 -0.32097344183699522 0.036308573331304453 0 -0.31839542991430098 0.05033506325352801 0 -0.31989583639213631 0.063961673283330467 0 -0.33583029886052651 0.062711257803435755 0 -0.31325842684979072 0.058257744611204032 0 -0.31258566436383428 0.063851179962364293 0 -0.31989583639213631 0.063961673283330467 0 -0.31325842684979072 0.058257744611204032 0 -0.31839542991430098 0.05033506325352801 0 -0.31989583639213631 0.063961673283330467 0 -0.30575413398307971 0.05693704796958781 0 -0.32097344183699522 0.036308573331304453 0 -0.31839542991430098 0.05033506325352801 0 -0.32097344183699522 0.036308573331304453 0 -0.3338082649076623 0.047597525554688928 0 -0.3338082649076623 0.047597525554688928 0 -0.34933433877169878 0.053122334427958967 0 -0.34450781515479012 0.035510398957217457 0 -0.32097344183699522 0.036308573331304453 0 -0.3338082649076623 0.047597525554688928 0 -0.34450781515479012 0.035510398957217457 0 -0.31839542991430098 0.05033506325352801 0 -0.3338082649076623 0.047597525554688928 0 -0.33583029886052651 0.062711257803435755 0 -0.3338082649076623 0.047597525554688928 0 -0.34933433877169878 0.053122334427958967 0 -0.33583029886052651 0.062711257803435755 0 -0.31739977813296388 0.016423023928396702 0 -0.33619274969091067 0.015680098693021109 0 -0.32856258627540569 0.00059643377088357198 0 -0.31367260191526247 0.0029315258150356639 0 -0.31739977813296388 0.016423023928396702 0 -0.32856258627540569 0.00059643377088357198 0 -0.32097344183699522 0.036308573331304453 0 -0.31739977813296388 0.016423023928396702 0 -0.33619274969091067 0.015680098693021109 0 -0.30296831937464691 0.03001056102156421 0 -0.32097344183699522 0.036308573331304453 0 -0.31739977813296388 0.016423023928396702 0 -0.32097344183699522 0.036308573331304453 0 -0.33619274969091067 0.015680098693021109 0 -0.32097344183699522 0.036308573331304453 0 -0.33619274969091067 0.015680098693021109 0 -0.34450781515479012 0.035510398957217457 0 -0.35141205754482607 -0.004948375945262231 0 -0.33619274969091067 0.015680098693021109 0 -0.32856258627540569 0.00059643377088357198 0 -0.35141205754482607 -0.004948375945262231 0 -0.33619274969091067 0.015680098693021109 0 -0.35142722441503899 0.02050943147221667 0 -0.35141205754482607 -0.004948375945262231 0 -0.33619274969091067 0.015680098693021109 0 -0.35141205754482607 -0.004948375945262231 0 -0.35142722441503899 0.02050943147221667 0 -0.3657550296811255 0.01333174463833939 0 -0.33619274969091067 0.015680098693021109 0 -0.35142722441503899 0.02050943147221667 0 -0.34450781515479012 0.035510398957217457 0 -0.35142722441503899 0.02050943147221667 0 -0.34450781515479012 0.035510398957217457 0 -0.35895964976496558 0.031991137062740767 0 -0.35142722441503899 0.02050943147221667 0 -0.36989037023964189 0.024282585045291721 0 -0.35895964976496558 0.031991137062740767 0 -0.35142722441503899 0.02050943147221667 0 -0.36989037023964189 0.024282585045291721 0 -0.3657550296811255 0.01333174463833939 0 -0.36989037023964189 0.024282585045291721 0 -0.35895964976496558 0.031991137062740767 0 -0.37018974322863402 0.037046599085976982 0 -0.37724479330281657 0.030961133850392088 0 -0.36989037023964189 0.024282585045291721 0 -0.37018974322863402 0.037046599085976982 0 -0.36989037023964189 0.024282585045291721 0 -0.3657550296811255 0.01333174463833939 0 -0.37452935489823119 0.01420724725220366 0 -0.37983524536931712 0.019869734872926439 0 -0.36989037023964189 0.024282585045291721 0 -0.37452935489823119 0.01420724725220366 0 -0.35141205754482607 -0.004948375945262231 0 -0.37532756199792711 0.001896406901583601 0 -0.3657550296811255 0.01333174463833939 0 -0.37532756199792711 0.001896406901583601 0 -0.3657550296811255 0.01333174463833939 0 -0.37452935489823119 0.01420724725220366 0 -0.34933433877169878 0.053122334427958967 0 -0.35996020273252061 0.044630605365767018 0 -0.36482557676380267 0.062116409314423693 0 -0.34933433877169878 0.053122334427958967 0 -0.34450781515479012 0.035510398957217457 0 -0.35996020273252061 0.044630605365767018 0 -0.34450781515479012 0.035510398957217457 0 -0.35895964976496558 0.031991137062740767 0 -0.35996020273252061 0.044630605365767018 0 -0.35895964976496558 0.031991137062740767 0 -0.35996020273252061 0.044630605365767018 0 -0.37018974322863402 0.037046599085976982 0 -0.35996020273252061 0.044630605365767018 0 -0.37018974322863402 0.037046599085976982 0 -0.37194409271123219 0.047996753346284317 0 -0.38182778586106558 0.03744362386130369 0 -0.37018974322863402 0.037046599085976982 0 -0.37194409271123219 0.047996753346284317 0 -0.35996020273252061 0.044630605365767018 0 -0.36482557676380267 0.062116409314423693 0 -0.37194409271123219 0.047996753346284317 0 -0.38240654519008871 0.055436662967183171 0 -0.36482557676380267 0.062116409314423693 0 -0.37194409271123219 0.047996753346284317 0 -0.38050409013001613 0.069754291069488522 0 -0.36482557676380267 0.062116409314423693 0 -0.3707397541843262 0.087687958579784786 0 -0.36482557676380267 0.062116409314423693 0 -0.35328502652242633 0.075199608191610284 0 -0.3707397541843262 0.087687958579784786 0 -0.34933433877169878 0.053122334427958967 0 -0.36482557676380267 0.062116409314423693 0 -0.35328502652242633 0.075199608191610284 0 -0.35328502652242633 0.075199608191610284 0 -0.33583029886052651 0.062711257803435755 0 -0.34933433877169878 0.053122334427958967 0 -0.35328502652242633 0.075199608191610284 0 -0.33583029886052651 0.062711257803435755 0 -0.35328502652242633 0.075199608191610284 0 -0.3707397541843262 0.087687958579784786 0 -0.35228054802615377 0.09493454406699614 0 -0.35328502652242633 0.075199608191610284 0 -0.35228054802615377 0.09493454406699614 0 -0.33814723380455902 0.084208450387007111 0 -0.35328502652242633 0.075199608191610284 0 -0.3707397541843262 0.087687958579784786 0 -0.3707397541843262 0.087687958579784786 0 -0.36626698736670799 0.10439010821825399 0 -0.35228054802615377 0.09493454406699614 0 -0.38819448184622701 0.100176308967958 0 -0.36626698736670799 0.10439010821825399 0 -0.36929640858505602 0.1205672743178057 0 -0.36626698736670799 0.10439010821825399 0 -0.36929640858505602 0.1205672743178057 0 -0.34720043760159153 0.1160180569683254 0 -0.34720043760159153 0.1160180569683254 0 -0.35228054802615377 0.09493454406699614 0 -0.33804384867731202 0.1021030820569953 0 -0.36626698736670799 0.10439010821825399 0 -0.34720043760159153 0.1160180569683254 0 -0.35228054802615377 0.09493454406699614 0 -0.33804384867731202 0.1021030820569953 0 -0.32498735025700609 0.1160633130366574 0 -0.321362128882763 0.094604994897654865 0 -0.327440349328668 0.13535960109057471 0 -0.34720043760159153 0.1160180569683254 0 -0.32498735025700609 0.1160633130366574 0 -0.34720043760159153 0.1160180569683254 0 -0.33804384867731202 0.1021030820569953 0 -0.32498735025700609 0.1160633130366574 0 -0.30898175298003749 0.1044496144166157 0 -0.32498735025700609 0.1160633130366574 0 -0.321362128882763 0.094604994897654865 0 -0.321362128882763 0.094604994897654865 0 -0.32303923820166242 0.076920894425431402 0 -0.33814723380455902 0.084208450387007111 0 -0.3044707812367462 0.094218455546984201 0 -0.3120355939750355 0.084808546221637221 0 -0.321362128882763 0.094604994897654865 0 -0.3120355939750355 0.084808546221637221 0 -0.321362128882763 0.094604994897654865 0 -0.32303923820166242 0.076920894425431402 0 -0.31149644218967248 0.073017469274195973 0 -0.3120355939750355 0.084808546221637221 0 -0.32303923820166242 0.076920894425431402 0 -0.31149644218967248 0.073017469274195973 0 -0.31989583639213631 0.063961673283330467 0 -0.32303923820166242 0.076920894425431402 0 -0.31989583639213631 0.063961673283330467 0 -0.32303923820166242 0.076920894425431402 0 -0.33583029886052651 0.062711257803435755 0 -0.31149644218967248 0.073017469274195973 0 -0.31258566436383428 0.063851179962364293 0 -0.31989583639213631 0.063961673283330467 0 -0.32303923820166242 0.076920894425431402 0 -0.33583029886052651 0.062711257803435755 0 -0.33814723380455902 0.084208450387007111 0 -0.35328502652242633 0.075199608191610284 0 -0.33583029886052651 0.062711257803435755 0 -0.33814723380455902 0.084208450387007111 0 -0.33804384867731202 0.1021030820569953 0 -0.321362128882763 0.094604994897654865 0 -0.33814723380455902 0.084208450387007111 0 -0.35228054802615377 0.09493454406699614 0 -0.33804384867731202 0.1021030820569953 0 -0.33814723380455902 0.084208450387007111 0 -0.39970742550190269 0.48480157343187519 0 -0.40126648696778272 0.4676298354943475 0 -0.41343790230198929 0.48002513713007 0 -0.38249331015985372 0.48381491774717239 0 -0.40126648696778272 0.4676298354943475 0 -0.39970742550190269 0.48480157343187519 0 -0.38249331015985372 0.48381491774717239 0 -0.40126648696778272 0.4676298354943475 0 -0.38697076331924479 0.47394978108236158 0 -0.39006474092403892 0.46700291935365701 0 -0.40126648696778272 0.4676298354943475 0 -0.39970742550190269 0.48480157343187519 0 -0.39156450917525099 0.5 0 -0.38249331015985372 0.48381491774717239 0 -0.39970742550190269 0.48480157343187519 0 -0.39156450917525099 0.5 0 -0.41940888499857631 0.5 0 -0.39156450917525099 0.5 0 -0.38249331015985372 0.48381491774717239 0 -0.36372013335192571 0.49999999999999828 0 -0.38249331015985372 0.48381491774717239 0 -0.38228738580474342 0.48148068098000291 0 -0.36414689661273258 0.49074034049000098 0 -0.38249331015985372 0.48381491774717239 0 -0.38697076331924479 0.47394978108236158 0 -0.40126648696778272 0.4676298354943475 0 -0.37762000919558819 0.47747799183937178 0 -0.38228738580474342 0.48148068098000291 0 -0.3722606722874936 0.48069298163476581 0 -0.37762000919558819 0.47747799183937178 0 -0.38228738580474342 0.48148068098000291 0 -0.38153487611471409 0.47543271086347522 0 -0.38249331015985372 0.48381491774717239 0 -0.38228738580474342 0.48148068098000291 0 -0.38697076331924479 0.47394978108236158 0 -0.38228738580474342 0.48148068098000291 0 -0.38697076331924479 0.47394978108236158 0 -0.38153487611471409 0.47543271086347522 0 -0.38697076331924479 0.47394978108236158 0 -0.38586355491451291 0.46948266218117568 0 -0.39006474092403892 0.46700291935365701 0 -0.38697076331924479 0.47394978108236158 0 -0.3826120009048315 0.47094375298466801 0 -0.38153487611471409 0.47543271086347522 0 -0.38697076331924479 0.47394978108236158 0 -0.38586355491451291 0.46948266218117568 0 -0.3826120009048315 0.47094375298466801 0 -0.38586355491451291 0.46948266218117568 0 -0.3826120009048315 0.47094375298466801 0 -0.38380671450993631 0.46603419530401652 0 -0.3826120009048315 0.47094375298466801 0 -0.37813313704060308 0.47327410171133599 0 -0.37838838901997329 0.467631118381721 0 -0.37813313704060308 0.47327410171133599 0 -0.37838838901997329 0.467631118381721 0 -0.3689791749446879 0.47237371066638822 0 -0.37762000919558819 0.47747799183937178 0 -0.38153487611471409 0.47543271086347522 0 -0.37813313704060308 0.47327410171133599 0 -0.3826120009048315 0.47094375298466801 0 -0.38153487611471409 0.47543271086347522 0 -0.37813313704060308 0.47327410171133599 0 -0.37762000919558819 0.47747799183937178 0 -0.37813313704060308 0.47327410171133599 0 -0.37328935920566653 0.47553633618139041 0 -0.37838838901997329 0.467631118381721 0 -0.38011941396238741 0.46224726750361778 0 -0.38380671450993631 0.46603419530401652 0 -0.3826120009048315 0.47094375298466801 0 -0.37838838901997329 0.467631118381721 0 -0.38380671450993631 0.46603419530401652 0 -0.38011941396238741 0.46224726750361778 0 -0.37770350472949238 0.45811174051499232 0 -0.37235523951037502 0.46328119063658968 0 -0.37838838901997329 0.467631118381721 0 -0.38011941396238741 0.46224726750361778 0 -0.37235523951037502 0.46328119063658968 0 -0.37770350472949238 0.45811174051499232 0 -0.37964086313102419 0.45125439088523223 0 -0.3738683441327546 0.45411232155452469 0 -0.38273698822574231 0.45689770437459221 0 -0.37964086313102419 0.45125439088523223 0 -0.38571932777708728 0.45278297174778892 0 -0.37770350472949238 0.45811174051499232 0 -0.38273698822574231 0.45689770437459221 0 -0.37964086313102419 0.45125439088523223 0 -0.38011941396238741 0.46224726750361778 0 -0.37770350472949238 0.45811174051499232 0 -0.38273698822574231 0.45689770437459221 0 -0.38011941396238741 0.46224726750361778 0 -0.38273698822574231 0.45689770437459221 0 -0.38641300313109778 0.4616571082594777 0 -0.38273698822574231 0.45689770437459221 0 -0.38849597466281999 0.45660747565686638 0 -0.38641300313109778 0.4616571082594777 0 -0.38273698822574231 0.45689770437459221 0 -0.38849597466281999 0.45660747565686638 0 -0.38571932777708728 0.45278297174778892 0 -0.38849597466281999 0.45660747565686638 0 -0.38571932777708728 0.45278297174778892 0 -0.38988742481424182 0.45175388572586028 0 -0.38849597466281999 0.45660747565686638 0 -0.38641300313109778 0.4616571082594777 0 -0.39325418650166172 0.46115308736411698 0 -0.39006474092403892 0.46700291935365701 0 -0.38641300313109778 0.4616571082594777 0 -0.39325418650166172 0.46115308736411698 0 -0.39006474092403892 0.46700291935365701 0 -0.38380671450993631 0.46603419530401652 0 -0.38641300313109778 0.4616571082594777 0 -0.38586355491451291 0.46948266218117568 0 -0.39006474092403892 0.46700291935365701 0 -0.38380671450993631 0.46603419530401652 0 -0.38011941396238741 0.46224726750361778 0 -0.38380671450993631 0.46603419530401652 0 -0.38641300313109778 0.4616571082594777 0 -0.38118155666881409 0.44177872211950547 0 -0.39053479129969382 0.44861111947005339 0 -0.37472454688268081 0.44709271119523231 0 -0.37964086313102419 0.45125439088523223 0 -0.39053479129969382 0.44861111947005339 0 -0.37472454688268081 0.44709271119523231 0 -0.39053479129969382 0.44861111947005339 0 -0.37472454688268081 0.44709271119523231 0 -0.38118155666881409 0.44177872211950547 0 -0.37700373276998561 0.43884067406290689 0 -0.38404240947995488 0.43314192513133898 0 -0.38118155666881409 0.44177872211950547 0 -0.37700373276998561 0.43884067406290689 0 -0.37472454688268081 0.44709271119523231 0 -0.37964086313102419 0.45125439088523223 0 -0.37472454688268081 0.44709271119523231 0 -0.3738683441327546 0.45411232155452469 0 -0.37964086313102419 0.45125439088523223 0 -0.38571932777708728 0.45278297174778892 0 -0.39053479129969382 0.44861111947005339 0 -0.38571932777708728 0.45278297174778892 0 -0.38988742481424182 0.45175388572586028 0 -0.39053479129969382 0.44861111947005339 0 -0.38988742481424182 0.45175388572586028 0 -0.39053479129969382 0.44861111947005339 0 -0.38118155666881409 0.44177872211950547 0 -0.39053479129969382 0.44861111947005339 0 -0.38404240947995488 0.43314192513133898 0 -0.39053479129969382 0.44861111947005339 0 -0.40468473948850242 0.4531638709686554 0 -0.42003966377571239 0.45144475324152361 0 -0.39053479129969382 0.44861111947005339 0 -0.42003966377571239 0.45144475324152361 0 -0.39053479129969382 0.44861111947005339 0 -0.41395467682990827 0.44077626024156968 0 -0.40512362270290159 0.43450352776147882 0 -0.39053479129969382 0.44861111947005339 0 -0.39713600978067359 0.4520654827630059 0 -0.40468473948850242 0.4531638709686554 0 -0.39053479129969382 0.44861111947005339 0 -0.3928026246934978 0.45199000921949101 0 -0.39713600978067359 0.4520654827630059 0 -0.38988742481424182 0.45175388572586028 0 -0.39053479129969382 0.44861111947005339 0 -0.3928026246934978 0.45199000921949101 0 -0.38988742481424182 0.45175388572586028 0 -0.3928026246934978 0.45199000921949101 0 -0.39365227287938209 0.45552954891904429 0 -0.39325418650166172 0.46115308736411698 0 -0.39799873912360051 0.45790836510183408 0 -0.40126648696778272 0.4676298354943475 0 -0.39006474092403892 0.46700291935365701 0 -0.39325418650166172 0.46115308736411698 0 -0.40126648696778272 0.4676298354943475 0 -0.38849597466281999 0.45660747565686638 0 -0.39325418650166172 0.46115308736411698 0 -0.39365227287938209 0.45552954891904429 0 -0.38849597466281999 0.45660747565686638 0 -0.38988742481424182 0.45175388572586028 0 -0.39365227287938209 0.45552954891904429 0 -0.3928026246934978 0.45199000921949101 0 -0.39713600978067359 0.4520654827630059 0 -0.39365227287938209 0.45552954891904429 0 -0.39713600978067359 0.4520654827630059 0 -0.39365227287938209 0.45552954891904429 0 -0.39799873912360051 0.45790836510183408 0 -0.39325418650166172 0.46115308736411698 0 -0.39365227287938209 0.45552954891904429 0 -0.39799873912360051 0.45790836510183408 0 -0.39799873912360051 0.45790836510183408 0 -0.40468473948850242 0.4531638709686554 0 -0.40126648696778272 0.4676298354943475 0 -0.39713600978067359 0.4520654827630059 0 -0.39799873912360051 0.45790836510183408 0 -0.40468473948850242 0.4531638709686554 0 -0.40468473948850242 0.4531638709686554 0 -0.40126648696778272 0.4676298354943475 0 -0.42003966377571239 0.45144475324152361 0 -0.40126648696778272 0.4676298354943475 0 -0.42003966377571239 0.45144475324152361 0 -0.40126648696778272 0.4676298354943475 0 -0.41835198341704061 0.46815276542310091 0 -0.42003966377571239 0.45144475324152361 0 -0.39053479129969382 0.44861111947005339 0 -0.41395467682990827 0.44077626024156968 0 -0.42003966377571239 0.45144475324152361 0 -0.41395467682990827 0.44077626024156968 0 -0.42003966377571239 0.45144475324152361 0 -0.4238856020409717 0.44812902102425439 0 -0.41395467682990827 0.44077626024156968 0 -0.4238856020409717 0.44812902102425439 0 -0.42584274595079252 0.43639926305015958 0 -0.42003966377571239 0.45144475324152361 0 -0.43788047715968581 0.45315817638397049 0 -0.42003966377571239 0.45144475324152361 0 -0.4238856020409717 0.44812902102425439 0 -0.43788047715968581 0.45315817638397049 0 -0.4238856020409717 0.44812902102425439 0 -0.43475984908935 0.44141789182312929 0 -0.42584274595079252 0.43639926305015958 0 -0.42003966377571239 0.45144475324152361 0 -0.4238856020409717 0.44812902102425439 0 -0.4238856020409717 0.44812902102425439 0 -0.43475984908935 0.44141789182312929 0 -0.43788047715968581 0.45315817638397049 0 -0.41835198341704061 0.46815276542310091 0 -0.42003966377571239 0.45144475324152361 0 -0.42950485418736112 0.46397435845498569 0 -0.42003966377571239 0.45144475324152361 0 -0.42950485418736112 0.46397435845498569 0 -0.43788047715968581 0.45315817638397049 0 -0.42950485418736112 0.46397435845498569 0 -0.42845473062464418 0.47954151130102618 0 -0.44673568825109877 0.47182807235687391 0 -0.41835198341704061 0.46815276542310091 0 -0.42950485418736112 0.46397435845498569 0 -0.42845473062464418 0.47954151130102618 0 -0.41835198341704061 0.46815276542310091 0 -0.42845473062464418 0.47954151130102618 0 -0.41343790230198929 0.48002513713007 0 -0.40126648696778272 0.4676298354943475 0 -0.41835198341704061 0.46815276542310091 0 -0.41343790230198929 0.48002513713007 0 -0.42845473062464418 0.47954151130102618 0 -0.41343790230198929 0.48002513713007 0 -0.41940888499857631 0.5 0 -0.39970742550190269 0.48480157343187519 0 -0.41343790230198929 0.48002513713007 0 -0.41940888499857631 0.5 0 -0.42845473062464418 0.47954151130102618 0 -0.41940888499857631 0.5 0 -0.44725326082190159 0.5 0 -0.5 0.5 0 -0.46855621343208093 0.44540885144193593 0 -0.5 0.40417698189430529 0 -0.42845473062464418 0.47954151130102618 0 -0.44725326082190159 0.5 0 -0.44673568825109877 0.47182807235687391 0 -0.44725326082190159 0.5 0 -0.44673568825109877 0.47182807235687391 0 -0.47182692503865359 0.47270442572097082 0 -0.44725326082190159 0.5 0 -0.47509763664522708 0.50000000000000555 0 -0.47182692503865359 0.47270442572097082 0 -0.47509763664522708 0.50000000000000555 0 -0.47182692503865359 0.47270442572097082 0 -0.47509763664522708 0.50000000000000555 0 -0.47182692503865359 0.47270442572097082 0 -0.5 0.5 0 -0.47182692503865359 0.47270442572097082 0 -0.5 0.5 0 -0.46855621343208093 0.44540885144193593 0 -0.47182692503865359 0.47270442572097082 0 -0.46855621343208093 0.44540885144193593 0 -0.46855621343208093 0.44540885144193593 0 -0.45438704256511669 0.4569360157934001 0 -0.44968273130851111 0.44038191547655742 0 -0.44673568825109877 0.47182807235687391 0 -0.47182692503865359 0.47270442572097082 0 -0.45438704256511669 0.4569360157934001 0 -0.47182692503865359 0.47270442572097082 0 -0.46855621343208093 0.44540885144193593 0 -0.45438704256511669 0.4569360157934001 0 -0.42950485418736112 0.46397435845498569 0 -0.44673568825109877 0.47182807235687391 0 -0.43788047715968581 0.45315817638397049 0 -0.44673568825109877 0.47182807235687391 0 -0.45438704256511669 0.4569360157934001 0 -0.43788047715968581 0.45315817638397049 0 -0.45438704256511669 0.4569360157934001 0 -0.43788047715968581 0.45315817638397049 0 -0.44968273130851111 0.44038191547655742 0 -0.43475984908935 0.44141789182312929 0 -0.43788047715968581 0.45315817638397049 0 -0.44968273130851111 0.44038191547655742 0 -0.43475984908935 0.44141789182312929 0 -0.44968273130851111 0.44038191547655742 0 -0.43860071496154879 0.42665796146066137 0 -0.44968273130851111 0.44038191547655742 0 -0.43860071496154879 0.42665796146066137 0 -0.4652855018255081 0.41811327716290109 0 -0.43860071496154879 0.42665796146066137 0 -0.44745718092437953 0.40690450121035399 0 -0.4652855018255081 0.41811327716290109 0 -0.43860071496154879 0.42665796146066137 0 -0.44745718092437953 0.40690450121035399 0 -0.43064313226757411 0.41389074855515529 0 -0.46855621343208093 0.44540885144193593 0 -0.44968273130851111 0.44038191547655742 0 -0.4652855018255081 0.41811327716290109 0 -0.46855621343208093 0.44540885144193593 0 -0.4652855018255081 0.41811327716290109 0 -0.46855621343208093 0.44540885144193593 0 -0.4652855018255081 0.41811327716290109 0 -0.5 0.40417698189430529 0 -0.5 0.40417698189430529 0 -0.46201479021893521 0.39081770288386619 0 -0.47540566996418337 0.35711022512101109 0 -0.4652855018255081 0.41811327716290109 0 -0.5 0.40417698189430529 0 -0.46201479021893521 0.39081770288386619 0 -0.46201479021893521 0.39081770288386619 0 -0.45874407861236238 0.36352212860483141 0 -0.44745718092437953 0.40690450121035399 0 -0.4652855018255081 0.41811327716290109 0 -0.46201479021893521 0.39081770288386619 0 -0.4652855018255081 0.41811327716290109 0 -0.46201479021893521 0.39081770288386619 0 -0.44745718092437953 0.40690450121035399 0 -0.46201479021893521 0.39081770288386619 0 -0.43257379302386939 0.38841520167968718 0 -0.46201479021893521 0.39081770288386619 0 -0.43257379302386939 0.38841520167968718 0 -0.45874407861236238 0.36352212860483141 0 -0.43257379302386939 0.38841520167968718 0 -0.40170471504719779 0.39438455658411359 0 -0.40728967692095008 0.36727127514114383 0 -0.43257379302386939 0.38841520167968718 0 -0.41468601299577029 0.40845444405354109 0 -0.40170471504719779 0.39438455658411359 0 -0.44745718092437953 0.40690450121035399 0 -0.43257379302386939 0.38841520167968718 0 -0.43064313226757411 0.41389074855515529 0 -0.43257379302386939 0.38841520167968718 0 -0.43064313226757411 0.41389074855515529 0 -0.41468601299577029 0.40845444405354109 0 -0.43860071496154879 0.42665796146066137 0 -0.43064313226757411 0.41389074855515529 0 -0.41814027984667479 0.42567620054814759 0 -0.43860071496154879 0.42665796146066137 0 -0.42584274595079252 0.43639926305015958 0 -0.41814027984667479 0.42567620054814759 0 -0.43475984908935 0.44141789182312929 0 -0.43860071496154879 0.42665796146066137 0 -0.42584274595079252 0.43639926305015958 0 -0.41814027984667479 0.42567620054814759 0 -0.39611975317344561 0.42149783802708352 0 -0.40512362270290159 0.43450352776147882 0 -0.41395467682990827 0.44077626024156968 0 -0.42584274595079252 0.43639926305015958 0 -0.41814027984667479 0.42567620054814759 0 -0.41395467682990827 0.44077626024156968 0 -0.41814027984667479 0.42567620054814759 0 -0.40512362270290159 0.43450352776147882 0 -0.43064313226757411 0.41389074855515529 0 -0.41814027984667479 0.42567620054814759 0 -0.41468601299577029 0.40845444405354109 0 -0.41814027984667479 0.42567620054814759 0 -0.41468601299577029 0.40845444405354109 0 -0.39611975317344561 0.42149783802708352 0 -0.41468601299577029 0.40845444405354109 0 -0.39611975317344561 0.42149783802708352 0 -0.40170471504719779 0.39438455658411359 0 -0.39611975317344561 0.42149783802708352 0 -0.40170471504719779 0.39438455658411359 0 -0.39053479129969382 0.44861111947005339 0 -0.39611975317344561 0.42149783802708352 0 -0.40512362270290159 0.43450352776147882 0 -0.39053479129969382 0.44861111947005339 0 -0.39611975317344561 0.42149783802708352 0 -0.39053479129969382 0.44861111947005339 0 -0.39611975317344561 0.42149783802708352 0 -0.38404240947995488 0.43314192513133898 0 -0.37700373276998561 0.43884067406290689 0 -0.38404240947995488 0.43314192513133898 0 -0.36806641804849238 0.43334933780555029 0 -0.38404240947995488 0.43314192513133898 0 -0.37397534325810772 0.41880762755471429 0 -0.36806641804849238 0.43334933780555029 0 -0.39611975317344561 0.42149783802708352 0 -0.38404240947995488 0.43314192513133898 0 -0.37397534325810772 0.41880762755471429 0 -0.39611975317344561 0.42149783802708352 0 -0.37829089860387111 0.39851116985859603 0 -0.37397534325810772 0.41880762755471429 0 -0.37829089860387111 0.39851116985859603 0 -0.37773667565265762 0.38031379905152007 0 -0.40170471504719779 0.39438455658411359 0 -0.37773667565265762 0.38031379905152007 0 -0.40170471504719779 0.39438455658411359 0 -0.38906808265055443 0.36839431444738058 0 -0.40170471504719779 0.39438455658411359 0 -0.38906808265055443 0.36839431444738058 0 -0.40728967692095008 0.36727127514114383 0 -0.40170471504719779 0.39438455658411359 0 -0.40728967692095008 0.36727127514114383 0 -0.39611975317344561 0.42149783802708352 0 -0.37829089860387111 0.39851116985859603 0 -0.40170471504719779 0.39438455658411359 0 -0.38869064976439038 0.34609378785765588 0 -0.40618954431833898 0.3362537496227424 0 -0.40728967692095008 0.36727127514114383 0 -0.38906808265055443 0.36839431444738058 0 -0.38869064976439038 0.34609378785765588 0 -0.40728967692095008 0.36727127514114383 0 -0.37773667565265762 0.38031379905152007 0 -0.38906808265055443 0.36839431444738058 0 -0.36991869586757609 0.35390815360246952 0 -0.38906808265055443 0.36839431444738058 0 -0.38869064976439038 0.34609378785765588 0 -0.36991869586757609 0.35390815360246952 0 -0.38869064976439038 0.34609378785765588 0 -0.37216952840959588 0.33199140843155461 0 -0.36991869586757609 0.35390815360246952 0 -0.38869064976439038 0.34609378785765588 0 -0.38684642889118082 0.32531479534715452 0 -0.37216952840959588 0.33199140843155461 0 -0.38684642889118082 0.32531479534715452 0 -0.37421902014714081 0.31334453663989448 0 -0.37216952840959588 0.33199140843155461 0 -0.38684642889118082 0.32531479534715452 0 -0.38776196387872702 0.30604745871539812 0 -0.37421902014714081 0.31334453663989448 0 -0.38684642889118082 0.32531479534715452 0 -0.40032941279927542 0.31725584331548218 0 -0.38776196387872702 0.30604745871539812 0 -0.38684642889118082 0.32531479534715452 0 -0.40032941279927542 0.31725584331548218 0 -0.40618954431833898 0.3362537496227424 0 -0.38869064976439038 0.34609378785765588 0 -0.38684642889118082 0.32531479534715452 0 -0.40618954431833898 0.3362537496227424 0 -0.40618954431833898 0.3362537496227424 0 -0.41698909825875219 0.31663969103792278 0 -0.42684183886227689 0.34375478321339392 0 -0.40032941279927542 0.31725584331548218 0 -0.40618954431833898 0.3362537496227424 0 -0.41698909825875219 0.31663969103792278 0 -0.41698909825875219 0.31663969103792278 0 -0.43655759865675609 0.32425014597450352 0 -0.42929937616136082 0.29768734320789009 0 -0.41698909825875219 0.31663969103792278 0 -0.43655759865675609 0.32425014597450352 0 -0.42684183886227689 0.34375478321339392 0 -0.42684183886227689 0.34375478321339392 0 -0.40728967692095008 0.36727127514114383 0 -0.43657392150322721 0.36077301218298752 0 -0.40618954431833898 0.3362537496227424 0 -0.42684183886227689 0.34375478321339392 0 -0.40728967692095008 0.36727127514114383 0 -0.43257379302386939 0.38841520167968718 0 -0.40728967692095008 0.36727127514114383 0 -0.43657392150322721 0.36077301218298752 0 -0.5 0.40417698189430529 0 -0.47540566996418337 0.35711022512101109 0 -0.5 0.33247946538051237 0 -0.46201479021893521 0.39081770288386619 0 -0.45874407861236238 0.36352212860483141 0 -0.47540566996418337 0.35711022512101109 0 -0.43257379302386939 0.38841520167968718 0 -0.43657392150322721 0.36077301218298752 0 -0.45874407861236238 0.36352212860483141 0 -0.43657392150322721 0.36077301218298752 0 -0.45874407861236238 0.36352212860483141 0 -0.45547336700578961 0.33622655432579668 0 -0.42684183886227689 0.34375478321339392 0 -0.43657392150322721 0.36077301218298752 0 -0.45547336700578961 0.33622655432579668 0 -0.45874407861236238 0.36352212860483141 0 -0.45547336700578961 0.33622655432579668 0 -0.45874407861236238 0.36352212860483141 0 -0.47540566996418337 0.35711022512101109 0 -0.45547336700578961 0.33622655432579668 0 -0.47540566996418337 0.35711022512101109 0 -0.5 0.33247946538051237 0 -0.47620178394801371 0.3154385176367549 0 -0.47540566996418337 0.35711022512101109 0 -0.47620178394801371 0.3154385176367549 0 -0.45547336700578961 0.33622655432579668 0 -0.45547336700578961 0.33622655432579668 0 -0.45220265539921678 0.30893098004676189 0 -0.47620178394801371 0.3154385176367549 0 -0.45547336700578961 0.33622655432579668 0 -0.45220265539921678 0.30893098004676189 0 -0.43655759865675609 0.32425014597450352 0 -0.42684183886227689 0.34375478321339392 0 -0.45547336700578961 0.33622655432579668 0 -0.43655759865675609 0.32425014597450352 0 -0.45547336700578961 0.33622655432579668 0 -0.45220265539921678 0.30893098004676189 0 -0.43655759865675609 0.32425014597450352 0 -0.45220265539921678 0.30893098004676189 0 -0.42929937616136082 0.29768734320789009 0 -0.45220265539921678 0.30893098004676189 0 -0.45136148071723953 0.28238390437739452 0 -0.42929937616136082 0.29768734320789009 0 -0.45136148071723953 0.28238390437739452 0 -0.43391886872663871 0.26866903445584539 0 -0.42929937616136082 0.29768734320789009 0 -0.45220265539921678 0.30893098004676189 0 -0.45136148071723953 0.28238390437739452 0 -0.47071078889306711 0.28876179820632908 0 -0.47620178394801371 0.3154385176367549 0 -0.45220265539921678 0.30893098004676189 0 -0.47071078889306711 0.28876179820632908 0 -0.5 0.33247946538051237 0 -0.47620178394801371 0.3154385176367549 0 -0.5 0.27896000203943272 0 -0.47620178394801371 0.3154385176367549 0 -0.47071078889306711 0.28876179820632908 0 -0.5 0.27896000203943272 0 -0.5 0.23900809058125971 0 -0.4845846384119043 0.25401797161969808 0 -0.5 0.27896000203943272 0 -0.4845846384119043 0.25401797161969808 0 -0.5 0.27896000203943272 0 -0.47054884306040529 0.26761345913117779 0 -0.47071078889306711 0.28876179820632908 0 -0.5 0.27896000203943272 0 -0.47054884306040529 0.26761345913117779 0 -0.46112332677026491 0.2422572031956759 0 -0.4845846384119043 0.25401797161969808 0 -0.47054884306040529 0.26761345913117779 0 -0.46112332677026491 0.2422572031956759 0 -0.47054884306040529 0.26761345913117779 0 -0.45551282356995609 0.25929987534853671 0 -0.45136148071723953 0.28238390437739452 0 -0.47071078889306711 0.28876179820632908 0 -0.47054884306040529 0.26761345913117779 0 -0.45136148071723953 0.28238390437739452 0 -0.47054884306040529 0.26761345913117779 0 -0.45551282356995609 0.25929987534853671 0 -0.45136148071723953 0.28238390437739452 0 -0.45551282356995609 0.25929987534853671 0 -0.43391886872663871 0.26866903445584539 0 -0.45551282356995609 0.25929987534853671 0 -0.43391886872663871 0.26866903445584539 0 -0.44126978873058992 0.24458098521907581 0 -0.45551282356995609 0.25929987534853671 0 -0.43391886872663871 0.26866903445584539 0 -0.44126978873058992 0.24458098521907581 0 -0.41916559950287241 0.24974544454750311 0 -0.43391886872663871 0.26866903445584539 0 -0.41916559950287241 0.24974544454750311 0 -0.41232491388332121 0.27803819356315418 0 -0.39732377157701998 0.25712755887194189 0 -0.41916559950287241 0.24974544454750311 0 -0.41232491388332121 0.27803819356315418 0 -0.43391886872663871 0.26866903445584539 0 -0.41232491388332121 0.27803819356315418 0 -0.43391886872663871 0.26866903445584539 0 -0.41232491388332121 0.27803819356315418 0 -0.43391886872663871 0.26866903445584539 0 -0.42929937616136082 0.29768734320789009 0 -0.41698909825875219 0.31663969103792278 0 -0.42929937616136082 0.29768734320789009 0 -0.40386002864937798 0.30202352185419279 0 -0.40032941279927542 0.31725584331548218 0 -0.41698909825875219 0.31663969103792278 0 -0.40386002864937798 0.30202352185419279 0 -0.41698909825875219 0.31663969103792278 0 -0.40386002864937798 0.30202352185419279 0 -0.41232491388332121 0.27803819356315418 0 -0.42929937616136082 0.29768734320789009 0 -0.40386002864937798 0.30202352185419279 0 -0.41232491388332121 0.27803819356315418 0 -0.3907309590400036 0.28740735267046291 0 -0.41232491388332121 0.27803819356315418 0 -0.3907309590400036 0.28740735267046291 0 -0.40386002864937798 0.30202352185419279 0 -0.3907309590400036 0.28740735267046291 0 -0.40386002864937798 0.30202352185419279 0 -0.3907309590400036 0.28740735267046291 0 -0.40386002864937798 0.30202352185419279 0 -0.38776196387872702 0.30604745871539812 0 -0.40032941279927542 0.31725584331548218 0 -0.40386002864937798 0.30202352185419279 0 -0.38776196387872702 0.30604745871539812 0 -0.38776196387872702 0.30604745871539812 0 -0.37121337573942442 0.29587561819477792 0 -0.37421902014714081 0.31334453663989448 0 -0.3907309590400036 0.28740735267046291 0 -0.37121337573942442 0.29587561819477792 0 -0.3907309590400036 0.28740735267046291 0 -0.37807442666088681 0.27331724392426138 0 -0.37121337573942442 0.29587561819477792 0 -0.3907309590400036 0.28740735267046291 0 -0.38776196387872702 0.30604745871539812 0 -0.37121337573942442 0.29587561819477792 0 -0.3907309590400036 0.28740735267046291 0 -0.37807442666088681 0.27331724392426138 0 -0.39199121004457549 0.2722657366860779 0 -0.3907309590400036 0.28740735267046291 0 -0.37807442666088681 0.27331724392426138 0 -0.37807442666088681 0.27331724392426138 0 -0.38100336917445959 0.25974160733859741 0 -0.39199121004457549 0.2722657366860779 0 -0.37997521253329197 0.24407783265957789 0 -0.38100336917445959 0.25974160733859741 0 -0.36541789428176968 0.2592271351780599 0 -0.38100336917445959 0.25974160733859741 0 -0.39732377157701998 0.25712755887194189 0 -0.39199121004457549 0.2722657366860779 0 -0.37997521253329197 0.24407783265957789 0 -0.38100336917445959 0.25974160733859741 0 -0.39732377157701998 0.25712755887194189 0 -0.41232491388332121 0.27803819356315418 0 -0.39732377157701998 0.25712755887194189 0 -0.39199121004457549 0.2722657366860779 0 -0.41232491388332121 0.27803819356315418 0 -0.3907309590400036 0.28740735267046291 0 -0.39199121004457549 0.2722657366860779 0 -0.34865303499191042 0.26253882218667191 0 -0.36541789428176968 0.2592271351780599 0 -0.3614636086550842 0.27551918258378272 0 -0.34447425545286298 0.27750233941246122 0 -0.34865303499191042 0.26253882218667191 0 -0.3614636086550842 0.27551918258378272 0 -0.34447425545286298 0.27750233941246122 0 -0.3614636086550842 0.27551918258378272 0 -0.35472528590345748 0.2892253580053612 0 -0.35569698547480771 0.24686514723355099 0 -0.34865303499191042 0.26253882218667191 0 -0.3371790503247063 0.25016142275936148 0 -0.35569698547480771 0.24686514723355099 0 -0.34865303499191042 0.26253882218667191 0 -0.36541789428176968 0.2592271351780599 0 -0.37997521253329197 0.24407783265957789 0 -0.35569698547480771 0.24686514723355099 0 -0.36541789428176968 0.2592271351780599 0 -0.37807442666088681 0.27331724392426138 0 -0.38100336917445959 0.25974160733859741 0 -0.36541789428176968 0.2592271351780599 0 -0.37807442666088681 0.27331724392426138 0 -0.36541789428176968 0.2592271351780599 0 -0.37807442666088681 0.27331724392426138 0 -0.36541789428176968 0.2592271351780599 0 -0.3614636086550842 0.27551918258378272 0 -0.3614636086550842 0.27551918258378272 0 -0.37121337573942442 0.29587561819477792 0 -0.35472528590345748 0.2892253580053612 0 -0.37807442666088681 0.27331724392426138 0 -0.3614636086550842 0.27551918258378272 0 -0.37121337573942442 0.29587561819477792 0 -0.37121337573942442 0.29587561819477792 0 -0.36361524639420872 0.30719803156048658 0 -0.35169579243884508 0.30434388371909282 0 -0.37121337573942442 0.29587561819477792 0 -0.35169579243884508 0.30434388371909282 0 -0.37121337573942442 0.29587561819477792 0 -0.36361524639420872 0.30719803156048658 0 -0.37421902014714081 0.31334453663989448 0 -0.36361524639420872 0.30719803156048658 0 -0.35121792118577688 0.31218303447411899 0 -0.3569896135117987 0.31750921633247597 0 -0.36361524639420872 0.30719803156048658 0 -0.35169579243884508 0.30434388371909282 0 -0.35121792118577688 0.31218303447411899 0 -0.35169579243884508 0.30434388371909282 0 -0.34048544509615608 0.29502577730573992 0 -0.34087438034064232 0.31017067340284821 0 -0.35169579243884508 0.30434388371909282 0 -0.35121792118577688 0.31218303447411899 0 -0.34087438034064232 0.31017067340284821 0 -0.37121337573942442 0.29587561819477792 0 -0.35169579243884508 0.30434388371909282 0 -0.35472528590345748 0.2892253580053612 0 -0.34447425545286298 0.27750233941246122 0 -0.35472528590345748 0.2892253580053612 0 -0.34048544509615608 0.29502577730573992 0 -0.35169579243884508 0.30434388371909282 0 -0.35472528590345748 0.2892253580053612 0 -0.34048544509615608 0.29502577730573992 0 -0.34447425545286298 0.27750233941246122 0 -0.34048544509615608 0.29502577730573992 0 -0.33119818815468971 0.28356287628332222 0 -0.34048544509615608 0.29502577730573992 0 -0.33119818815468971 0.28356287628332222 0 -0.32612254313745492 0.29460485833819078 0 -0.34048544509615608 0.29502577730573992 0 -0.34087438034064232 0.31017067340284821 0 -0.33030597891027719 0.30630252665169022 0 -0.34048544509615608 0.29502577730573992 0 -0.33030597891027719 0.30630252665169022 0 -0.32612254313745492 0.29460485833819078 0 -0.33030597891027719 0.30630252665169022 0 -0.32612254313745492 0.29460485833819078 0 -0.31220286761932292 0.30449846908372402 0 -0.33030597891027719 0.30630252665169022 0 -0.31220286761932292 0.30449846908372402 0 -0.32361759247022698 0.32385642359775513 0 -0.32612254313745492 0.29460485833819078 0 -0.31642023590682877 0.2836346423664774 0 -0.31220286761932292 0.30449846908372402 0 -0.33119818815468971 0.28356287628332222 0 -0.32612254313745492 0.29460485833819078 0 -0.31642023590682877 0.2836346423664774 0 -0.33119818815468971 0.28356287628332222 0 -0.31642023590682877 0.2836346423664774 0 -0.32768641576223162 0.26595770595281498 0 -0.31642023590682877 0.2836346423664774 0 -0.32768641576223162 0.26595770595281498 0 -0.30790042016032421 0.26974743464482259 0 -0.34447425545286298 0.27750233941246122 0 -0.33119818815468971 0.28356287628332222 0 -0.32768641576223162 0.26595770595281498 0 -0.34447425545286298 0.27750233941246122 0 -0.34865303499191042 0.26253882218667191 0 -0.32768641576223162 0.26595770595281498 0 -0.34865303499191042 0.26253882218667191 0 -0.32768641576223162 0.26595770595281498 0 -0.3371790503247063 0.25016142275936148 0 -0.31633591407993289 0.2389612129037291 0 -0.32768641576223162 0.26595770595281498 0 -0.3371790503247063 0.25016142275936148 0 -0.31633591407993289 0.2389612129037291 0 -0.32768641576223162 0.26595770595281498 0 -0.30790042016032421 0.26974743464482259 0 -0.31633591407993289 0.2389612129037291 0 -0.30790042016032421 0.26974743464482259 0 -0.29480661326457608 0.25476745515847532 0 -0.30790042016032421 0.26974743464482259 0 -0.29480661326457608 0.25476745515847532 0 -0.2933009008398596 0.28505172657679378 0 -0.31642023590682877 0.2836346423664774 0 -0.30790042016032421 0.26974743464482259 0 -0.2933009008398596 0.28505172657679378 0 -0.29480661326457608 0.25476745515847532 0 -0.27327731244921932 0.27057369741322151 0 -0.2933009008398596 0.28505172657679378 0 -0.29480661326457608 0.25476745515847532 0 -0.27327731244921932 0.27057369741322151 0 -0.29480661326457608 0.25476745515847532 0 -0.27557907769098688 0.2524389287326505 0 -0.27327731244921932 0.27057369741322151 0 -0.27557907769098688 0.2524389287326505 0 -0.27327731244921932 0.27057369741322151 0 -0.26032828748909698 0.25586670347249069 0 -0.26625560666838849 0.24670879665101769 0 -0.27557907769098688 0.2524389287326505 0 -0.26032828748909698 0.25586670347249069 0 -0.27327731244921932 0.27057369741322151 0 -0.25174801163386251 0.28637993966796771 0 -0.24661693138460841 0.26930390670218202 0 -0.27327731244921932 0.27057369741322151 0 -0.25174801163386251 0.28637993966796771 0 -0.26032828748909698 0.25586670347249069 0 -0.24692216810694789 0.25001748358109999 0 -0.24661693138460841 0.26930390670218202 0 -0.27327731244921932 0.27057369741322151 0 -0.26032828748909698 0.25586670347249069 0 -0.24661693138460841 0.26930390670218202 0 -0.25695327319853212 0.30339637682584858 0 -0.27533800780112999 0.30662296756351098 0 -0.26054174465539143 0.31983185768903188 0 -0.27327731244921932 0.27057369741322151 0 -0.25174801163386251 0.28637993966796771 0 -0.26951498019750891 0.2885835969530533 0 -0.25695327319853212 0.30339637682584858 0 -0.25174801163386251 0.28637993966796771 0 -0.26951498019750891 0.2885835969530533 0 -0.27327731244921932 0.27057369741322151 0 -0.26951498019750891 0.2885835969530533 0 -0.2933009008398596 0.28505172657679378 0 -0.26951498019750891 0.2885835969530533 0 -0.27533800780112999 0.30662296756351098 0 -0.2933009008398596 0.28505172657679378 0 -0.25695327319853212 0.30339637682584858 0 -0.26951498019750891 0.2885835969530533 0 -0.27533800780112999 0.30662296756351098 0 -0.27533800780112999 0.30662296756351098 0 -0.29338907412082649 0.31122074648869158 0 -0.2933009008398596 0.28505172657679378 0 -0.31642023590682877 0.2836346423664774 0 -0.2933009008398596 0.28505172657679378 0 -0.31220286761932292 0.30449846908372402 0 -0.29338907412082649 0.31122074648869158 0 -0.2933009008398596 0.28505172657679378 0 -0.31220286761932292 0.30449846908372402 0 -0.29931163299788283 0.3284004525268181 0 -0.32361759247022698 0.32385642359775513 0 -0.29338907412082649 0.31122074648869158 0 -0.31220286761932292 0.30449846908372402 0 -0.29931163299788283 0.3284004525268181 0 -0.31220286761932292 0.30449846908372402 0 -0.29931163299788283 0.3284004525268181 0 -0.32361759247022698 0.32385642359775513 0 -0.29931163299788283 0.3284004525268181 0 -0.31340759414538671 0.33652142370929761 0 -0.32361759247022698 0.32385642359775513 0 -0.29931163299788283 0.3284004525268181 0 -0.29455579000216991 0.34845625991374352 0 -0.31340759414538671 0.33652142370929761 0 -0.29931163299788283 0.3284004525268181 0 -0.27500567352553862 0.33294448145588112 0 -0.29931163299788283 0.3284004525268181 0 -0.27500567352553862 0.33294448145588112 0 -0.29455579000216991 0.34845625991374352 0 -0.29338907412082649 0.31122074648869158 0 -0.29931163299788283 0.3284004525268181 0 -0.27500567352553862 0.33294448145588112 0 -0.27533800780112999 0.30662296756351098 0 -0.27500567352553862 0.33294448145588112 0 -0.26054174465539143 0.31983185768903188 0 -0.27533800780112999 0.30662296756351098 0 -0.29338907412082649 0.31122074648869158 0 -0.27500567352553862 0.33294448145588112 0 -0.27500567352553862 0.33294448145588112 0 -0.26422204496738128 0.34422662397586928 0 -0.2744286397552273 0.34999396866973009 0 -0.27500567352553862 0.33294448145588112 0 -0.2506997140531938 0.33748851038494071 0 -0.26054174465539143 0.31983185768903188 0 -0.27500567352553862 0.33294448145588112 0 -0.2506997140531938 0.33748851038494071 0 -0.27500567352553862 0.33294448145588112 0 -0.2506997140531938 0.33748851038494071 0 -0.26422204496738128 0.34422662397586928 0 -0.2506997140531938 0.33748851038494071 0 -0.26054174465539143 0.31983185768903188 0 -0.24471205469856239 0.31870695221497819 0 -0.25695327319853212 0.30339637682584858 0 -0.26054174465539143 0.31983185768903188 0 -0.24471205469856239 0.31870695221497819 0 -0.25675415253556461 0.35647953539292548 0 -0.2648105344150275 0.38175007867984612 0 -0.24958722853894219 0.37715486734454118 0 -0.25675415253556461 0.35647953539292548 0 -0.2648105344150275 0.38175007867984612 0 -0.2506997140531938 0.33748851038494071 0 -0.25675415253556461 0.35647953539292548 0 -0.26422204496738128 0.34422662397586928 0 -0.25675415253556461 0.35647953539292548 0 -0.2744286397552273 0.34999396866973009 0 -0.2506997140531938 0.33748851038494071 0 -0.26422204496738128 0.34422662397586928 0 -0.25675415253556461 0.35647953539292548 0 -0.25675415253556461 0.35647953539292548 0 -0.2744286397552273 0.34999396866973009 0 -0.28289127941189812 0.36804153920782712 0 -0.25675415253556461 0.35647953539292548 0 -0.28289127941189812 0.36804153920782712 0 -0.25675415253556461 0.35647953539292548 0 -0.28289127941189812 0.36804153920782712 0 -0.2648105344150275 0.38175007867984612 0 -0.28289127941189812 0.36804153920782712 0 -0.29870175310366492 0.36937821359669631 0 -0.30902840628823169 0.37960354302272808 0 -0.28289127941189812 0.36804153920782712 0 -0.30902840628823169 0.37960354302272808 0 -0.28289127941189812 0.36804153920782712 0 -0.29455579000216991 0.34845625991374352 0 -0.29870175310366492 0.36937821359669631 0 -0.2744286397552273 0.34999396866973009 0 -0.28289127941189812 0.36804153920782712 0 -0.29455579000216991 0.34845625991374352 0 -0.27500567352553862 0.33294448145588112 0 -0.2744286397552273 0.34999396866973009 0 -0.29455579000216991 0.34845625991374352 0 -0.29455579000216991 0.34845625991374352 0 -0.29870175310366492 0.36937821359669631 0 -0.31813103990637609 0.35208854784195631 0 -0.29455579000216991 0.34845625991374352 0 -0.31813103990637609 0.35208854784195631 0 -0.31340759414538671 0.33652142370929761 0 -0.29870175310366492 0.36937821359669631 0 -0.32350104229545712 0.3707685901097631 0 -0.30902840628823169 0.37960354302272808 0 -0.29870175310366492 0.36937821359669631 0 -0.31813103990637609 0.35208854784195631 0 -0.29870175310366492 0.36937821359669631 0 -0.32350104229545712 0.3707685901097631 0 -0.31813103990637609 0.35208854784195631 0 -0.32350104229545712 0.3707685901097631 0 -0.34263594642669037 0.36490123257834811 0 -0.31813103990637609 0.35208854784195631 0 -0.34263594642669037 0.36490123257834811 0 -0.31813103990637609 0.35208854784195631 0 -0.34480579558955771 0.34837044602088418 0 -0.31813103990637609 0.35208854784195631 0 -0.33756032670908742 0.33479888208721609 0 -0.34480579558955771 0.34837044602088418 0 -0.31340759414538671 0.33652142370929761 0 -0.32361759247022698 0.32385642359775513 0 -0.33756032670908742 0.33479888208721609 0 -0.31813103990637609 0.35208854784195631 0 -0.31340759414538671 0.33652142370929761 0 -0.33756032670908742 0.33479888208721609 0 -0.31813103990637609 0.35208854784195631 0 -0.33756032670908742 0.33479888208721609 0 -0.32361759247022698 0.32385642359775513 0 -0.34792355194257119 0.3193123946686921 0 -0.32361759247022698 0.32385642359775513 0 -0.33756032670908742 0.33479888208721609 0 -0.34792355194257119 0.3193123946686921 0 -0.34087438034064232 0.31017067340284821 0 -0.33030597891027719 0.30630252665169022 0 -0.32361759247022698 0.32385642359775513 0 -0.34087438034064232 0.31017067340284821 0 -0.32361759247022698 0.32385642359775513 0 -0.34792355194257119 0.3193123946686921 0 -0.33756032670908742 0.33479888208721609 0 -0.35578296903805823 0.33615541399443088 0 -0.34480579558955771 0.34837044602088418 0 -0.33756032670908742 0.33479888208721609 0 -0.35578296903805823 0.33615541399443088 0 -0.3569896135117987 0.31750921633247597 0 -0.33756032670908742 0.33479888208721609 0 -0.34792355194257119 0.3193123946686921 0 -0.3569896135117987 0.31750921633247597 0 -0.33756032670908742 0.33479888208721609 0 -0.3569896135117987 0.31750921633247597 0 -0.35121792118577688 0.31218303447411899 0 -0.34087438034064232 0.31017067340284821 0 -0.34792355194257119 0.3193123946686921 0 -0.35121792118577688 0.31218303447411899 0 -0.34792355194257119 0.3193123946686921 0 -0.3569896135117987 0.31750921633247597 0 -0.3569896135117987 0.31750921633247597 0 -0.37421902014714081 0.31334453663989448 0 -0.37216952840959588 0.33199140843155461 0 -0.36361524639420872 0.30719803156048658 0 -0.3569896135117987 0.31750921633247597 0 -0.37421902014714081 0.31334453663989448 0 -0.35578296903805823 0.33615541399443088 0 -0.3569896135117987 0.31750921633247597 0 -0.37216952840959588 0.33199140843155461 0 -0.35578296903805823 0.33615541399443088 0 -0.37216952840959588 0.33199140843155461 0 -0.36991869586757609 0.35390815360246952 0 -0.37773667565265762 0.38031379905152007 0 -0.36991869586757609 0.35390815360246952 0 -0.35700341123141299 0.38147681499630332 0 -0.34263594642669037 0.36490123257834811 0 -0.36991869586757609 0.35390815360246952 0 -0.35700341123141299 0.38147681499630332 0 -0.35578296903805823 0.33615541399443088 0 -0.36991869586757609 0.35390815360246952 0 -0.34480579558955771 0.34837044602088418 0 -0.34263594642669037 0.36490123257834811 0 -0.36991869586757609 0.35390815360246952 0 -0.34480579558955771 0.34837044602088418 0 -0.36130266004089939 0.40272755065253008 0 -0.34464634315616838 0.40934703933921518 0 -0.33516553316456549 0.39116554683762911 0 -0.35700341123141299 0.38147681499630332 0 -0.36130266004089939 0.40272755065253008 0 -0.33516553316456549 0.39116554683762911 0 -0.36130266004089939 0.40272755065253008 0 -0.33516553316456549 0.39116554683762911 0 -0.34263594642669037 0.36490123257834811 0 -0.35700341123141299 0.38147681499630332 0 -0.33516553316456549 0.39116554683762911 0 -0.37829089860387111 0.39851116985859603 0 -0.37773667565265762 0.38031379905152007 0 -0.35700341123141299 0.38147681499630332 0 -0.37829089860387111 0.39851116985859603 0 -0.35700341123141299 0.38147681499630332 0 -0.36130266004089939 0.40272755065253008 0 -0.36130266004089939 0.40272755065253008 0 -0.37397534325810772 0.41880762755471429 0 -0.35591831446228811 0.42409544289801449 0 -0.37829089860387111 0.39851116985859603 0 -0.36130266004089939 0.40272755065253008 0 -0.37397534325810772 0.41880762755471429 0 -0.36806641804849238 0.43334933780555029 0 -0.35591831446228811 0.42409544289801449 0 -0.35891430246566808 0.44557430292040789 0 -0.37397534325810772 0.41880762755471429 0 -0.36806641804849238 0.43334933780555029 0 -0.35591831446228811 0.42409544289801449 0 -0.35591831446228811 0.42409544289801449 0 -0.34470137610478357 0.43336925671987903 0 -0.3311089266053388 0.42929942559586942 0 -0.35591831446228811 0.42409544289801449 0 -0.34470137610478357 0.43336925671987903 0 -0.35891430246566808 0.44557430292040789 0 -0.36130266004089939 0.40272755065253008 0 -0.35591831446228811 0.42409544289801449 0 -0.34464634315616838 0.40934703933921518 0 -0.35591831446228811 0.42409544289801449 0 -0.34464634315616838 0.40934703933921518 0 -0.33917233090875332 0.4195233310593503 0 -0.34464634315616838 0.40934703933921518 0 -0.33917233090875332 0.4195233310593503 0 -0.33205238061242381 0.41112813251001751 0 -0.33205238061242381 0.41112813251001751 0 -0.33213568970754759 0.42374661495363519 0 -0.32099909693765682 0.41586129759750462 0 -0.33917233090875332 0.4195233310593503 0 -0.33205238061242381 0.41112813251001751 0 -0.33213568970754759 0.42374661495363519 0 -0.35591831446228811 0.42409544289801449 0 -0.33917233090875332 0.4195233310593503 0 -0.3311089266053388 0.42929942559586942 0 -0.35591831446228811 0.42409544289801449 0 -0.3311089266053388 0.42929942559586942 0 -0.34470137610478357 0.43336925671987903 0 -0.33675000173548941 0.43710806586154682 0 -0.3311089266053388 0.42929942559586942 0 -0.33917233090875332 0.4195233310593503 0 -0.33213568970754759 0.42374661495363519 0 -0.3311089266053388 0.42929942559586942 0 -0.33675000173548941 0.43710806586154682 0 -0.3311089266053388 0.42929942559586942 0 -0.33101956939716581 0.44005512378330752 0 -0.33213568970754759 0.42374661495363519 0 -0.31822271928749218 0.42701910823735328 0 -0.30548610773012808 0.42079314205394253 0 -0.3311089266053388 0.42929942559586942 0 -0.31822271928749218 0.42701910823735328 0 -0.3062995387483895 0.43450340829372408 0 -0.33213568970754759 0.42374661495363519 0 -0.30548610773012808 0.42079314205394253 0 -0.3311089266053388 0.42929942559586942 0 -0.32195637682291278 0.43656180563179148 0 -0.3062995387483895 0.43450340829372408 0 -0.3311089266053388 0.42929942559586942 0 -0.3062995387483895 0.43450340829372408 0 -0.3311089266053388 0.42929942559586942 0 -0.32195637682291278 0.43656180563179148 0 -0.33101956939716581 0.44005512378330752 0 -0.33213568970754759 0.42374661495363519 0 -0.3311089266053388 0.42929942559586942 0 -0.31822271928749218 0.42701910823735328 0 -0.33213568970754759 0.42374661495363519 0 -0.32099909693765682 0.41586129759750462 0 -0.30548610773012808 0.42079314205394253 0 -0.33205238061242381 0.41112813251001751 0 -0.32099909693765682 0.41586129759750462 0 -0.31999830353363251 0.40620914731318841 0 -0.32099909693765682 0.41586129759750462 0 -0.31319327302690841 0.41255636779564592 0 -0.30548610773012808 0.42079314205394253 0 -0.32099909693765682 0.41586129759750462 0 -0.31319327302690841 0.41255636779564592 0 -0.31999830353363251 0.40620914731318841 0 -0.31319327302690841 0.41255636779564592 0 -0.31999830353363251 0.40620914731318841 0 -0.30628958390621641 0.40736188421794811 0 -0.31999830353363251 0.40620914731318841 0 -0.33516553316456549 0.39116554683762911 0 -0.31068652504597272 0.39545476917866479 0 -0.34464634315616838 0.40934703933921518 0 -0.33205238061242381 0.41112813251001751 0 -0.33516553316456549 0.39116554683762911 0 -0.33205238061242381 0.41112813251001751 0 -0.31999830353363251 0.40620914731318841 0 -0.33516553316456549 0.39116554683762911 0 -0.32350104229545712 0.3707685901097631 0 -0.34263594642669037 0.36490123257834811 0 -0.33516553316456549 0.39116554683762911 0 -0.32350104229545712 0.3707685901097631 0 -0.33516553316456549 0.39116554683762911 0 -0.30902840628823169 0.37960354302272808 0 -0.33516553316456549 0.39116554683762911 0 -0.30902840628823169 0.37960354302272808 0 -0.33516553316456549 0.39116554683762911 0 -0.30902840628823169 0.37960354302272808 0 -0.31068652504597272 0.39545476917866479 0 -0.30902840628823169 0.37960354302272808 0 -0.30162249621822418 0.38919228496997499 0 -0.31068652504597272 0.39545476917866479 0 -0.30902840628823169 0.37960354302272808 0 -0.30162249621822418 0.38919228496997499 0 -0.29171763305893539 0.38363564882632001 0 -0.30162249621822418 0.38919228496997499 0 -0.31068652504597272 0.39545476917866479 0 -0.29505742047975719 0.39807517885218741 0 -0.31068652504597272 0.39545476917866479 0 -0.29505742047975719 0.39807517885218741 0 -0.30628958390621641 0.40736188421794811 0 -0.31999830353363251 0.40620914731318841 0 -0.31068652504597272 0.39545476917866479 0 -0.30628958390621641 0.40736188421794811 0 -0.29505742047975719 0.39807517885218741 0 -0.29366360815134079 0.40991572298324841 0 -0.30628958390621641 0.40736188421794811 0 -0.29505742047975719 0.39807517885218741 0 -0.28432930392663031 0.40513054957497868 0 -0.29366360815134079 0.40991572298324841 0 -0.29505742047975719 0.39807517885218741 0 -0.29171763305893539 0.38363564882632001 0 -0.2812220489548547 0.39280155491844121 0 -0.29505742047975719 0.39807517885218741 0 -0.28432930392663031 0.40513054957497868 0 -0.2812220489548547 0.39280155491844121 0 -0.28289127941189812 0.36804153920782712 0 -0.30902840628823169 0.37960354302272808 0 -0.29171763305893539 0.38363564882632001 0 -0.30162249621822418 0.38919228496997499 0 -0.29505742047975719 0.39807517885218741 0 -0.29171763305893539 0.38363564882632001 0 -0.29171763305893539 0.38363564882632001 0 -0.2799465532700311 0.38124497913776628 0 -0.2812220489548547 0.39280155491844121 0 -0.28289127941189812 0.36804153920782712 0 -0.29171763305893539 0.38363564882632001 0 -0.2799465532700311 0.38124497913776628 0 -0.2799465532700311 0.38124497913776628 0 -0.2812220489548547 0.39280155491844121 0 -0.2648105344150275 0.38175007867984612 0 -0.28289127941189812 0.36804153920782712 0 -0.2799465532700311 0.38124497913776628 0 -0.2648105344150275 0.38175007867984612 0 -0.2648105344150275 0.38175007867984612 0 -0.27286691629449011 0.4070206219667668 0 -0.26228157125965529 0.40034408355902618 0 -0.2648105344150275 0.38175007867984612 0 -0.27286691629449011 0.4070206219667668 0 -0.2812220489548547 0.39280155491844121 0 -0.2648105344150275 0.38175007867984612 0 -0.27286691629449011 0.4070206219667668 0 -0.28432930392663031 0.40513054957497868 0 -0.2812220489548547 0.39280155491844121 0 -0.27286691629449011 0.4070206219667668 0 -0.26228157125965529 0.40034408355902618 0 -0.26466084823185632 0.40981978652031659 0 -0.27286691629449011 0.4070206219667668 0 -0.25307527481257103 0.39356610197596231 0 -0.26228157125965529 0.40034408355902618 0 -0.25599428254433182 0.40956382865223923 0 -0.25307527481257103 0.39356610197596231 0 -0.26228157125965529 0.40034408355902618 0 -0.2648105344150275 0.38175007867984612 0 -0.25307527481257103 0.39356610197596231 0 -0.25599428254433182 0.40956382865223923 0 -0.24685195821280759 0.40381006157254112 0 -0.25307527481257103 0.39356610197596231 0 -0.2648105344150275 0.38175007867984612 0 -0.24958722853894219 0.37715486734454118 0 -0.26406709887752322 0.429046521889622 0 -0.2530272053022451 0.43048034094606291 0 -0.25668076303449072 0.44491137368943379 0 -0.26406709887752322 0.429046521889622 0 -0.2530272053022451 0.43048034094606291 0 -0.25218694377528927 0.41488619625455619 0 -0.25218694377528927 0.41488619625455619 0 -0.26466084823185632 0.40981978652031659 0 -0.27883652575270862 0.41783966915424969 0 -0.26406709887752322 0.429046521889622 0 -0.25218694377528927 0.41488619625455619 0 -0.27883652575270862 0.41783966915424969 0 -0.25218694377528927 0.41488619625455619 0 -0.27883652575270862 0.41783966915424969 0 -0.25218694377528927 0.41488619625455619 0 -0.25599428254433182 0.40956382865223923 0 -0.26466084823185632 0.40981978652031659 0 -0.25218694377528927 0.41488619625455619 0 -0.25599428254433182 0.40956382865223923 0 -0.24685195821280759 0.40381006157254112 0 -0.25218694377528927 0.41488619625455619 0 -0.25599428254433182 0.40956382865223923 0 -0.26228157125965529 0.40034408355902618 0 -0.25599428254433182 0.40956382865223923 0 -0.26466084823185632 0.40981978652031659 0 -0.26466084823185632 0.40981978652031659 0 -0.27286691629449011 0.4070206219667668 0 -0.27883652575270862 0.41783966915424969 0 -0.28432930392663031 0.40513054957497868 0 -0.27286691629449011 0.4070206219667668 0 -0.27883652575270862 0.41783966915424969 0 -0.26406709887752322 0.429046521889622 0 -0.27883652575270862 0.41783966915424969 0 -0.28149015089144008 0.43970739099157902 0 -0.27883652575270862 0.41783966915424969 0 -0.29126248777169522 0.42742665991345508 0 -0.28149015089144008 0.43970739099157902 0 -0.27883652575270862 0.41783966915424969 0 -0.29126248777169522 0.42742665991345508 0 -0.30548610773012808 0.42079314205394253 0 -0.29126248777169522 0.42742665991345508 0 -0.3062995387483895 0.43450340829372408 0 -0.28149015089144008 0.43970739099157902 0 -0.3062995387483895 0.43450340829372408 0 -0.28149015089144008 0.43970739099157902 0 -0.27883652575270862 0.41783966915424969 0 -0.29366360815134079 0.40991572298324841 0 -0.30548610773012808 0.42079314205394253 0 -0.27883652575270862 0.41783966915424969 0 -0.30548610773012808 0.42079314205394253 0 -0.28432930392663031 0.40513054957497868 0 -0.27883652575270862 0.41783966915424969 0 -0.29366360815134079 0.40991572298324841 0 -0.29366360815134079 0.40991572298324841 0 -0.30548610773012808 0.42079314205394253 0 -0.30628958390621641 0.40736188421794811 0 -0.31319327302690841 0.41255636779564592 0 -0.30548610773012808 0.42079314205394253 0 -0.30628958390621641 0.40736188421794811 0 -0.29126248777169522 0.42742665991345508 0 -0.30548610773012808 0.42079314205394253 0 -0.3062995387483895 0.43450340829372408 0 -0.31822271928749218 0.42701910823735328 0 -0.30548610773012808 0.42079314205394253 0 -0.3062995387483895 0.43450340829372408 0 -0.3062995387483895 0.43450340829372408 0 -0.30893232191857539 0.45108950672209819 0 -0.29376708765556597 0.45020549370213042 0 -0.3062995387483895 0.43450340829372408 0 -0.30893232191857539 0.45108950672209819 0 -0.31939747254075712 0.44238926485426489 0 -0.30893232191857539 0.45108950672209819 0 -0.29594725730765881 0.4658208194471955 0 -0.31403575876508089 0.47000615116718691 0 -0.30893232191857539 0.45108950672209819 0 -0.29594725730765881 0.4658208194471955 0 -0.29376708765556597 0.45020549370213042 0 -0.29594725730765881 0.4658208194471955 0 -0.29376708765556597 0.45020549370213042 0 -0.2761661694117663 0.45990634305605482 0 -0.29594725730765881 0.4658208194471955 0 -0.2761661694117663 0.45990634305605482 0 -0.28294152888417079 0.48050362154049359 0 -0.3062995387483895 0.43450340829372408 0 -0.28149015089144008 0.43970739099157902 0 -0.29376708765556597 0.45020549370213042 0 -0.28149015089144008 0.43970739099157902 0 -0.29376708765556597 0.45020549370213042 0 -0.2761661694117663 0.45990634305605482 0 -0.28149015089144008 0.43970739099157902 0 -0.25668076303449072 0.44491137368943379 0 -0.28149015089144008 0.43970739099157902 0 -0.2761661694117663 0.45990634305605482 0 -0.25668076303449072 0.44491137368943379 0 -0.26406709887752322 0.429046521889622 0 -0.28149015089144008 0.43970739099157902 0 -0.25668076303449072 0.44491137368943379 0 -0.2761661694117663 0.45990634305605482 0 -0.25731465816521848 0.46317312637206798 0 -0.26473134650626112 0.47956608676762941 0 -0.25731465816521848 0.46317312637206798 0 -0.25668076303449072 0.44491137368943379 0 -0.2447374436911583 0.45710153801565578 0 -0.2761661694117663 0.45990634305605482 0 -0.25731465816521848 0.46317312637206798 0 -0.25668076303449072 0.44491137368943379 0 -0.26473134650626112 0.47956608676762941 0 -0.2696780798323144 0.5 0 -0.24355240470502881 0.5 0 -0.26473134650626112 0.47956608676762941 0 -0.24425756818241609 0.47438029033156609 0 -0.24355240470502881 0.5 0 -0.25731465816521848 0.46317312637206798 0 -0.26473134650626112 0.47956608676762941 0 -0.24425756818241609 0.47438029033156609 0 -0.2761661694117663 0.45990634305605482 0 -0.26473134650626112 0.47956608676762941 0 -0.28294152888417079 0.48050362154049359 0 -0.26473134650626112 0.47956608676762941 0 -0.2696780798323144 0.5 0 -0.28294152888417079 0.48050362154049359 0 -0.2958037549596001 0.50000000000000089 0 -0.28294152888417079 0.48050362154049359 0 -0.30070673204778742 0.48091090827958283 0 -0.2696780798323144 0.5 0 -0.2958037549596001 0.50000000000000089 0 -0.28294152888417079 0.48050362154049359 0 -0.29594725730765881 0.4658208194471955 0 -0.28294152888417079 0.48050362154049359 0 -0.30070673204778742 0.48091090827958283 0 -0.30070673204778742 0.48091090827958283 0 -0.31531990225288897 0.48852808038863249 0 -0.31403575876508089 0.47000615116718691 0 -0.29594725730765881 0.4658208194471955 0 -0.30070673204778742 0.48091090827958283 0 -0.31403575876508089 0.47000615116718691 0 -0.2958037549596001 0.50000000000000089 0 -0.31531990225288897 0.48852808038863249 0 -0.32090508119016098 0.5 0 -0.2958037549596001 0.50000000000000089 0 -0.30070673204778742 0.48091090827958283 0 -0.31531990225288897 0.48852808038863249 0 -0.2958037549596001 0.50000000000000089 0 -0.31531990225288897 0.48852808038863249 0 -0.31531990225288897 0.48852808038863249 0 -0.33339009171789619 0.49066731261805557 0 -0.33483604954617752 0.47705616077726321 0 -0.31531990225288897 0.48852808038863249 0 -0.32090508119016098 0.5 0 -0.33339009171789619 0.49066731261805557 0 -0.33339009171789619 0.49066731261805557 0 -0.34600640742072208 0.49999999999999961 0 -0.34975171300444058 0.48524840351500259 0 -0.32090508119016098 0.5 0 -0.33339009171789619 0.49066731261805557 0 -0.34600640742072208 0.49999999999999961 0 -0.33339009171789619 0.49066731261805557 0 -0.33483604954617752 0.47705616077726321 0 -0.34975171300444058 0.48524840351500259 0 -0.31531990225288897 0.48852808038863249 0 -0.33483604954617752 0.47705616077726321 0 -0.31403575876508089 0.47000615116718691 0 -0.31531990225288897 0.48852808038863249 0 -0.33483604954617752 0.47705616077726321 0 -0.33483604954617752 0.47705616077726321 0 -0.31403575876508089 0.47000615116718691 0 -0.32798453048392667 0.46518499103311423 0 -0.30893232191857539 0.45108950672209819 0 -0.31403575876508089 0.47000615116718691 0 -0.32479516325953772 0.45337386168672628 0 -0.31403575876508089 0.47000615116718691 0 -0.32479516325953772 0.45337386168672628 0 -0.32798453048392667 0.46518499103311423 0 -0.32195637682291278 0.43656180563179148 0 -0.3062995387483895 0.43450340829372408 0 -0.31939747254075712 0.44238926485426489 0 -0.30893232191857539 0.45108950672209819 0 -0.32479516325953772 0.45337386168672628 0 -0.31939747254075712 0.44238926485426489 0 -0.32479516325953772 0.45337386168672628 0 -0.31939747254075712 0.44238926485426489 0 -0.33101956939716581 0.44005512378330752 0 -0.32195637682291278 0.43656180563179148 0 -0.31939747254075712 0.44238926485426489 0 -0.33101956939716581 0.44005512378330752 0 -0.32479516325953772 0.45337386168672628 0 -0.33101956939716581 0.44005512378330752 0 -0.34017013483466962 0.44570845734713099 0 -0.33675000173548941 0.43710806586154682 0 -0.33101956939716581 0.44005512378330752 0 -0.34017013483466962 0.44570845734713099 0 -0.34470137610478357 0.43336925671987903 0 -0.33675000173548941 0.43710806586154682 0 -0.34017013483466962 0.44570845734713099 0 -0.33483604954617752 0.47705616077726321 0 -0.32798453048392667 0.46518499103311423 0 -0.33827115036491101 0.4603037905012804 0 -0.33483604954617752 0.47705616077726321 0 -0.33827115036491101 0.4603037905012804 0 -0.35435219683946612 0.46558424116589398 0 -0.32479516325953772 0.45337386168672628 0 -0.34017013483466962 0.44570845734713099 0 -0.33827115036491101 0.4603037905012804 0 -0.32479516325953772 0.45337386168672628 0 -0.32798453048392667 0.46518499103311423 0 -0.33827115036491101 0.4603037905012804 0 -0.34017013483466962 0.44570845734713099 0 -0.33827115036491101 0.4603037905012804 0 -0.34792694612617858 0.45429269798367827 0 -0.33827115036491101 0.4603037905012804 0 -0.34792694612617858 0.45429269798367827 0 -0.35435219683946612 0.46558424116589398 0 -0.34792694612617858 0.45429269798367827 0 -0.35435219683946612 0.46558424116589398 0 -0.35891430246566808 0.44557430292040789 0 -0.34470137610478357 0.43336925671987903 0 -0.34017013483466962 0.44570845734713099 0 -0.35891430246566808 0.44557430292040789 0 -0.34017013483466962 0.44570845734713099 0 -0.34792694612617858 0.45429269798367827 0 -0.35891430246566808 0.44557430292040789 0 -0.36806641804849238 0.43334933780555029 0 -0.35891430246566808 0.44557430292040789 0 -0.37472454688268081 0.44709271119523231 0 -0.35891430246566808 0.44557430292040789 0 -0.37472454688268081 0.44709271119523231 0 -0.3738683441327546 0.45411232155452469 0 -0.35891430246566808 0.44557430292040789 0 -0.37472454688268081 0.44709271119523231 0 -0.37700373276998561 0.43884067406290689 0 -0.36806641804849238 0.43334933780555029 0 -0.37472454688268081 0.44709271119523231 0 -0.35435219683946612 0.46558424116589398 0 -0.3738683441327546 0.45411232155452469 0 -0.37235523951037502 0.46328119063658968 0 -0.35435219683946612 0.46558424116589398 0 -0.37235523951037502 0.46328119063658968 0 -0.3689791749446879 0.47237371066638822 0 -0.35435219683946612 0.46558424116589398 0 -0.3738683441327546 0.45411232155452469 0 -0.35435219683946612 0.46558424116589398 0 -0.35891430246566808 0.44557430292040789 0 -0.3738683441327546 0.45411232155452469 0 -0.37770350472949238 0.45811174051499232 0 -0.3738683441327546 0.45411232155452469 0 -0.37235523951037502 0.46328119063658968 0 -0.37838838901997329 0.467631118381721 0 -0.37235523951037502 0.46328119063658968 0 -0.3689791749446879 0.47237371066638822 0 -0.37813313704060308 0.47327410171133599 0 -0.3689791749446879 0.47237371066638822 0 -0.37328935920566653 0.47553633618139041 0 -0.3689791749446879 0.47237371066638822 0 -0.37328935920566653 0.47553633618139041 0 -0.3722606722874936 0.48069298163476581 0 -0.38228738580474342 0.48148068098000291 0 -0.3722606722874936 0.48069298163476581 0 -0.36414689661273258 0.49074034049000098 0 -0.35435219683946612 0.46558424116589398 0 -0.3689791749446879 0.47237371066638822 0 -0.36226032353549609 0.48017096162437761 0 -0.36226032353549609 0.48017096162437761 0 -0.3722606722874936 0.48069298163476581 0 -0.36414689661273258 0.49074034049000098 0 -0.3689791749446879 0.47237371066638822 0 -0.36226032353549609 0.48017096162437761 0 -0.3722606722874936 0.48069298163476581 0 -0.37762000919558819 0.47747799183937178 0 -0.37328935920566653 0.47553633618139041 0 -0.3722606722874936 0.48069298163476581 0 -0.38228738580474342 0.48148068098000291 0 -0.36414689661273258 0.49074034049000098 0 -0.38249331015985372 0.48381491774717239 0 -0.36372013335192571 0.49999999999999828 0 -0.36414689661273258 0.49074034049000098 0 -0.38249331015985372 0.48381491774717239 0 -0.36372013335192571 0.49999999999999828 0 -0.36414689661273258 0.49074034049000098 0 -0.34600640742072208 0.49999999999999961 0 -0.36372013335192571 0.49999999999999828 0 -0.36414689661273258 0.49074034049000098 0 -0.34600640742072208 0.49999999999999961 0 -0.36414689661273258 0.49074034049000098 0 -0.34600640742072208 0.49999999999999961 0 -0.34975171300444058 0.48524840351500259 0 -0.36226032353549609 0.48017096162437761 0 -0.36414689661273258 0.49074034049000098 0 -0.34975171300444058 0.48524840351500259 0 -0.33483604954617752 0.47705616077726321 0 -0.35435219683946612 0.46558424116589398 0 -0.34975171300444058 0.48524840351500259 0 -0.33483604954617752 0.47705616077726321 0 -0.35435219683946612 0.46558424116589398 0 -0.35435219683946612 0.46558424116589398 0 -0.36226032353549609 0.48017096162437761 0 -0.34975171300444058 0.48524840351500259 0 -0.15189979612442439 0.48134546630722552 0 -0.14452412038101711 0.48908229459621139 0 -0.1406124123077844 0.47618323120369987 0 -0.15189979612442439 0.48134546630722552 0 -0.1406124123077844 0.47618323120369987 0 -0.15283099682390189 0.46621378490657189 0 -0.15189979612442439 0.48134546630722552 0 -0.15283099682390189 0.46621378490657189 0 -0.16212004583104361 0.47741497039675052 0 -0.15012565102655001 0.49999999999999828 0 -0.14452412038101711 0.48908229459621139 0 -0.1624389778852382 0.500000000000002 0 -0.14452412038101711 0.48908229459621139 0 -0.1624389778852382 0.500000000000002 0 -0.15189979612442439 0.48134546630722552 0 -0.14452412038101711 0.48908229459621139 0 -0.1624389778852382 0.500000000000002 0 -0.15012565102655001 0.49999999999999828 0 -0.13836745695167391 0.48908229459620811 0 -0.15012565102655001 0.49999999999999828 0 -0.14452412038101711 0.48908229459621139 0 -0.13836745695167391 0.48908229459620811 0 -0.14452412038101711 0.48908229459621139 0 -0.13836745695167391 0.48908229459620811 0 -0.126609262876797 0.47816458919241911 0 -0.15012565102655001 0.49999999999999828 0 -0.13836745695167391 0.48908229459620811 0 -0.12449786467765619 0.5 0 -0.13836745695167391 0.48908229459620811 0 -0.12643415369641731 0.4885716382018519 0 -0.12449786467765619 0.5 0 -0.13836745695167391 0.48908229459620811 0 -0.12643415369641731 0.4885716382018519 0 -0.126609262876797 0.47816458919241911 0 -0.14452412038101711 0.48908229459621139 0 -0.126609262876797 0.47816458919241911 0 -0.1406124123077844 0.47618323120369987 0 -0.13836745695167391 0.48908229459620811 0 -0.126609262876797 0.47816458919241911 0 -0.14452412038101711 0.48908229459621139 0 -0.126609262876797 0.47816458919241911 0 -0.126609262876797 0.47816458919241911 0 -0.1406124123077844 0.47618323120369987 0 -0.13236509211910141 0.4677679840482003 0 -0.126609262876797 0.47816458919241911 0 -0.12528375837843941 0.46367160220168629 0 -0.13236509211910141 0.4677679840482003 0 -0.12528375837843941 0.46367160220168629 0 -0.13236509211910141 0.4677679840482003 0 -0.1369549349133847 0.45305251359499621 0 -0.1406124123077844 0.47618323120369987 0 -0.1369549349133847 0.45305251359499621 0 -0.12528375837843941 0.46367160220168629 0 -0.1369549349133847 0.45305251359499621 0 -0.1207036698004581 0.45042084405529748 0 -0.1406124123077844 0.47618323120369987 0 -0.13236509211910141 0.4677679840482003 0 -0.1369549349133847 0.45305251359499621 0 -0.1369549349133847 0.45305251359499621 0 -0.1490275723185038 0.43410242606269189 0 -0.13329745751898489 0.42992179598629238 0 -0.1369549349133847 0.45305251359499621 0 -0.13329745751898489 0.42992179598629238 0 -0.1207036698004581 0.45042084405529748 0 -0.1369549349133847 0.45305251359499621 0 -0.13329745751898489 0.42992179598629238 0 -0.1369549349133847 0.45305251359499621 0 -0.16051360251960919 0.44712838002791538 0 -0.1490275723185038 0.43410242606269189 0 -0.1406124123077844 0.47618323120369987 0 -0.1369549349133847 0.45305251359499621 0 -0.15283099682390189 0.46621378490657189 0 -0.1369549349133847 0.45305251359499621 0 -0.15283099682390189 0.46621378490657189 0 -0.16051360251960919 0.44712838002791538 0 -0.16681558267369451 0.46459397558746829 0 -0.16051360251960919 0.44712838002791538 0 -0.1805124754931986 0.45777539649202492 0 -0.15283099682390189 0.46621378490657189 0 -0.16681558267369451 0.46459397558746829 0 -0.16051360251960919 0.44712838002791538 0 -0.1805124754931986 0.45777539649202492 0 -0.19779130582109139 0.43809400255313752 0 -0.18092444409480571 0.43462215297363899 0 -0.1805124754931986 0.45777539649202492 0 -0.18092444409480571 0.43462215297363899 0 -0.16051360251960919 0.44712838002791538 0 -0.1805124754931986 0.45777539649202492 0 -0.18092444409480571 0.43462215297363899 0 -0.1805124754931986 0.45777539649202492 0 -0.18010050689159149 0.48092864001041069 0 -0.19269367512548199 0.4672624285335833 0 -0.16681558267369451 0.46459397558746829 0 -0.1805124754931986 0.45777539649202492 0 -0.18010050689159149 0.48092864001041069 0 -0.1805124754931986 0.45777539649202492 0 -0.18010050689159149 0.48092864001041069 0 -0.16681558267369451 0.46459397558746829 0 -0.18010050689159149 0.48092864001041069 0 -0.16212004583104361 0.47741497039675052 0 -0.15283099682390189 0.46621378490657189 0 -0.16681558267369451 0.46459397558746829 0 -0.16212004583104361 0.47741497039675052 0 -0.18010050689159149 0.48092864001041069 0 -0.16212004583104361 0.47741497039675052 0 -0.1624389778852382 0.500000000000002 0 -0.15189979612442439 0.48134546630722552 0 -0.16212004583104361 0.47741497039675052 0 -0.1624389778852382 0.500000000000002 0 -0.18010050689159149 0.48092864001041069 0 -0.1624389778852382 0.500000000000002 0 -0.19130105445045739 0.49999999999999889 0 -0.19130105445045739 0.49999999999999889 0 -0.20873107085926171 0.47563417382336087 0 -0.18010050689159149 0.48092864001041069 0 -0.19130105445045739 0.49999999999999889 0 -0.20873107085926171 0.47563417382336087 0 -0.18010050689159149 0.48092864001041069 0 -0.20873107085926171 0.47563417382336087 0 -0.19269367512548199 0.4672624285335833 0 -0.20873107085926171 0.47563417382336087 0 -0.21808000300733441 0.49513851236231898 0 -0.22212054513770091 0.47320343000452142 0 -0.19130105445045739 0.49999999999999889 0 -0.21808000300733441 0.49513851236231898 0 -0.21742672957774309 0.5 0 -0.19130105445045739 0.49999999999999889 0 -0.20873107085926171 0.47563417382336087 0 -0.21808000300733441 0.49513851236231898 0 -0.21742672957774309 0.5 0 -0.23134320960785851 0.48640770562348379 0 -0.24355240470502881 0.5 0 -0.21808000300733441 0.49513851236231898 0 -0.21742672957774309 0.5 0 -0.23134320960785851 0.48640770562348379 0 -0.21808000300733441 0.49513851236231898 0 -0.23134320960785851 0.48640770562348379 0 -0.22212054513770091 0.47320343000452142 0 -0.21808000300733441 0.49513851236231898 0 -0.22212054513770091 0.47320343000452142 0 -0.22212054513770091 0.47320343000452142 0 -0.23270954102924141 0.47453374095353312 0 -0.23311684118899009 0.46414353785456119 0 -0.23134320960785851 0.48640770562348379 0 -0.22212054513770091 0.47320343000452142 0 -0.23270954102924141 0.47453374095353312 0 -0.23134320960785851 0.48640770562348379 0 -0.23270954102924141 0.47453374095353312 0 -0.24425756818241609 0.47438029033156609 0 -0.23270954102924141 0.47453374095353312 0 -0.24425756818241609 0.47438029033156609 0 -0.23311684118899009 0.46414353785456119 0 -0.23134320960785851 0.48640770562348379 0 -0.24425756818241609 0.47438029033156609 0 -0.24355240470502881 0.5 0 -0.25668076303449072 0.44491137368943379 0 -0.23187137517754119 0.45011535638728872 0 -0.23917401552167769 0.43307727195063972 0 -0.25668076303449072 0.44491137368943379 0 -0.2447374436911583 0.45710153801565578 0 -0.23187137517754119 0.45011535638728872 0 -0.25668076303449072 0.44491137368943379 0 -0.23187137517754119 0.45011535638728872 0 -0.25731465816521848 0.46317312637206798 0 -0.24425756818241609 0.47438029033156609 0 -0.2447374436911583 0.45710153801565578 0 -0.24425756818241609 0.47438029033156609 0 -0.2447374436911583 0.45710153801565578 0 -0.23311684118899009 0.46414353785456119 0 -0.2447374436911583 0.45710153801565578 0 -0.23648925311465521 0.4569513212941379 0 -0.23187137517754119 0.45011535638728872 0 -0.2447374436911583 0.45710153801565578 0 -0.23648925311465521 0.4569513212941379 0 -0.23311684118899009 0.46414353785456119 0 -0.23648925311465521 0.4569513212941379 0 -0.23311684118899009 0.46414353785456119 0 -0.2261610872680668 0.45126834764672369 0 -0.20873107085926171 0.47563417382336087 0 -0.22212054513770091 0.47320343000452142 0 -0.2261610872680668 0.45126834764672369 0 -0.22212054513770091 0.47320343000452142 0 -0.2261610872680668 0.45126834764672369 0 -0.22212054513770091 0.47320343000452142 0 -0.23311684118899009 0.46414353785456119 0 -0.2261610872680668 0.45126834764672369 0 -0.2261610872680668 0.45126834764672369 0 -0.23187137517754119 0.45011535638728872 0 -0.23917401552167769 0.43307727195063972 0 -0.2261610872680668 0.45126834764672369 0 -0.21352898698200201 0.43899479941142822 0 -0.22970526793187679 0.43202788628206951 0 -0.2261610872680668 0.45126834764672369 0 -0.22970526793187679 0.43202788628206951 0 -0.2261610872680668 0.45126834764672369 0 -0.22970526793187679 0.43202788628206951 0 -0.23917401552167769 0.43307727195063972 0 -0.2261610872680668 0.45126834764672369 0 -0.23917401552167769 0.43307727195063972 0 -0.23648925311465521 0.4569513212941379 0 -0.2261610872680668 0.45126834764672369 0 -0.23187137517754119 0.45011535638728872 0 -0.21352898698200201 0.43899479941142822 0 -0.20143064725787621 0.45471150380853642 0 -0.19779130582109139 0.43809400255313752 0 -0.21352898698200201 0.43899479941142822 0 -0.21246294809180161 0.45515220617251217 0 -0.20143064725787621 0.45471150380853642 0 -0.2261610872680668 0.45126834764672369 0 -0.21352898698200201 0.43899479941142822 0 -0.21246294809180161 0.45515220617251217 0 -0.20873107085926171 0.47563417382336087 0 -0.2261610872680668 0.45126834764672369 0 -0.20873107085926171 0.47563417382336087 0 -0.2261610872680668 0.45126834764672369 0 -0.21246294809180161 0.45515220617251217 0 -0.20873107085926171 0.47563417382336087 0 -0.21246294809180161 0.45515220617251217 0 -0.20143064725787621 0.45471150380853642 0 -0.20873107085926171 0.47563417382336087 0 -0.19269367512548199 0.4672624285335833 0 -0.20143064725787621 0.45471150380853642 0 -0.1805124754931986 0.45777539649202492 0 -0.19269367512548199 0.4672624285335833 0 -0.20143064725787621 0.45471150380853642 0 -0.1805124754931986 0.45777539649202492 0 -0.20143064725787621 0.45471150380853642 0 -0.19779130582109139 0.43809400255313752 0 -0.19779130582109139 0.43809400255313752 0 -0.19553360421241661 0.41924015985089602 0 -0.18092444409480571 0.43462215297363899 0 -0.20888160417952259 0.41008682840644378 0 -0.1845137597633561 0.40738623189547207 0 -0.19553360421241661 0.41924015985089602 0 -0.20888160417952259 0.41008682840644378 0 -0.1845137597633561 0.40738623189547207 0 -0.19553360421241661 0.41924015985089602 0 -0.20888160417952259 0.41008682840644378 0 -0.21652400048768061 0.4236857536312148 0 -0.21352898698200201 0.43899479941142822 0 -0.19779130582109139 0.43809400255313752 0 -0.21652400048768061 0.4236857536312148 0 -0.19779130582109139 0.43809400255313752 0 -0.19553360421241661 0.41924015985089602 0 -0.21652400048768061 0.4236857536312148 0 -0.22970526793187679 0.43202788628206951 0 -0.23324944859568919 0.41278742491741549 0 -0.21652400048768061 0.4236857536312148 0 -0.22970526793187679 0.43202788628206951 0 -0.23324944859568919 0.41278742491741549 0 -0.22970526793187679 0.43202788628206951 0 -0.23324944859568919 0.41278742491741549 0 -0.23917401552167769 0.43307727195063972 0 -0.21352898698200201 0.43899479941142822 0 -0.21652400048768061 0.4236857536312148 0 -0.22970526793187679 0.43202788628206951 0 -0.20888160417952259 0.41008682840644378 0 -0.21652400048768061 0.4236857536312148 0 -0.23324944859568919 0.41278742491741549 0 -0.20888160417952259 0.41008682840644378 0 -0.23324944859568919 0.41278742491741549 0 -0.25218694377528927 0.41488619625455619 0 -0.23324944859568919 0.41278742491741549 0 -0.24685195821280759 0.40381006157254112 0 -0.25218694377528927 0.41488619625455619 0 -0.23324944859568919 0.41278742491741549 0 -0.25218694377528927 0.41488619625455619 0 -0.23324944859568919 0.41278742491741549 0 -0.23917401552167769 0.43307727195063972 0 -0.2530272053022451 0.43048034094606291 0 -0.25668076303449072 0.44491137368943379 0 -0.23917401552167769 0.43307727195063972 0 -0.25218694377528927 0.41488619625455619 0 -0.23917401552167769 0.43307727195063972 0 -0.2530272053022451 0.43048034094606291 0 -0.25218694377528927 0.41488619625455619 0 -0.23917401552167769 0.43307727195063972 0 -0.2378390776979645 0.38787148811932848 0 -0.24958722853894219 0.37715486734454118 0 -0.2424287068002427 0.36295555132124202 0 -0.2378390776979645 0.38787148811932848 0 -0.2424287068002427 0.36295555132124202 0 -0.25307527481257103 0.39356610197596231 0 -0.2378390776979645 0.38787148811932848 0 -0.24958722853894219 0.37715486734454118 0 -0.23324944859568919 0.41278742491741549 0 -0.2378390776979645 0.38787148811932848 0 -0.25307527481257103 0.39356610197596231 0 -0.2378390776979645 0.38787148811932848 0 -0.24685195821280759 0.40381006157254112 0 -0.23324944859568919 0.41278742491741549 0 -0.2378390776979645 0.38787148811932848 0 -0.24685195821280759 0.40381006157254112 0 -0.23324944859568919 0.41278742491741549 0 -0.2378390776979645 0.38787148811932848 0 -0.21946296890936171 0.39169468287403619 0 -0.20888160417952259 0.41008682840644378 0 -0.23324944859568919 0.41278742491741549 0 -0.21946296890936171 0.39169468287403619 0 -0.21946296890936171 0.39169468287403619 0 -0.2097676205523582 0.37356691215004062 0 -0.22869681069220629 0.37285276684306451 0 -0.2378390776979645 0.38787148811932848 0 -0.21946296890936171 0.39169468287403619 0 -0.22869681069220629 0.37285276684306451 0 -0.21946296890936171 0.39169468287403619 0 -0.19867948067101121 0.39234095642704592 0 -0.2097676205523582 0.37356691215004062 0 -0.20888160417952259 0.41008682840644378 0 -0.21946296890936171 0.39169468287403619 0 -0.19867948067101121 0.39234095642704592 0 -0.19867948067101121 0.39234095642704592 0 -0.1817483812980199 0.38831566593686723 0 -0.1845137597633561 0.40738623189547207 0 -0.20888160417952259 0.41008682840644378 0 -0.19867948067101121 0.39234095642704592 0 -0.1845137597633561 0.40738623189547207 0 -0.19867948067101121 0.39234095642704592 0 -0.1905033644153154 0.37516413291008938 0 -0.1817483812980199 0.38831566593686723 0 -0.19867948067101121 0.39234095642704592 0 -0.1905033644153154 0.37516413291008938 0 -0.2097676205523582 0.37356691215004062 0 -0.1817483812980199 0.38831566593686723 0 -0.16452725361785231 0.38608739583172808 0 -0.17395587444253441 0.37445324585220102 0 -0.1905033644153154 0.37516413291008938 0 -0.1817483812980199 0.38831566593686723 0 -0.17395587444253441 0.37445324585220102 0 -0.16452725361785231 0.38608739583172808 0 -0.14794932033142291 0.38527932368603401 0 -0.1567045483412946 0.36995199305179149 0 -0.16452725361785231 0.38608739583172808 0 -0.1567045483412946 0.36995199305179149 0 -0.17395587444253441 0.37445324585220102 0 -0.16452725361785231 0.38608739583172808 0 -0.1566239649370787 0.39949741509148878 0 -0.14794932033142291 0.38527932368603401 0 -0.1817483812980199 0.38831566593686723 0 -0.16452725361785231 0.38608739583172808 0 -0.169167486340149 0.39867288987954907 0 -0.16452725361785231 0.38608739583172808 0 -0.1566239649370787 0.39949741509148878 0 -0.169167486340149 0.39867288987954907 0 -0.1566239649370787 0.39949741509148878 0 -0.169167486340149 0.39867288987954907 0 -0.16741889564116541 0.41280825669003179 0 -0.169167486340149 0.39867288987954907 0 -0.17491779399393681 0.40281643049042531 0 -0.16741889564116541 0.41280825669003179 0 -0.1817483812980199 0.38831566593686723 0 -0.1845137597633561 0.40738623189547207 0 -0.18133641269641279 0.41146890945525311 0 -0.1817483812980199 0.38831566593686723 0 -0.17491779399393681 0.40281643049042531 0 -0.18133641269641279 0.41146890945525311 0 -0.1817483812980199 0.38831566593686723 0 -0.18133641269641279 0.41146890945525311 0 -0.1817483812980199 0.38831566593686723 0 -0.169167486340149 0.39867288987954907 0 -0.17491779399393681 0.40281643049042531 0 -0.19553360421241661 0.41924015985089602 0 -0.1845137597633561 0.40738623189547207 0 -0.18133641269641279 0.41146890945525311 0 -0.18133641269641279 0.41146890945525311 0 -0.18092444409480571 0.43462215297363899 0 -0.16741889564116541 0.41280825669003179 0 -0.19553360421241661 0.41924015985089602 0 -0.18133641269641279 0.41146890945525311 0 -0.18092444409480571 0.43462215297363899 0 -0.17491779399393681 0.40281643049042531 0 -0.18133641269641279 0.41146890945525311 0 -0.16741889564116541 0.41280825669003179 0 -0.18133641269641279 0.41146890945525311 0 -0.18092444409480571 0.43462215297363899 0 -0.16051360251960919 0.44712838002791538 0 -0.18092444409480571 0.43462215297363899 0 -0.1607419470958725 0.4265584505858715 0 -0.18092444409480571 0.43462215297363899 0 -0.1607419470958725 0.4265584505858715 0 -0.16741889564116541 0.41280825669003179 0 -0.16051360251960919 0.44712838002791538 0 -0.1607419470958725 0.4265584505858715 0 -0.1490275723185038 0.43410242606269189 0 -0.1566239649370787 0.39949741509148878 0 -0.16741889564116541 0.41280825669003179 0 -0.14857468736981411 0.41566729662306218 0 -0.1607419470958725 0.4265584505858715 0 -0.16741889564116541 0.41280825669003179 0 -0.14857468736981411 0.41566729662306218 0 -0.1607419470958725 0.4265584505858715 0 -0.14857468736981411 0.41566729662306218 0 -0.1490275723185038 0.43410242606269189 0 -0.14857468736981411 0.41566729662306218 0 -0.1490275723185038 0.43410242606269189 0 -0.13329745751898489 0.42992179598629238 0 -0.13329745751898489 0.42992179598629238 0 -0.12963998012458519 0.40679107837758849 0 -0.14857468736981411 0.41566729662306218 0 -0.12963998012458519 0.40679107837758849 0 -0.14175409109861731 0.39817909490941172 0 -0.14857468736981411 0.41566729662306218 0 -0.13329745751898489 0.42992179598629238 0 -0.12963998012458519 0.40679107837758849 0 -0.13329745751898489 0.42992179598629238 0 -0.12963998012458519 0.40679107837758849 0 -0.1140404443718646 0.41965759823646992 0 -0.12963998012458519 0.40679107837758849 0 -0.12598250273018541 0.38366036076888471 0 -0.14175409109861731 0.39817909490941172 0 -0.12963998012458519 0.40679107837758849 0 -0.12598250273018541 0.38366036076888471 0 -0.12598250273018541 0.38366036076888471 0 -0.14794932033142291 0.38527932368603401 0 -0.13956372413551921 0.37158416358741331 0 -0.12598250273018541 0.38366036076888471 0 -0.14794932033142291 0.38527932368603401 0 -0.14175409109861731 0.39817909490941172 0 -0.14794932033142291 0.38527932368603401 0 -0.13956372413551921 0.37158416358741331 0 -0.1567045483412946 0.36995199305179149 0 -0.1566239649370787 0.39949741509148878 0 -0.14794932033142291 0.38527932368603401 0 -0.14175409109861731 0.39817909490941172 0 -0.1566239649370787 0.39949741509148878 0 -0.14857468736981411 0.41566729662306218 0 -0.14175409109861731 0.39817909490941172 0 -0.14319723714952329 0.35618526966320568 0 -0.1491376610681848 0.33674844602573972 0 -0.1629363978837933 0.35248287100322712 0 -0.14319723714952329 0.35618526966320568 0 -0.13956372413551921 0.37158416358741331 0 -0.1567045483412946 0.36995199305179149 0 -0.14319723714952329 0.35618526966320568 0 -0.1629363978837933 0.35248287100322712 0 -0.1567045483412946 0.36995199305179149 0 -0.14319723714952329 0.35618526966320568 0 -0.13956372413551921 0.37158416358741331 0 -0.1239850121251697 0.3628438707671503 0 -0.12598250273018541 0.38366036076888471 0 -0.13956372413551921 0.37158416358741331 0 -0.1239850121251697 0.3628438707671503 0 -0.14319723714952329 0.35618526966320568 0 -0.1258351450690787 0.34259731332648508 0 -0.1239850121251697 0.3628438707671503 0 -0.14319723714952329 0.35618526966320568 0 -0.1258351450690787 0.34259731332648508 0 -0.1491376610681848 0.33674844602573972 0 -0.1258351450690787 0.34259731332648508 0 -0.13788405993098449 0.32555751645018233 0 -0.1491376610681848 0.33674844602573972 0 -0.1258351450690787 0.34259731332648508 0 -0.13788405993098449 0.32555751645018233 0 -0.1213584536716511 0.32412434636888121 0 -0.1348104678914317 0.31313122460501069 0 -0.1234215569048559 0.30691309854715287 0 -0.1213584536716511 0.32412434636888121 0 -0.13788405993098449 0.32555751645018233 0 -0.1348104678914317 0.31313122460501069 0 -0.1213584536716511 0.32412434636888121 0 -0.13788405993098449 0.32555751645018233 0 -0.1348104678914317 0.31313122460501069 0 -0.1449110759216882 0.31654097081074228 0 -0.15463772746649629 0.316399451650482 0 -0.15807252855750739 0.32294121942292231 0 -0.1551130284939759 0.30586240658629171 0 -0.1348104678914317 0.31313122460501069 0 -0.1449110759216882 0.31654097081074228 0 -0.1424249914390335 0.30922513621958347 0 -0.13788405993098449 0.32555751645018233 0 -0.1449110759216882 0.31654097081074228 0 -0.14892861058897219 0.3236375208720137 0 -0.14892861058897219 0.3236375208720137 0 -0.1491376610681848 0.33674844602573972 0 -0.15807252855750739 0.32294121942292231 0 -0.14892861058897219 0.3236375208720137 0 -0.15463772746649629 0.316399451650482 0 -0.15807252855750739 0.32294121942292231 0 -0.1449110759216882 0.31654097081074228 0 -0.15463772746649629 0.316399451650482 0 -0.1492681010359444 0.31132405057079648 0 -0.1449110759216882 0.31654097081074228 0 -0.14892861058897219 0.3236375208720137 0 -0.15463772746649629 0.316399451650482 0 -0.13788405993098449 0.32555751645018233 0 -0.14892861058897219 0.3236375208720137 0 -0.1491376610681848 0.33674844602573972 0 -0.1491376610681848 0.33674844602573972 0 -0.1691578293418303 0.33224192286853299 0 -0.15807252855750739 0.32294121942292231 0 -0.1491376610681848 0.33674844602573972 0 -0.1691578293418303 0.33224192286853299 0 -0.1629363978837933 0.35248287100322712 0 -0.1691578293418303 0.33224192286853299 0 -0.15807252855750739 0.32294121942292231 0 -0.1551130284939759 0.30586240658629171 0 -0.1691578293418303 0.33224192286853299 0 -0.16939454134311241 0.31470636409454911 0 -0.1551130284939759 0.30586240658629171 0 -0.1691578293418303 0.33224192286853299 0 -0.1551130284939759 0.30586240658629171 0 -0.1691578293418303 0.33224192286853299 0 -0.16939454134311241 0.31470636409454911 0 -0.1854852937171424 0.31921901721348572 0 -0.1691578293418303 0.33224192286853299 0 -0.1854852937171424 0.31921901721348572 0 -0.19035158923252479 0.33524572543182279 0 -0.1691578293418303 0.33224192286853299 0 -0.18158477282150029 0.35040963340190012 0 -0.19035158923252479 0.33524572543182279 0 -0.1691578293418303 0.33224192286853299 0 -0.18158477282150029 0.35040963340190012 0 -0.1832026301896843 0.35862143915077449 0 -0.1832026301896843 0.35862143915077449 0 -0.1629363978837933 0.35248287100322712 0 -0.17149002532622029 0.36363369040457122 0 -0.1691578293418303 0.33224192286853299 0 -0.1832026301896843 0.35862143915077449 0 -0.18158477282150029 0.35040963340190012 0 -0.1832026301896843 0.35862143915077449 0 -0.19123956301327061 0.3561732632445257 0 -0.1691578293418303 0.33224192286853299 0 -0.1832026301896843 0.35862143915077449 0 -0.1629363978837933 0.35248287100322712 0 -0.1629363978837933 0.35248287100322712 0 -0.1567045483412946 0.36995199305179149 0 -0.17149002532622029 0.36363369040457122 0 -0.1567045483412946 0.36995199305179149 0 -0.17149002532622029 0.36363369040457122 0 -0.17395587444253441 0.37445324585220102 0 -0.1905033644153154 0.37516413291008938 0 -0.17395587444253441 0.37445324585220102 0 -0.18185136276394531 0.36727948178592629 0 -0.17149002532622029 0.36363369040457122 0 -0.17395587444253441 0.37445324585220102 0 -0.18185136276394531 0.36727948178592629 0 -0.1832026301896843 0.35862143915077449 0 -0.17149002532622029 0.36363369040457122 0 -0.18185136276394531 0.36727948178592629 0 -0.1832026301896843 0.35862143915077449 0 -0.18185136276394531 0.36727948178592629 0 -0.1892392218161191 0.36371016753307922 0 -0.1905033644153154 0.37516413291008938 0 -0.18185136276394531 0.36727948178592629 0 -0.1892392218161191 0.36371016753307922 0 -0.1905033644153154 0.37516413291008938 0 -0.19898978560591521 0.3617529595354963 0 -0.2097676205523582 0.37356691215004062 0 -0.1892392218161191 0.36371016753307922 0 -0.19898978560591521 0.3617529595354963 0 -0.19123956301327061 0.3561732632445257 0 -0.1905033644153154 0.37516413291008938 0 -0.1892392218161191 0.36371016753307922 0 -0.19898978560591521 0.3617529595354963 0 -0.1832026301896843 0.35862143915077449 0 -0.1892392218161191 0.36371016753307922 0 -0.19123956301327061 0.3561732632445257 0 -0.18158477282150029 0.35040963340190012 0 -0.20318140463313389 0.34637211660137862 0 -0.18158477282150029 0.35040963340190012 0 -0.20318140463313389 0.34637211660137862 0 -0.19035158923252479 0.33524572543182279 0 -0.18158477282150029 0.35040963340190012 0 -0.19123956301327061 0.3561732632445257 0 -0.20318140463313389 0.34637211660137862 0 -0.19898978560591521 0.3617529595354963 0 -0.19123956301327061 0.3561732632445257 0 -0.20318140463313389 0.34637211660137862 0 -0.20318140463313389 0.34637211660137862 0 -0.2109786408589239 0.3569008694086882 0 -0.22477803644476729 0.34233459980085629 0 -0.20318140463313389 0.34637211660137862 0 -0.22477803644476729 0.34233459980085629 0 -0.19898978560591521 0.3617529595354963 0 -0.20318140463313389 0.34637211660137862 0 -0.2109786408589239 0.3569008694086882 0 -0.2109786408589239 0.3569008694086882 0 -0.2097676205523582 0.37356691215004062 0 -0.2221083251388361 0.36119384944790722 0 -0.19898978560591521 0.3617529595354963 0 -0.2109786408589239 0.3569008694086882 0 -0.2097676205523582 0.37356691215004062 0 -0.2097676205523582 0.37356691215004062 0 -0.22869681069220629 0.37285276684306451 0 -0.2221083251388361 0.36119384944790722 0 -0.22869681069220629 0.37285276684306451 0 -0.2221083251388361 0.36119384944790722 0 -0.23263183043150679 0.35728152611116049 0 -0.24076609449016589 0.349407067596891 0 -0.22477803644476729 0.34233459980085629 0 -0.2109786408589239 0.3569008694086882 0 -0.2221083251388361 0.36119384944790722 0 -0.22477803644476729 0.34233459980085629 0 -0.23263183043150679 0.35728152611116049 0 -0.24076609449016589 0.349407067596891 0 -0.22477803644476729 0.34233459980085629 0 -0.2221083251388361 0.36119384944790722 0 -0.23263183043150679 0.35728152611116049 0 -0.22477803644476729 0.34233459980085629 0 -0.25675415253556461 0.35647953539292548 0 -0.24076609449016589 0.349407067596891 0 -0.25675415253556461 0.35647953539292548 0 -0.24076609449016589 0.349407067596891 0 -0.2424287068002427 0.36295555132124202 0 -0.23263183043150679 0.35728152611116049 0 -0.24076609449016589 0.349407067596891 0 -0.2424287068002427 0.36295555132124202 0 -0.2506997140531938 0.33748851038494071 0 -0.25675415253556461 0.35647953539292548 0 -0.24076609449016589 0.349407067596891 0 -0.2378390776979645 0.38787148811932848 0 -0.22869681069220629 0.37285276684306451 0 -0.2424287068002427 0.36295555132124202 0 -0.25675415253556461 0.35647953539292548 0 -0.24958722853894219 0.37715486734454118 0 -0.2424287068002427 0.36295555132124202 0 -0.22869681069220629 0.37285276684306451 0 -0.23263183043150679 0.35728152611116049 0 -0.2424287068002427 0.36295555132124202 0 -0.2506997140531938 0.33748851038494071 0 -0.24471205469856239 0.31870695221497819 0 -0.2506997140531938 0.33748851038494071 0 -0.24471205469856239 0.31870695221497819 0 -0.23159919885817459 0.32744831241770428 0 -0.24471205469856239 0.31870695221497819 0 -0.23159919885817459 0.32744831241770428 0 -0.2304888222765985 0.31281763010608971 0 -0.2506997140531938 0.33748851038494071 0 -0.24076609449016589 0.349407067596891 0 -0.22477803644476729 0.34233459980085629 0 -0.2506997140531938 0.33748851038494071 0 -0.22477803644476729 0.34233459980085629 0 -0.23159919885817459 0.32744831241770428 0 -0.2506997140531938 0.33748851038494071 0 -0.22477803644476729 0.34233459980085629 0 -0.22477803644476729 0.34233459980085629 0 -0.23159919885817459 0.32744831241770428 0 -0.21868361685754509 0.32996862125497212 0 -0.22205466556996151 0.32102176316943798 0 -0.23159919885817459 0.32744831241770428 0 -0.21868361685754509 0.32996862125497212 0 -0.22205466556996151 0.32102176316943798 0 -0.23159919885817459 0.32744831241770428 0 -0.2304888222765985 0.31281763010608971 0 -0.22205466556996151 0.32102176316943798 0 -0.2304888222765985 0.31281763010608971 0 -0.215623908370456 0.3076171768666881 0 -0.22205466556996151 0.32102176316943798 0 -0.20854237588710911 0.31970534330566408 0 -0.215623908370456 0.3076171768666881 0 -0.20854237588710911 0.31970534330566408 0 -0.21868361685754509 0.32996862125497212 0 -0.2068839664920713 0.33441898971731171 0 -0.22205466556996151 0.32102176316943798 0 -0.20854237588710911 0.31970534330566408 0 -0.21868361685754509 0.32996862125497212 0 -0.20854237588710911 0.31970534330566408 0 -0.2068839664920713 0.33441898971731171 0 -0.1977324721728384 0.32593721865319758 0 -0.22477803644476729 0.34233459980085629 0 -0.21868361685754509 0.32996862125497212 0 -0.2068839664920713 0.33441898971731171 0 -0.20318140463313389 0.34637211660137862 0 -0.22477803644476729 0.34233459980085629 0 -0.2068839664920713 0.33441898971731171 0 -0.22477803644476729 0.34233459980085629 0 -0.2068839664920713 0.33441898971731171 0 -0.2068839664920713 0.33441898971731171 0 -0.19035158923252479 0.33524572543182279 0 -0.1977324721728384 0.32593721865319758 0 -0.20318140463313389 0.34637211660137862 0 -0.2068839664920713 0.33441898971731171 0 -0.19035158923252479 0.33524572543182279 0 -0.1854852937171424 0.31921901721348572 0 -0.1977324721728384 0.32593721865319758 0 -0.19788632917420659 0.30739218161852028 0 -0.20854237588710911 0.31970534330566408 0 -0.1977324721728384 0.32593721865319758 0 -0.19788632917420659 0.30739218161852028 0 -0.1854852937171424 0.31921901721348572 0 -0.19035158923252479 0.33524572543182279 0 -0.1977324721728384 0.32593721865319758 0 -0.19788632917420659 0.30739218161852028 0 -0.19078620039812341 0.28483758581018692 0 -0.17781363877653439 0.3026827842111024 0 -0.19078620039812341 0.28483758581018692 0 -0.2061024984738595 0.29532031440644602 0 -0.20823656294389331 0.28087204946668282 0 -0.19788632917420659 0.30739218161852028 0 -0.19078620039812341 0.28483758581018692 0 -0.19788632917420659 0.30739218161852028 0 -0.19078620039812341 0.28483758581018692 0 -0.2061024984738595 0.29532031440644602 0 -0.21797949148261811 0.29588257827015157 0 -0.22567504976809441 0.27685461138344719 0 -0.20823656294389331 0.28087204946668282 0 -0.2061024984738595 0.29532031440644602 0 -0.21797949148261811 0.29588257827015157 0 -0.20823656294389331 0.28087204946668282 0 -0.19788632917420659 0.30739218161852028 0 -0.2061024984738595 0.29532031440644602 0 -0.215623908370456 0.3076171768666881 0 -0.20854237588710911 0.31970534330566408 0 -0.19788632917420659 0.30739218161852028 0 -0.215623908370456 0.3076171768666881 0 -0.2061024984738595 0.29532031440644602 0 -0.21797949148261811 0.29588257827015157 0 -0.215623908370456 0.3076171768666881 0 -0.2304888222765985 0.31281763010608971 0 -0.215623908370456 0.3076171768666881 0 -0.2302187108185059 0.30218618192271368 0 -0.2304888222765985 0.31281763010608971 0 -0.2302187108185059 0.30218618192271368 0 -0.2387243953439307 0.29992539404501578 0 -0.21797949148261811 0.29588257827015157 0 -0.215623908370456 0.3076171768666881 0 -0.2302187108185059 0.30218618192271368 0 -0.2302187108185059 0.30218618192271368 0 -0.22753938410322799 0.29029431303337377 0 -0.23628428434369339 0.28625388055718282 0 -0.21797949148261811 0.29588257827015157 0 -0.2302187108185059 0.30218618192271368 0 -0.22753938410322799 0.29029431303337377 0 -0.21797949148261811 0.29588257827015157 0 -0.22753938410322799 0.29029431303337377 0 -0.22567504976809441 0.27685461138344719 0 -0.21797949148261811 0.29588257827015157 0 -0.22567504976809441 0.27685461138344719 0 -0.22753938410322799 0.29029431303337377 0 -0.23628428434369339 0.28625388055718282 0 -0.22567504976809441 0.27685461138344719 0 -0.25174801163386251 0.28637993966796771 0 -0.2302187108185059 0.30218618192271368 0 -0.23628428434369339 0.28625388055718282 0 -0.25174801163386251 0.28637993966796771 0 -0.2302187108185059 0.30218618192271368 0 -0.2387243953439307 0.29992539404501578 0 -0.25174801163386251 0.28637993966796771 0 -0.2302187108185059 0.30218618192271368 0 -0.25695327319853212 0.30339637682584858 0 -0.25174801163386251 0.28637993966796771 0 -0.2387243953439307 0.29992539404501578 0 -0.24471205469856239 0.31870695221497819 0 -0.2304888222765985 0.31281763010608971 0 -0.2387243953439307 0.29992539404501578 0 -0.25695327319853212 0.30339637682584858 0 -0.24471205469856239 0.31870695221497819 0 -0.2387243953439307 0.29992539404501578 0 -0.24471205469856239 0.31870695221497819 0 -0.2387243953439307 0.29992539404501578 0 -0.24692216810694789 0.25001748358109999 0 -0.24661693138460841 0.26930390670218202 0 -0.23337060805357071 0.25782664449674292 0 -0.23628428434369339 0.28625388055718282 0 -0.24661693138460841 0.26930390670218202 0 -0.22567504976809441 0.27685461138344719 0 -0.24661693138460841 0.26930390670218202 0 -0.22567504976809441 0.27685461138344719 0 -0.23337060805357071 0.25782664449674292 0 -0.25174801163386251 0.28637993966796771 0 -0.23628428434369339 0.28625388055718282 0 -0.24661693138460841 0.26930390670218202 0 -0.22567504976809441 0.27685461138344719 0 -0.23337060805357071 0.25782664449674292 0 -0.23337060805357071 0.25782664449674292 0 -0.211921945325213 0.26159259324465822 0 -0.22048991925147771 0.2456745707996362 0 -0.22567504976809441 0.27685461138344719 0 -0.23337060805357071 0.25782664449674292 0 -0.211921945325213 0.26159259324465822 0 -0.211921945325213 0.26159259324465822 0 -0.20823656294389331 0.28087204946668282 0 -0.19758882635839009 0.27025595208928549 0 -0.22567504976809441 0.27685461138344719 0 -0.211921945325213 0.26159259324465822 0 -0.20823656294389331 0.28087204946668282 0 -0.19078620039812341 0.28483758581018692 0 -0.20823656294389331 0.28087204946668282 0 -0.19758882635839009 0.27025595208928549 0 -0.19078620039812341 0.28483758581018692 0 -0.19758882635839009 0.27025595208928549 0 -0.18368607162204029 0.26228299000185362 0 -0.211921945325213 0.26159259324465822 0 -0.19758882635839009 0.27025595208928549 0 -0.19545641706550559 0.25809144789620081 0 -0.211921945325213 0.26159259324465822 0 -0.19545641706550559 0.25809144789620081 0 -0.19989871809881959 0.24235829282569299 0 -0.19758882635839009 0.27025595208928549 0 -0.19545641706550559 0.25809144789620081 0 -0.18368607162204029 0.26228299000185362 0 -0.19545641706550559 0.25809144789620081 0 -0.18368607162204029 0.26228299000185362 0 -0.1886652591447083 0.24799262542682199 0 -0.18368607162204029 0.26228299000185362 0 -0.1886652591447083 0.24799262542682199 0 -0.17658594284595591 0.23972839419352049 0 -0.18368607162204029 0.26228299000185362 0 -0.17658594284595591 0.23972839419352049 0 -0.18368607162204029 0.26228299000185362 0 -0.16942830472862849 0.26177306499111058 0 -0.17658594284595591 0.23972839419352049 0 -0.16942830472862849 0.26177306499111058 0 -0.17658594284595591 0.23972839419352049 0 -0.16942830472862849 0.26177306499111058 0 -0.1513096466237969 0.25861832572566151 0 -0.1621862501987571 0.2470355145894835 0 -0.16942830472862849 0.26177306499111058 0 -0.15858581049356721 0.27043697286826901 0 -0.1513096466237969 0.25861832572566151 0 -0.16942830472862849 0.26177306499111058 0 -0.15858581049356721 0.27043697286826901 0 -0.1622706666113021 0.28381773578870112 0 -0.16942830472862849 0.26177306499111058 0 -0.1622706666113021 0.28381773578870112 0 -0.16942830472862849 0.26177306499111058 0 -0.17597117790302719 0.27619075613060012 0 -0.1622706666113021 0.28381773578870112 0 -0.19078620039812341 0.28483758581018692 0 -0.18368607162204029 0.26228299000185362 0 -0.19078620039812341 0.28483758581018692 0 -0.18368607162204029 0.26228299000185362 0 -0.17597117790302719 0.27619075613060012 0 -0.18368607162204029 0.26228299000185362 0 -0.16942830472862849 0.26177306499111058 0 -0.17597117790302719 0.27619075613060012 0 -0.19078620039812341 0.28483758581018692 0 -0.1729659068989283 0.28895920969011879 0 -0.17781363877653439 0.3026827842111024 0 -0.19078620039812341 0.28483758581018692 0 -0.17597117790302719 0.27619075613060012 0 -0.1729659068989283 0.28895920969011879 0 -0.1729659068989283 0.28895920969011879 0 -0.17781363877653439 0.3026827842111024 0 -0.1666363882261698 0.29753279821593542 0 -0.16939454134311241 0.31470636409454911 0 -0.1854852937171424 0.31921901721348572 0 -0.17781363877653439 0.3026827842111024 0 -0.1854852937171424 0.31921901721348572 0 -0.19788632917420659 0.30739218161852028 0 -0.17781363877653439 0.3026827842111024 0 -0.16939454134311241 0.31470636409454911 0 -0.17781363877653439 0.3026827842111024 0 -0.1666049138214224 0.30552345014168208 0 -0.17781363877653439 0.3026827842111024 0 -0.1666049138214224 0.30552345014168208 0 -0.1666363882261698 0.29753279821593542 0 -0.1666049138214224 0.30552345014168208 0 -0.1666363882261698 0.29753279821593542 0 -0.1551130284939759 0.30586240658629171 0 -0.16939454134311241 0.31470636409454911 0 -0.1666049138214224 0.30552345014168208 0 -0.1551130284939759 0.30586240658629171 0 -0.1666363882261698 0.29753279821593542 0 -0.1622706666113021 0.28381773578870112 0 -0.1551130284939759 0.30586240658629171 0 -0.1622706666113021 0.28381773578870112 0 -0.1551130284939759 0.30586240658629171 0 -0.17597117790302719 0.27619075613060012 0 -0.1729659068989283 0.28895920969011879 0 -0.1622706666113021 0.28381773578870112 0 -0.1729659068989283 0.28895920969011879 0 -0.1666363882261698 0.29753279821593542 0 -0.1622706666113021 0.28381773578870112 0 -0.14310381895887811 0.28330622071368261 0 -0.1551130284939759 0.30586240658629171 0 -0.14310381895887811 0.28330622071368261 0 -0.14643657936141341 0.30310073601753962 0 -0.13669873298469001 0.30202869909382812 0 -0.1622706666113021 0.28381773578870112 0 -0.14310381895887811 0.28330622071368261 0 -0.1551130284939759 0.30586240658629171 0 -0.14310381895887811 0.28330622071368261 0 -0.1551130284939759 0.30586240658629171 0 -0.14643657936141341 0.30310073601753962 0 -0.1551130284939759 0.30586240658629171 0 -0.15122543896801491 0.30732968499098878 0 -0.14643657936141341 0.30310073601753962 0 -0.1492681010359444 0.31132405057079648 0 -0.15122543896801491 0.30732968499098878 0 -0.14643657936141341 0.30310073601753962 0 -0.15463772746649629 0.316399451650482 0 -0.15408404698072581 0.30903154678932748 0 -0.1551130284939759 0.30586240658629171 0 -0.1492681010359444 0.31132405057079648 0 -0.15408404698072581 0.30903154678932748 0 -0.15122543896801491 0.30732968499098878 0 -0.15463772746649629 0.316399451650482 0 -0.1492681010359444 0.31132405057079648 0 -0.15408404698072581 0.30903154678932748 0 -0.15408404698072581 0.30903154678932748 0 -0.1551130284939759 0.30586240658629171 0 -0.15122543896801491 0.30732968499098878 0 -0.15408404698072581 0.30903154678932748 0 -0.1551130284939759 0.30586240658629171 0 -0.1492681010359444 0.31132405057079648 0 -0.14643657936141341 0.30310073601753962 0 -0.1424249914390335 0.30922513621958347 0 -0.14643657936141341 0.30310073601753962 0 -0.1424249914390335 0.30922513621958347 0 -0.13669873298469001 0.30202869909382812 0 -0.1449110759216882 0.31654097081074228 0 -0.1492681010359444 0.31132405057079648 0 -0.1424249914390335 0.30922513621958347 0 -0.1348104678914317 0.31313122460501069 0 -0.1424249914390335 0.30922513621958347 0 -0.13669873298469001 0.30202869909382812 0 -0.13669873298469001 0.30202869909382812 0 -0.12799582094274131 0.29430572768588398 0 -0.1234215569048559 0.30691309854715287 0 -0.1348104678914317 0.31313122460501069 0 -0.13669873298469001 0.30202869909382812 0 -0.1234215569048559 0.30691309854715287 0 -0.14310381895887811 0.28330622071368261 0 -0.12799582094274131 0.29430572768588398 0 -0.1207285042666741 0.28250373429860021 0 -0.14310381895887811 0.28330622071368261 0 -0.13669873298469001 0.30202869909382812 0 -0.12799582094274131 0.29430572768588398 0 -0.14310381895887811 0.28330622071368261 0 -0.1310946094237799 0.26075003484107362 0 -0.1207285042666741 0.28250373429860021 0 -0.14310381895887811 0.28330622071368261 0 -0.1310946094237799 0.26075003484107362 0 -0.1310946094237799 0.26075003484107362 0 -0.1513096466237969 0.25861832572566151 0 -0.14852285806582621 0.23933455205420259 0 -0.15858581049356721 0.27043697286826901 0 -0.14310381895887811 0.28330622071368261 0 -0.1513096466237969 0.25861832572566151 0 -0.14310381895887811 0.28330622071368261 0 -0.1310946094237799 0.26075003484107362 0 -0.1513096466237969 0.25861832572566151 0 -0.15858581049356721 0.27043697286826901 0 -0.1622706666113021 0.28381773578870112 0 -0.14310381895887811 0.28330622071368261 0 -0.108897788920813 0.27147578181989879 0 -0.1207285042666741 0.28250373429860021 0 -0.097224965390421275 0.28797624070792421 0 -0.108897788920813 0.27147578181989879 0 -0.097224965390421275 0.28797624070792421 0 -0.091461760276363213 0.26563162402389162 0 -0.1085624528409873 0.25569170958414472 0 -0.091461760276363213 0.26563162402389162 0 -0.092241720779936504 0.24334294633890469 0 -0.108897788920813 0.27147578181989879 0 -0.1085624528409873 0.25569170958414472 0 -0.091461760276363213 0.26563162402389162 0 -0.1310946094237799 0.26075003484107362 0 -0.1085624528409873 0.25569170958414472 0 -0.12400862952741309 0.23614658815304251 0 -0.1310946094237799 0.26075003484107362 0 -0.108897788920813 0.27147578181989879 0 -0.1085624528409873 0.25569170958414472 0 -0.1310946094237799 0.26075003484107362 0 -0.108897788920813 0.27147578181989879 0 -0.1207285042666741 0.28250373429860021 0 -0.1207285042666741 0.28250373429860021 0 -0.11494621120774889 0.29743898441303479 0 -0.097224965390421275 0.28797624070792421 0 -0.12799582094274131 0.29430572768588398 0 -0.1207285042666741 0.28250373429860021 0 -0.11494621120774889 0.29743898441303479 0 -0.11494621120774889 0.29743898441303479 0 -0.1030183770525223 0.30306028037907318 0 -0.11106562763792879 0.31368851300799361 0 -0.1234215569048559 0.30691309854715287 0 -0.11494621120774889 0.29743898441303479 0 -0.11106562763792879 0.31368851300799361 0 -0.12799582094274131 0.29430572768588398 0 -0.1234215569048559 0.30691309854715287 0 -0.11494621120774889 0.29743898441303479 0 -0.1030183770525223 0.30306028037907318 0 -0.097224965390421275 0.28797624070792421 0 -0.089733531155824123 0.30492218049394332 0 -0.1030183770525223 0.30306028037907318 0 -0.089733531155824123 0.30492218049394332 0 -0.094384047209781399 0.31874251550440552 0 -0.1030183770525223 0.30306028037907318 0 -0.094384047209781399 0.31874251550440552 0 -0.11106562763792879 0.31368851300799361 0 -0.11494621120774889 0.29743898441303479 0 -0.1030183770525223 0.30306028037907318 0 -0.097224965390421275 0.28797624070792421 0 -0.097224965390421275 0.28797624070792421 0 -0.075191870975689079 0.29666020200924748 0 -0.074611437021528004 0.27751688914957612 0 -0.097224965390421275 0.28797624070792421 0 -0.089733531155824123 0.30492218049394332 0 -0.075191870975689079 0.29666020200924748 0 -0.089733531155824123 0.30492218049394332 0 -0.075191870975689079 0.29666020200924748 0 -0.076391275035761028 0.31342438973669712 0 -0.089733531155824123 0.30492218049394332 0 -0.076391275035761028 0.31342438973669712 0 -0.094384047209781399 0.31874251550440552 0 -0.075191870975689079 0.29666020200924748 0 -0.058237377908840787 0.30649144995270178 0 -0.076391275035761028 0.31342438973669712 0 -0.075191870975689079 0.29666020200924748 0 -0.059203128981742049 0.28925951651794568 0 -0.058237377908840787 0.30649144995270178 0 -0.075191870975689079 0.29666020200924748 0 -0.074611437021528004 0.27751688914957612 0 -0.059203128981742049 0.28925951651794568 0 -0.074611437021528004 0.27751688914957612 0 -0.075330479111900966 0.25473465145598062 0 -0.048676371821743253 0.26791153494507342 0 -0.074611437021528004 0.27751688914957612 0 -0.091461760276363213 0.26563162402389162 0 -0.075330479111900966 0.25473465145598062 0 -0.097224965390421275 0.28797624070792421 0 -0.074611437021528004 0.27751688914957612 0 -0.091461760276363213 0.26563162402389162 0 -0.091461760276363213 0.26563162402389162 0 -0.075330479111900966 0.25473465145598062 0 -0.092241720779936504 0.24334294633890469 0 -0.048676371821743253 0.26791153494507342 0 -0.039471011762030932 0.2479092694204493 0 -0.056902282207796993 0.24522582623165129 0 -0.075330479111900966 0.25473465145598062 0 -0.048676371821743253 0.26791153494507342 0 -0.056902282207796993 0.24522582623165129 0 -0.074611437021528004 0.27751688914957612 0 -0.048676371821743253 0.26791153494507342 0 -0.059203128981742049 0.28925951651794568 0 -0.048676371821743253 0.26791153494507342 0 -0.01924684321241342 0.25540461489049582 0 -0.02612607099700591 0.27790069550437868 0 -0.048676371821743253 0.26791153494507342 0 -0.02612607099700591 0.27790069550437868 0 -0.039298587180909172 0.29771750653312962 0 -0.048676371821743253 0.26791153494507342 0 -0.01924684321241342 0.25540461489049582 0 -0.039471011762030932 0.2479092694204493 0 -0.01924684321241342 0.25540461489049582 0 -0.02612607099700591 0.27790069550437868 0 5.4449697198585628e-05 0.2648549279980501 0 -0.02612607099700591 0.27790069550437868 0 -0.0050426315733072694 0.28833554097356762 0 5.4449697198585628e-05 0.2648549279980501 0 -0.01924684321241342 0.25540461489049582 0 0.0003291665693064352 0.24474665195800591 0 5.4449697198585628e-05 0.2648549279980501 0 -0.0091099845031888792 0.30555482022216041 0 -0.0050426315733072694 0.28833554097356762 0 -0.020106008826567431 0.29714723757068512 0 -0.0091099845031888792 0.30555482022216041 0 -0.0053928765229688067 0.32044438959062932 0 0.0086998533199505595 0.30840945726301161 0 -0.0091099845031888792 0.30555482022216041 0 -0.0050426315733072694 0.28833554097356762 0 0.0086998533199505595 0.30840945726301161 0 -0.02612607099700591 0.27790069550437868 0 -0.0050426315733072694 0.28833554097356762 0 -0.020106008826567431 0.29714723757068512 0 -0.02612607099700591 0.27790069550437868 0 -0.020106008826567431 0.29714723757068512 0 -0.039298587180909172 0.29771750653312962 0 -0.0091099845031888792 0.30555482022216041 0 -0.020106008826567431 0.29714723757068512 0 -0.020952769878425918 0.31622762462018927 0 -0.039298587180909172 0.29771750653312962 0 -0.020952769878425918 0.31622762462018927 0 -0.020106008826567431 0.29714723757068512 0 -0.039298587180909172 0.29771750653312962 0 -0.020952769878425918 0.31622762462018927 0 -0.039298587180909172 0.29771750653312962 0 -0.058237377908840787 0.30649144995270178 0 -0.042812825195202388 0.3173552473675208 0 -0.039298587180909172 0.29771750653312962 0 -0.042812825195202388 0.3173552473675208 0 -0.020952769878425918 0.31622762462018927 0 -0.048676371821743253 0.26791153494507342 0 -0.039298587180909172 0.29771750653312962 0 -0.059203128981742049 0.28925951651794568 0 -0.039298587180909172 0.29771750653312962 0 -0.059203128981742049 0.28925951651794568 0 -0.058237377908840787 0.30649144995270178 0 -0.058237377908840787 0.30649144995270178 0 -0.060718081931242278 0.32514920296205368 0 -0.042812825195202388 0.3173552473675208 0 -0.060718081931242278 0.32514920296205368 0 -0.044527778817173333 0.3314381399301104 0 -0.042812825195202388 0.3173552473675208 0 -0.060718081931242278 0.32514920296205368 0 -0.053247252559354197 0.33857827411451741 0 -0.044527778817173333 0.3314381399301104 0 -0.053247252559354197 0.33857827411451741 0 -0.062453431149314467 0.34624146770948933 0 -0.068319713456490044 0.3357085397580486 0 -0.060718081931242278 0.32514920296205368 0 -0.053247252559354197 0.33857827411451741 0 -0.068319713456490044 0.3357085397580486 0 -0.044527778817173333 0.3314381399301104 0 -0.034623200930543552 0.33704170821407797 0 -0.040533001964617767 0.34496843980427522 0 -0.053247252559354197 0.33857827411451741 0 -0.044527778817173333 0.3314381399301104 0 -0.040533001964617767 0.34496843980427522 0 -0.044527778817173333 0.3314381399301104 0 -0.034623200930543552 0.33704170821407797 0 -0.032938118026713238 0.32677767363761218 0 -0.034623200930543552 0.33704170821407797 0 -0.02624413262194478 0.34264213564260609 0 -0.040533001964617767 0.34496843980427522 0 -0.042812825195202388 0.3173552473675208 0 -0.032938118026713238 0.32677767363761218 0 -0.020952769878425918 0.31622762462018927 0 -0.044527778817173333 0.3314381399301104 0 -0.042812825195202388 0.3173552473675208 0 -0.032938118026713238 0.32677767363761218 0 -0.032938118026713238 0.32677767363761218 0 -0.020952769878425918 0.31622762462018927 0 -0.021774015312221 0.33182564805616233 0 -0.034623200930543552 0.33704170821407797 0 -0.032938118026713238 0.32677767363761218 0 -0.021774015312221 0.33182564805616233 0 -0.034623200930543552 0.33704170821407797 0 -0.02624413262194478 0.34264213564260609 0 -0.021774015312221 0.33182564805616233 0 -0.02624413262194478 0.34264213564260609 0 -0.021774015312221 0.33182564805616233 0 -0.01301164508734918 0.339576657508524 0 -0.021774015312221 0.33182564805616233 0 -0.01301164508734918 0.339576657508524 0 -0.0026069525759439792 0.33473774270725021 0 -0.01301164508734918 0.339576657508524 0 -0.0026069525759439792 0.33473774270725021 0 0.0014240637571583321 0.3554191184244459 0 -0.020952769878425918 0.31622762462018927 0 -0.0026069525759439792 0.33473774270725021 0 -0.0026069525759439792 0.33473774270725021 0 -0.0053928765229688067 0.32044438959062932 0 -0.020952769878425918 0.31622762462018927 0 -0.0026069525759439792 0.33473774270725021 0 -0.0053928765229688067 0.32044438959062932 0 -0.0026069525759439792 0.33473774270725021 0 -0.0053928765229688067 0.32044438959062932 0 0.0074988095433214334 0.32534984461408301 0 -0.020952769878425918 0.31622762462018927 0 -0.021774015312221 0.33182564805616233 0 -0.0026069525759439792 0.33473774270725021 0 -0.0091099845031888792 0.30555482022216041 0 -0.020952769878425918 0.31622762462018927 0 -0.0053928765229688067 0.32044438959062932 0 -0.0045848980022860242 0.36787674550054877 0 -0.013688563513173151 0.3759242626741956 0 0.0054550800902624036 0.37610049414164137 0 -0.01238393451030536 0.36242074350031678 0 -0.0045848980022860242 0.36787674550054877 0 -0.013688563513173151 0.3759242626741956 0 -0.01238393451030536 0.36242074350031678 0 -0.019935552358037619 0.3667725765554728 0 -0.013688563513173151 0.3759242626741956 0 -0.01238393451030536 0.36242074350031678 0 -0.0045848980022860242 0.36787674550054877 0 0.0014240637571583321 0.3554191184244459 0 -0.01301164508734918 0.339576657508524 0 -0.017212769447375379 0.34994325461902159 0 0.0014240637571583321 0.3554191184244459 0 -0.0026069525759439792 0.33473774270725021 0 0.0014240637571583321 0.3554191184244459 0 -0.01238393451030536 0.36242074350031678 0 -0.017212769447375379 0.34994325461902159 0 0.0014240637571583321 0.3554191184244459 0 -0.01238393451030536 0.36242074350031678 0 -0.021419861484309421 0.35891503458412349 0 -0.017212769447375379 0.34994325461902159 0 -0.021419861484309421 0.35891503458412349 0 -0.017212769447375379 0.34994325461902159 0 -0.0300888258567725 0.35377241652063879 0 -0.02624413262194478 0.34264213564260609 0 -0.01301164508734918 0.339576657508524 0 -0.017212769447375379 0.34994325461902159 0 -0.02624413262194478 0.34264213564260609 0 -0.017212769447375379 0.34994325461902159 0 -0.0300888258567725 0.35377241652063879 0 -0.021419861484309421 0.35891503458412349 0 -0.0300888258567725 0.35377241652063879 0 -0.027574480728950471 0.36420174694128099 0 -0.01238393451030536 0.36242074350031678 0 -0.021419861484309421 0.35891503458412349 0 -0.019935552358037619 0.3667725765554728 0 -0.021419861484309421 0.35891503458412349 0 -0.027574480728950471 0.36420174694128099 0 -0.019935552358037619 0.3667725765554728 0 -0.019935552358037619 0.3667725765554728 0 -0.02465904929339684 0.37366887768550378 0 -0.013688563513173151 0.3759242626741956 0 -0.027574480728950471 0.36420174694128099 0 -0.02465904929339684 0.37366887768550378 0 -0.036832557645074669 0.3710332882216611 0 -0.027574480728950471 0.36420174694128099 0 -0.019935552358037619 0.3667725765554728 0 -0.02465904929339684 0.37366887768550378 0 -0.027574480728950471 0.36420174694128099 0 -0.036832557645074669 0.3710332882216611 0 -0.037089021043206737 0.36169833348466052 0 -0.0300888258567725 0.35377241652063879 0 -0.027574480728950471 0.36420174694128099 0 -0.037089021043206737 0.36169833348466052 0 -0.037089021043206737 0.36169833348466052 0 -0.046939682744375287 0.35732195498825348 0 -0.047898984471368887 0.36598674350884519 0 -0.036832557645074669 0.3710332882216611 0 -0.037089021043206737 0.36169833348466052 0 -0.047898984471368887 0.36598674350884519 0 -0.036832557645074669 0.3710332882216611 0 -0.047898984471368887 0.36598674350884519 0 -0.047962732677248987 0.38023766724779551 0 -0.02624413262194478 0.34264213564260609 0 -0.0300888258567725 0.35377241652063879 0 -0.040533001964617767 0.34496843980427522 0 -0.0300888258567725 0.35377241652063879 0 -0.040432143423518488 0.35422798107060349 0 -0.040533001964617767 0.34496843980427522 0 -0.0300888258567725 0.35377241652063879 0 -0.037089021043206737 0.36169833348466052 0 -0.040432143423518488 0.35422798107060349 0 -0.037089021043206737 0.36169833348466052 0 -0.040432143423518488 0.35422798107060349 0 -0.046939682744375287 0.35732195498825348 0 -0.040432143423518488 0.35422798107060349 0 -0.049967782756910453 0.34928896153286793 0 -0.046939682744375287 0.35732195498825348 0 -0.040432143423518488 0.35422798107060349 0 -0.040533001964617767 0.34496843980427522 0 -0.049967782756910453 0.34928896153286793 0 -0.053247252559354197 0.33857827411451741 0 -0.040533001964617767 0.34496843980427522 0 -0.049967782756910453 0.34928896153286793 0 -0.049967782756910453 0.34928896153286793 0 -0.046939682744375287 0.35732195498825348 0 -0.056395135723128827 0.35698624903656279 0 -0.049967782756910453 0.34928896153286793 0 -0.056395135723128827 0.35698624903656279 0 -0.062453431149314467 0.34624146770948933 0 -0.053247252559354197 0.33857827411451741 0 -0.049967782756910453 0.34928896153286793 0 -0.062453431149314467 0.34624146770948933 0 -0.047898984471368887 0.36598674350884519 0 -0.061547591397081318 0.36900836968873618 0 -0.047962732677248987 0.38023766724779551 0 -0.046939682744375287 0.35732195498825348 0 -0.056395135723128827 0.35698624903656279 0 -0.047898984471368887 0.36598674350884519 0 -0.056395135723128827 0.35698624903656279 0 -0.047898984471368887 0.36598674350884519 0 -0.061547591397081318 0.36900836968873618 0 -0.056395135723128827 0.35698624903656279 0 -0.061547591397081318 0.36900836968873618 0 -0.06898267895627834 0.35647913795815722 0 -0.061547591397081318 0.36900836968873618 0 -0.075184118303141145 0.36744198895857122 0 -0.074614893879721686 0.38595201357052078 0 -0.061547591397081318 0.36900836968873618 0 -0.075184118303141145 0.36744198895857122 0 -0.06898267895627834 0.35647913795815722 0 -0.075184118303141145 0.36744198895857122 0 -0.082516270764205632 0.35525612097043058 0 -0.06898267895627834 0.35647913795815722 0 -0.089271349749875134 0.37132850963862513 0 -0.082516270764205632 0.35525612097043058 0 -0.094773908882077318 0.35758388905029997 0 -0.075184118303141145 0.36744198895857122 0 -0.089271349749875134 0.37132850963862513 0 -0.074614893879721686 0.38595201357052078 0 -0.075184118303141145 0.36744198895857122 0 -0.089271349749875134 0.37132850963862513 0 -0.082516270764205632 0.35525612097043058 0 -0.082516270764205632 0.35525612097043058 0 -0.07599843793903846 0.34426474259020728 0 -0.094278492917196671 0.33996442402840721 0 -0.082516270764205632 0.35525612097043058 0 -0.094278492917196671 0.33996442402840721 0 -0.094773908882077318 0.35758388905029997 0 -0.082516270764205632 0.35525612097043058 0 -0.07599843793903846 0.34426474259020728 0 -0.06898267895627834 0.35647913795815722 0 -0.056395135723128827 0.35698624903656279 0 -0.062453431149314467 0.34624146770948933 0 -0.06898267895627834 0.35647913795815722 0 -0.062453431149314467 0.34624146770948933 0 -0.07599843793903846 0.34426474259020728 0 -0.06898267895627834 0.35647913795815722 0 -0.062453431149314467 0.34624146770948933 0 -0.07599843793903846 0.34426474259020728 0 -0.068319713456490044 0.3357085397580486 0 -0.07599843793903846 0.34426474259020728 0 -0.068319713456490044 0.3357085397580486 0 -0.080082741033188506 0.32858078749783048 0 -0.060718081931242278 0.32514920296205368 0 -0.068319713456490044 0.3357085397580486 0 -0.080082741033188506 0.32858078749783048 0 -0.058237377908840787 0.30649144995270178 0 -0.060718081931242278 0.32514920296205368 0 -0.076391275035761028 0.31342438973669712 0 -0.060718081931242278 0.32514920296205368 0 -0.076391275035761028 0.31342438973669712 0 -0.080082741033188506 0.32858078749783048 0 -0.076391275035761028 0.31342438973669712 0 -0.080082741033188506 0.32858078749783048 0 -0.094384047209781399 0.31874251550440552 0 -0.080082741033188506 0.32858078749783048 0 -0.094278492917196671 0.33996442402840721 0 -0.094384047209781399 0.31874251550440552 0 -0.07599843793903846 0.34426474259020728 0 -0.080082741033188506 0.32858078749783048 0 -0.094278492917196671 0.33996442402840721 0 -0.094278492917196671 0.33996442402840721 0 -0.11074481877717759 0.33747455693959871 0 -0.1088634009556968 0.35168112130304507 0 -0.094278492917196671 0.33996442402840721 0 -0.094384047209781399 0.31874251550440552 0 -0.1063662880427471 0.32679887116985729 0 -0.094278492917196671 0.33996442402840721 0 -0.1063662880427471 0.32679887116985729 0 -0.11074481877717759 0.33747455693959871 0 -0.094384047209781399 0.31874251550440552 0 -0.1063662880427471 0.32679887116985729 0 -0.11106562763792879 0.31368851300799361 0 -0.1234215569048559 0.30691309854715287 0 -0.11106562763792879 0.31368851300799361 0 -0.1213584536716511 0.32412434636888121 0 -0.1063662880427471 0.32679887116985729 0 -0.11106562763792879 0.31368851300799361 0 -0.1213584536716511 0.32412434636888121 0 -0.1258351450690787 0.34259731332648508 0 -0.1213584536716511 0.32412434636888121 0 -0.11074481877717759 0.33747455693959871 0 -0.1063662880427471 0.32679887116985729 0 -0.1213584536716511 0.32412434636888121 0 -0.11074481877717759 0.33747455693959871 0 -0.1258351450690787 0.34259731332648508 0 -0.1239850121251697 0.3628438707671503 0 -0.1088634009556968 0.35168112130304507 0 -0.1258351450690787 0.34259731332648508 0 -0.11074481877717759 0.33747455693959871 0 -0.1088634009556968 0.35168112130304507 0 -0.12598250273018541 0.38366036076888471 0 -0.1239850121251697 0.3628438707671503 0 -0.1066235552946483 0.36876989496529522 0 -0.1239850121251697 0.3628438707671503 0 -0.1066235552946483 0.36876989496529522 0 -0.1088634009556968 0.35168112130304507 0 -0.089271349749875134 0.37132850963862513 0 -0.1066235552946483 0.36876989496529522 0 -0.094773908882077318 0.35758388905029997 0 -0.1066235552946483 0.36876989496529522 0 -0.094773908882077318 0.35758388905029997 0 -0.1088634009556968 0.35168112130304507 0 -0.094278492917196671 0.33996442402840721 0 -0.094773908882077318 0.35758388905029997 0 -0.1088634009556968 0.35168112130304507 0 -0.10693979023093469 0.40399966661006209 0 -0.098140377046205346 0.38516629378833539 0 -0.087654156978225747 0.40061730317403538 0 -0.089271349749875134 0.37132850963862513 0 -0.1066235552946483 0.36876989496529522 0 -0.098140377046205346 0.38516629378833539 0 -0.12598250273018541 0.38366036076888471 0 -0.1066235552946483 0.36876989496529522 0 -0.098140377046205346 0.38516629378833539 0 -0.12963998012458519 0.40679107837758849 0 -0.12598250273018541 0.38366036076888471 0 -0.10693979023093469 0.40399966661006209 0 -0.12598250273018541 0.38366036076888471 0 -0.10693979023093469 0.40399966661006209 0 -0.098140377046205346 0.38516629378833539 0 -0.12963998012458519 0.40679107837758849 0 -0.10693979023093469 0.40399966661006209 0 -0.1140404443718646 0.41965759823646992 0 -0.13329745751898489 0.42992179598629238 0 -0.1140404443718646 0.41965759823646992 0 -0.10963743851195901 0.43739386985442469 0 -0.1140404443718646 0.41965759823646992 0 -0.10963743851195901 0.43739386985442469 0 -0.09068755547285906 0.42018158035398201 0 -0.10963743851195901 0.43739386985442469 0 -0.09068755547285906 0.42018158035398201 0 -0.090817532370102885 0.44426836509596701 0 -0.10693979023093469 0.40399966661006209 0 -0.1140404443718646 0.41965759823646992 0 -0.09068755547285906 0.42018158035398201 0 -0.10693979023093469 0.40399966661006209 0 -0.09068755547285906 0.42018158035398201 0 -0.087654156978225747 0.40061730317403538 0 -0.09068755547285906 0.42018158035398201 0 -0.06788816826140788 0.40778696154727673 0 -0.087654156978225747 0.40061730317403538 0 -0.09068755547285906 0.42018158035398201 0 -0.064376861861689449 0.4332168315984346 0 -0.090817532370102885 0.44426836509596701 0 -0.09068755547285906 0.42018158035398201 0 -0.064376861861689449 0.4332168315984346 0 -0.06788816826140788 0.40778696154727673 0 -0.06788816826140788 0.40778696154727673 0 -0.087654156978225747 0.40061730317403538 0 -0.074614893879721686 0.38595201357052078 0 -0.06788816826140788 0.40778696154727673 0 -0.074614893879721686 0.38595201357052078 0 -0.055628645024819318 0.3947583212827197 0 -0.098140377046205346 0.38516629378833539 0 -0.087654156978225747 0.40061730317403538 0 -0.074614893879721686 0.38595201357052078 0 -0.089271349749875134 0.37132850963862513 0 -0.098140377046205346 0.38516629378833539 0 -0.074614893879721686 0.38595201357052078 0 -0.061547591397081318 0.36900836968873618 0 -0.074614893879721686 0.38595201357052078 0 -0.060433861147619221 0.38247017144876788 0 -0.074614893879721686 0.38595201357052078 0 -0.060433861147619221 0.38247017144876788 0 -0.055628645024819318 0.3947583212827197 0 -0.061547591397081318 0.36900836968873618 0 -0.060433861147619221 0.38247017144876788 0 -0.047962732677248987 0.38023766724779551 0 -0.060433861147619221 0.38247017144876788 0 -0.047962732677248987 0.38023766724779551 0 -0.055628645024819318 0.3947583212827197 0 -0.047962732677248987 0.38023766724779551 0 -0.055628645024819318 0.3947583212827197 0 -0.0422289070686728 0.39195829744011018 0 -0.055628645024819318 0.3947583212827197 0 -0.0422289070686728 0.39195829744011018 0 -0.043590075134719387 0.4104642027098454 0 -0.06788816826140788 0.40778696154727673 0 -0.055628645024819318 0.3947583212827197 0 -0.043590075134719387 0.4104642027098454 0 -0.01906749752222835 0.39328234842574361 0 -0.043590075134719387 0.4104642027098454 0 -0.0422289070686728 0.39195829744011018 0 -0.03176551678326385 0.39143214491901118 0 -0.043590075134719387 0.4104642027098454 0 -0.03176551678326385 0.39143214491901118 0 -0.01906749752222835 0.39328234842574361 0 -0.043590075134719387 0.4104642027098454 0 -0.036832557645074669 0.3710332882216611 0 -0.047962732677248987 0.38023766724779551 0 -0.032924172759376182 0.38121027647890682 0 -0.047962732677248987 0.38023766724779551 0 -0.0422289070686728 0.39195829744011018 0 -0.032924172759376182 0.38121027647890682 0 -0.0422289070686728 0.39195829744011018 0 -0.03176551678326385 0.39143214491901118 0 -0.032924172759376182 0.38121027647890682 0 -0.02465904929339684 0.37366887768550378 0 -0.036832557645074669 0.3710332882216611 0 -0.032924172759376182 0.38121027647890682 0 -0.02465904929339684 0.37366887768550378 0 -0.032924172759376182 0.38121027647890682 0 -0.023536235393657848 0.38276119860724639 0 -0.023536235393657848 0.38276119860724639 0 -0.01906749752222835 0.39328234842574361 0 -0.013688563513173151 0.3759242626741956 0 -0.02465904929339684 0.37366887768550378 0 -0.023536235393657848 0.38276119860724639 0 -0.013688563513173151 0.3759242626741956 0 -0.03176551678326385 0.39143214491901118 0 -0.032924172759376182 0.38121027647890682 0 -0.023536235393657848 0.38276119860724639 0 -0.03176551678326385 0.39143214491901118 0 -0.023536235393657848 0.38276119860724639 0 -0.01906749752222835 0.39328234842574361 0 -0.01906749752222835 0.39328234842574361 0 -0.017627228697279639 0.39359035309420559 0 -0.013359477754748311 0.4149427865902327 0 -0.01906749752222835 0.39328234842574361 0 -0.013359477754748311 0.4149427865902327 0 -0.043590075134719387 0.4104642027098454 0 -0.017627228697279639 0.39359035309420559 0 -0.0043378879502923226 0.40247430403533679 0 -0.0023987804065742141 0.38971174395534308 0 -0.017627228697279639 0.39359035309420559 0 -0.013359477754748311 0.4149427865902327 0 -0.017627228697279639 0.39359035309420559 0 -0.0043378879502923226 0.40247430403533679 0 -0.013359477754748311 0.4149427865902327 0 -0.01906749752222835 0.39328234842574361 0 -0.017627228697279639 0.39359035309420559 0 -0.0023987804065742141 0.38971174395534308 0 -0.01906749752222835 0.39328234842574361 0 -0.0023987804065742141 0.38971174395534308 0 0.0054550800902624036 0.37610049414164137 0 -0.01906749752222835 0.39328234842574361 0 -0.013688563513173151 0.3759242626741956 0 0.0054550800902624036 0.37610049414164137 0 -0.01906749752222835 0.39328234842574361 0 0.0054550800902624036 0.37610049414164137 0 -0.0090917268122169739 0.43629522008625993 0 -0.013359477754748311 0.4149427865902327 0 0.0014116017653585989 0.41634805679065118 0 -0.0090917268122169739 0.43629522008625993 0 -0.013359477754748311 0.4149427865902327 0 -0.0090917268122169739 0.43629522008625993 0 0.0076771621591133054 0.43907224436652847 0 0.0014116017653585989 0.41634805679065118 0 -0.0043378879502923226 0.40247430403533679 0 -0.013359477754748311 0.4149427865902327 0 0.0014116017653585989 0.41634805679065118 0 -0.013359477754748311 0.4149427865902327 0 -0.032406771048494022 0.43735539554777569 0 -0.043590075134719387 0.4104642027098454 0 -0.0090917268122169739 0.43629522008625993 0 -0.013359477754748311 0.4149427865902327 0 -0.032406771048494022 0.43735539554777569 0 -0.064376861861689449 0.4332168315984346 0 -0.032406771048494022 0.43735539554777569 0 -0.043590075134719387 0.4104642027098454 0 -0.064376861861689449 0.4332168315984346 0 -0.06788816826140788 0.40778696154727673 0 -0.043590075134719387 0.4104642027098454 0 -0.064376861861689449 0.4332168315984346 0 -0.032406771048494022 0.43735539554777569 0 -0.051483154189306393 0.45920519149268307 0 -0.051483154189306393 0.45920519149268307 0 -0.028153565029496161 0.45842642253748661 0 -0.038466877118719982 0.4780683131396804 0 -0.051483154189306393 0.45920519149268307 0 -0.028153565029496161 0.45842642253748661 0 -0.032406771048494022 0.43735539554777569 0 -0.051483154189306393 0.45920519149268307 0 -0.028153565029496161 0.45842642253748661 0 -0.0090917268122169739 0.43629522008625993 0 -0.032406771048494022 0.43735539554777569 0 -0.01861900968997331 0.4474311729384523 0 -0.032406771048494022 0.43735539554777569 0 -0.01861900968997331 0.4474311729384523 0 -0.028153565029496161 0.45842642253748661 0 -0.028153565029496161 0.45842642253748661 0 -0.0048239758696860639 0.4576476535822871 0 -0.01880451834028404 0.4745932432101192 0 -0.028153565029496161 0.45842642253748661 0 -0.0048239758696860639 0.4576476535822871 0 -0.01861900968997331 0.4474311729384523 0 -0.028153565029496161 0.45842642253748661 0 -0.0048239758696860639 0.4576476535822871 0 -0.0048239758696860639 0.4576476535822871 0 -0.00059145440143645606 0.47882382679114199 0 -0.0090917268122169739 0.43629522008625993 0 -0.0048239758696860639 0.4576476535822871 0 -0.0090917268122169739 0.43629522008625993 0 0.0076771621591133054 0.43907224436652847 0 0.00063738163838372264 0.44755209642831101 0 -0.0090917268122169739 0.43629522008625993 0 -0.0048239758696860639 0.4576476535822871 0 0.00063738163838372264 0.44755209642831101 0 -0.0090917268122169739 0.43629522008625993 0 -0.01861900968997331 0.4474311729384523 0 -0.0048239758696860639 0.4576476535822871 0 -0.00059145440143645606 0.47882382679114199 0 -0.021986719282081509 0.5 0 0.003641067066812111 0.499999999999997 0 -0.00059145440143645606 0.47882382679114199 0 -0.01880451834028404 0.4745932432101192 0 -0.021986719282081509 0.5 0 -0.0048239758696860639 0.4576476535822871 0 -0.00059145440143645606 0.47882382679114199 0 -0.01880451834028404 0.4745932432101192 0 -0.01880451834028404 0.4745932432101192 0 -0.021986719282081509 0.5 0 -0.038466877118719982 0.4780683131396804 0 -0.028153565029496161 0.45842642253748661 0 -0.01880451834028404 0.4745932432101192 0 -0.038466877118719982 0.4780683131396804 0 -0.021986719282081509 0.5 0 -0.038466877118719982 0.4780683131396804 0 -0.047614505630975128 0.5 0 -0.051483154189306393 0.45920519149268307 0 -0.038466877118719982 0.4780683131396804 0 -0.065504073559964196 0.47987392929405348 0 -0.038466877118719982 0.4780683131396804 0 -0.047614505630975128 0.5 0 -0.065504073559964196 0.47987392929405348 0 -0.047614505630975128 0.5 0 -0.073242291979868868 0.5 0 -0.065504073559964196 0.47987392929405348 0 -0.073242291979868868 0.5 0 -0.085307486601770663 0.48778593072245502 0 -0.065504073559964196 0.47987392929405348 0 -0.073242291979868868 0.5 0 -0.085307486601770663 0.48778593072245502 0 -0.09887007832876249 0.5 0 -0.085307486601770663 0.48778593072245502 0 -0.086080763365817839 0.47225952437169288 0 -0.065504073559964196 0.47987392929405348 0 -0.085307486601770663 0.48778593072245502 0 -0.086080763365817839 0.47225952437169288 0 -0.098855254764445927 0.4807206276093452 0 -0.086080763365817839 0.47225952437169288 0 -0.065504073559964196 0.47987392929405348 0 -0.074812743349116653 0.45998396044787959 0 -0.051483154189306393 0.45920519149268307 0 -0.074812743349116653 0.45998396044787959 0 -0.051483154189306393 0.45920519149268307 0 -0.065504073559964196 0.47987392929405348 0 -0.074812743349116653 0.45998396044787959 0 -0.064376861861689449 0.4332168315984346 0 -0.051483154189306393 0.45920519149268307 0 -0.074812743349116653 0.45998396044787959 0 -0.064376861861689449 0.4332168315984346 0 -0.074812743349116653 0.45998396044787959 0 -0.090817532370102885 0.44426836509596701 0 -0.074812743349116653 0.45998396044787959 0 -0.090817532370102885 0.44426836509596701 0 -0.098142332508926899 0.46076272940307622 0 -0.086080763365817839 0.47225952437169288 0 -0.074812743349116653 0.45998396044787959 0 -0.098142332508926899 0.46076272940307622 0 -0.074812743349116653 0.45998396044787959 0 -0.098142332508926899 0.46076272940307622 0 -0.098142332508926899 0.46076272940307622 0 -0.1062202280310722 0.45145197443702911 0 -0.1118001669639144 0.46441406377638 0 -0.098142332508926899 0.46076272940307622 0 -0.1118001669639144 0.46441406377638 0 -0.10861317456168559 0.4738762954025646 0 -0.090817532370102885 0.44426836509596701 0 -0.098142332508926899 0.46076272940307622 0 -0.1062202280310722 0.45145197443702911 0 -0.10963743851195901 0.43739386985442469 0 -0.090817532370102885 0.44426836509596701 0 -0.1062202280310722 0.45145197443702911 0 -0.13329745751898489 0.42992179598629238 0 -0.10963743851195901 0.43739386985442469 0 -0.1207036698004581 0.45042084405529748 0 -0.10963743851195901 0.43739386985442469 0 -0.1062202280310722 0.45145197443702911 0 -0.1207036698004581 0.45042084405529748 0 -0.1062202280310722 0.45145197443702911 0 -0.1207036698004581 0.45042084405529748 0 -0.1118001669639144 0.46441406377638 0 -0.12528375837843941 0.46367160220168629 0 -0.1207036698004581 0.45042084405529748 0 -0.1118001669639144 0.46441406377638 0 -0.126609262876797 0.47816458919241911 0 -0.12528375837843941 0.46367160220168629 0 -0.1118001669639144 0.46441406377638 0 -0.126609262876797 0.47816458919241911 0 -0.1118001669639144 0.46441406377638 0 -0.126609262876797 0.47816458919241911 0 -0.1118001669639144 0.46441406377638 0 -0.1188679355384676 0.47344685525039432 0 -0.126609262876797 0.47816458919241911 0 -0.1188679355384676 0.47344685525039432 0 -0.1118001669639144 0.46441406377638 0 -0.1188679355384676 0.47344685525039432 0 -0.10861317456168559 0.4738762954025646 0 -0.1188679355384676 0.47344685525039432 0 -0.1149311313364568 0.48595768678199752 0 -0.10861317456168559 0.4738762954025646 0 -0.126609262876797 0.47816458919241911 0 -0.1188679355384676 0.47344685525039432 0 -0.1149311313364568 0.48595768678199752 0 -0.12643415369641731 0.4885716382018519 0 -0.126609262876797 0.47816458919241911 0 -0.1149311313364568 0.48595768678199752 0 -0.12643415369641731 0.4885716382018519 0 -0.12449786467765619 0.5 0 -0.1149311313364568 0.48595768678199752 0 -0.12449786467765619 0.5 0 -0.1149311313364568 0.48595768678199752 0 -0.09887007832876249 0.5 0 -0.085307486601770663 0.48778593072245502 0 -0.09887007832876249 0.5 0 -0.098855254764445927 0.4807206276093452 0 -0.1149311313364568 0.48595768678199752 0 -0.09887007832876249 0.5 0 -0.098855254764445927 0.4807206276093452 0 -0.086080763365817839 0.47225952437169288 0 -0.098142332508926899 0.46076272940307622 0 -0.098855254764445927 0.4807206276093452 0 -0.098142332508926899 0.46076272940307622 0 -0.098855254764445927 0.4807206276093452 0 -0.10861317456168559 0.4738762954025646 0 -0.1149311313364568 0.48595768678199752 0 -0.098855254764445927 0.4807206276093452 0 -0.10861317456168559 0.4738762954025646 0 -0.17339593523207 0.091514607927556987 0 -0.15820327417720639 0.1023570348295437 0 -0.15553516750744839 0.084594424354888412 0 -0.1733811983420703 0.07386290058100714 0 -0.17339593523207 0.091514607927556987 0 -0.15553516750744839 0.084594424354888412 0 -0.1733811983420703 0.07386290058100714 0 -0.15553516750744839 0.084594424354888412 0 -0.15291611081907 0.062126008702256409 0 -0.1733811983420703 0.07386290058100714 0 -0.15291611081907 0.062126008702256409 0 -0.1768500230464303 0.055859212749288588 0 -0.1733811983420703 0.07386290058100714 0 -0.18683286956709619 0.084125533033001035 0 -0.1935807304821596 0.067025227580593136 0 -0.1733811983420703 0.07386290058100714 0 -0.1768500230464303 0.055859212749288588 0 -0.1935807304821596 0.067025227580593136 0 -0.17339593523207 0.091514607927556987 0 -0.18683286956709619 0.084125533033001035 0 -0.18876898463838529 0.10055695359322479 0 -0.1733811983420703 0.07386290058100714 0 -0.17339593523207 0.091514607927556987 0 -0.18683286956709619 0.084125533033001035 0 -0.17339593523207 0.091514607927556987 0 -0.17133224201203609 0.10772106407920939 0 -0.18876898463838529 0.10055695359322479 0 -0.19954008304299869 0.1160893697049078 0 -0.1744679341216572 0.12697293707343349 0 -0.17133224201203609 0.10772106407920939 0 -0.18876898463838529 0.10055695359322479 0 -0.1744679341216572 0.12697293707343349 0 -0.18876898463838529 0.10055695359322479 0 -0.1744679341216572 0.12697293707343349 0 -0.16182508189086151 0.1172037869722877 0 -0.17133224201203609 0.10772106407920939 0 -0.1744679341216572 0.12697293707343349 0 -0.16182508189086151 0.1172037869722877 0 -0.15820327417720639 0.1023570348295437 0 -0.1488024312185629 0.1129354278892071 0 -0.17339593523207 0.091514607927556987 0 -0.17133224201203609 0.10772106407920939 0 -0.15820327417720639 0.1023570348295437 0 -0.16182508189086151 0.1172037869722877 0 -0.17133224201203609 0.10772106407920939 0 -0.15820327417720639 0.1023570348295437 0 -0.15820327417720639 0.1023570348295437 0 -0.1414244322749085 0.098812885660122585 0 -0.15553516750744839 0.084594424354888412 0 -0.15820327417720639 0.1023570348295437 0 -0.1414244322749085 0.098812885660122585 0 -0.1488024312185629 0.1129354278892071 0 -0.16182508189086151 0.1172037869722877 0 -0.1488024312185629 0.1129354278892071 0 -0.15347273149207519 0.13082422195228541 0 -0.1488024312185629 0.1129354278892071 0 -0.13051902595446421 0.1154591082123651 0 -0.15347273149207519 0.13082422195228541 0 -0.13051902595446421 0.1154591082123651 0 -0.15347273149207519 0.13082422195228541 0 -0.1414244322749085 0.098812885660122585 0 -0.13051902595446421 0.1154591082123651 0 -0.12564790224099029 0.096947383450189162 0 -0.1414244322749085 0.098812885660122585 0 -0.1488024312185629 0.1129354278892071 0 -0.13051902595446421 0.1154591082123651 0 -0.1414244322749085 0.098812885660122585 0 -0.12564790224099029 0.096947383450189162 0 -0.133736674743692 0.079192902544725538 0 -0.12564790224099029 0.096947383450189162 0 -0.133736674743692 0.079192902544725538 0 -0.1186782570980994 0.084750976163058239 0 -0.1414244322749085 0.098812885660122585 0 -0.133736674743692 0.079192902544725538 0 -0.15553516750744839 0.084594424354888412 0 -0.133736674743692 0.079192902544725538 0 -0.15553516750744839 0.084594424354888412 0 -0.15291611081907 0.062126008702256409 0 -0.133736674743692 0.079192902544725538 0 -0.13035631494950509 0.057170994005816073 0 -0.15291611081907 0.062126008702256409 0 -0.133736674743692 0.079192902544725538 0 -0.13035631494950509 0.057170994005816073 0 -0.1167947281431639 0.070265633301019453 0 -0.13035631494950509 0.057170994005816073 0 -0.13844419072182021 0.042831434688612051 0 -0.1172136567340288 0.047255993705705643 0 -0.13035631494950509 0.057170994005816073 0 -0.13844419072182021 0.042831434688612051 0 -0.15291611081907 0.062126008702256409 0 -0.13844419072182021 0.042831434688612051 0 -0.1288023594551036 0.02581565088471165 0 -0.1233888124615569 0.034522418005547638 0 -0.13844419072182021 0.042831434688612051 0 -0.1127233924697363 0.042470184966469413 0 -0.13844419072182021 0.042831434688612051 0 -0.14731200962311949 0.024431351524014509 0 -0.164164988973904 0.043192684410755362 0 -0.13844419072182021 0.042831434688612051 0 -0.164164988973904 0.043192684410755362 0 -0.13844419072182021 0.042831434688612051 0 -0.15291611081907 0.062126008702256409 0 -0.164164988973904 0.043192684410755362 0 -0.132233184108907 -0.0033595054462071069 0 -0.13306584819055081 0.010788687507153529 0 -0.1484602837215527 0.0030264476282307702 0 -0.132233184108907 -0.0033595054462071069 0 -0.13306584819055081 0.010788687507153529 0 -0.1216773418746592 0.002895350946264876 0 -0.13306584819055081 0.010788687507153529 0 -0.1216773418746592 0.002895350946264876 0 -0.1214587732362537 0.015938476265673102 0 -0.13844419072182021 0.042831434688612051 0 -0.1288023594551036 0.02581565088471165 0 -0.14731200962311949 0.024431351524014509 0 -0.13306584819055081 0.010788687507153529 0 -0.1288023594551036 0.02581565088471165 0 -0.14731200962311949 0.024431351524014509 0 -0.13306584819055081 0.010788687507153529 0 -0.1288023594551036 0.02581565088471165 0 -0.1214587732362537 0.015938476265673102 0 -0.13306584819055081 0.010788687507153529 0 -0.14731200962311949 0.024431351524014509 0 -0.1484602837215527 0.0030264476282307702 0 -0.17095300904085309 -0.0036754353884064089 0 -0.1484602837215527 0.0030264476282307702 0 -0.17299129428467391 0.021815086582083601 0 -0.14731200962311949 0.024431351524014509 0 -0.17299129428467391 0.021815086582083601 0 -0.164164988973904 0.043192684410755362 0 -0.14731200962311949 0.024431351524014509 0 -0.1484602837215527 0.0030264476282307702 0 -0.17299129428467391 0.021815086582083601 0 -0.17095300904085309 -0.0036754353884064089 0 -0.17299129428467391 0.021815086582083601 0 -0.19253436746916289 0.01322607709220699 0 -0.17095300904085309 -0.0036754353884064089 0 -0.19253436746916289 0.01322607709220699 0 -0.17095300904085309 -0.0036754353884064089 0 -0.19127727227941829 -0.0018809895930268191 0 -0.19253436746916289 0.01322607709220699 0 -0.15291611081907 0.062126008702256409 0 -0.164164988973904 0.043192684410755362 0 -0.1768500230464303 0.055859212749288588 0 -0.17299129428467391 0.021815086582083601 0 -0.164164988973904 0.043192684410755362 0 -0.1898857872259879 0.043553934132898681 0 -0.17299129428467391 0.021815086582083601 0 -0.1898857872259879 0.043553934132898681 0 -0.19747194435591561 0.029361059891286099 0 -0.164164988973904 0.043192684410755362 0 -0.1898857872259879 0.043553934132898681 0 -0.164164988973904 0.043192684410755362 0 -0.1768500230464303 0.055859212749288588 0 -0.1898857872259879 0.043553934132898681 0 -0.1768500230464303 0.055859212749288588 0 -0.1898857872259879 0.043553934132898681 0 -0.1935807304821596 0.067025227580593136 0 -0.1898857872259879 0.043553934132898681 0 -0.2044289533601219 0.05662196641819639 0 -0.1935807304821596 0.067025227580593136 0 -0.1898857872259879 0.043553934132898681 0 -0.2156065854780719 0.0439151838550422 0 -0.1898857872259879 0.043553934132898681 0 -0.2156065854780719 0.0439151838550422 0 -0.19747194435591561 0.029361059891286099 0 -0.2156065854780719 0.0439151838550422 0 -0.19747194435591561 0.029361059891286099 0 -0.21411572589747299 0.0301275895728201 0 -0.2156065854780719 0.0439151838550422 0 -0.21411572589747299 0.0301275895728201 0 -0.2156065854780719 0.0439151838550422 0 -0.2044289533601219 0.05662196641819639 0 -0.2186427102542681 0.071993520104251543 0 -0.1898857872259879 0.043553934132898681 0 -0.2156065854780719 0.0439151838550422 0 -0.2044289533601219 0.05662196641819639 0 -0.2156065854780719 0.0439151838550422 0 -0.2186427102542681 0.071993520104251543 0 -0.19127727227941829 -0.0018809895930268191 0 -0.19253436746916289 0.01322607709220699 0 -0.20662248725047749 0.002394071584091299 0 -0.17299129428467391 0.021815086582083601 0 -0.19253436746916289 0.01322607709220699 0 -0.19747194435591561 0.029361059891286099 0 -0.19253436746916289 0.01322607709220699 0 -0.19747194435591561 0.029361059891286099 0 -0.21411572589747299 0.0301275895728201 0 -0.19253436746916289 0.01322607709220699 0 -0.21411572589747299 0.0301275895728201 0 -0.19253436746916289 0.01322607709220699 0 -0.21411572589747299 0.0301275895728201 0 -0.21275578119428379 0.017550707042869321 0 -0.21411572589747299 0.0301275895728201 0 -0.21275578119428379 0.017550707042869321 0 -0.22242013603669081 0.022650442304386582 0 -0.21411572589747299 0.0301275895728201 0 -0.21275578119428379 0.017550707042869321 0 -0.19253436746916289 0.01322607709220699 0 -0.21275578119428379 0.017550707042869321 0 -0.20662248725047749 0.002394071584091299 0 -0.21275578119428379 0.017550707042869321 0 -0.21637104234749641 0.0070155724148016586 0 -0.20662248725047749 0.002394071584091299 0 -0.21275578119428379 0.017550707042869321 0 -0.21637104234749641 0.0070155724148016586 0 -0.22572913127632821 0.013095582840220089 0 -0.22037676966889599 -0.0049780718079740771 0 -0.21637104234749641 0.0070155724148016586 0 -0.20662248725047749 0.002394071584091299 0 -0.23352814825952689 0.0028281717398327298 0 -0.22572913127632821 0.013095582840220089 0 -0.23621020976133089 0.020481873874803429 0 -0.22037676966889599 -0.0049780718079740771 0 -0.21637104234749641 0.0070155724148016586 0 -0.22572913127632821 0.013095582840220089 0 -0.22037676966889599 -0.0049780718079740771 0 -0.23352814825952689 0.0028281717398327298 0 -0.22572913127632821 0.013095582840220089 0 -0.22572913127632821 0.013095582840220089 0 -0.22242013603669081 0.022650442304386582 0 -0.23621020976133089 0.020481873874803429 0 -0.21275578119428379 0.017550707042869321 0 -0.22572913127632821 0.013095582840220089 0 -0.22242013603669081 0.022650442304386582 0 -0.21411572589747299 0.0301275895728201 0 -0.22242013603669081 0.022650442304386582 0 -0.22833479023399031 0.030408287547891572 0 -0.22833479023399031 0.030408287547891572 0 -0.23621020976133089 0.020481873874803429 0 -0.23792183910788769 0.036081823844243528 0 -0.22242013603669081 0.022650442304386582 0 -0.22833479023399031 0.030408287547891572 0 -0.23621020976133089 0.020481873874803429 0 -0.24575554110886871 0.029259261511837911 0 -0.23621020976133089 0.020481873874803429 0 -0.23792183910788769 0.036081823844243528 0 -0.25032586324923339 0.019383212456312651 0 -0.24575554110886871 0.029259261511837911 0 -0.23621020976133089 0.020481873874803429 0 -0.25032586324923339 0.019383212456312651 0 -0.23621020976133089 0.020481873874803429 0 -0.24602198530169611 0.0071378954861516129 0 -0.23352814825952689 0.0028281717398327298 0 -0.23621020976133089 0.020481873874803429 0 -0.24602198530169611 0.0071378954861516129 0 -0.2395822340657911 -0.0063235157220421466 0 -0.23352814825952689 0.0028281717398327298 0 -0.24602198530169611 0.0071378954861516129 0 -0.2156065854780719 0.0439151838550422 0 -0.23299914880436531 0.061568912621712393 0 -0.23201522786456499 0.044145643945928729 0 -0.2156065854780719 0.0439151838550422 0 -0.23299914880436531 0.061568912621712393 0 -0.2186427102542681 0.071993520104251543 0 -0.21411572589747299 0.0301275895728201 0 -0.22833479023399031 0.030408287547891572 0 -0.23201522786456499 0.044145643945928729 0 -0.21411572589747299 0.0301275895728201 0 -0.23201522786456499 0.044145643945928729 0 -0.2156065854780719 0.0439151838550422 0 -0.21411572589747299 0.0301275895728201 0 -0.23201522786456499 0.044145643945928729 0 -0.2156065854780719 0.0439151838550422 0 -0.23201522786456499 0.044145643945928729 0 -0.22833479023399031 0.030408287547891572 0 -0.23201522786456499 0.044145643945928729 0 -0.23792183910788769 0.036081823844243528 0 -0.23201522786456499 0.044145643945928729 0 -0.23792183910788769 0.036081823844243528 0 -0.24276240496295379 0.044296588512368007 0 -0.23201522786456499 0.044145643945928729 0 -0.24276240496295379 0.044296588512368007 0 -0.24575554110886871 0.029259261511837911 0 -0.23792183910788769 0.036081823844243528 0 -0.2478876971287258 0.037044445128330501 0 -0.25540072303481898 0.031301623829743053 0 -0.24575554110886871 0.029259261511837911 0 -0.2478876971287258 0.037044445128330501 0 -0.23792183910788769 0.036081823844243528 0 -0.2478876971287258 0.037044445128330501 0 -0.24276240496295379 0.044296588512368007 0 -0.25759797742910012 0.044282927943460018 0 -0.2478876971287258 0.037044445128330501 0 -0.24276240496295379 0.044296588512368007 0 -0.25124864776390909 0.05920836057488791 0 -0.23201522786456499 0.044145643945928729 0 -0.25124864776390909 0.05920836057488791 0 -0.23299914880436531 0.061568912621712393 0 -0.23201522786456499 0.044145643945928729 0 -0.25124864776390909 0.05920836057488791 0 -0.23201522786456499 0.044145643945928729 0 -0.24276240496295379 0.044296588512368007 0 -0.25211752551207112 0.076600783114969664 0 -0.24284331618842711 0.069773271931169778 0 -0.23500794267336281 0.081715031413109124 0 -0.25124864776390909 0.05920836057488791 0 -0.23299914880436531 0.061568912621712393 0 -0.24284331618842711 0.069773271931169778 0 -0.25211752551207112 0.076600783114969664 0 -0.25124864776390909 0.05920836057488791 0 -0.24284331618842711 0.069773271931169778 0 -0.23299914880436531 0.061568912621712393 0 -0.24284331618842711 0.069773271931169778 0 -0.23500794267336281 0.081715031413109124 0 -0.25211752551207112 0.076600783114969664 0 -0.2480512341667262 0.090073525033484772 0 -0.23500794267336281 0.081715031413109124 0 -0.23500794267336281 0.081715031413109124 0 -0.230635194117293 0.097200218073099073 0 -0.23767086411537941 0.09481895992036421 0 -0.2480512341667262 0.090073525033484772 0 -0.23500794267336281 0.081715031413109124 0 -0.23767086411537941 0.09481895992036421 0 -0.23500794267336281 0.081715031413109124 0 -0.22167883503046429 0.10007185635346109 0 -0.230635194117293 0.097200218073099073 0 -0.23500794267336281 0.081715031413109124 0 -0.2186427102542681 0.071993520104251543 0 -0.22167883503046429 0.10007185635346109 0 -0.2186427102542681 0.071993520104251543 0 -0.22167883503046429 0.10007185635346109 0 -0.23299914880436531 0.061568912621712393 0 -0.23500794267336281 0.081715031413109124 0 -0.2186427102542681 0.071993520104251543 0 -0.2186427102542681 0.071993520104251543 0 -0.20503749914079569 0.087667975482623076 0 -0.1935807304821596 0.067025227580593136 0 -0.2044289533601219 0.05662196641819639 0 -0.2186427102542681 0.071993520104251543 0 -0.1935807304821596 0.067025227580593136 0 -0.2186427102542681 0.071993520104251543 0 -0.20503749914079569 0.087667975482623076 0 -0.22167883503046429 0.10007185635346109 0 -0.18683286956709619 0.084125533033001035 0 -0.20503749914079569 0.087667975482623076 0 -0.18876898463838529 0.10055695359322479 0 -0.18683286956709619 0.084125533033001035 0 -0.20503749914079569 0.087667975482623076 0 -0.1935807304821596 0.067025227580593136 0 -0.19954008304299869 0.1160893697049078 0 -0.18876898463838529 0.10055695359322479 0 -0.1744679341216572 0.12697293707343349 0 -0.19954008304299869 0.1160893697049078 0 -0.18876898463838529 0.10055695359322479 0 -0.20792752676339679 0.10191839149411951 0 -0.20503749914079569 0.087667975482623076 0 -0.18876898463838529 0.10055695359322479 0 -0.20792752676339679 0.10191839149411951 0 -0.20792752676339679 0.10191839149411951 0 -0.22167883503046429 0.10007185635346109 0 -0.2246122319643398 0.1052058023363809 0 -0.20503749914079569 0.087667975482623076 0 -0.20792752676339679 0.10191839149411951 0 -0.22167883503046429 0.10007185635346109 0 -0.19954008304299869 0.1160893697049078 0 -0.20792752676339679 0.10191839149411951 0 -0.2246122319643398 0.1052058023363809 0 -0.19954008304299869 0.1160893697049078 0 -0.21859014019163259 0.117806717673647 0 -0.2246122319643398 0.1052058023363809 0 -0.19954008304299869 0.1160893697049078 0 -0.21859014019163259 0.117806717673647 0 -0.21288306142611241 0.14011596488613901 0 -0.19954008304299869 0.1160893697049078 0 -0.2246122319643398 0.1052058023363809 0 -0.21859014019163259 0.117806717673647 0 -0.23038477068487959 0.11417895815453891 0 -0.22659410830775509 0.12553226933617531 0 -0.21859014019163259 0.117806717673647 0 -0.23038477068487959 0.11417895815453891 0 -0.2246122319643398 0.1052058023363809 0 -0.23038477068487959 0.11417895815453891 0 -0.24055147475469049 0.12592656678272701 0 -0.22659410830775509 0.12553226933617531 0 -0.22167883503046429 0.10007185635346109 0 -0.2246122319643398 0.1052058023363809 0 -0.230635194117293 0.097200218073099073 0 -0.23038477068487959 0.11417895815453891 0 -0.2246122319643398 0.1052058023363809 0 -0.23420609680291871 0.10418944034218 0 -0.2246122319643398 0.1052058023363809 0 -0.23420609680291871 0.10418944034218 0 -0.230635194117293 0.097200218073099073 0 -0.23420609680291871 0.10418944034218 0 -0.230635194117293 0.097200218073099073 0 -0.23767086411537941 0.09481895992036421 0 -0.23420609680291871 0.10418944034218 0 -0.23767086411537941 0.09481895992036421 0 -0.2452530201353311 0.1017636010012952 0 -0.23420609680291871 0.10418944034218 0 -0.2452530201353311 0.1017636010012952 0 -0.23974838996845649 0.11112365593521489 0 -0.25138888186549602 0.1146306297566234 0 -0.2452530201353311 0.1017636010012952 0 -0.23974838996845649 0.11112365593521489 0 -0.2480512341667262 0.090073525033484772 0 -0.23767086411537941 0.09481895992036421 0 -0.2452530201353311 0.1017636010012952 0 -0.25659369134442539 0.13155704504436341 0 -0.25138888186549602 0.1146306297566234 0 -0.24055147475469049 0.12592656678272701 0 -0.23038477068487959 0.11417895815453891 0 -0.23420609680291871 0.10418944034218 0 -0.23974838996845649 0.11112365593521489 0 -0.23038477068487959 0.11417895815453891 0 -0.23974838996845649 0.11112365593521489 0 -0.24055147475469049 0.12592656678272701 0 -0.25138888186549602 0.1146306297566234 0 -0.23974838996845649 0.11112365593521489 0 -0.24055147475469049 0.12592656678272701 0 -0.25659369134442539 0.13155704504436341 0 -0.24055147475469049 0.12592656678272701 0 -0.24482246230367391 0.1460355056834739 0 -0.24055147475469049 0.12592656678272701 0 -0.23066540976854141 0.13956240519088059 0 -0.24482246230367391 0.1460355056834739 0 -0.21859014019163259 0.117806717673647 0 -0.22659410830775509 0.12553226933617531 0 -0.21288306142611241 0.14011596488613901 0 -0.22659410830775509 0.12553226933617531 0 -0.23066540976854141 0.13956240519088059 0 -0.21288306142611241 0.14011596488613901 0 -0.24055147475469049 0.12592656678272701 0 -0.22659410830775509 0.12553226933617531 0 -0.23066540976854141 0.13956240519088059 0 -0.23066540976854141 0.13956240519088059 0 -0.22847594205047489 0.16020171926588761 0 -0.21288306142611241 0.14011596488613901 0 -0.23066540976854141 0.13956240519088059 0 -0.24482246230367391 0.1460355056834739 0 -0.22847594205047489 0.16020171926588761 0 -0.25112853665677348 0.16891041589088091 0 -0.24482246230367391 0.1460355056834739 0 -0.22847594205047489 0.16020171926588761 0 -0.25729614246839883 0.192904198787342 0 -0.25112853665677348 0.16891041589088091 0 -0.23583955841619389 0.18660988103253179 0 -0.25112853665677348 0.16891041589088091 0 -0.23583955841619389 0.18660988103253179 0 -0.22847594205047489 0.16020171926588761 0 -0.23583955841619389 0.18660988103253179 0 -0.22847594205047489 0.16020171926588761 0 -0.2127325127875728 0.1823862027201055 0 -0.21041148307481039 0.1576257741325062 0 -0.2127325127875728 0.1823862027201055 0 -0.1979545982293989 0.16691336681395599 0 -0.22847594205047489 0.16020171926588761 0 -0.21041148307481039 0.1576257741325062 0 -0.2127325127875728 0.1823862027201055 0 -0.1963617705997045 0.18069522700272669 0 -0.19518555671492371 0.19476189312881181 0 -0.17957441466692259 0.17871944534803341 0 -0.1963617705997045 0.18069522700272669 0 -0.1979545982293989 0.16691336681395599 0 -0.17957441466692259 0.17871944534803341 0 -0.2127325127875728 0.1823862027201055 0 -0.1963617705997045 0.18069522700272669 0 -0.19518555671492371 0.19476189312881181 0 -0.2127325127875728 0.1823862027201055 0 -0.1963617705997045 0.18069522700272669 0 -0.1979545982293989 0.16691336681395599 0 -0.21041148307481039 0.1576257741325062 0 -0.1979545982293989 0.16691336681395599 0 -0.1852191453206411 0.14916448297998111 0 -0.21041148307481039 0.1576257741325062 0 -0.21288306142611241 0.14011596488613901 0 -0.1852191453206411 0.14916448297998111 0 -0.21288306142611241 0.14011596488613901 0 -0.1852191453206411 0.14916448297998111 0 -0.19954008304299869 0.1160893697049078 0 -0.19169117808885491 0.13232884571816431 0 -0.21288306142611241 0.14011596488613901 0 -0.19954008304299869 0.1160893697049078 0 -0.19169117808885491 0.13232884571816431 0 -0.1744679341216572 0.12697293707343349 0 -0.19169117808885491 0.13232884571816431 0 -0.21288306142611241 0.14011596488613901 0 -0.1852191453206411 0.14916448297998111 0 -0.22847594205047489 0.16020171926588761 0 -0.21041148307481039 0.1576257741325062 0 -0.21288306142611241 0.14011596488613901 0 -0.22048991925147771 0.2456745707996362 0 -0.24106616633904621 0.23879867761003831 0 -0.21619215844073869 0.2277966458210485 0 -0.23337060805357071 0.25782664449674292 0 -0.22048991925147771 0.2456745707996362 0 -0.24106616633904621 0.23879867761003831 0 -0.23337060805357071 0.25782664449674292 0 -0.24106616633904621 0.23879867761003831 0 -0.24692216810694789 0.25001748358109999 0 -0.23337060805357071 0.25782664449674292 0 -0.24106616633904621 0.23879867761003831 0 -0.24692216810694789 0.25001748358109999 0 -0.24335130303715879 0.23980941728245489 0 -0.24106616633904621 0.23879867761003831 0 -0.24692216810694789 0.25001748358109999 0 -0.2486803751337151 0.24371598269619851 0 -0.24335130303715879 0.23980941728245489 0 -0.2491553456495661 0.23856422303762659 0 -0.24335130303715879 0.23980941728245489 0 -0.24106616633904621 0.23879867761003831 0 -0.25201520924327259 0.23336243492396949 0 -0.2491553456495661 0.23856422303762659 0 -0.24106616633904621 0.23879867761003831 0 -0.2486803751337151 0.24371598269619851 0 -0.2491553456495661 0.23856422303762659 0 -0.24335130303715879 0.23980941728245489 0 -0.24335130303715879 0.23980941728245489 0 -0.24106616633904621 0.23879867761003831 0 -0.24106616633904621 0.23879867761003831 0 -0.24716767852323171 0.22371213450391961 0 -0.23511716940273431 0.2209965921729683 0 -0.25201520924327259 0.23336243492396949 0 -0.24106616633904621 0.23879867761003831 0 -0.24716767852323171 0.22371213450391961 0 -0.24106616633904621 0.23879867761003831 0 -0.24716767852323171 0.22371213450391961 0 -0.24106616633904621 0.23879867761003831 0 -0.23511716940273431 0.2209965921729683 0 -0.21619215844073869 0.2277966458210485 0 -0.24106616633904621 0.23879867761003831 0 -0.21619215844073869 0.2277966458210485 0 -0.23511716940273431 0.2209965921729683 0 -0.22488633133727831 0.20655969841825089 0 -0.21619215844073869 0.2277966458210485 0 -0.23511716940273431 0.2209965921729683 0 -0.22488633133727831 0.20655969841825089 0 -0.2462735123733765 0.2081158045115844 0 -0.25621783996658298 0.217675613388954 0 -0.24716767852323171 0.22371213450391961 0 -0.2462735123733765 0.2081158045115844 0 -0.24716767852323171 0.22371213450391961 0 -0.23511716940273431 0.2209965921729683 0 -0.2462735123733765 0.2081158045115844 0 -0.23583955841619389 0.18660988103253179 0 -0.22488633133727831 0.20655969841825089 0 -0.2462735123733765 0.2081158045115844 0 -0.25729614246839883 0.192904198787342 0 -0.23583955841619389 0.18660988103253179 0 -0.2462735123733765 0.2081158045115844 0 -0.23583955841619389 0.18660988103253179 0 -0.2127325127875728 0.1823862027201055 0 -0.22488633133727831 0.20655969841825089 0 -0.2127325127875728 0.1823862027201055 0 -0.19518555671492371 0.19476189312881181 0 -0.2065347120870934 0.20819766150080909 0 -0.2127325127875728 0.1823862027201055 0 -0.22488633133727831 0.20655969841825089 0 -0.2065347120870934 0.20819766150080909 0 -0.19518555671492371 0.19476189312881181 0 -0.1913181505424314 0.2167946140320586 0 -0.18029593967313939 0.1972718867259548 0 -0.19518555671492371 0.19476189312881181 0 -0.1913181505424314 0.2167946140320586 0 -0.2065347120870934 0.20819766150080909 0 -0.1913181505424314 0.2167946140320586 0 -0.2065347120870934 0.20819766150080909 0 -0.21619215844073869 0.2277966458210485 0 -0.22488633133727831 0.20655969841825089 0 -0.2065347120870934 0.20819766150080909 0 -0.21619215844073869 0.2277966458210485 0 -0.1913181505424314 0.2167946140320586 0 -0.21619215844073869 0.2277966458210485 0 -0.21619215844073869 0.2277966458210485 0 -0.19490688257849589 0.2306864637486849 0 -0.19989871809881959 0.24235829282569299 0 -0.1913181505424314 0.2167946140320586 0 -0.21619215844073869 0.2277966458210485 0 -0.19490688257849589 0.2306864637486849 0 -0.1913181505424314 0.2167946140320586 0 -0.19490688257849589 0.2306864637486849 0 -0.18001352240726021 0.2291718583889763 0 -0.19545641706550559 0.25809144789620081 0 -0.1886652591447083 0.24799262542682199 0 -0.19989871809881959 0.24235829282569299 0 -0.19490688257849589 0.2306864637486849 0 -0.19989871809881959 0.24235829282569299 0 -0.18711186340322969 0.23731090767564819 0 -0.1886652591447083 0.24799262542682199 0 -0.19989871809881959 0.24235829282569299 0 -0.18711186340322969 0.23731090767564819 0 -0.22048991925147771 0.2456745707996362 0 -0.21619215844073869 0.2277966458210485 0 -0.19989871809881959 0.24235829282569299 0 -0.211921945325213 0.26159259324465822 0 -0.22048991925147771 0.2456745707996362 0 -0.19989871809881959 0.24235829282569299 0 -0.1621862501987571 0.2470355145894835 0 -0.16508449872957809 0.235723235982922 0 -0.14852285806582621 0.23933455205420259 0 -0.16942830472862849 0.26177306499111058 0 -0.1621862501987571 0.2470355145894835 0 -0.17658594284595591 0.23972839419352049 0 -0.1621862501987571 0.2470355145894835 0 -0.16508449872957809 0.235723235982922 0 -0.17658594284595591 0.23972839419352049 0 -0.18711186340322969 0.23731090767564819 0 -0.17658594284595591 0.23972839419352049 0 -0.18001352240726021 0.2291718583889763 0 -0.1886652591447083 0.24799262542682199 0 -0.18711186340322969 0.23731090767564819 0 -0.17658594284595591 0.23972839419352049 0 -0.17658594284595591 0.23972839419352049 0 -0.18001352240726021 0.2291718583889763 0 -0.17658594284595591 0.23972839419352049 0 -0.17201040465253589 0.22519352900828099 0 -0.1913181505424314 0.2167946140320586 0 -0.18001352240726021 0.2291718583889763 0 -0.17201040465253589 0.22519352900828099 0 -0.1913181505424314 0.2167946140320586 0 -0.17201040465253589 0.22519352900828099 0 -0.16692877153212549 0.21684375215959331 0 -0.17658594284595591 0.23972839419352049 0 -0.18001352240726021 0.2291718583889763 0 -0.17201040465253589 0.22519352900828099 0 -0.19490688257849589 0.2306864637486849 0 -0.18711186340322969 0.23731090767564819 0 -0.18001352240726021 0.2291718583889763 0 -0.16508449872957809 0.235723235982922 0 -0.16147832219157771 0.2256162470008547 0 -0.14852285806582621 0.23933455205420259 0 -0.17201040465253589 0.22519352900828099 0 -0.16147832219157771 0.2256162470008547 0 -0.16692877153212549 0.21684375215959331 0 -0.16147832219157771 0.2256162470008547 0 -0.16692877153212549 0.21684375215959331 0 -0.15119923273533081 0.21840323100881809 0 -0.16508449872957809 0.235723235982922 0 -0.17658594284595591 0.23972839419352049 0 -0.17201040465253589 0.22519352900828099 0 -0.16508449872957809 0.235723235982922 0 -0.17201040465253589 0.22519352900828099 0 -0.16147832219157771 0.2256162470008547 0 -0.16644414264412391 0.20579258224306871 0 -0.16692877153212549 0.21684375215959331 0 -0.15119923273533081 0.21840323100881809 0 -0.16644414264412391 0.20579258224306871 0 -0.15176454915878271 0.2020267283211718 0 -0.15119923273533081 0.21840323100881809 0 -0.1913181505424314 0.2167946140320586 0 -0.16644414264412391 0.20579258224306871 0 -0.16692877153212549 0.21684375215959331 0 -0.1913181505424314 0.2167946140320586 0 -0.16644414264412391 0.20579258224306871 0 -0.18029593967313939 0.1972718867259548 0 -0.1913181505424314 0.2167946140320586 0 -0.16644414264412391 0.20579258224306871 0 -0.19518555671492371 0.19476189312881181 0 -0.18029593967313939 0.1972718867259548 0 -0.17957441466692259 0.17871944534803341 0 -0.18029593967313939 0.1972718867259548 0 -0.16434224630096969 0.19054595818817199 0 -0.17957441466692259 0.17871944534803341 0 -0.16644414264412391 0.20579258224306871 0 -0.18029593967313939 0.1972718867259548 0 -0.16434224630096969 0.19054595818817199 0 -0.16644414264412391 0.20579258224306871 0 -0.16434224630096969 0.19054595818817199 0 -0.15176454915878271 0.2020267283211718 0 -0.1289628813397195 0.2110269526261731 0 -0.1432590552774442 0.1846199768499977 0 -0.1208640797685413 0.1784615768753646 0 -0.16434224630096969 0.19054595818817199 0 -0.15176454915878271 0.2020267283211718 0 -0.1432590552774442 0.1846199768499977 0 -0.15176454915878271 0.2020267283211718 0 -0.1289628813397195 0.2110269526261731 0 -0.1432590552774442 0.1846199768499977 0 -0.1289628813397195 0.2110269526261731 0 -0.1432590552774442 0.1846199768499977 0 -0.15176454915878271 0.2020267283211718 0 -0.1289628813397195 0.2110269526261731 0 -0.15119923273533081 0.21840323100881809 0 -0.15119923273533081 0.21840323100881809 0 -0.1382016204562202 0.22684838134910359 0 -0.14852285806582621 0.23933455205420259 0 -0.16147832219157771 0.2256162470008547 0 -0.15119923273533081 0.21840323100881809 0 -0.14852285806582621 0.23933455205420259 0 -0.1289628813397195 0.2110269526261731 0 -0.15119923273533081 0.21840323100881809 0 -0.1382016204562202 0.22684838134910359 0 -0.1382016204562202 0.22684838134910359 0 -0.14852285806582621 0.23933455205420259 0 -0.12400862952741309 0.23614658815304251 0 -0.1289628813397195 0.2110269526261731 0 -0.1382016204562202 0.22684838134910359 0 -0.12400862952741309 0.23614658815304251 0 -0.1310946094237799 0.26075003484107362 0 -0.14852285806582621 0.23933455205420259 0 -0.12400862952741309 0.23614658815304251 0 -0.1513096466237969 0.25861832572566151 0 -0.1621862501987571 0.2470355145894835 0 -0.14852285806582621 0.23933455205420259 0 -0.1852191453206411 0.14916448297998111 0 -0.15755522921516951 0.1582130010738225 0 -0.16601158166841271 0.1425929690736277 0 -0.1852191453206411 0.14916448297998111 0 -0.15755522921516951 0.1582130010738225 0 -0.16601158166841271 0.1425929690736277 0 -0.15755522921516951 0.1582130010738225 0 -0.1493482686571492 0.14885140537810179 0 -0.16601158166841271 0.1425929690736277 0 -0.15755522921516951 0.1582130010738225 0 -0.1744679341216572 0.12697293707343349 0 -0.15347273149207519 0.13082422195228541 0 -0.14987521751834881 0.1376483877006193 0 -0.16601158166841271 0.1425929690736277 0 -0.1744679341216572 0.12697293707343349 0 -0.14987521751834881 0.1376483877006193 0 -0.16182508189086151 0.1172037869722877 0 -0.1744679341216572 0.12697293707343349 0 -0.15347273149207519 0.13082422195228541 0 -0.1744679341216572 0.12697293707343349 0 -0.14987521751834881 0.1376483877006193 0 -0.16601158166841271 0.1425929690736277 0 -0.1744679341216572 0.12697293707343349 0 -0.16601158166841271 0.1425929690736277 0 -0.1744679341216572 0.12697293707343349 0 -0.1852191453206411 0.14916448297998111 0 -0.19169117808885491 0.13232884571816431 0 -0.1744679341216572 0.12697293707343349 0 -0.1852191453206411 0.14916448297998111 0 -0.1852191453206411 0.14916448297998111 0 -0.1762114659654184 0.16466001113790599 0 -0.15755522921516951 0.1582130010738225 0 -0.1979545982293989 0.16691336681395599 0 -0.1762114659654184 0.16466001113790599 0 -0.17957441466692259 0.17871944534803341 0 -0.1979545982293989 0.16691336681395599 0 -0.1852191453206411 0.14916448297998111 0 -0.1762114659654184 0.16466001113790599 0 -0.1762114659654184 0.16466001113790599 0 -0.17957441466692259 0.17871944534803341 0 -0.1647153763854054 0.1748451296408054 0 -0.16434224630096969 0.19054595818817199 0 -0.1647153763854054 0.1748451296408054 0 -0.1432590552774442 0.1846199768499977 0 -0.16434224630096969 0.19054595818817199 0 -0.17957441466692259 0.17871944534803341 0 -0.1647153763854054 0.1748451296408054 0 -0.1762114659654184 0.16466001113790599 0 -0.1647153763854054 0.1748451296408054 0 -0.15755522921516951 0.1582130010738225 0 -0.15755522921516951 0.1582130010738225 0 -0.1432590552774442 0.1846199768499977 0 -0.15755522921516951 0.1582130010738225 0 -0.13920739553331549 0.164214346090201 0 -0.1493482686571492 0.14885140537810179 0 -0.15755522921516951 0.1582130010738225 0 -0.1432590552774442 0.1846199768499977 0 -0.13920739553331549 0.164214346090201 0 -0.15755522921516951 0.1582130010738225 0 -0.13920739553331549 0.164214346090201 0 -0.1647153763854054 0.1748451296408054 0 -0.15755522921516951 0.1582130010738225 0 -0.1432590552774442 0.1846199768499977 0 -0.1432590552774442 0.1846199768499977 0 -0.13920739553331549 0.164214346090201 0 -0.1208640797685413 0.1784615768753646 0 -0.13920739553331549 0.164214346090201 0 -0.1188015198191347 0.15424090602365201 0 -0.1208640797685413 0.1784615768753646 0 -0.13920739553331549 0.164214346090201 0 -0.13452326195859701 0.14841270699985201 0 -0.1188015198191347 0.15424090602365201 0 -0.13452326195859701 0.14841270699985201 0 -0.1249307373135187 0.13624337022116259 0 -0.1188015198191347 0.15424090602365201 0 -0.13920739553331549 0.164214346090201 0 -0.13452326195859701 0.14841270699985201 0 -0.1493482686571492 0.14885140537810179 0 -0.16601158166841271 0.1425929690736277 0 -0.1493482686571492 0.14885140537810179 0 -0.14987521751834881 0.1376483877006193 0 -0.13452326195859701 0.14841270699985201 0 -0.1493482686571492 0.14885140537810179 0 -0.14044487381569221 0.13623986674406441 0 -0.1493482686571492 0.14885140537810179 0 -0.14987521751834881 0.1376483877006193 0 -0.14044487381569221 0.13623986674406441 0 -0.13051902595446421 0.1154591082123651 0 -0.15347273149207519 0.13082422195228541 0 -0.14044487381569221 0.13623986674406441 0 -0.15347273149207519 0.13082422195228541 0 -0.14987521751834881 0.1376483877006193 0 -0.14044487381569221 0.13623986674406441 0 -0.13051902595446421 0.1154591082123651 0 -0.14044487381569221 0.13623986674406441 0 -0.1249307373135187 0.13624337022116259 0 -0.13452326195859701 0.14841270699985201 0 -0.14044487381569221 0.13623986674406441 0 -0.1249307373135187 0.13624337022116259 0 -0.1249307373135187 0.13624337022116259 0 -0.1110314928381395 0.13835532679948889 0 -0.10952404907619021 0.12231204566622381 0 -0.096213563367705229 0.13225491225589239 0 -0.08411028625673711 0.12233707431125471 0 -0.10952404907619021 0.12231204566622381 0 -0.1110314928381395 0.13835532679948889 0 -0.096213563367705229 0.13225491225589239 0 -0.10952404907619021 0.12231204566622381 0 -0.1110314928381395 0.13835532679948889 0 -0.096213563367705229 0.13225491225589239 0 -0.097421830018808941 0.14627746241806761 0 -0.1110314928381395 0.13835532679948889 0 -0.097421830018808941 0.14627746241806761 0 -0.1188015198191347 0.15424090602365201 0 -0.097421830018808941 0.14627746241806761 0 -0.1188015198191347 0.15424090602365201 0 -0.097421830018808941 0.14627746241806761 0 -0.1188015198191347 0.15424090602365201 0 -0.10331497876095 0.1629947392337586 0 -0.1249307373135187 0.13624337022116259 0 -0.1110314928381395 0.13835532679948889 0 -0.1188015198191347 0.15424090602365201 0 -0.1188015198191347 0.15424090602365201 0 -0.1208640797685413 0.1784615768753646 0 -0.10331497876095 0.1629947392337586 0 -0.1208640797685413 0.1784615768753646 0 -0.09667580491591711 0.17976206178890619 0 -0.1047363367279416 0.20045832059997989 0 -0.1208640797685413 0.1784615768753646 0 -0.09667580491591711 0.17976206178890619 0 -0.10331497876095 0.1629947392337586 0 -0.080050248997938694 0.16240468683664991 0 -0.071671647182761727 0.19725333827394029 0 -0.058489633632589078 0.17229831592262659 0 -0.097421830018808941 0.14627746241806761 0 -0.10331497876095 0.1629947392337586 0 -0.080050248997938694 0.16240468683664991 0 -0.09667580491591711 0.17976206178890619 0 -0.10331497876095 0.1629947392337586 0 -0.080050248997938694 0.16240468683664991 0 -0.09667580491591711 0.17976206178890619 0 -0.080050248997938694 0.16240468683664991 0 -0.071671647182761727 0.19725333827394029 0 -0.071671647182761727 0.19725333827394029 0 -0.058489633632589078 0.17229831592262659 0 -0.080050248997938694 0.16240468683664991 0 -0.062805786401941649 0.1499890285845899 0 -0.058489633632589078 0.17229831592262659 0 -0.080050248997938694 0.16240468683664991 0 -0.062805786401941649 0.1499890285845899 0 -0.076042140218483184 0.1383140188124832 0 -0.062805786401941649 0.1499890285845899 0 -0.076042140218483184 0.1383140188124832 0 -0.054662450418157371 0.1303505752068988 0 -0.076042140218483184 0.1383140188124832 0 -0.058696523437284133 0.1223621029562855 0 -0.08411028625673711 0.12233707431125471 0 -0.076042140218483184 0.1383140188124832 0 -0.054662450418157371 0.1303505752068988 0 -0.058696523437284133 0.1223621029562855 0 -0.076042140218483184 0.1383140188124832 0 -0.054662450418157371 0.1303505752068988 0 -0.096213563367705229 0.13225491225589239 0 -0.076042140218483184 0.1383140188124832 0 -0.08411028625673711 0.12233707431125471 0 -0.096213563367705229 0.13225491225589239 0 -0.097421830018808941 0.14627746241806761 0 -0.076042140218483184 0.1383140188124832 0 -0.097421830018808941 0.14627746241806761 0 -0.076042140218483184 0.1383140188124832 0 -0.097421830018808941 0.14627746241806761 0 -0.080050248997938694 0.16240468683664991 0 -0.076042140218483184 0.1383140188124832 0 -0.12400862952741309 0.23614658815304251 0 -0.096578315733898024 0.22289305616138791 0 -0.092241720779936504 0.24334294633890469 0 -0.1289628813397195 0.2110269526261731 0 -0.12400862952741309 0.23614658815304251 0 -0.096578315733898024 0.22289305616138791 0 -0.1085624528409873 0.25569170958414472 0 -0.12400862952741309 0.23614658815304251 0 -0.092241720779936504 0.24334294633890469 0 -0.1289628813397195 0.2110269526261731 0 -0.096578315733898024 0.22289305616138791 0 -0.1047363367279416 0.20045832059997989 0 -0.1289628813397195 0.2110269526261731 0 -0.1208640797685413 0.1784615768753646 0 -0.1047363367279416 0.20045832059997989 0 -0.096578315733898024 0.22289305616138791 0 -0.1047363367279416 0.20045832059997989 0 -0.071671647182761727 0.19725333827394029 0 -0.09667580491591711 0.17976206178890619 0 -0.1047363367279416 0.20045832059997989 0 -0.071671647182761727 0.19725333827394029 0 -0.071671647182761727 0.19725333827394029 0 -0.07063934786323757 0.22849521825744301 0 -0.052790228321005647 0.21210647775793801 0 -0.096578315733898024 0.22289305616138791 0 -0.071671647182761727 0.19725333827394029 0 -0.07063934786323757 0.22849521825744301 0 -0.096578315733898024 0.22289305616138791 0 -0.07063934786323757 0.22849521825744301 0 -0.092241720779936504 0.24334294633890469 0 -0.075330479111900966 0.25473465145598062 0 -0.07063934786323757 0.22849521825744301 0 -0.056902282207796993 0.24522582623165129 0 -0.075330479111900966 0.25473465145598062 0 -0.07063934786323757 0.22849521825744301 0 -0.092241720779936504 0.24334294633890469 0 -0.039471011762030932 0.2479092694204493 0 -0.046961509789315591 0.22768330500482931 0 -0.017922648007392059 0.23179626302251419 0 -0.039471011762030932 0.2479092694204493 0 -0.056902282207796993 0.24522582623165129 0 -0.046961509789315591 0.22768330500482931 0 -0.07063934786323757 0.22849521825744301 0 -0.056902282207796993 0.24522582623165129 0 -0.046961509789315591 0.22768330500482931 0 -0.07063934786323757 0.22849521825744301 0 -0.046961509789315591 0.22768330500482931 0 -0.052790228321005647 0.21210647775793801 0 -0.046961509789315591 0.22768330500482931 0 -0.030447642042519079 0.2156583915121362 0 -0.017922648007392059 0.23179626302251419 0 -0.071671647182761727 0.19725333827394029 0 -0.052790228321005647 0.21210647775793801 0 -0.039105924407320587 0.19715594521558391 0 -0.071671647182761727 0.19725333827394029 0 -0.039105924407320587 0.19715594521558391 0 -0.058489633632589078 0.17229831592262659 0 -0.052790228321005647 0.21210647775793801 0 -0.039105924407320587 0.19715594521558391 0 -0.030447642042519079 0.2156583915121362 0 -0.046961509789315591 0.22768330500482931 0 -0.052790228321005647 0.21210647775793801 0 -0.030447642042519079 0.2156583915121362 0 -0.039105924407320587 0.19715594521558391 0 -0.01009478277057712 0.2094841072168174 0 -0.0049580365993444602 0.1804644531125153 0 -0.01009478277057712 0.2094841072168174 0 -0.0049580365993444602 0.1804644531125153 0 0.0052567923705268242 0.19330072273284449 0 -0.01009478277057712 0.2094841072168174 0 -0.0049580365993444602 0.1804644531125153 0 -0.01009478277057712 0.2094841072168174 0 0.00072012848422453363 0.2276959706166716 0 0.0071558073154352267 0.21561480991451609 0 -0.039105924407320587 0.19715594521558391 0 -0.01009478277057712 0.2094841072168174 0 -0.030447642042519079 0.2156583915121362 0 -0.01009478277057712 0.2094841072168174 0 -0.030447642042519079 0.2156583915121362 0 -0.017922648007392059 0.23179626302251419 0 -0.01009478277057712 0.2094841072168174 0 -0.017922648007392059 0.23179626302251419 0 0.00072012848422453363 0.2276959706166716 0 -0.017922648007392059 0.23179626302251419 0 0.0003291665693064352 0.24474665195800591 0 0.00072012848422453363 0.2276959706166716 0 -0.01924684321241342 0.25540461489049582 0 -0.017922648007392059 0.23179626302251419 0 0.0003291665693064352 0.24474665195800591 0 -0.01924684321241342 0.25540461489049582 0 -0.039471011762030932 0.2479092694204493 0 -0.017922648007392059 0.23179626302251419 0 -0.045307620082416372 0.14734329357131271 0 -0.023018645006237081 0.15848925854208901 0 -0.03120285532768766 0.1408693563329044 0 -0.045307620082416372 0.14734329357131271 0 -0.032125606532244319 0.1223882712199985 0 -0.045307620082416372 0.14734329357131271 0 -0.03120285532768766 0.1408693563329044 0 -0.032125606532244319 0.1223882712199985 0 -0.045307620082416372 0.14734329357131271 0 -0.054662450418157371 0.1303505752068988 0 -0.032125606532244319 0.1223882712199985 0 -0.054662450418157371 0.1303505752068988 0 -0.032125606532244319 0.1223882712199985 0 -0.054662450418157371 0.1303505752068988 0 -0.032125606532244319 0.1223882712199985 0 -0.058696523437284133 0.1223621029562855 0 -0.062805786401941649 0.1499890285845899 0 -0.045307620082416372 0.14734329357131271 0 -0.054662450418157371 0.1303505752068988 0 -0.062805786401941649 0.1499890285845899 0 -0.045307620082416372 0.14734329357131271 0 -0.058489633632589078 0.17229831592262659 0 -0.045307620082416372 0.14734329357131271 0 -0.058489633632589078 0.17229831592262659 0 -0.039105924407320587 0.19715594521558391 0 -0.058489633632589078 0.17229831592262659 0 -0.036544675894868213 0.1740626250054205 0 -0.045307620082416372 0.14734329357131271 0 -0.036544675894868213 0.1740626250054205 0 -0.023018645006237081 0.15848925854208901 0 -0.045307620082416372 0.14734329357131271 0 -0.058489633632589078 0.17229831592262659 0 -0.036544675894868213 0.1740626250054205 0 -0.039105924407320587 0.19715594521558391 0 -0.036544675894868213 0.1740626250054205 0 -0.0049580365993444602 0.1804644531125153 0 -0.036544675894868213 0.1740626250054205 0 -0.023018645006237081 0.15848925854208901 0 -0.0049580365993444602 0.1804644531125153 0 -0.023018645006237081 0.15848925854208901 0 -0.0049580365993444602 0.1804644531125153 0 0.00017870957188821911 0.15144479900821309 0 -0.0049580365993444602 0.1804644531125153 0 0.00017870957188821911 0.15144479900821309 0 -0.023018645006237081 0.15848925854208901 0 -0.0087077923134388432 0.14123608331133289 0 0.00017870957188821911 0.15144479900821309 0 -0.023018645006237081 0.15848925854208901 0 -0.03120285532768766 0.1408693563329044 0 -0.020550758152032719 0.13738524242352729 0 -0.023018645006237081 0.15848925854208901 0 -0.0087077923134388432 0.14123608331133289 0 -0.020550758152032719 0.13738524242352729 0 -0.03120285532768766 0.1408693563329044 0 -0.02689007527717396 0.13115535206070969 0 -0.032125606532244319 0.1223882712199985 0 -0.02689007527717396 0.13115535206070969 0 -0.021989087015828471 0.12239825413164079 0 -0.032125606532244319 0.1223882712199985 0 -0.03120285532768766 0.1408693563329044 0 -0.02689007527717396 0.13115535206070969 0 -0.020550758152032719 0.13738524242352729 0 -0.02689007527717396 0.13115535206070969 0 -0.020550758152032719 0.13738524242352729 0 -0.021989087015828471 0.12239825413164079 0 -0.020550758152032719 0.13738524242352729 0 -0.0113789625442658 0.1309575774868055 0 -0.021989087015828471 0.12239825413164079 0 -0.020550758152032719 0.13738524242352729 0 -0.021989087015828471 0.12239825413164079 0 -0.0087077923134388432 0.14123608331133289 0 0.0053154557431208706 0.1224251449039109 0 0.00017870957188821911 0.15144479900821309 0 -0.0087077923134388432 0.14123608331133289 0 -0.0113789625442658 0.1309575774868055 0 0.0053154557431208706 0.1224251449039109 0 -0.0113789625442658 0.1309575774868055 0 -0.021989087015828471 0.12239825413164079 0 0.0053154557431208706 0.1224251449039109 0 -0.0087077923134388432 0.14123608331133289 0 -0.020550758152032719 0.13738524242352729 0 -0.0113789625442658 0.1309575774868055 0 -0.021989087015828471 0.12239825413164079 0 0.0053154557431208706 0.1224251449039109 0 -0.0027193759803810641 0.1009396497143747 0 -0.021989087015828471 0.12239825413164079 0 0.0053154557431208706 0.1224251449039109 0 -0.02458330597703997 0.095367211247836856 0 -0.021989087015828471 0.12239825413164079 0 -0.0027193759803810641 0.1009396497143747 0 -0.02458330597703997 0.095367211247836856 0 -0.021989087015828471 0.12239825413164079 0 -0.021989087015828471 0.12239825413164079 0 -0.033643137451425109 0.11749277412077939 0 -0.034580737990091322 0.1114508989818543 0 -0.02458330597703997 0.095367211247836856 0 -0.021989087015828471 0.12239825413164079 0 -0.034580737990091322 0.1114508989818543 0 -0.021989087015828471 0.12239825413164079 0 -0.032125606532244319 0.1223882712199985 0 -0.033643137451425109 0.11749277412077939 0 -0.021989087015828471 0.12239825413164079 0 -0.032125606532244319 0.1223882712199985 0 -0.0062761177996792199 0.0797211473454352 0 -0.027177524938251721 0.068336168364032654 0 -0.0039771359231659731 0.06081973510145889 0 -0.0027193759803810641 0.1009396497143747 0 -0.02458330597703997 0.095367211247836856 0 -0.0062761177996792199 0.0797211473454352 0 -0.02458330597703997 0.095367211247836856 0 -0.027177524938251721 0.068336168364032654 0 -0.02458330597703997 0.095367211247836856 0 -0.0062761177996792199 0.0797211473454352 0 -0.027177524938251721 0.068336168364032654 0 -0.027177524938251721 0.068336168364032654 0 -0.043097710548750057 0.084399838855196946 0 -0.047197037436102672 0.060467938015408583 0 -0.02458330597703997 0.095367211247836856 0 -0.027177524938251721 0.068336168364032654 0 -0.043097710548750057 0.084399838855196946 0 -0.043097710548750057 0.084399838855196946 0 -0.059962236727009247 0.093337208199721966 0 -0.045970946646119462 0.1033915684912009 0 -0.043097710548750057 0.084399838855196946 0 -0.059962236727009247 0.093337208199721966 0 -0.060865327129472291 0.076448669126268354 0 -0.060865327129472291 0.076448669126268354 0 -0.075229769779247155 0.059171169197210147 0 -0.047197037436102672 0.060467938015408583 0 -0.043097710548750057 0.084399838855196946 0 -0.060865327129472291 0.076448669126268354 0 -0.047197037436102672 0.060467938015408583 0 -0.043545318521890072 0.11459194529682221 0 -0.032125606532244319 0.1223882712199985 0 -0.058696523437284133 0.1223621029562855 0 -0.032125606532244319 0.1223882712199985 0 -0.058696523437284133 0.1223621029562855 0 -0.043545318521890072 0.11459194529682221 0 -0.034580737990091322 0.1114508989818543 0 -0.045970946646119462 0.1033915684912009 0 -0.043545318521890072 0.11459194529682221 0 -0.032125606532244319 0.1223882712199985 0 -0.033643137451425109 0.11749277412077939 0 -0.043545318521890072 0.11459194529682221 0 -0.033643137451425109 0.11749277412077939 0 -0.034580737990091322 0.1114508989818543 0 -0.02458330597703997 0.095367211247836856 0 -0.043097710548750057 0.084399838855196946 0 -0.045970946646119462 0.1033915684912009 0 -0.02458330597703997 0.095367211247836856 0 -0.034580737990091322 0.1114508989818543 0 -0.045970946646119462 0.1033915684912009 0 -0.059962236727009247 0.093337208199721966 0 -0.045970946646119462 0.1033915684912009 0 -0.057449250146458658 0.10830797568762481 0 -0.043545318521890072 0.11459194529682221 0 -0.045970946646119462 0.1033915684912009 0 -0.057449250146458658 0.10830797568762481 0 -0.057449250146458658 0.10830797568762481 0 -0.058696523437284133 0.1223621029562855 0 -0.068098895854859801 0.11427515711158159 0 -0.043545318521890072 0.11459194529682221 0 -0.057449250146458658 0.10830797568762481 0 -0.058696523437284133 0.1223621029562855 0 -0.068098895854859801 0.11427515711158159 0 -0.08411028625673711 0.12233707431125471 0 -0.072139523578959336 0.10409347549116151 0 -0.058696523437284133 0.1223621029562855 0 -0.068098895854859801 0.11427515711158159 0 -0.08411028625673711 0.12233707431125471 0 -0.058696523437284133 0.1223621029562855 0 -0.08411028625673711 0.12233707431125471 0 -0.08411028625673711 0.12233707431125471 0 -0.089752267178778142 0.104798416820754 0 -0.072139523578959336 0.10409347549116151 0 -0.089752267178778142 0.104798416820754 0 -0.072139523578959336 0.10409347549116151 0 -0.084611614879242431 0.084728880732524478 0 -0.059962236727009247 0.093337208199721966 0 -0.072139523578959336 0.10409347549116151 0 -0.084611614879242431 0.084728880732524478 0 -0.059962236727009247 0.093337208199721966 0 -0.057449250146458658 0.10830797568762481 0 -0.072139523578959336 0.10409347549116151 0 -0.057449250146458658 0.10830797568762481 0 -0.068098895854859801 0.11427515711158159 0 -0.072139523578959336 0.10409347549116151 0 -0.059962236727009247 0.093337208199721966 0 -0.060865327129472291 0.076448669126268354 0 -0.084611614879242431 0.084728880732524478 0 -0.060865327129472291 0.076448669126268354 0 -0.084611614879242431 0.084728880732524478 0 -0.075229769779247155 0.059171169197210147 0 -0.084611614879242431 0.084728880732524478 0 -0.099785686743100552 0.064565113416766587 0 -0.075229769779247155 0.059171169197210147 0 -0.084611614879242431 0.084728880732524478 0 -0.1054871214560919 0.080880919617162705 0 -0.10756532041685329 0.1000939944724448 0 -0.084611614879242431 0.084728880732524478 0 -0.10756532041685329 0.1000939944724448 0 -0.084611614879242431 0.084728880732524478 0 -0.1054871214560919 0.080880919617162705 0 -0.099785686743100552 0.064565113416766587 0 -0.1054871214560919 0.080880919617162705 0 -0.099785686743100552 0.064565113416766587 0 -0.1167947281431639 0.070265633301019453 0 -0.099785686743100552 0.064565113416766587 0 -0.1167947281431639 0.070265633301019453 0 -0.1142903407456884 0.058304575514101308 0 -0.133736674743692 0.079192902544725538 0 -0.1167947281431639 0.070265633301019453 0 -0.1186782570980994 0.084750976163058239 0 -0.1054871214560919 0.080880919617162705 0 -0.1186782570980994 0.084750976163058239 0 -0.10756532041685329 0.1000939944724448 0 -0.1054871214560919 0.080880919617162705 0 -0.1167947281431639 0.070265633301019453 0 -0.1186782570980994 0.084750976163058239 0 -0.13051902595446421 0.1154591082123651 0 -0.10756532041685329 0.1000939944724448 0 -0.12564790224099029 0.096947383450189162 0 -0.1186782570980994 0.084750976163058239 0 -0.10756532041685329 0.1000939944724448 0 -0.13051902595446421 0.1154591082123651 0 -0.12564790224099029 0.096947383450189162 0 -0.10756532041685329 0.1000939944724448 0 -0.13051902595446421 0.1154591082123651 0 -0.10952404907619021 0.12231204566622381 0 -0.10756532041685329 0.1000939944724448 0 -0.13051902595446421 0.1154591082123651 0 -0.1249307373135187 0.13624337022116259 0 -0.10952404907619021 0.12231204566622381 0 -0.08411028625673711 0.12233707431125471 0 -0.089752267178778142 0.104798416820754 0 -0.10952404907619021 0.12231204566622381 0 -0.08411028625673711 0.12233707431125471 0 -0.10952404907619021 0.12231204566622381 0 -0.089752267178778142 0.104798416820754 0 -0.084611614879242431 0.084728880732524478 0 -0.10756532041685329 0.1000939944724448 0 -0.089752267178778142 0.104798416820754 0 -0.10952404907619021 0.12231204566622381 0 -0.10756532041685329 0.1000939944724448 0 -0.097461004866188958 0.026203243050487979 0 -0.1101630094613871 0.013220290507837981 0 -0.1135853071995676 0.026972401482397448 0 -0.097461004866188958 0.026203243050487979 0 -0.10104503732152829 0.01070534986443848 0 -0.1101630094613871 0.013220290507837981 0 -0.097461004866188958 0.026203243050487979 0 -0.10104503732152829 0.01070534986443848 0 -0.093135128532544104 0.0114781399977536 0 -0.10104503732152829 0.01070534986443848 0 -0.097007610351592638 0.0031946701451479489 0 -0.093135128532544104 0.0114781399977536 0 -0.1074584333959287 -0.00056959437903511328 0 -0.10104503732152829 0.01070534986443848 0 -0.097007610351592638 0.0031946701451479489 0 -0.1074584333959287 -0.00056959437903511328 0 -0.10104503732152829 0.01070534986443848 0 -0.1101630094613871 0.013220290507837981 0 -0.1074584333959287 -0.00056959437903511328 0 -0.1101630094613871 0.013220290507837981 0 -0.1216773418746592 0.002895350946264876 0 -0.1101630094613871 0.013220290507837981 0 -0.1216773418746592 0.002895350946264876 0 -0.1214587732362537 0.015938476265673102 0 -0.1288023594551036 0.02581565088471165 0 -0.1214587732362537 0.015938476265673102 0 -0.1135853071995676 0.026972401482397448 0 -0.1101630094613871 0.013220290507837981 0 -0.1214587732362537 0.015938476265673102 0 -0.1135853071995676 0.026972401482397448 0 -0.1288023594551036 0.02581565088471165 0 -0.1135853071995676 0.026972401482397448 0 -0.1233888124615569 0.034522418005547638 0 -0.13844419072182021 0.042831434688612051 0 -0.1127233924697363 0.042470184966469413 0 -0.1172136567340288 0.047255993705705643 0 -0.13844419072182021 0.042831434688612051 0 -0.1233888124615569 0.034522418005547638 0 -0.1127233924697363 0.042470184966469413 0 -0.1127233924697363 0.042470184966469413 0 -0.1172136567340288 0.047255993705705643 0 -0.1135853071995676 0.026972401482397448 0 -0.1233888124615569 0.034522418005547638 0 -0.1127233924697363 0.042470184966469413 0 -0.13035631494950509 0.057170994005816073 0 -0.1167947281431639 0.070265633301019453 0 -0.1142903407456884 0.058304575514101308 0 -0.13035631494950509 0.057170994005816073 0 -0.1172136567340288 0.047255993705705643 0 -0.1142903407456884 0.058304575514101308 0 -0.1172136567340288 0.047255993705705643 0 -0.1142903407456884 0.058304575514101308 0 -0.10730131715864361 0.052265143141198761 0 -0.1127233924697363 0.042470184966469413 0 -0.1172136567340288 0.047255993705705643 0 -0.10730131715864361 0.052265143141198761 0 -0.1127233924697363 0.042470184966469413 0 -0.10730131715864361 0.052265143141198761 0 -0.096022601819407929 0.052110688505206497 0 -0.099785686743100552 0.064565113416766587 0 -0.1142903407456884 0.058304575514101308 0 -0.10730131715864361 0.052265143141198761 0 -0.099785686743100552 0.064565113416766587 0 -0.10730131715864361 0.052265143141198761 0 -0.096022601819407929 0.052110688505206497 0 -0.097461004866188958 0.026203243050487979 0 -0.1127233924697363 0.042470184966469413 0 -0.085072842946312094 0.042081831804387633 0 -0.097461004866188958 0.026203243050487979 0 -0.1135853071995676 0.026972401482397448 0 -0.1127233924697363 0.042470184966469413 0 -0.1127233924697363 0.042470184966469413 0 -0.085072842946312094 0.042081831804387633 0 -0.097461004866188958 0.026203243050487979 0 -0.1127233924697363 0.042470184966469413 0 -0.1127233924697363 0.042470184966469413 0 -0.096022601819407929 0.052110688505206497 0 -0.085072842946312094 0.042081831804387633 0 -0.097461004866188958 0.026203243050487979 0 -0.085072842946312094 0.042081831804387633 0 -0.083138697487193228 0.02759904134297116 0 -0.085072842946312094 0.042081831804387633 0 -0.072982294876773532 0.03023522761770189 0 -0.083138697487193228 0.02759904134297116 0 -0.096022601819407929 0.052110688505206497 0 -0.085072842946312094 0.042081831804387633 0 -0.075229769779247155 0.059171169197210147 0 -0.099785686743100552 0.064565113416766587 0 -0.096022601819407929 0.052110688505206497 0 -0.075229769779247155 0.059171169197210147 0 -0.085072842946312094 0.042081831804387633 0 -0.075229769779247155 0.059171169197210147 0 -0.057422293422887613 0.04169347864230652 0 -0.085072842946312094 0.042081831804387633 0 -0.057422293422887613 0.04169347864230652 0 -0.085072842946312094 0.042081831804387633 0 -0.072982294876773532 0.03023522761770189 0 -0.057422293422887613 0.04169347864230652 0 -0.063827443141081755 0.019798787108060299 0 -0.072982294876773532 0.03023522761770189 0 -0.057422293422887613 0.04169347864230652 0 -0.063827443141081755 0.019798787108060299 0 -0.075450197386392998 0.02000299919078382 0 -0.069866155958668172 0.0124265780994982 0 -0.063827443141081755 0.019798787108060299 0 -0.075450197386392998 0.02000299919078382 0 -0.072982294876773532 0.03023522761770189 0 -0.075450197386392998 0.02000299919078382 0 -0.072982294876773532 0.03023522761770189 0 -0.083138697487193228 0.02759904134297116 0 -0.097461004866188958 0.026203243050487979 0 -0.083398567710876531 0.018941014180987158 0 -0.082198617262642007 0.0099363011345062549 0 -0.097461004866188958 0.026203243050487979 0 -0.093135128532544104 0.0114781399977536 0 -0.082198617262642007 0.0099363011345062549 0 -0.097461004866188958 0.026203243050487979 0 -0.082198617262642007 0.0099363011345062549 0 -0.075450197386392998 0.02000299919078382 0 -0.083138697487193228 0.02759904134297116 0 -0.083398567710876531 0.018941014180987158 0 -0.075450197386392998 0.02000299919078382 0 -0.083398567710876531 0.018941014180987158 0 -0.078744321551965535 0.01096348618618659 0 -0.097461004866188958 0.026203243050487979 0 -0.083138697487193228 0.02759904134297116 0 -0.083398567710876531 0.018941014180987158 0 -0.097007610351592638 0.0031946701451479489 0 -0.089258600054524156 0.0066784259964312023 0 -0.093135128532544104 0.0114781399977536 0 -0.089258600054524156 0.0066784259964312023 0 -0.087397538709333256 0.0025779280723807682 0 -0.084661325621758973 0.0042450528888366137 0 -0.091161577036279917 -0.00056137197281472533 0 -0.089258600054524156 0.0066784259964312023 0 -0.087397538709333256 0.0025779280723807682 0 -0.085698831807295761 -0.00077379913826263011 0 -0.091161577036279917 -0.00056137197281472533 0 -0.087397538709333256 0.0025779280723807682 0 -0.091161577036279917 -0.00056137197281472533 0 -0.097007610351592638 0.0031946701451479489 0 -0.089258600054524156 0.0066784259964312023 0 -0.089258600054524156 0.0066784259964312023 0 -0.093135128532544104 0.0114781399977536 0 -0.082198617262642007 0.0099363011345062549 0 -0.083398567710876531 0.018941014180987158 0 -0.082198617262642007 0.0099363011345062549 0 -0.078744321551965535 0.01096348618618659 0 -0.076323624377389709 -0.002110515345892934 0 -0.082198617262642007 0.0099363011345062549 0 -0.080887431196540238 0.001475876248512083 0 -0.082198617262642007 0.0099363011345062549 0 -0.084661325621758973 0.0042450528888366137 0 -0.080887431196540238 0.001475876248512083 0 -0.089258600054524156 0.0066784259964312023 0 -0.082198617262642007 0.0099363011345062549 0 -0.084661325621758973 0.0042450528888366137 0 -0.085698831807295761 -0.00077379913826263011 0 -0.087397538709333256 0.0025779280723807682 0 -0.084661325621758973 0.0042450528888366137 0 -0.085698831807295761 -0.00077379913826263011 0 -0.084661325621758973 0.0042450528888366137 0 -0.080887431196540238 0.001475876248512083 0 -0.066936229659094348 -0.0063306407814748408 0 -0.082198617262642007 0.0099363011345062549 0 -0.067632115072007892 -0.0014381246082149639 0 -0.078744321551965535 0.01096348618618659 0 -0.06826909976157236 0.003040282092074964 0 -0.066936229659094348 -0.0063306407814748408 0 -0.076323624377389709 -0.002110515345892934 0 -0.082198617262642007 0.0099363011345062549 0 -0.067632115072007892 -0.0014381246082149639 0 -0.078744321551965535 0.01096348618618659 0 -0.067632115072007892 -0.0014381246082149639 0 -0.082198617262642007 0.0099363011345062549 0 -0.078744321551965535 0.01096348618618659 0 -0.066936229659094348 -0.0063306407814748408 0 -0.067632115072007892 -0.0014381246082149639 0 -0.082198617262642007 0.0099363011345062549 0 -0.075450197386392998 0.02000299919078382 0 -0.078744321551965535 0.01096348618618659 0 -0.069866155958668172 0.0124265780994982 0 -0.078744321551965535 0.01096348618618659 0 -0.069866155958668172 0.0124265780994982 0 -0.06826909976157236 0.003040282092074964 0 -0.069866155958668172 0.0124265780994982 0 -0.063162591073677526 0.0084275523618159483 0 -0.06826909976157236 0.003040282092074964 0 -0.063827443141081755 0.019798787108060299 0 -0.069866155958668172 0.0124265780994982 0 -0.063162591073677526 0.0084275523618159483 0 -0.067632115072007892 -0.0014381246082149639 0 -0.06826909976157236 0.003040282092074964 0 -0.067632115072007892 -0.0014381246082149639 0 -0.06826909976157236 0.003040282092074964 0 -0.063614666328002376 0.0015794574162468599 0 -0.063162591073677526 0.0084275523618159483 0 -0.06826909976157236 0.003040282092074964 0 -0.063614666328002376 0.0015794574162468599 0 -0.063162591073677526 0.0084275523618159483 0 -0.058199072827605169 0.0024637074512547791 0 -0.050320018060731629 0.0089302420534597519 0 -0.063162591073677526 0.0084275523618159483 0 -0.063614666328002376 0.0015794574162468599 0 -0.058199072827605169 0.0024637074512547791 0 -0.052719705516032667 -0.0018085943883306679 0 -0.058199072827605169 0.0024637074512547791 0 -0.050320018060731629 0.0089302420534597519 0 -0.052719705516032667 -0.0018085943883306679 0 -0.042510259902712191 -0.0037351084679795418 0 -0.050320018060731629 0.0089302420534597519 0 -0.063827443141081755 0.019798787108060299 0 -0.063162591073677526 0.0084275523618159483 0 -0.050320018060731629 0.0089302420534597519 0 -0.063827443141081755 0.019798787108060299 0 -0.050320018060731629 0.0089302420534597519 0 -0.048089392376022028 0.02553024788356183 0 -0.063827443141081755 0.019798787108060299 0 -0.048089392376022028 0.02553024788356183 0 -0.057422293422887613 0.04169347864230652 0 -0.050320018060731629 0.0089302420534597519 0 -0.031356401299653953 0.024793434377377729 0 -0.026866431568444791 0.019032085105105411 0 -0.048089392376022028 0.02553024788356183 0 -0.031356401299653953 0.024793434377377729 0 -0.029771743899463209 0.041305125480228459 0 -0.050320018060731629 0.0089302420534597519 0 -0.048089392376022028 0.02553024788356183 0 -0.031356401299653953 0.024793434377377729 0 -0.050320018060731629 0.0089302420534597519 0 -0.026866431568444791 0.019032085105105411 0 -0.050320018060731629 0.0089302420534597519 0 -0.035448578397864972 0.0075594484862632188 0 -0.026866431568444791 0.019032085105105411 0 -0.042510259902712191 -0.0037351084679795418 0 -0.030051620778404758 -0.00065097970718036439 0 -0.035448578397864972 0.0075594484862632188 0 -0.042510259902712191 -0.0037351084679795418 0 -0.050320018060731629 0.0089302420534597519 0 -0.035448578397864972 0.0075594484862632188 0 -0.075229769779247155 0.059171169197210147 0 -0.047197037436102672 0.060467938015408583 0 -0.057422293422887613 0.04169347864230652 0 -0.048089392376022028 0.02553024788356183 0 -0.057422293422887613 0.04169347864230652 0 -0.029771743899463209 0.041305125480228459 0 -0.057422293422887613 0.04169347864230652 0 -0.029771743899463209 0.041305125480228459 0 -0.047197037436102672 0.060467938015408583 0 -0.057422293422887613 0.04169347864230652 0 -0.029771743899463209 0.041305125480228459 0 -0.027177524938251721 0.068336168364032654 0 -0.047197037436102672 0.060467938015408583 0 -0.029771743899463209 0.041305125480228459 0 -0.027177524938251721 0.068336168364032654 0 -0.029771743899463209 0.041305125480228459 0 -0.027177524938251721 0.068336168364032654 0 -0.029771743899463209 0.041305125480228459 0 -0.0039771359231659731 0.06081973510145889 0 -0.029771743899463209 0.041305125480228459 0 -0.012845111109262579 0.035328596346959278 0 -0.0049870313035194833 0.040957023121545262 0 -0.029771743899463209 0.041305125480228459 0 -0.01737983348050795 0.031657651405801041 0 -0.012845111109262579 0.035328596346959278 0 -0.029771743899463209 0.041305125480228459 0 -0.0049870313035194833 0.040957023121545262 0 -0.031356401299653953 0.024793434377377729 0 -0.029771743899463209 0.041305125480228459 0 -0.029771743899463209 0.041305125480228459 0 -0.01737983348050795 0.031657651405801041 0 -0.023344505125001001 0.026808081443122422 0 -0.01737983348050795 0.031657651405801041 0 -0.012845111109262579 0.035328596346959278 0 -0.0034128450761579461 0.029133928156751091 0 -0.012845111109262579 0.035328596346959278 0 -0.0049870313035194833 0.040957023121545262 0 -0.0034128450761579461 0.029133928156751091 0 -0.029771743899463209 0.041305125480228459 0 -0.0049870313035194833 0.040957023121545262 0 -0.0039771359231659731 0.06081973510145889 0 -0.019157733345823529 0.01212158954768683 0 -0.02227995046565107 0.0048408316119060314 0 -0.02701724760141571 0.0092572706234767092 0 -0.019157733345823529 0.01212158954768683 0 -0.02227995046565107 0.0048408316119060314 0 -0.015029473065776761 0.007477141639072679 0 -0.02227995046565107 0.0048408316119060314 0 -0.012468209674940939 0.0013046379300993261 0 -0.015029473065776761 0.007477141639072679 0 -0.01736386503777898 -0.0036560690413767459 0 -0.02227995046565107 0.0048408316119060314 0 -0.012468209674940939 0.0013046379300993261 0 -0.030051620778404758 -0.00065097970718036439 0 -0.035448578397864972 0.0075594484862632188 0 -0.02701724760141571 0.0092572706234767092 0 -0.030051620778404758 -0.00065097970718036439 0 -0.02227995046565107 0.0048408316119060314 0 -0.02701724760141571 0.0092572706234767092 0 -0.023628127233140089 -0.0019647398242849771 0 -0.030051620778404758 -0.00065097970718036439 0 -0.02227995046565107 0.0048408316119060314 0 -0.035448578397864972 0.0075594484862632188 0 -0.02701724760141571 0.0092572706234767092 0 -0.026866431568444791 0.019032085105105411 0 -0.019157733345823529 0.01212158954768683 0 -0.02701724760141571 0.0092572706234767092 0 -0.026866431568444791 0.019032085105105411 0 -0.031356401299653953 0.024793434377377729 0 -0.029771743899463209 0.041305125480228459 0 -0.023344505125001001 0.026808081443122422 0 -0.026866431568444791 0.019032085105105411 0 -0.023344505125001001 0.026808081443122422 0 -0.0034128450761579461 0.029133928156751091 0 -0.031356401299653953 0.024793434377377729 0 -0.026866431568444791 0.019032085105105411 0 -0.023344505125001001 0.026808081443122422 0 -0.019157733345823529 0.01212158954768683 0 -0.026866431568444791 0.019032085105105411 0 -0.01286208959952353 0.017888326116981889 0 -0.01737983348050795 0.031657651405801041 0 -0.023344505125001001 0.026808081443122422 0 -0.0034128450761579461 0.029133928156751091 0 -0.026866431568444791 0.019032085105105411 0 -0.0034128450761579461 0.029133928156751091 0 -0.026866431568444791 0.019032085105105411 0 -0.01286208959952353 0.017888326116981889 0 -0.0034128450761579461 0.029133928156751091 0 -0.0034128450761579461 0.029133928156751091 0 -0.0032474108946718991 0.01595841993552926 0 0.0041869839631344091 0.022042964535429199 0 -0.01286208959952353 0.017888326116981889 0 -0.0034128450761579461 0.029133928156751091 0 -0.0032474108946718991 0.01595841993552926 0 -0.0032474108946718991 0.01595841993552926 0 -0.010250246048684601 0.01254219315277702 0 -0.0074255786991347513 0.0061731694206656907 0 -0.0032474108946718991 0.01595841993552926 0 -0.0074255786991347513 0.0061731694206656907 0 0.00095810101651001476 0.0069791444422322331 0 -0.01286208959952353 0.017888326116981889 0 -0.0032474108946718991 0.01595841993552926 0 -0.010250246048684601 0.01254219315277702 0 -0.019157733345823529 0.01212158954768683 0 -0.010250246048684601 0.01254219315277702 0 -0.015029473065776761 0.007477141639072679 0 -0.019157733345823529 0.01212158954768683 0 -0.01286208959952353 0.017888326116981889 0 -0.010250246048684601 0.01254219315277702 0 -0.010250246048684601 0.01254219315277702 0 -0.015029473065776761 0.007477141639072679 0 -0.0074255786991347513 0.0061731694206656907 0 -0.003589021217499586 -8.108461533938181e-05 0 -0.012468209674940939 0.0013046379300993261 0 -0.0074255786991347513 0.0061731694206656907 0 -0.012468209674940939 0.0013046379300993261 0 -0.015029473065776761 0.007477141639072679 0 -0.0074255786991347513 0.0061731694206656907 0 -0.003589021217499586 -8.108461533938181e-05 0 -0.0074255786991347513 0.0061731694206656907 0 0.00095810101651001476 0.0069791444422322331 0 -0.003589021217499586 -8.108461533938181e-05 0 0.00095810101651001476 0.0069791444422322331 0 0.006223188466077249 -0.0001215757219770891 0 0.00095810101651001476 0.0069791444422322331 0 0.0085419073186699303 0.007004804244571435 0 0.006223188466077249 -0.0001215757219770891 0 0.01436495498360617 0.004324622416366484 0 0.016030888457090609 -0.0027252400032683468 0 0.006223188466077249 -0.0001215757219770891 0 0.0085419073186699303 0.007004804244571435 0 0.01436495498360617 0.004324622416366484 0 0.006223188466077249 -0.0001215757219770891 0 0.0085419073186699303 0.007004804244571435 0 0.01436495498360617 0.004324622416366484 0 0.014156590740310631 0.010179829501611511 0 0.014156590740310631 0.010179829501611511 0 0.0069362067003888826 0.01456035877066315 0 0.01416339493753967 0.01580834768871996 0 0.0085419073186699303 0.007004804244571435 0 0.014156590740310631 0.010179829501611511 0 0.0069362067003888826 0.01456035877066315 0 -0.0032474108946718991 0.01595841993552926 0 0.00095810101651001476 0.0069791444422322331 0 0.0069362067003888826 0.01456035877066315 0 0.00095810101651001476 0.0069791444422322331 0 0.0085419073186699303 0.007004804244571435 0 0.0069362067003888826 0.01456035877066315 0 -0.0034128450761579461 0.029133928156751091 0 0.009872831962582141 0.028759646729089879 0 0.013726707395123369 0.032479789893242503 0 -0.0032474108946718991 0.01595841993552926 0 0.0069362067003888826 0.01456035877066315 0 0.0041869839631344091 0.022042964535429199 0 0.0069362067003888826 0.01456035877066315 0 0.0041869839631344091 0.022042964535429199 0 0.01078613712353086 0.021802469085112609 0 -0.0034128450761579461 0.029133928156751091 0 0.0041869839631344091 0.022042964535429199 0 0.009872831962582141 0.028759646729089879 0 0.0041869839631344091 0.022042964535429199 0 0.009872831962582141 0.028759646729089879 0 0.01078613712353086 0.021802469085112609 0 0.009872831962582141 0.028759646729089879 0 0.01496669096410589 0.02584926830557497 0 0.01078613712353086 0.021802469085112609 0 0.009872831962582141 0.028759646729089879 0 0.015942051735699209 0.030114655977149692 0 0.013726707395123369 0.032479789893242503 0 0.009872831962582141 0.028759646729089879 0 0.01496669096410589 0.02584926830557497 0 0.015942051735699209 0.030114655977149692 0 0.0069362067003888826 0.01456035877066315 0 0.01078613712353086 0.021802469085112609 0 0.01416339493753967 0.01580834768871996 0 0.01496669096410589 0.02584926830557497 0 0.01078613712353086 0.021802469085112609 0 0.01593241372052134 0.020555455559937451 0 0.01078613712353086 0.021802469085112609 0 0.01416339493753967 0.01580834768871996 0 0.01593241372052134 0.020555455559937451 0 0.01416339493753967 0.01580834768871996 0 0.01593241372052134 0.020555455559937451 0 0.02040358748869114 0.015234646832460201 0 0.01593241372052134 0.020555455559937451 0 0.02074036676941815 0.02146457125752228 0 0.02040358748869114 0.015234646832460201 0 0.01593241372052134 0.020555455559937451 0 0.02074036676941815 0.02146457125752228 0 0.019393491788335281 0.02531889310031377 0 0.02074036676941815 0.02146457125752228 0 0.02456840902970122 0.025030292204431769 0 0.02440935534337775 0.018839072205685089 0 0.02074036676941815 0.02146457125752228 0 0.02440935534337775 0.018839072205685089 0 0.02040358748869114 0.015234646832460201 0 0.01496669096410589 0.02584926830557497 0 0.015942051735699209 0.030114655977149692 0 0.018150813561014029 0.028387114363458359 0 0.015942051735699209 0.030114655977149692 0 0.018150813561014029 0.028387114363458359 0 0.019263303646679671 0.031864431265941379 0 0.01496669096410589 0.02584926830557497 0 0.01593241372052134 0.020555455559937451 0 0.019393491788335281 0.02531889310031377 0 0.01496669096410589 0.02584926830557497 0 0.018150813561014029 0.028387114363458359 0 0.019393491788335281 0.02531889310031377 0 0.019393491788335281 0.02531889310031377 0 0.021188529670250061 0.02878832316831198 0 0.02456840902970122 0.025030292204431769 0 0.02074036676941815 0.02146457125752228 0 0.019393491788335281 0.02531889310031377 0 0.02456840902970122 0.025030292204431769 0 0.018150813561014029 0.028387114363458359 0 0.019393491788335281 0.02531889310031377 0 0.021188529670250061 0.02878832316831198 0 0.021188529670250061 0.02878832316831198 0 0.024655907369945849 0.029366759228194358 0 0.022925134297862689 0.032431199615803492 0 0.018150813561014029 0.028387114363458359 0 0.021188529670250061 0.02878832316831198 0 0.019263303646679671 0.031864431265941379 0 0.021188529670250061 0.02878832316831198 0 0.019263303646679671 0.031864431265941379 0 0.022925134297862689 0.032431199615803492 0 0.024655907369945849 0.029366759228194358 0 0.02456840902970122 0.025030292204431769 0 0.028291472635454808 0.028843317469183959 0 0.024655907369945849 0.029366759228194358 0 0.028291472635454808 0.028843317469183959 0 0.026673500524569571 0.033678296499899341 0 0.021188529670250061 0.02878832316831198 0 0.024655907369945849 0.029366759228194358 0 0.02456840902970122 0.025030292204431769 0 0.02456840902970122 0.025030292204431769 0 0.03038113101267427 0.025045464116214979 0 0.028291472635454808 0.028843317469183959 0 0.02456840902970122 0.025030292204431769 0 0.03038113101267427 0.025045464116214979 0 0.02767274597069155 0.02169325349836183 0 0.03038113101267427 0.025045464116214979 0 0.028291472635454808 0.028843317469183959 0 0.034038681833276012 0.028086871453921421 0 0.028291472635454808 0.028843317469183959 0 0.03096037698431952 0.032156898505198671 0 0.034038681833276012 0.028086871453921421 0 0.02440935534337775 0.018839072205685089 0 0.02719789691664893 0.01448586936855004 0 0.02040358748869114 0.015234646832460201 0 0.02440935534337775 0.018839072205685089 0 0.03039991647460543 0.01787268694206131 0 0.02719789691664893 0.01448586936855004 0 0.02456840902970122 0.025030292204431769 0 0.02440935534337775 0.018839072205685089 0 0.02767274597069155 0.02169325349836183 0 0.03038113101267427 0.025045464116214979 0 0.02767274597069155 0.02169325349836183 0 0.03430105580102609 0.02083845662274102 0 0.02767274597069155 0.02169325349836183 0 0.03039991647460543 0.01787268694206131 0 0.03430105580102609 0.02083845662274102 0 0.02440935534337775 0.018839072205685089 0 0.02767274597069155 0.02169325349836183 0 0.03039991647460543 0.01787268694206131 0 0.02719789691664893 0.01448586936855004 0 0.029860484278222878 0.010383197436374361 0 0.034029457193954317 0.013668287178189241 0 0.03039991647460543 0.01787268694206131 0 0.02719789691664893 0.01448586936855004 0 0.034029457193954317 0.013668287178189241 0 0.02719789691664893 0.01448586936855004 0 0.023579325588409451 0.01151988267452923 0 0.02040358748869114 0.015234646832460201 0 0.02719789691664893 0.01448586936855004 0 0.023579325588409451 0.01151988267452923 0 0.029860484278222878 0.010383197436374361 0 0.023579325588409451 0.01151988267452923 0 0.029860484278222878 0.010383197436374361 0 0.02658335415844347 0.0066750255104054343 0 0.029860484278222878 0.010383197436374361 0 0.02658335415844347 0.0066750255104054343 0 0.033005629952169137 0.006637620427323211 0 0.030189021560322181 0.00051130270597040935 0 0.02658335415844347 0.0066750255104054343 0 0.033005629952169137 0.006637620427323211 0 0.030189021560322181 0.00051130270597040935 0 0.022173727010914791 0.0027892007423151481 0 0.02458765229089438 -0.0027608227030746632 0 0.030189021560322181 0.00051130270597040935 0 0.02658335415844347 0.0066750255104054343 0 0.022173727010914791 0.0027892007423151481 0 0.02658335415844347 0.0066750255104054343 0 0.022173727010914791 0.0027892007423151481 0 0.01977647745984602 0.008374912839823747 0 0.01436495498360617 0.004324622416366484 0 0.022173727010914791 0.0027892007423151481 0 0.016030888457090609 -0.0027252400032683468 0 0.01436495498360617 0.004324622416366484 0 0.014156590740310631 0.010179829501611511 0 0.01977647745984602 0.008374912839823747 0 0.01436495498360617 0.004324622416366484 0 0.022173727010914791 0.0027892007423151481 0 0.01977647745984602 0.008374912839823747 0 0.014156590740310631 0.010179829501611511 0 0.02040358748869114 0.015234646832460201 0 0.01977647745984602 0.008374912839823747 0 0.014156590740310631 0.010179829501611511 0 0.01416339493753967 0.01580834768871996 0 0.02040358748869114 0.015234646832460201 0 0.023579325588409451 0.01151988267452923 0 0.02040358748869114 0.015234646832460201 0 0.01977647745984602 0.008374912839823747 0 0.023579325588409451 0.01151988267452923 0 0.02658335415844347 0.0066750255104054343 0 0.01977647745984602 0.008374912839823747 0 -0.0039771359231659731 0.06081973510145889 0 0.020040741416127331 0.039235771208400071 0 0.015622858461430531 0.06419426262394988 0 -0.0049870313035194833 0.040957023121545262 0 -0.0039771359231659731 0.06081973510145889 0 0.020040741416127331 0.039235771208400071 0 -0.0049870313035194833 0.040957023121545262 0 0.020040741416127331 0.039235771208400071 0 -0.0034128450761579461 0.029133928156751091 0 0.013726707395123369 0.032479789893242503 0 0.020040741416127331 0.039235771208400071 0 -0.0049870313035194833 0.040957023121545262 0 -0.0034128450761579461 0.029133928156751091 0 0.020040741416127331 0.039235771208400071 0 -0.0034128450761579461 0.029133928156751091 0 0.020040741416127331 0.039235771208400071 0 0.013726707395123369 0.032479789893242503 0 0.019263303646679671 0.031864431265941379 0 0.02065416068581066 0.035770306022123069 0 0.015942051735699209 0.030114655977149692 0 0.013726707395123369 0.032479789893242503 0 0.019263303646679671 0.031864431265941379 0 0.013726707395123369 0.032479789893242503 0 0.02065416068581066 0.035770306022123069 0 0.020040741416127331 0.039235771208400071 0 0.02065416068581066 0.035770306022123069 0 0.020040741416127331 0.039235771208400071 0 0.02065416068581066 0.035770306022123069 0 0.022347970686841131 0.037857149024128171 0 0.020040741416127331 0.039235771208400071 0 0.02065416068581066 0.035770306022123069 0 0.022347970686841131 0.037857149024128171 0 0.023577571521013339 0.035381748040672227 0 0.02065416068581066 0.035770306022123069 0 0.022925134297862689 0.032431199615803492 0 0.023577571521013339 0.035381748040672227 0 0.019263303646679671 0.031864431265941379 0 0.02065416068581066 0.035770306022123069 0 0.022925134297862689 0.032431199615803492 0 0.024655907369945849 0.029366759228194358 0 0.022925134297862689 0.032431199615803492 0 0.026673500524569571 0.033678296499899341 0 0.022925134297862689 0.032431199615803492 0 0.026673500524569571 0.033678296499899341 0 0.023577571521013339 0.035381748040672227 0 0.028291472635454808 0.028843317469183959 0 0.026673500524569571 0.033678296499899341 0 0.03096037698431952 0.032156898505198671 0 0.026673500524569571 0.033678296499899341 0 0.03096037698431952 0.032156898505198671 0 0.030952907373117049 0.036406484231202428 0 0.030952907373117049 0.036406484231202428 0 0.025906753094232592 0.037885346689501748 0 0.028934880493532319 0.040480588405516868 0 0.026673500524569571 0.033678296499899341 0 0.030952907373117049 0.036406484231202428 0 0.025906753094232592 0.037885346689501748 0 0.026673500524569571 0.033678296499899341 0 0.025906753094232592 0.037885346689501748 0 0.023577571521013339 0.035381748040672227 0 0.022347970686841131 0.037857149024128171 0 0.025906753094232592 0.037885346689501748 0 0.023577571521013339 0.035381748040672227 0 0.022347970686841131 0.037857149024128171 0 0.025906753094232592 0.037885346689501748 0 0.022931353333138251 0.040480805008171819 0 0.026135693875900579 0.04646159501884925 0 0.020040741416127331 0.039235771208400071 0 0.025933618716887048 0.054389073097837852 0 0.028934880493532319 0.040480588405516868 0 0.022931353333138251 0.040480805008171819 0 0.025906753094232592 0.037885346689501748 0 0.028934880493532319 0.040480588405516868 0 0.022931353333138251 0.040480805008171819 0 0.028934880493532319 0.040480588405516868 0 0.026135693875900579 0.04646159501884925 0 0.022931353333138251 0.040480805008171819 0 0.028934880493532319 0.040480588405516868 0 0.026135693875900579 0.04646159501884925 0 0.034845320704430673 0.050686139498682441 0 0.026135693875900579 0.04646159501884925 0 0.022931353333138251 0.040480805008171819 0 0.020040741416127331 0.039235771208400071 0 0.022347970686841131 0.037857149024128171 0 0.022931353333138251 0.040480805008171819 0 0.020040741416127331 0.039235771208400071 0 0.022931353333138251 0.040480805008171819 0 0.020040741416127331 0.039235771208400071 0 0.020040741416127331 0.039235771208400071 0 0.025933618716887048 0.054389073097837852 0 0.015622858461430531 0.06419426262394988 0 0.020040741416127331 0.039235771208400071 0 0.015622858461430531 0.06419426262394988 0 0.026135693875900579 0.04646159501884925 0 0.025933618716887048 0.054389073097837852 0 0.034845320704430673 0.050686139498682441 0 0.044780443878498513 0.055045513526479607 0 0.034845320704430673 0.050686139498682441 0 0.03343537560860977 0.069839937581597331 0 0.025933618716887048 0.054389073097837852 0 0.034845320704430673 0.050686139498682441 0 0.03343537560860977 0.069839937581597331 0 0.044780443878498513 0.055045513526479607 0 0.034845320704430673 0.050686139498682441 0 0.037561020611781647 0.041359539960229348 0 0.044780443878498513 0.055045513526479607 0 0.037561020611781647 0.041359539960229348 0 0.048664560777355162 0.041347388624250511 0 0.030952907373117049 0.036406484231202428 0 0.028934880493532319 0.040480588405516868 0 0.037561020611781647 0.041359539960229348 0 0.028934880493532319 0.040480588405516868 0 0.034845320704430673 0.050686139498682441 0 0.037561020611781647 0.041359539960229348 0 0.037561020611781647 0.041359539960229348 0 0.034845322555180171 0.03376952287178623 0 0.041170975466014739 0.031489272650597151 0 0.030952907373117049 0.036406484231202428 0 0.037561020611781647 0.041359539960229348 0 0.034845322555180171 0.03376952287178623 0 0.03096037698431952 0.032156898505198671 0 0.034845322555180171 0.03376952287178623 0 0.034038681833276012 0.028086871453921421 0 0.03096037698431952 0.032156898505198671 0 0.030952907373117049 0.036406484231202428 0 0.034845322555180171 0.03376952287178623 0 0.037561020611781647 0.041359539960229348 0 0.041170975466014739 0.031489272650597151 0 0.048664560777355162 0.041347388624250511 0 0.059508397149796048 0.038553652195683047 0 0.051333258131612873 0.029874071533175301 0 0.066992809583081431 0.026844209104801241 0 0.059508397149796048 0.038553652195683047 0 0.048664560777355162 0.041347388624250511 0 0.051333258131612873 0.029874071533175301 0 0.041170975466014739 0.031489272650597151 0 0.048664560777355162 0.041347388624250511 0 0.051333258131612873 0.029874071533175301 0 0.059508397149796048 0.038553652195683047 0 0.048664560777355162 0.041347388624250511 0 0.057633269426427207 0.051762281879338637 0 0.057633269426427207 0.051762281879338637 0 0.071487152697488759 0.06568766710791249 0 0.052086243120335898 0.066839192100109829 0 0.044780443878498513 0.055045513526479607 0 0.048664560777355162 0.041347388624250511 0 0.057633269426427207 0.051762281879338637 0 0.044780443878498513 0.055045513526479607 0 0.057633269426427207 0.051762281879338637 0 0.052086243120335898 0.066839192100109829 0 0.044803913742302678 0.01315399710033683 0 0.043980544889698027 0.0067764883157799827 0 0.038953100069526098 0.009818877896997296 0 0.044803913742302678 0.01315399710033683 0 0.038953100069526098 0.009818877896997296 0 0.039324596649640033 0.017153385063178619 0 0.044803913742302678 0.01315399710033683 0 0.043980544889698027 0.0067764883157799827 0 0.050738326564105193 0.0075968029945653031 0 0.043980544889698027 0.0067764883157799827 0 0.046438551404464769 0.0009093752695626808 0 0.038968832668091417 0.0024033883174378072 0 0.043980544889698027 0.0067764883157799827 0 0.038968832668091417 0.0024033883174378072 0 0.038953100069526098 0.009818877896997296 0 0.038968832668091417 0.0024033883174378072 0 0.033005629952169137 0.006637620427323211 0 0.038953100069526098 0.009818877896997296 0 0.030189021560322181 0.00051130270597040935 0 0.038968832668091417 0.0024033883174378072 0 0.033005629952169137 0.006637620427323211 0 0.029860484278222878 0.010383197436374361 0 0.033005629952169137 0.006637620427323211 0 0.034029457193954317 0.013668287178189241 0 0.033005629952169137 0.006637620427323211 0 0.038953100069526098 0.009818877896997296 0 0.034029457193954317 0.013668287178189241 0 0.038953100069526098 0.009818877896997296 0 0.034029457193954317 0.013668287178189241 0 0.039324596649640033 0.017153385063178619 0 0.03039991647460543 0.01787268694206131 0 0.034029457193954317 0.013668287178189241 0 0.03430105580102609 0.02083845662274102 0 0.03430105580102609 0.02083845662274102 0 0.038751472359475653 0.023968835598501541 0 0.039324596649640033 0.017153385063178619 0 0.034029457193954317 0.013668287178189241 0 0.03430105580102609 0.02083845662274102 0 0.039324596649640033 0.017153385063178619 0 0.03038113101267427 0.025045464116214979 0 0.03430105580102609 0.02083845662274102 0 0.034038681833276012 0.028086871453921421 0 0.03430105580102609 0.02083845662274102 0 0.034038681833276012 0.028086871453921421 0 0.038751472359475653 0.023968835598501541 0 0.041170975466014739 0.031489272650597151 0 0.034038681833276012 0.028086871453921421 0 0.038751472359475653 0.023968835598501541 0 0.034845322555180171 0.03376952287178623 0 0.041170975466014739 0.031489272650597151 0 0.034038681833276012 0.028086871453921421 0 0.041170975466014739 0.031489272650597151 0 0.044922052047421397 0.022276192202069511 0 0.051333258131612873 0.029874071533175301 0 0.041170975466014739 0.031489272650597151 0 0.038751472359475653 0.023968835598501541 0 0.044922052047421397 0.022276192202069511 0 0.044803913742302678 0.01315399710033683 0 0.039324596649640033 0.017153385063178619 0 0.044922052047421397 0.022276192202069511 0 0.038751472359475653 0.023968835598501541 0 0.039324596649640033 0.017153385063178619 0 0.044922052047421397 0.022276192202069511 0 0.044803913742302678 0.01315399710033683 0 0.044922052047421397 0.022276192202069511 0 0.054363480358532612 0.017850328676102738 0 0.044922052047421397 0.022276192202069511 0 0.054363480358532612 0.017850328676102738 0 0.051333258131612873 0.029874071533175301 0 0.054363480358532612 0.017850328676102738 0 0.051333258131612873 0.029874071533175301 0 0.066992809583081431 0.026844209104801241 0 0.054363480358532612 0.017850328676102738 0 0.064413245498602875 0.015789523686364819 0 0.066992809583081431 0.026844209104801241 0 0.054363480358532612 0.017850328676102738 0 0.060183249563755953 0.0051122513251101367 0 0.064413245498602875 0.015789523686364819 0 0.054363480358532612 0.017850328676102738 0 0.050738326564105193 0.0075968029945653031 0 0.060183249563755953 0.0051122513251101367 0 0.044803913742302678 0.01315399710033683 0 0.054363480358532612 0.017850328676102738 0 0.050738326564105193 0.0075968029945653031 0 0.046438551404464769 0.0009093752695626808 0 0.050738326564105193 0.0075968029945653031 0 0.053156896851297389 0.0018253163302822931 0 0.043980544889698027 0.0067764883157799827 0 0.046438551404464769 0.0009093752695626808 0 0.050738326564105193 0.0075968029945653031 0 0.053156896851297389 0.0018253163302822931 0 0.060183249563755953 0.0051122513251101367 0 0.055218724246851418 -0.0053312865078767426 0 0.050738326564105193 0.0075968029945653031 0 0.053156896851297389 0.0018253163302822931 0 0.060183249563755953 0.0051122513251101367 0 0.076113442489041533 0.013351305639445161 0 0.085029335255968952 -0.0001652245140942706 0 0.069194722145377793 -0.0057685604951461878 0 0.060183249563755953 0.0051122513251101367 0 0.076113442489041533 0.013351305639445161 0 0.064413245498602875 0.015789523686364819 0 0.060183249563755953 0.0051122513251101367 0 0.076113442489041533 0.013351305639445161 0 0.069194722145377793 -0.0057685604951461878 0 0.076113442489041533 0.013351305639445161 0 0.101920931374704 0.019827405322380011 0 0.085029335255968952 -0.0001652245140942706 0 0.083274934657438571 0.03389513203273916 0 0.101920931374704 0.019827405322380011 0 0.076113442489041533 0.013351305639445161 0 0.083274934657438571 0.03389513203273916 0 0.101920931374704 0.019827405322380011 0 0.076113442489041533 0.013351305639445161 0 0.066992809583081431 0.026844209104801241 0 0.083274934657438571 0.03389513203273916 0 0.076113442489041533 0.013351305639445161 0 0.064413245498602875 0.015789523686364819 0 0.066992809583081431 0.026844209104801241 0 0.059508397149796048 0.038553652195683047 0 0.066992809583081431 0.026844209104801241 0 0.070873716581969559 0.04469408164974379 0 0.066992809583081431 0.026844209104801241 0 0.070873716581969559 0.04469408164974379 0 0.083274934657438571 0.03389513203273916 0 0.059508397149796048 0.038553652195683047 0 0.057633269426427207 0.051762281879338637 0 0.070873716581969559 0.04469408164974379 0 0.057633269426427207 0.051762281879338637 0 0.070873716581969559 0.04469408164974379 0 0.071487152697488759 0.06568766710791249 0 0.070873716581969559 0.04469408164974379 0 0.086345735977585325 0.051421547577988232 0 0.071487152697488759 0.06568766710791249 0 0.086345735977585325 0.051421547577988232 0 0.1033491859731651 0.055262780115021608 0 0.09068045165916698 0.073255428571503522 0 0.086345735977585325 0.051421547577988232 0 0.083274934657438571 0.03389513203273916 0 0.098823843580338591 0.039392813658018173 0 0.070873716581969559 0.04469408164974379 0 0.086345735977585325 0.051421547577988232 0 0.083274934657438571 0.03389513203273916 0 0.098823843580338591 0.039392813658018173 0 0.1169149142440675 0.039841794919529543 0 0.101920931374704 0.019827405322380011 0 0.098823843580338591 0.039392813658018173 0 0.1033491859731651 0.055262780115021608 0 0.1169149142440675 0.039841794919529543 0 0.086345735977585325 0.051421547577988232 0 0.098823843580338591 0.039392813658018173 0 0.1033491859731651 0.055262780115021608 0 0.1201787744976187 0.058688821341612039 0 0.1169149142440675 0.039841794919529543 0 0.13155545197153851 0.048981969461597268 0 0.1033491859731651 0.055262780115021608 0 0.1201787744976187 0.058688821341612039 0 0.1169149142440675 0.039841794919529543 0 0.1033491859731651 0.055262780115021608 0 0.1201787744976187 0.058688821341612039 0 0.11081216578543319 0.070514332718156242 0 0.101920931374704 0.019827405322380011 0 0.085029335255968952 -0.0001652245140942706 0 0.098309469274599492 -0.012205739181363759 0 0.1205669280919696 0.0057596786120213007 0 0.101920931374704 0.019827405322380011 0 0.098309469274599492 -0.012205739181363759 0 0.1169149142440675 0.039841794919529543 0 0.1220313637131429 0.022760193568987119 0 0.101920931374704 0.019827405322380011 0 0.1220313637131429 0.022760193568987119 0 0.1205669280919696 0.0057596786120213007 0 0.101920931374704 0.019827405322380011 0 0.1205669280919696 0.0057596786120213007 0 0.101920931374704 0.019827405322380011 0 0.083274934657438571 0.03389513203273916 0 0.098823843580338591 0.039392813658018173 0 0.101920931374704 0.019827405322380011 0 0.1046568009429337 0.096772712485568291 0 0.09192452661938133 0.092318028808256791 0 0.089903541262151609 0.1109719289319821 0 0.1046568009429337 0.096772712485568291 0 0.1078453915871765 0.1095815155738393 0 0.089903541262151609 0.1109719289319821 0 0.1069941806115509 0.12426303747810109 0 0.089903541262151609 0.1109719289319821 0 0.094118999721154672 0.12868688843660309 0 0.1069941806115509 0.12426303747810109 0 0.1078453915871765 0.1095815155738393 0 0.089903541262151609 0.1109719289319821 0 0.1078453915871765 0.1095815155738393 0 0.1157688085575084 0.1170141897003128 0 0.1177550482020211 0.1048538328736939 0 0.1069941806115509 0.12426303747810109 0 0.1078453915871765 0.1095815155738393 0 0.1157688085575084 0.1170141897003128 0 0.1069941806115509 0.12426303747810109 0 0.1157688085575084 0.1170141897003128 0 0.12002478345212519 0.1270391738645256 0 0.1157688085575084 0.1170141897003128 0 0.12002478345212519 0.1270391738645256 0 0.12534788703802999 0.1154052058327277 0 0.12002478345212519 0.1270391738645256 0 0.12870428466905709 0.1248846646381075 0 0.12534788703802999 0.1154052058327277 0 0.1157688085575084 0.1170141897003128 0 0.1177550482020211 0.1048538328736939 0 0.12534788703802999 0.1154052058327277 0 0.1177550482020211 0.1048538328736939 0 0.1292184415129094 0.1025253920042658 0 0.12534788703802999 0.1154052058327277 0 0.1046568009429337 0.096772712485568291 0 0.1078453915871765 0.1095815155738393 0 0.1177550482020211 0.1048538328736939 0 0.1046568009429337 0.096772712485568291 0 0.1177550482020211 0.1048538328736939 0 0.1142717259229917 0.091815877332204018 0 0.1177550482020211 0.1048538328736939 0 0.1226434496705287 0.096036255115265812 0 0.1292184415129094 0.1025253920042658 0 0.1177550482020211 0.1048538328736939 0 0.1226434496705287 0.096036255115265812 0 0.1142717259229917 0.091815877332204018 0 0.1226434496705287 0.096036255115265812 0 0.1203117455976995 0.082403184006213714 0 0.13066675483743509 0.090993225500164712 0 0.1226434496705287 0.096036255115265812 0 0.1203117455976995 0.082403184006213714 0 0.1142717259229917 0.091815877332204018 0 0.1203117455976995 0.082403184006213714 0 0.11081216578543319 0.070514332718156242 0 0.10485253280774109 0.084319693219413017 0 0.1203117455976995 0.082403184006213714 0 0.1142717259229917 0.091815877332204018 0 0.10485253280774109 0.084319693219413017 0 0.1201787744976187 0.058688821341612039 0 0.11081216578543319 0.070514332718156242 0 0.1274390093264274 0.071283575022745543 0 0.1203117455976995 0.082403184006213714 0 0.11081216578543319 0.070514332718156242 0 0.1274390093264274 0.071283575022745543 0 0.1033491859731651 0.055262780115021608 0 0.11081216578543319 0.070514332718156242 0 0.09068045165916698 0.073255428571503522 0 0.11081216578543319 0.070514332718156242 0 0.10485253280774109 0.084319693219413017 0 0.09068045165916698 0.073255428571503522 0 0.10485253280774109 0.084319693219413017 0 0.09192452661938133 0.092318028808256791 0 0.09068045165916698 0.073255428571503522 0 0.1046568009429337 0.096772712485568291 0 0.1142717259229917 0.091815877332204018 0 0.10485253280774109 0.084319693219413017 0 0.1046568009429337 0.096772712485568291 0 0.10485253280774109 0.084319693219413017 0 0.09192452661938133 0.092318028808256791 0 0.09192452661938133 0.092318028808256791 0 0.09068045165916698 0.073255428571503522 0 0.075568780824737766 0.092692163434864597 0 0.09068045165916698 0.073255428571503522 0 0.071487152697488759 0.06568766710791249 0 0.075568780824737766 0.092692163434864597 0 0.086345735977585325 0.051421547577988232 0 0.09068045165916698 0.073255428571503522 0 0.071487152697488759 0.06568766710791249 0 0.071487152697488759 0.06568766710791249 0 0.075568780824737766 0.092692163434864597 0 0.052932496784991179 0.088314672753677798 0 0.075568780824737766 0.092692163434864597 0 0.089903541262151609 0.1109719289319821 0 0.062884133313118831 0.1154106040963815 0 0.075568780824737766 0.092692163434864597 0 0.062884133313118831 0.1154106040963815 0 0.052932496784991179 0.088314672753677798 0 0.09192452661938133 0.092318028808256791 0 0.075568780824737766 0.092692163434864597 0 0.089903541262151609 0.1109719289319821 0 0.089903541262151609 0.1109719289319821 0 0.082184125701655855 0.12805897675334091 0 0.094118999721154672 0.12868688843660309 0 0.089903541262151609 0.1109719289319821 0 0.062884133313118831 0.1154106040963815 0 0.082184125701655855 0.12805897675334091 0 0.062884133313118831 0.1154106040963815 0 0.038248431739512943 0.1058392859901684 0 0.042985199954597722 0.12214856678700101 0 0.062884133313118831 0.1154106040963815 0 0.042985199954597722 0.12214856678700101 0 0.055191725462856188 0.13064358756470329 0 0.062884133313118831 0.1154106040963815 0 0.052932496784991179 0.088314672753677798 0 0.062884133313118831 0.1154106040963815 0 0.038248431739512943 0.1058392859901684 0 0.052932496784991179 0.088314672753677798 0 0.038248431739512943 0.1058392859901684 0 0.052932496784991179 0.088314672753677798 0 0.03092418504521759 0.090482149994004835 0 0.042985199954597722 0.12214856678700101 0 0.026875174050132081 0.11473963338213659 0 0.026865467124297049 0.13180560166797509 0 0.038248431739512943 0.1058392859901684 0 0.042985199954597722 0.12214856678700101 0 0.026875174050132081 0.11473963338213659 0 0.071487152697488759 0.06568766710791249 0 0.052086243120335898 0.066839192100109829 0 0.052932496784991179 0.088314672753677798 0 0.052932496784991179 0.088314672753677798 0 0.03343537560860977 0.069839937581597331 0 0.03092418504521759 0.090482149994004835 0 0.052086243120335898 0.066839192100109829 0 0.052932496784991179 0.088314672753677798 0 0.03343537560860977 0.069839937581597331 0 0.044780443878498513 0.055045513526479607 0 0.052086243120335898 0.066839192100109829 0 0.03343537560860977 0.069839937581597331 0 0.03343537560860977 0.069839937581597331 0 0.01144803563043755 0.087779604485038409 0 0.015622858461430531 0.06419426262394988 0 0.025933618716887048 0.054389073097837852 0 0.03343537560860977 0.069839937581597331 0 0.015622858461430531 0.06419426262394988 0 0.03092418504521759 0.090482149994004835 0 0.01144803563043755 0.087779604485038409 0 0.020899457614902139 0.10220535166508959 0 0.03343537560860977 0.069839937581597331 0 0.03092418504521759 0.090482149994004835 0 0.01144803563043755 0.087779604485038409 0 -0.0027193759803810641 0.1009396497143747 0 -0.0062761177996792199 0.0797211473454352 0 0.01144803563043755 0.087779604485038409 0 0.01144803563043755 0.087779604485038409 0 0.015622858461430531 0.06419426262394988 0 -0.0062761177996792199 0.0797211473454352 0 0.01144803563043755 0.087779604485038409 0 0.015622858461430531 0.06419426262394988 0 -0.0062761177996792199 0.0797211473454352 0 -0.0039771359231659731 0.06081973510145889 0 0.015622858461430531 0.06419426262394988 0 0.0072732127994438872 0.1113649463461268 0 0.026865467124297049 0.13180560166797509 0 0.026875174050132081 0.11473963338213659 0 0.020899457614902139 0.10220535166508959 0 0.0072732127994438872 0.1113649463461268 0 0.026875174050132081 0.11473963338213659 0 0.0072732127994438872 0.1113649463461268 0 0.026865467124297049 0.13180560166797509 0 0.038248431739512943 0.1058392859901684 0 0.03092418504521759 0.090482149994004835 0 0.020899457614902139 0.10220535166508959 0 0.038248431739512943 0.1058392859901684 0 0.026875174050132081 0.11473963338213659 0 0.020899457614902139 0.10220535166508959 0 0.01144803563043755 0.087779604485038409 0 0.020899457614902139 0.10220535166508959 0 0.0072732127994438872 0.1113649463461268 0 0.01144803563043755 0.087779604485038409 0 0.0072732127994438872 0.1113649463461268 0 -0.0027193759803810641 0.1009396497143747 0 0.01144803563043755 0.087779604485038409 0 0.0072732127994438872 0.1113649463461268 0 -0.0027193759803810641 0.1009396497143747 0 0.0072732127994438872 0.1113649463461268 0 0.0072732127994438872 0.1113649463461268 0 0.01160001142496705 0.12243133422402271 0 0.026865467124297049 0.13180560166797509 0 0.0072732127994438872 0.1113649463461268 0 0.0053154557431208706 0.1224251449039109 0 -0.0027193759803810641 0.1009396497143747 0 0.0072732127994438872 0.1113649463461268 0 0.0053154557431208706 0.1224251449039109 0 0.0072732127994438872 0.1113649463461268 0 0.01160001142496705 0.12243133422402271 0 0.0053154557431208706 0.1224251449039109 0 0.01160001142496705 0.12243133422402271 0 0.0053154557431208706 0.1224251449039109 0 0.0053154557431208706 0.1224251449039109 0 0.01177895052944428 0.13925653447355829 0 0.00017870957188821911 0.15144479900821309 0 0.01160001142496705 0.12243133422402271 0 0.0053154557431208706 0.1224251449039109 0 0.01177895052944428 0.13925653447355829 0 0.0053154557431208706 0.1224251449039109 0 0.00017870957188821911 0.15144479900821309 0 0.01177895052944428 0.13925653447355829 0 0.026865467124297049 0.13180560166797509 0 0.028332572297913389 0.14812213248369011 0 0.01160001142496705 0.12243133422402271 0 0.01177895052944428 0.13925653447355829 0 0.026865467124297049 0.13180560166797509 0 0.028332572297913389 0.14812213248369011 0 0.02046267670660749 0.15863961359432921 0 0.036098045680068247 0.158662655692764 0 0.01177895052944428 0.13925653447355829 0 0.028332572297913389 0.14812213248369011 0 0.02046267670660749 0.15863961359432921 0 0.01177895052944428 0.13925653447355829 0 0.00017870957188821911 0.15144479900821309 0 0.02046267670660749 0.15863961359432921 0 0.00017870957188821911 0.15144479900821309 0 0.01001621751230531 0.1682452761088121 0 0.02046267670660749 0.15863961359432921 0 -0.0049580365993444602 0.1804644531125153 0 0.00017870957188821911 0.15144479900821309 0 0.01001621751230531 0.1682452761088121 0 -0.0049580365993444602 0.1804644531125153 0 0.0101541270588653 0.18099891974303059 0 0.0052567923705268242 0.19330072273284449 0 -0.0049580365993444602 0.1804644531125153 0 0.01001621751230531 0.1682452761088121 0 0.0101541270588653 0.18099891974303059 0 0.01001621751230531 0.1682452761088121 0 0.0101541270588653 0.18099891974303059 0 0.021397131688304719 0.17221323348441339 0 0.0101541270588653 0.18099891974303059 0 0.02507048003067483 0.18348197411859971 0 0.01929748246809191 0.19216060863050941 0 0.0101541270588653 0.18099891974303059 0 0.021397131688304719 0.17221323348441339 0 0.02507048003067483 0.18348197411859971 0 0.021397131688304719 0.17221323348441339 0 0.02507048003067483 0.18348197411859971 0 0.032183572327620119 0.17556516449376189 0 0.02507048003067483 0.18348197411859971 0 0.038373684912408827 0.18591942464762379 0 0.029432874631532241 0.18830511159122221 0 0.02046267670660749 0.15863961359432921 0 0.030511425916676261 0.1668327016167985 0 0.036098045680068247 0.158662655692764 0 0.01001621751230531 0.1682452761088121 0 0.021397131688304719 0.17221323348441339 0 0.02046267670660749 0.15863961359432921 0 0.021397131688304719 0.17221323348441339 0 0.030511425916676261 0.1668327016167985 0 0.032183572327620119 0.17556516449376189 0 0.021397131688304719 0.17221323348441339 0 0.02046267670660749 0.15863961359432921 0 0.030511425916676261 0.1668327016167985 0 0.036098045680068247 0.158662655692764 0 0.042415703180780709 0.1690828408187241 0 0.046457721449149843 0.15224625698982369 0 0.042415703180780709 0.1690828408187241 0 0.046457721449149843 0.15224625698982369 0 0.030511425916676261 0.1668327016167985 0 0.042415703180780709 0.1690828408187241 0 0.032183572327620119 0.17556516449376189 0 0.030511425916676261 0.1668327016167985 0 0.036098045680068247 0.158662655692764 0 0.042415703180780709 0.1690828408187241 0 0.042415703180780709 0.1690828408187241 0 0.038373684912408827 0.18591942464762379 0 0.044302530768575051 0.18091659225575529 0 0.042415703180780709 0.1690828408187241 0 0.038373684912408827 0.18591942464762379 0 0.042415703180780709 0.1690828408187241 0 0.038373684912408827 0.18591942464762379 0 0.032183572327620119 0.17556516449376189 0 0.02507048003067483 0.18348197411859971 0 0.038373684912408827 0.18591942464762379 0 0.032183572327620119 0.17556516449376189 0 0.038373684912408827 0.18591942464762379 0 0.029432874631532241 0.18830511159122221 0 0.037934334234461832 0.18774949171525171 0 0.02507048003067483 0.18348197411859971 0 0.038373684912408827 0.18591942464762379 0 0.038373684912408827 0.18591942464762379 0 0.037934334234461832 0.18774949171525171 0 0.042415703180780709 0.1690828408187241 0 0.044302530768575051 0.18091659225575529 0 0.047062432159703071 0.17699153175407559 0 0.038373684912408827 0.18591942464762379 0 0.044302530768575051 0.18091659225575529 0 0.045620297224088148 0.18724716929034399 0 0.038373684912408827 0.18591942464762379 0 0.045620297224088148 0.18724716929034399 0 0.037934334234461832 0.18774949171525171 0 0.045620297224088148 0.18724716929034399 0 0.037934334234461832 0.18774949171525171 0 0.038373684912408827 0.18591942464762379 0 0.045620297224088148 0.18724716929034399 0 0.045620297224088148 0.18724716929034399 0 0.053757012723272053 0.18025811697044899 0 0.068021386504051193 0.18578312769882391 0 0.045620297224088148 0.18724716929034399 0 0.068021386504051193 0.18578312769882391 0 0.044302530768575051 0.18091659225575529 0 0.045620297224088148 0.18724716929034399 0 0.053757012723272053 0.18025811697044899 0 0.042415703180780709 0.1690828408187241 0 0.047062432159703071 0.17699153175407559 0 0.052623888783321963 0.17400418169714979 0 0.044302530768575051 0.18091659225575529 0 0.053757012723272053 0.18025811697044899 0 0.047062432159703071 0.17699153175407559 0 0.053757012723272053 0.18025811697044899 0 0.052623888783321963 0.17400418169714979 0 0.056864845777997407 0.17753002451142399 0 0.053757012723272053 0.18025811697044899 0 0.047062432159703071 0.17699153175407559 0 0.052623888783321963 0.17400418169714979 0 0.053757012723272053 0.18025811697044899 0 0.062415652760709872 0.1795580085068976 0 0.056864845777997407 0.17753002451142399 0 0.052623888783321963 0.17400418169714979 0 0.060736051278922072 0.1736186825551764 0 0.056864845777997407 0.17753002451142399 0 0.060736051278922072 0.1736186825551764 0 0.062415652760709872 0.1795580085068976 0 0.056864845777997407 0.17753002451142399 0 0.053757012723272053 0.18025811697044899 0 0.062415652760709872 0.1795580085068976 0 0.068021386504051193 0.18578312769882391 0 0.042415703180780709 0.1690828408187241 0 0.053025344081899843 0.1590982765835906 0 0.046457721449149843 0.15224625698982369 0 0.042415703180780709 0.1690828408187241 0 0.053025344081899843 0.1590982765835906 0 0.056375955376558019 0.16708105418423541 0 0.042415703180780709 0.1690828408187241 0 0.052623888783321963 0.17400418169714979 0 0.056375955376558019 0.16708105418423541 0 0.060736051278922072 0.1736186825551764 0 0.056375955376558019 0.16708105418423541 0 0.065353423409814246 0.16933626959063081 0 0.052623888783321963 0.17400418169714979 0 0.060736051278922072 0.1736186825551764 0 0.056375955376558019 0.16708105418423541 0 0.053025344081899843 0.1590982765835906 0 0.056375955376558019 0.16708105418423541 0 0.066041175204238953 0.16080330428735171 0 0.053025344081899843 0.1590982765835906 0 0.057436434756512479 0.14829674606887761 0 0.066041175204238953 0.16080330428735171 0 0.053025344081899843 0.1590982765835906 0 0.057436434756512479 0.14829674606887761 0 0.046457721449149843 0.15224625698982369 0 0.053025344081899843 0.1590982765835906 0 0.046457721449149843 0.15224625698982369 0 0.049447286075647308 0.13979355338877439 0 0.046457721449149843 0.15224625698982369 0 0.057436434756512479 0.14829674606887761 0 0.049447286075647308 0.13979355338877439 0 0.046457721449149843 0.15224625698982369 0 0.057436434756512479 0.14829674606887761 0 0.055191725462856188 0.13064358756470329 0 0.072835769841246484 0.1425065354390852 0 0.057436434756512479 0.14829674606887761 0 0.055191725462856188 0.13064358756470329 0 0.049447286075647308 0.13979355338877439 0 0.055191725462856188 0.13064358756470329 0 0.049447286075647308 0.13979355338877439 0 0.041676866450831213 0.13417548400770701 0 0.042985199954597722 0.12214856678700101 0 0.026865467124297049 0.13180560166797509 0 0.041676866450831213 0.13417548400770701 0 0.026865467124297049 0.13180560166797509 0 0.041676866450831213 0.13417548400770701 0 0.046457721449149843 0.15224625698982369 0 0.042985199954597722 0.12214856678700101 0 0.055191725462856188 0.13064358756470329 0 0.041676866450831213 0.13417548400770701 0 0.049447286075647308 0.13979355338877439 0 0.041676866450831213 0.13417548400770701 0 0.046457721449149843 0.15224625698982369 0 0.028332572297913389 0.14812213248369011 0 0.036098045680068247 0.158662655692764 0 0.046457721449149843 0.15224625698982369 0 0.026865467124297049 0.13180560166797509 0 0.046457721449149843 0.15224625698982369 0 0.026865467124297049 0.13180560166797509 0 0.028332572297913389 0.14812213248369011 0 0.046457721449149843 0.15224625698982369 0 0.025216267103077211 0.24072520562404751 0 0.01188298138564646 0.2489178613587168 0 0.021087111098466171 0.25772109087124878 0 0.025216267103077211 0.24072520562404751 0 0.032726721158857962 0.24441815057175459 0 0.021087111098466171 0.25772109087124878 0 0.025216267103077211 0.24072520562404751 0 0.01188298138564646 0.2489178613587168 0 0.01272791246018389 0.23654143034223149 0 0.025216267103077211 0.24072520562404751 0 0.01272791246018389 0.23654143034223149 0 0.018856843549893861 0.2311842039519626 0 0.01188298138564646 0.2489178613587168 0 0.0003291665693064352 0.24474665195800591 0 0.01272791246018389 0.23654143034223149 0 0.0003291665693064352 0.24474665195800591 0 0.01272791246018389 0.23654143034223149 0 0.00072012848422453363 0.2276959706166716 0 0.01272791246018389 0.23654143034223149 0 0.00072012848422453363 0.2276959706166716 0 0.01413959843104616 0.22451804664218711 0 0.01272791246018389 0.23654143034223149 0 0.01413959843104616 0.22451804664218711 0 0.018856843549893861 0.2311842039519626 0 0.00072012848422453363 0.2276959706166716 0 0.01413959843104616 0.22451804664218711 0 0.0071558073154352267 0.21561480991451609 0 0.025216267103077211 0.24072520562404751 0 0.023343596205268199 0.22295213319938451 0 0.031575300668768153 0.2142373486696493 0 0.025216267103077211 0.24072520562404751 0 0.031575300668768153 0.2142373486696493 0 0.03658107060224839 0.21681459218769369 0 0.01413959843104616 0.22451804664218711 0 0.023343596205268199 0.22295213319938451 0 0.019128920736884061 0.21298040013555411 0 0.01413959843104616 0.22451804664218711 0 0.023343596205268199 0.22295213319938451 0 0.018856843549893861 0.2311842039519626 0 0.025216267103077211 0.24072520562404751 0 0.023343596205268199 0.22295213319938451 0 0.018856843549893861 0.2311842039519626 0 0.025216267103077211 0.24072520562404751 0 0.031575300668768153 0.2142373486696493 0 0.02859822625914692 0.2041853861189073 0 0.033018664863344233 0.19572233588471 0 0.031575300668768153 0.2142373486696493 0 0.023343596205268199 0.22295213319938451 0 0.025191842815148781 0.21475411173104439 0 0.031575300668768153 0.2142373486696493 0 0.025191842815148781 0.21475411173104439 0 0.026244847313703881 0.20948515731176279 0 0.019128920736884061 0.21298040013555411 0 0.025191842815148781 0.21475411173104439 0 0.026244847313703881 0.20948515731176279 0 0.031575300668768153 0.2142373486696493 0 0.02859822625914692 0.2041853861189073 0 0.026244847313703881 0.20948515731176279 0 0.031575300668768153 0.2142373486696493 0 0.02859822625914692 0.2041853861189073 0 0.026244847313703881 0.20948515731176279 0 0.023631511454510989 0.2021686608931218 0 0.019128920736884061 0.21298040013555411 0 0.011885171695598501 0.20339552496134999 0 0.023631511454510989 0.2021686608931218 0 0.026244847313703881 0.20948515731176279 0 0.019128920736884061 0.21298040013555411 0 0.023631511454510989 0.2021686608931218 0 0.023343596205268199 0.22295213319938451 0 0.025191842815148781 0.21475411173104439 0 0.019128920736884061 0.21298040013555411 0 0.01413959843104616 0.22451804664218711 0 0.019128920736884061 0.21298040013555411 0 0.0071558073154352267 0.21561480991451609 0 -0.01009478277057712 0.2094841072168174 0 0.0071558073154352267 0.21561480991451609 0 0.011885171695598501 0.20339552496134999 0 0.019128920736884061 0.21298040013555411 0 0.0071558073154352267 0.21561480991451609 0 0.011885171695598501 0.20339552496134999 0 0.011885171695598501 0.20339552496134999 0 0.0052567923705268242 0.19330072273284449 0 0.01929748246809191 0.19216060863050941 0 -0.01009478277057712 0.2094841072168174 0 0.011885171695598501 0.20339552496134999 0 0.0052567923705268242 0.19330072273284449 0 0.0101541270588653 0.18099891974303059 0 0.0052567923705268242 0.19330072273284449 0 0.01929748246809191 0.19216060863050941 0 0.01929748246809191 0.19216060863050941 0 0.023631511454510989 0.2021686608931218 0 0.02668580344250842 0.19480026464954789 0 0.011885171695598501 0.20339552496134999 0 0.01929748246809191 0.19216060863050941 0 0.023631511454510989 0.2021686608931218 0 0.02859822625914692 0.2041853861189073 0 0.028520806995407339 0.1993134278352926 0 0.033018664863344233 0.19572233588471 0 0.023631511454510989 0.2021686608931218 0 0.028520806995407339 0.1993134278352926 0 0.02668580344250842 0.19480026464954789 0 0.02859822625914692 0.2041853861189073 0 0.023631511454510989 0.2021686608931218 0 0.028520806995407339 0.1993134278352926 0 0.028520806995407339 0.1993134278352926 0 0.02668580344250842 0.19480026464954789 0 0.033018664863344233 0.19572233588471 0 0.02507048003067483 0.18348197411859971 0 0.01929748246809191 0.19216060863050941 0 0.029432874631532241 0.18830511159122221 0 0.029432874631532241 0.18830511159122221 0 0.02668580344250842 0.19480026464954789 0 0.033018664863344233 0.19572233588471 0 0.01929748246809191 0.19216060863050941 0 0.029432874631532241 0.18830511159122221 0 0.02668580344250842 0.19480026464954789 0 0.037934334234461832 0.18774949171525171 0 0.031575300668768153 0.2142373486696493 0 0.040435420045638819 0.1892110338036328 0 0.03658107060224839 0.21681459218769369 0 0.040908325819555773 0.20212024482465471 0 0.040435420045638819 0.1892110338036328 0 0.03658107060224839 0.21681459218769369 0 0.037934334234461832 0.18774949171525171 0 0.033018664863344233 0.19572233588471 0 0.031575300668768153 0.2142373486696493 0 0.037934334234461832 0.18774949171525171 0 0.040435420045638819 0.1892110338036328 0 0.031575300668768153 0.2142373486696493 0 0.029432874631532241 0.18830511159122221 0 0.037934334234461832 0.18774949171525171 0 0.029432874631532241 0.18830511159122221 0 0.037934334234461832 0.18774949171525171 0 0.033018664863344233 0.19572233588471 0 0.040908325819555773 0.20212024482465471 0 0.043564452052900798 0.19575824630599431 0 0.040435420045638819 0.1892110338036328 0 0.04454434596990519 0.19943183351347321 0 0.048430588762217328 0.20043006244208031 0 0.04500645010835623 0.2033518732170099 0 0.040908325819555773 0.20212024482465471 0 0.04454434596990519 0.19943183351347321 0 0.04500645010835623 0.2033518732170099 0 0.04454434596990519 0.19943183351347321 0 0.04680638294379947 0.19591602826517779 0 0.048430588762217328 0.20043006244208031 0 0.040908325819555773 0.20212024482465471 0 0.04454434596990519 0.19943183351347321 0 0.043564452052900798 0.19575824630599431 0 0.04454434596990519 0.19943183351347321 0 0.043564452052900798 0.19575824630599431 0 0.04680638294379947 0.19591602826517779 0 0.043564452052900798 0.19575824630599431 0 0.04680638294379947 0.19591602826517779 0 0.045127785485604713 0.19211209112303301 0 0.043564452052900798 0.19575824630599431 0 0.045127785485604713 0.19211209112303301 0 0.040435420045638819 0.1892110338036328 0 0.045620297224088148 0.18724716929034399 0 0.037934334234461832 0.18774949171525171 0 0.040435420045638819 0.1892110338036328 0 0.045620297224088148 0.18724716929034399 0 0.045127785485604713 0.19211209112303301 0 0.040435420045638819 0.1892110338036328 0 0.045620297224088148 0.18724716929034399 0 0.070064136795497459 0.19172583816933789 0 0.068021386504051193 0.18578312769882391 0 0.045620297224088148 0.18724716929034399 0 0.045127785485604713 0.19211209112303301 0 0.051206844998899909 0.1928452654375668 0 0.045620297224088148 0.18724716929034399 0 0.051206844998899909 0.1928452654375668 0 0.060510899544519742 0.19392707982024299 0 0.045620297224088148 0.18724716929034399 0 0.060510899544519742 0.19392707982024299 0 0.070064136795497459 0.19172583816933789 0 0.045620297224088148 0.18724716929034399 0 0.070064136795497459 0.19172583816933789 0 0.04680638294379947 0.19591602826517779 0 0.045127785485604713 0.19211209112303301 0 0.051206844998899909 0.1928452654375668 0 0.051206844998899909 0.1928452654375668 0 0.056384853267208782 0.19497769515082419 0 0.053159917255399647 0.19796112247780481 0 0.051206844998899909 0.1928452654375668 0 0.056384853267208782 0.19497769515082419 0 0.060510899544519742 0.19392707982024299 0 0.059703014480282562 0.19798620489828611 0 0.057036125280082867 0.2020895038508983 0 0.062508892354258119 0.20286420448276701 0 0.059703014480282562 0.19798620489828611 0 0.064432606315302926 0.19872154579214571 0 0.062508892354258119 0.20286420448276701 0 0.056384853267208782 0.19497769515082419 0 0.060510899544519742 0.19392707982024299 0 0.059703014480282562 0.19798620489828611 0 0.060510899544519742 0.19392707982024299 0 0.059703014480282562 0.19798620489828611 0 0.064432606315302926 0.19872154579214571 0 0.056384853267208782 0.19497769515082419 0 0.059703014480282562 0.19798620489828611 0 0.053159917255399647 0.19796112247780481 0 0.059703014480282562 0.19798620489828611 0 0.057036125280082867 0.2020895038508983 0 0.053159917255399647 0.19796112247780481 0 0.057036125280082867 0.2020895038508983 0 0.052361667209995272 0.20222473317232689 0 0.053159917255399647 0.19796112247780481 0 0.052361667209995272 0.20222473317232689 0 0.053159917255399647 0.19796112247780481 0 0.048430588762217328 0.20043006244208031 0 0.04680638294379947 0.19591602826517779 0 0.053159917255399647 0.19796112247780481 0 0.048430588762217328 0.20043006244208031 0 0.04680638294379947 0.19591602826517779 0 0.051206844998899909 0.1928452654375668 0 0.053159917255399647 0.19796112247780481 0 0.048430588762217328 0.20043006244208031 0 0.049192525162061712 0.20450468398831251 0 0.04500645010835623 0.2033518732170099 0 0.052361667209995272 0.20222473317232689 0 0.048430588762217328 0.20043006244208031 0 0.049192525162061712 0.20450468398831251 0 0.050057087599190357 0.2100333680512417 0 0.044796117018283392 0.21280427959369891 0 0.045848369974968439 0.2077341318383342 0 0.049192525162061712 0.20450468398831251 0 0.050057087599190357 0.2100333680512417 0 0.045848369974968439 0.2077341318383342 0 0.050057087599190357 0.2100333680512417 0 0.053989179590214757 0.20613829310253851 0 0.055958453040780447 0.2121117333855059 0 0.052361667209995272 0.20222473317232689 0 0.049192525162061712 0.20450468398831251 0 0.053989179590214757 0.20613829310253851 0 0.049192525162061712 0.20450468398831251 0 0.050057087599190357 0.2100333680512417 0 0.053989179590214757 0.20613829310253851 0 0.057036125280082867 0.2020895038508983 0 0.052361667209995272 0.20222473317232689 0 0.053989179590214757 0.20613829310253851 0 0.057036125280082867 0.2020895038508983 0 0.053989179590214757 0.20613829310253851 0 0.059366499909990322 0.20729675943584089 0 0.053989179590214757 0.20613829310253851 0 0.059366499909990322 0.20729675943584089 0 0.055958453040780447 0.2121117333855059 0 0.059366499909990322 0.20729675943584089 0 0.061976733443607157 0.21257951775799111 0 0.055958453040780447 0.2121117333855059 0 0.059366499909990322 0.20729675943584089 0 0.061976733443607157 0.21257951775799111 0 0.066125887819165868 0.20798495835671579 0 0.057036125280082867 0.2020895038508983 0 0.059366499909990322 0.20729675943584089 0 0.062508892354258119 0.20286420448276701 0 0.055958453040780447 0.2121117333855059 0 0.050557880808833451 0.21690708639906059 0 0.05963869070918984 0.21972448424827401 0 0.061976733443607157 0.21257951775799111 0 0.055958453040780447 0.2121117333855059 0 0.05963869070918984 0.21972448424827401 0 0.050057087599190357 0.2100333680512417 0 0.055958453040780447 0.2121117333855059 0 0.050557880808833451 0.21690708639906059 0 0.050057087599190357 0.2100333680512417 0 0.050557880808833451 0.21690708639906059 0 0.044796117018283392 0.21280427959369891 0 0.040435420045638819 0.1892110338036328 0 0.031575300668768153 0.2142373486696493 0 0.03658107060224839 0.21681459218769369 0 0.050557880808833451 0.21690708639906059 0 0.043664190572510142 0.2187153531795743 0 0.044796117018283392 0.21280427959369891 0 0.043664190572510142 0.2187153531795743 0 0.041304072154801363 0.2146352586854843 0 0.044796117018283392 0.21280427959369891 0 0.043664190572510142 0.2187153531795743 0 0.041304072154801363 0.2146352586854843 0 0.03658107060224839 0.21681459218769369 0 0.041304072154801363 0.2146352586854843 0 0.044796117018283392 0.21280427959369891 0 0.042070411608686388 0.2099936286741847 0 0.041304072154801363 0.2146352586854843 0 0.042070411608686388 0.2099936286741847 0 0.03658107060224839 0.21681459218769369 0 0.044796117018283392 0.21280427959369891 0 0.045848369974968439 0.2077341318383342 0 0.042070411608686388 0.2099936286741847 0 0.040908325819555773 0.20212024482465471 0 0.042984514082260991 0.2058532649152422 0 0.042070411608686388 0.2099936286741847 0 0.040908325819555773 0.20212024482465471 0 0.042070411608686388 0.2099936286741847 0 0.03658107060224839 0.21681459218769369 0 0.045848369974968439 0.2077341318383342 0 0.042984514082260991 0.2058532649152422 0 0.042070411608686388 0.2099936286741847 0 0.045848369974968439 0.2077341318383342 0 0.042984514082260991 0.2058532649152422 0 0.04500645010835623 0.2033518732170099 0 0.049192525162061712 0.20450468398831251 0 0.045848369974968439 0.2077341318383342 0 0.04500645010835623 0.2033518732170099 0 0.040908325819555773 0.20212024482465471 0 0.042984514082260991 0.2058532649152422 0 0.04500645010835623 0.2033518732170099 0 0.03658107060224839 0.21681459218769369 0 0.041063564717527569 0.23435127003461001 0 0.032726721158857962 0.24441815057175459 0 0.03658107060224839 0.21681459218769369 0 0.041063564717527569 0.23435127003461001 0 0.043696357751115023 0.2259009974692518 0 0.03658107060224839 0.21681459218769369 0 0.032726721158857962 0.24441815057175459 0 0.025216267103077211 0.24072520562404751 0 0.03658107060224839 0.21681459218769369 0 0.032726721158857962 0.24441815057175459 0 0.041063564717527569 0.23435127003461001 0 0.043696357751115023 0.2259009974692518 0 0.049866716504802747 0.23274057311812521 0 0.043664190572510142 0.2187153531795743 0 0.043696357751115023 0.2259009974692518 0 0.050804714377236597 0.22448575890075589 0 0.043664190572510142 0.2187153531795743 0 0.03658107060224839 0.21681459218769369 0 0.043696357751115023 0.2259009974692518 0 0.050557880808833451 0.21690708639906059 0 0.050804714377236597 0.22448575890075589 0 0.05963869070918984 0.21972448424827401 0 0.050557880808833451 0.21690708639906059 0 0.043664190572510142 0.2187153531795743 0 0.050804714377236597 0.22448575890075589 0 0.050804714377236597 0.22448575890075589 0 0.05963869070918984 0.21972448424827401 0 0.05995853984399243 0.23015399831681971 0 0.043696357751115023 0.2259009974692518 0 0.050804714377236597 0.22448575890075589 0 0.049866716504802747 0.23274057311812521 0 0.050804714377236597 0.22448575890075589 0 0.05995853984399243 0.23015399831681971 0 0.049866716504802747 0.23274057311812521 0 0.049866716504802747 0.23274057311812521 0 0.047381837051165353 0.24018671996121219 0 0.054770971923006263 0.24118895028510171 0 0.05995853984399243 0.23015399831681971 0 0.054770971923006263 0.24118895028510171 0 0.064944704837927275 0.2453355997948192 0 0.05995853984399243 0.23015399831681971 0 0.049866716504802747 0.23274057311812521 0 0.054770971923006263 0.24118895028510171 0 0.054770971923006263 0.24118895028510171 0 0.064944704837927275 0.2453355997948192 0 0.058929044337716167 0.25028285571895481 0 0.054770971923006263 0.24118895028510171 0 0.049115989726689763 0.25005625140347748 0 0.058929044337716167 0.25028285571895481 0 0.047381837051165353 0.24018671996121219 0 0.054770971923006263 0.24118895028510171 0 0.049115989726689763 0.25005625140347748 0 0.047381837051165353 0.24018671996121219 0 0.042091942383800381 0.2425965549647465 0 0.049115989726689763 0.25005625140347748 0 0.042091942383800381 0.2425965549647465 0 0.032726721158857962 0.24441815057175459 0 0.049115989726689763 0.25005625140347748 0 0.041063564717527569 0.23435127003461001 0 0.049866716504802747 0.23274057311812521 0 0.047381837051165353 0.24018671996121219 0 0.041063564717527569 0.23435127003461001 0 0.047381837051165353 0.24018671996121219 0 0.042091942383800381 0.2425965549647465 0 0.041063564717527569 0.23435127003461001 0 0.042091942383800381 0.2425965549647465 0 0.032726721158857962 0.24441815057175459 0 0.087272602579919201 0.238356934138203 0 0.073669957147837306 0.23611307790852781 0 0.079529801227446295 0.25391657230169201 0 0.092223360092669029 0.24897853345958451 0 0.087272602579919201 0.238356934138203 0 0.079529801227446295 0.25391657230169201 0 0.064944704837927275 0.2453355997948192 0 0.073669957147837306 0.23611307790852781 0 0.079529801227446295 0.25391657230169201 0 0.05995853984399243 0.23015399831681971 0 0.064944704837927275 0.2453355997948192 0 0.073669957147837306 0.23611307790852781 0 0.073669957147837306 0.23611307790852781 0 0.069747122206795728 0.22495790675276001 0 0.080566972190942929 0.22395745614687321 0 0.05995853984399243 0.23015399831681971 0 0.073669957147837306 0.23611307790852781 0 0.069747122206795728 0.22495790675276001 0 0.05963869070918984 0.21972448424827401 0 0.05995853984399243 0.23015399831681971 0 0.069747122206795728 0.22495790675276001 0 0.05963869070918984 0.21972448424827401 0 0.069747122206795728 0.22495790675276001 0 0.070269055019776899 0.2156610725252382 0 0.069747122206795728 0.22495790675276001 0 0.080566972190942929 0.22395745614687321 0 0.070269055019776899 0.2156610725252382 0 0.087272602579919201 0.238356934138203 0 0.073669957147837306 0.23611307790852781 0 0.080566972190942929 0.22395745614687321 0 0.087272602579919201 0.238356934138203 0 0.080566972190942929 0.22395745614687321 0 0.092796862215519804 0.22514402444997231 0 0.092796862215519804 0.22514402444997231 0 0.088236152785967206 0.21673659881670199 0 0.096053538709819544 0.2147718102034965 0 0.080566972190942929 0.22395745614687321 0 0.092796862215519804 0.22514402444997231 0 0.088236152785967206 0.21673659881670199 0 0.088236152785967206 0.21673659881670199 0 0.088696563253242294 0.2101064989481197 0 0.096053538709819544 0.2147718102034965 0 0.088236152785967206 0.21673659881670199 0 0.088696563253242294 0.2101064989481197 0 0.080929192556709287 0.21313852723729351 0 0.088463401978654904 0.20355213878723749 0 0.088696563253242294 0.2101064989481197 0 0.097124018125307854 0.2061011403217794 0 0.088463401978654904 0.20355213878723749 0 0.088696563253242294 0.2101064989481197 0 0.081373075362995165 0.2063387783222094 0 0.088463401978654904 0.20355213878723749 0 0.081373075362995165 0.2063387783222094 0 0.077801026179478247 0.2006579152836305 0 0.088696563253242294 0.2101064989481197 0 0.081373075362995165 0.2063387783222094 0 0.080929192556709287 0.21313852723729351 0 0.081373075362995165 0.2063387783222094 0 0.080929192556709287 0.21313852723729351 0 0.073618986121987001 0.2076789046525018 0 0.080566972190942929 0.22395745614687321 0 0.088236152785967206 0.21673659881670199 0 0.080929192556709287 0.21313852723729351 0 0.080929192556709287 0.21313852723729351 0 0.070269055019776899 0.2156610725252382 0 0.073618986121987001 0.2076789046525018 0 0.080566972190942929 0.22395745614687321 0 0.080929192556709287 0.21313852723729351 0 0.070269055019776899 0.2156610725252382 0 0.061976733443607157 0.21257951775799111 0 0.05963869070918984 0.21972448424827401 0 0.070269055019776899 0.2156610725252382 0 0.061976733443607157 0.21257951775799111 0 0.070269055019776899 0.2156610725252382 0 0.066125887819165868 0.20798495835671579 0 0.070269055019776899 0.2156610725252382 0 0.066125887819165868 0.20798495835671579 0 0.073618986121987001 0.2076789046525018 0 0.059366499909990322 0.20729675943584089 0 0.066125887819165868 0.20798495835671579 0 0.062508892354258119 0.20286420448276701 0 0.066125887819165868 0.20798495835671579 0 0.068389220320724184 0.20310625456271561 0 0.062508892354258119 0.20286420448276701 0 0.066125887819165868 0.20798495835671579 0 0.073618986121987001 0.2076789046525018 0 0.068389220320724184 0.20310625456271561 0 0.073618986121987001 0.2076789046525018 0 0.077801026179478247 0.2006579152836305 0 0.068389220320724184 0.20310625456271561 0 0.081373075362995165 0.2063387783222094 0 0.073618986121987001 0.2076789046525018 0 0.077801026179478247 0.2006579152836305 0 0.077801026179478247 0.2006579152836305 0 0.068389220320724184 0.20310625456271561 0 0.06872711650488722 0.19720401399502319 0 0.077801026179478247 0.2006579152836305 0 0.06872711650488722 0.19720401399502319 0 0.070064136795497459 0.19172583816933789 0 0.068389220320724184 0.20310625456271561 0 0.06872711650488722 0.19720401399502319 0 0.064432606315302926 0.19872154579214571 0 0.060510899544519742 0.19392707982024299 0 0.06872711650488722 0.19720401399502319 0 0.064432606315302926 0.19872154579214571 0 0.068389220320724184 0.20310625456271561 0 0.064432606315302926 0.19872154579214571 0 0.062508892354258119 0.20286420448276701 0 0.060510899544519742 0.19392707982024299 0 0.06872711650488722 0.19720401399502319 0 0.070064136795497459 0.19172583816933789 0 0.088463401978654904 0.20355213878723749 0 0.077801026179478247 0.2006579152836305 0 0.094507976366906665 0.19620450704833189 0 0.070064136795497459 0.19172583816933789 0 0.094507976366906665 0.19620450704833189 0 0.090422475784014217 0.1843190861073036 0 0.077801026179478247 0.2006579152836305 0 0.070064136795497459 0.19172583816933789 0 0.094507976366906665 0.19620450704833189 0 0.070064136795497459 0.19172583816933789 0 0.094507976366906665 0.19620450704833189 0 0.088463401978654904 0.20355213878723749 0 0.094507976366906665 0.19620450704833189 0 0.097124018125307854 0.2061011403217794 0 0.094507976366906665 0.19620450704833189 0 0.1116283610925722 0.20551042214673071 0 0.1045896434618783 0.20663765827149011 0 0.094507976366906665 0.19620450704833189 0 0.118951815938316 0.20068317592732601 0 0.1116283610925722 0.20551042214673071 0 0.094507976366906665 0.19620450704833189 0 0.118951815938316 0.20068317592732601 0 0.094507976366906665 0.19620450704833189 0 0.10209471517943 0.18923920039298289 0 0.1105703155928114 0.1916233258791441 0 0.094507976366906665 0.19620450704833189 0 0.1105703155928114 0.1916233258791441 0 0.118951815938316 0.20068317592732601 0 0.094507976366906665 0.19620450704833189 0 0.10209471517943 0.18923920039298289 0 0.090422475784014217 0.1843190861073036 0 0.094507976366906665 0.19620450704833189 0 0.1045896434618783 0.20663765827149011 0 0.097124018125307854 0.2061011403217794 0 0.10209471517943 0.18923920039298289 0 0.1105703155928114 0.1916233258791441 0 0.1128235650639773 0.1828550445157833 0 0.1105703155928114 0.1916233258791441 0 0.1244735054154269 0.18913470151129649 0 0.1128235650639773 0.1828550445157833 0 0.1105703155928114 0.1916233258791441 0 0.1244735054154269 0.18913470151129649 0 0.118951815938316 0.20068317592732601 0 0.1234068092293432 0.21328743859672519 0 0.1100394092730496 0.21345181946783739 0 0.1300917217779832 0.2248644134554412 0 0.118951815938316 0.20068317592732601 0 0.1116283610925722 0.20551042214673071 0 0.11518838585936431 0.20922674942269739 0 0.1116283610925722 0.20551042214673071 0 0.1099420745520963 0.20872813403477 0 0.11518838585936431 0.20922674942269739 0 0.1099420745520963 0.20872813403477 0 0.11518838585936431 0.20922674942269739 0 0.1100394092730496 0.21345181946783739 0 0.118951815938316 0.20068317592732601 0 0.11518838585936431 0.20922674942269739 0 0.1234068092293432 0.21328743859672519 0 0.11518838585936431 0.20922674942269739 0 0.1234068092293432 0.21328743859672519 0 0.1100394092730496 0.21345181946783739 0 0.10600514045245769 0.21516774992191171 0 0.1078204083247665 0.2156571094805512 0 0.10418624690326581 0.21926881586293309 0 0.10600514045245769 0.21516774992191171 0 0.10246703837027001 0.21292192880935559 0 0.10418624690326581 0.21926881586293309 0 0.1100394092730496 0.21345181946783739 0 0.10600514045245769 0.21516774992191171 0 0.10246703837027001 0.21292192880935559 0 0.1100394092730496 0.21345181946783739 0 0.10600514045245769 0.21516774992191171 0 0.1078204083247665 0.2156571094805512 0 0.1100394092730496 0.21345181946783739 0 0.1045896434618783 0.20663765827149011 0 0.097124018125307854 0.2061011403217794 0 0.1100394092730496 0.21345181946783739 0 0.10246703837027001 0.21292192880935559 0 0.097124018125307854 0.2061011403217794 0 0.1100394092730496 0.21345181946783739 0 0.097124018125307854 0.2061011403217794 0 0.1099420745520963 0.20872813403477 0 0.1100394092730496 0.21345181946783739 0 0.1045896434618783 0.20663765827149011 0 0.1100394092730496 0.21345181946783739 0 0.1045896434618783 0.20663765827149011 0 0.1116283610925722 0.20551042214673071 0 0.1099420745520963 0.20872813403477 0 0.1045896434618783 0.20663765827149011 0 0.088696563253242294 0.2101064989481197 0 0.097124018125307854 0.2061011403217794 0 0.096053538709819544 0.2147718102034965 0 0.10246703837027001 0.21292192880935559 0 0.097124018125307854 0.2061011403217794 0 0.096053538709819544 0.2147718102034965 0 0.10246703837027001 0.21292192880935559 0 0.096053538709819544 0.2147718102034965 0 0.10418624690326581 0.21926881586293309 0 0.1078204083247665 0.2156571094805512 0 0.10418624690326581 0.21926881586293309 0 0.1044128275227478 0.23949263001706919 0 0.087272602579919201 0.238356934138203 0 0.092796862215519804 0.22514402444997231 0 0.1044128275227478 0.23949263001706919 0 0.092796862215519804 0.22514402444997231 0 0.10418624690326581 0.21926881586293309 0 0.1044128275227478 0.23949263001706919 0 0.1100394092730496 0.21345181946783739 0 0.1078204083247665 0.2156571094805512 0 0.1044128275227478 0.23949263001706919 0 0.1100394092730496 0.21345181946783739 0 0.1044128275227478 0.23949263001706919 0 0.092796862215519804 0.22514402444997231 0 0.096053538709819544 0.2147718102034965 0 0.10418624690326581 0.21926881586293309 0 0.1100394092730496 0.21345181946783739 0 0.12793495506163571 0.23582766788504039 0 0.1100394092730496 0.21345181946783739 0 0.12793495506163571 0.23582766788504039 0 0.1300917217779832 0.2248644134554412 0 0.1100394092730496 0.21345181946783739 0 0.1044128275227478 0.23949263001706919 0 0.12793495506163571 0.23582766788504039 0 0.1100394092730496 0.21345181946783739 0 0.1300917217779832 0.2248644134554412 0 0.1044128275227478 0.23949263001706919 0 0.12793495506163571 0.23582766788504039 0 0.11853129707230969 0.25009864336859239 0 0.092223360092669029 0.24897853345958451 0 0.087272602579919201 0.238356934138203 0 0.1044128275227478 0.23949263001706919 0 0.091178184370607665 0.14271892686265239 0 0.072835769841246484 0.1425065354390852 0 0.093574535641567716 0.16104048845090679 0 0.091178184370607665 0.14271892686265239 0 0.082184125701655855 0.12805897675334091 0 0.094118999721154672 0.12868688843660309 0 0.091178184370607665 0.14271892686265239 0 0.082184125701655855 0.12805897675334091 0 0.072835769841246484 0.1425065354390852 0 0.062884133313118831 0.1154106040963815 0 0.082184125701655855 0.12805897675334091 0 0.072835769841246484 0.1425065354390852 0 0.062884133313118831 0.1154106040963815 0 0.072835769841246484 0.1425065354390852 0 0.062884133313118831 0.1154106040963815 0 0.055191725462856188 0.13064358756470329 0 0.072835769841246484 0.1425065354390852 0 0.072835769841246484 0.1425065354390852 0 0.082787406369374039 0.1696024667817887 0 0.057436434756512479 0.14829674606887761 0 0.072835769841246484 0.1425065354390852 0 0.066041175204238953 0.16080330428735171 0 0.072835769841246484 0.1425065354390852 0 0.066041175204238953 0.16080330428735171 0 0.082787406369374039 0.1696024667817887 0 0.066041175204238953 0.16080330428735171 0 0.072513385647121995 0.17130323033481751 0 0.082787406369374039 0.1696024667817887 0 0.066041175204238953 0.16080330428735171 0 0.065353423409814246 0.16933626959063081 0 0.072513385647121995 0.17130323033481751 0 0.056375955376558019 0.16708105418423541 0 0.066041175204238953 0.16080330428735171 0 0.065353423409814246 0.16933626959063081 0 0.068021386504051193 0.18578312769882391 0 0.075695281644338863 0.18198010210235049 0 0.090422475784014217 0.1843190861073036 0 0.070064136795497459 0.19172583816933789 0 0.068021386504051193 0.18578312769882391 0 0.090422475784014217 0.1843190861073036 0 0.062415652760709872 0.1795580085068976 0 0.068021386504051193 0.18578312769882391 0 0.069230999314949651 0.17719212671479451 0 0.060736051278922072 0.1736186825551764 0 0.062415652760709872 0.1795580085068976 0 0.069230999314949651 0.17719212671479451 0 0.065353423409814246 0.16933626959063081 0 0.072513385647121995 0.17130323033481751 0 0.069230999314949651 0.17719212671479451 0 0.060736051278922072 0.1736186825551764 0 0.065353423409814246 0.16933626959063081 0 0.069230999314949651 0.17719212671479451 0 0.069230999314949651 0.17719212671479451 0 0.075695281644338863 0.18198010210235049 0 0.079153923937233028 0.17958198429952199 0 0.072513385647121995 0.17130323033481751 0 0.069230999314949651 0.17719212671479451 0 0.079153923937233028 0.17958198429952199 0 0.068021386504051193 0.18578312769882391 0 0.069230999314949651 0.17719212671479451 0 0.075695281644338863 0.18198010210235049 0 0.068021386504051193 0.18578312769882391 0 0.090422475784014217 0.1843190861073036 0 0.079153923937233028 0.17958198429952199 0 0.08629951136977479 0.17738262617782641 0 0.090422475784014217 0.1843190861073036 0 0.075695281644338863 0.18198010210235049 0 0.079153923937233028 0.17958198429952199 0 0.090422475784014217 0.1843190861073036 0 0.079153923937233028 0.17958198429952199 0 0.08629951136977479 0.17738262617782641 0 0.082787406369374039 0.1696024667817887 0 0.072513385647121995 0.17130323033481751 0 0.079153923937233028 0.17958198429952199 0 0.082787406369374039 0.1696024667817887 0 0.091443910202796477 0.1772714049675371 0 0.090062138119366905 0.17067187505046899 0 0.09620532701332149 0.16806238887428629 0 0.091443910202796477 0.1772714049675371 0 0.08629951136977479 0.17738262617782641 0 0.090062138119366905 0.17067187505046899 0 0.08629951136977479 0.17738262617782641 0 0.082787406369374039 0.1696024667817887 0 0.090062138119366905 0.17067187505046899 0 0.091443910202796477 0.1772714049675371 0 0.08629951136977479 0.17738262617782641 0 0.090422475784014217 0.1843190861073036 0 0.072835769841246484 0.1425065354390852 0 0.082787406369374039 0.1696024667817887 0 0.093574535641567716 0.16104048845090679 0 0.082787406369374039 0.1696024667817887 0 0.090062138119366905 0.17067187505046899 0 0.093574535641567716 0.16104048845090679 0 0.090062138119366905 0.17067187505046899 0 0.093574535641567716 0.16104048845090679 0 0.09620532701332149 0.16806238887428629 0 0.093574535641567716 0.16104048845090679 0 0.1014421428635468 0.16265684757543561 0 0.09620532701332149 0.16806238887428629 0 0.093574535641567716 0.16104048845090679 0 0.1014421428635468 0.16265684757543561 0 0.1027158894787058 0.15355890587363799 0 0.1014421428635468 0.16265684757543561 0 0.09620532701332149 0.16806238887428629 0 0.1050964370865666 0.16939997645309371 0 0.091443910202796477 0.1772714049675371 0 0.09620532701332149 0.16806238887428629 0 0.1050964370865666 0.16939997645309371 0 0.1014421428635468 0.16265684757543561 0 0.1050964370865666 0.16939997645309371 0 0.10961852509757231 0.16122247822525279 0 0.1014421428635468 0.16265684757543561 0 0.10961852509757231 0.16122247822525279 0 0.1027158894787058 0.15355890587363799 0 0.090422475784014217 0.1843190861073036 0 0.1128235650639773 0.1828550445157833 0 0.091443910202796477 0.1772714049675371 0 0.1180111423027823 0.17752879823281481 0 0.091443910202796477 0.1772714049675371 0 0.090422475784014217 0.1843190861073036 0 0.1128235650639773 0.1828550445157833 0 0.10209471517943 0.18923920039298289 0 0.090422475784014217 0.1843190861073036 0 0.1128235650639773 0.1828550445157833 0 0.091443910202796477 0.1772714049675371 0 0.1050964370865666 0.16939997645309371 0 0.1180111423027823 0.17752879823281481 0 0.091443910202796477 0.1772714049675371 0 0.1128235650639773 0.1828550445157833 0 0.1180111423027823 0.17752879823281481 0 0.1244735054154269 0.18913470151129649 0 0.1128235650639773 0.1828550445157833 0 0.1180111423027823 0.17752879823281481 0 0.10961852509757231 0.16122247822525279 0 0.11957538285557549 0.16133227047879059 0 0.11441619451019661 0.15309694230028331 0 0.10961852509757231 0.16122247822525279 0 0.11485961419490361 0.1684032333609006 0 0.11957538285557549 0.16133227047879059 0 0.1050964370865666 0.16939997645309371 0 0.1180111423027823 0.17752879823281481 0 0.11485961419490361 0.1684032333609006 0 0.1050964370865666 0.16939997645309371 0 0.10961852509757231 0.16122247822525279 0 0.11485961419490361 0.1684032333609006 0 0.11485961419490361 0.1684032333609006 0 0.11957538285557549 0.16133227047879059 0 0.12868618991910771 0.16651299007819201 0 0.1180111423027823 0.17752879823281481 0 0.11485961419490361 0.1684032333609006 0 0.12868618991910771 0.16651299007819201 0 0.1175997428451844 0.14343515486174241 0 0.11441619451019661 0.15309694230028331 0 0.12715135223811161 0.15180445107851179 0 0.11957538285557549 0.16133227047879059 0 0.11441619451019661 0.15309694230028331 0 0.12715135223811161 0.15180445107851179 0 0.1175997428451844 0.14343515486174241 0 0.12532689144673281 0.13665512407445721 0 0.12715135223811161 0.15180445107851179 0 0.1175997428451844 0.14343515486174241 0 0.11441619451019661 0.15309694230028331 0 0.10601475596895429 0.13899506431422581 0 0.11441619451019661 0.15309694230028331 0 0.1027158894787058 0.15355890587363799 0 0.10601475596895429 0.13899506431422581 0 0.091178184370607665 0.14271892686265239 0 0.093574535641567716 0.16104048845090679 0 0.1027158894787058 0.15355890587363799 0 0.10961852509757231 0.16122247822525279 0 0.11441619451019661 0.15309694230028331 0 0.1027158894787058 0.15355890587363799 0 0.091178184370607665 0.14271892686265239 0 0.1027158894787058 0.15355890587363799 0 0.10601475596895429 0.13899506431422581 0 0.091178184370607665 0.14271892686265239 0 0.094118999721154672 0.12868688843660309 0 0.10601475596895429 0.13899506431422581 0 0.1069941806115509 0.12426303747810109 0 0.094118999721154672 0.12868688843660309 0 0.10601475596895429 0.13899506431422581 0 0.1069941806115509 0.12426303747810109 0 0.10601475596895429 0.13899506431422581 0 0.11502188486583539 0.13481754316380401 0 0.1069941806115509 0.12426303747810109 0 0.11502188486583539 0.13481754316380401 0 0.12002478345212519 0.1270391738645256 0 0.1175997428451844 0.14343515486174241 0 0.10601475596895429 0.13899506431422581 0 0.11502188486583539 0.13481754316380401 0 0.1175997428451844 0.14343515486174241 0 0.11502188486583539 0.13481754316380401 0 0.12532689144673281 0.13665512407445721 0 0.11502188486583539 0.13481754316380401 0 0.12002478345212519 0.1270391738645256 0 0.12532689144673281 0.13665512407445721 0 0.12002478345212519 0.1270391738645256 0 0.12532689144673281 0.13665512407445721 0 0.12870428466905709 0.1248846646381075 0 0.12532689144673281 0.13665512407445721 0 0.13358414542206509 0.13196518250538669 0 0.12870428466905709 0.1248846646381075 0 0.12532689144673281 0.13665512407445721 0 0.13358414542206509 0.13196518250538669 0 0.1383592443843682 0.1422404290852258 0 0.13358414542206509 0.13196518250538669 0 0.14408055706876799 0.12985533945019651 0 0.1383592443843682 0.1422404290852258 0 0.13358414542206509 0.13196518250538669 0 0.14408055706876799 0.12985533945019651 0 0.1372777235492384 0.1200142365073109 0 0.13358414542206509 0.13196518250538669 0 0.12870428466905709 0.1248846646381075 0 0.1372777235492384 0.1200142365073109 0 0.14408055706876799 0.12985533945019651 0 0.15312918728432531 0.1411058752922647 0 0.1383592443843682 0.1422404290852258 0 0.14408055706876799 0.12985533945019651 0 0.15551470037425119 0.1274578246000615 0 0.15312918728432531 0.1411058752922647 0 0.15312918728432531 0.1411058752922647 0 0.14716007708677639 0.15949096009881289 0 0.16422097892012019 0.15192782238056329 0 0.15312918728432531 0.1411058752922647 0 0.1383592443843682 0.1422404290852258 0 0.14716007708677639 0.15949096009881289 0 0.1383592443843682 0.1422404290852258 0 0.12715135223811161 0.15180445107851179 0 0.14716007708677639 0.15949096009881289 0 0.12532689144673281 0.13665512407445721 0 0.1383592443843682 0.1422404290852258 0 0.12715135223811161 0.15180445107851179 0 0.11957538285557549 0.16133227047879059 0 0.12715135223811161 0.15180445107851179 0 0.12868618991910771 0.16651299007819201 0 0.12715135223811161 0.15180445107851179 0 0.12868618991910771 0.16651299007819201 0 0.14716007708677639 0.15949096009881289 0 0.12868618991910771 0.16651299007819201 0 0.14457837440276811 0.17778619149809241 0 0.14716007708677639 0.15949096009881289 0 0.1180111423027823 0.17752879823281481 0 0.12868618991910771 0.16651299007819201 0 0.14457837440276811 0.17778619149809241 0 0.1244735054154269 0.18913470151129649 0 0.1180111423027823 0.17752879823281481 0 0.14457837440276811 0.17778619149809241 0 0.1180111423027823 0.17752879823281481 0 0.14457837440276811 0.17778619149809241 0 0.14457837440276811 0.17778619149809241 0 0.14716007708677639 0.15949096009881289 0 0.17114560650275379 0.17804358476337001 0 0.14716007708677639 0.15949096009881289 0 0.17114560650275379 0.17804358476337001 0 0.16422097892012019 0.15192782238056329 0 0.17114560650275379 0.17804358476337001 0 0.17977591794793529 0.1616497730989509 0 0.16422097892012019 0.15192782238056329 0 0.14457837440276811 0.17778619149809241 0 0.17114560650275379 0.17804358476337001 0 0.16162887673973189 0.19189746642756189 0 0.14457837440276811 0.17778619149809241 0 0.17114560650275379 0.17804358476337001 0 0.17114560650275379 0.17804358476337001 0 0.1853086081013155 0.18601321705560869 0 0.17977591794793529 0.1616497730989509 0 0.17114560650275379 0.17804358476337001 0 0.1853086081013155 0.18601321705560869 0 0.16162887673973189 0.19189746642756189 0 0.17977591794793529 0.1616497730989509 0 0.18458338826571921 0.144463903531376 0 0.16422097892012019 0.15192782238056329 0 0.18458338826571921 0.144463903531376 0 0.16921033427996279 0.13479280461608029 0 0.16422097892012019 0.15192782238056329 0 0.16921033427996279 0.13479280461608029 0 0.18845385036062109 0.1255646066252552 0 0.17333055351888119 0.1209127134046958 0 0.18458338826571921 0.144463903531376 0 0.16921033427996279 0.13479280461608029 0 0.18845385036062109 0.1255646066252552 0 0.15551470037425119 0.1274578246000615 0 0.15312918728432531 0.1411058752922647 0 0.16921033427996279 0.13479280461608029 0 0.16921033427996279 0.13479280461608029 0 0.16423734694977721 0.12285871933340101 0 0.17333055351888119 0.1209127134046958 0 0.15551470037425119 0.1274578246000615 0 0.16921033427996279 0.13479280461608029 0 0.16423734694977721 0.12285871933340101 0 0.15312918728432531 0.1411058752922647 0 0.16921033427996279 0.13479280461608029 0 0.16422097892012019 0.15192782238056329 0 0.150144034282917 0.23627700744304481 0 0.12793495506163571 0.23582766788504039 0 0.144722464118337 0.25681807311731691 0 0.12793495506163571 0.23582766788504039 0 0.144722464118337 0.25681807311731691 0 0.12793495506163571 0.23582766788504039 0 0.11853129707230969 0.25009864336859239 0 0.13121237151100451 0.26344602786688481 0 0.150144034282917 0.23627700744304481 0 0.1300917217779832 0.2248644134554412 0 0.150144034282917 0.23627700744304481 0 0.12793495506163571 0.23582766788504039 0 0.1300917217779832 0.2248644134554412 0 0.1300917217779832 0.2248644134554412 0 0.1455774636143492 0.22097803446386269 0 0.1342519484575003 0.21369239506629159 0 0.150144034282917 0.23627700744304481 0 0.1455774636143492 0.22097803446386269 0 0.16337932716525569 0.22587355635629411 0 0.150144034282917 0.23627700744304481 0 0.1300917217779832 0.2248644134554412 0 0.1455774636143492 0.22097803446386269 0 0.1455774636143492 0.22097803446386269 0 0.1433956555097253 0.2051618448063201 0 0.1342519484575003 0.21369239506629159 0 0.1433956555097253 0.2051618448063201 0 0.16783949508113469 0.20964051368531419 0 0.1455774636143492 0.22097803446386269 0 0.1433956555097253 0.2051618448063201 0 0.16783949508113469 0.20964051368531419 0 0.118951815938316 0.20068317592732601 0 0.1433956555097253 0.2051618448063201 0 0.1342519484575003 0.21369239506629159 0 0.1234068092293432 0.21328743859672519 0 0.1300917217779832 0.2248644134554412 0 0.1342519484575003 0.21369239506629159 0 0.118951815938316 0.20068317592732601 0 0.1234068092293432 0.21328743859672519 0 0.1342519484575003 0.21369239506629159 0 0.1244735054154269 0.18913470151129649 0 0.14457837440276811 0.17778619149809241 0 0.1433956555097253 0.2051618448063201 0 0.1244735054154269 0.18913470151129649 0 0.118951815938316 0.20068317592732601 0 0.1433956555097253 0.2051618448063201 0 0.118951815938316 0.20068317592732601 0 0.1433956555097253 0.2051618448063201 0 0.14457837440276811 0.17778619149809241 0 0.1433956555097253 0.2051618448063201 0 0.16162887673973189 0.19189746642756189 0 0.1433956555097253 0.2051618448063201 0 0.16162887673973189 0.19189746642756189 0 0.16783949508113469 0.20964051368531419 0 0.1853086081013155 0.18601321705560869 0 0.16162887673973189 0.19189746642756189 0 0.16783949508113469 0.20964051368531419 0 0.1853086081013155 0.18601321705560869 0 0.16783949508113469 0.20964051368531419 0 0.1943813213039606 0.2063259502249323 0 0.16783949508113469 0.20964051368531419 0 0.18183809555743419 0.22710173260253161 0 0.1943813213039606 0.2063259502249323 0 0.16337932716525569 0.22587355635629411 0 0.18183809555743419 0.22710173260253161 0 0.1701963467878507 0.24768960143064819 0 0.16783949508113469 0.20964051368531419 0 0.16337932716525569 0.22587355635629411 0 0.18183809555743419 0.22710173260253161 0 0.1455774636143492 0.22097803446386269 0 0.16783949508113469 0.20964051368531419 0 0.16337932716525569 0.22587355635629411 0 0.18183809555743419 0.22710173260253161 0 0.1701963467878507 0.24768960143064819 0 0.1934581094955754 0.24549692846012 0 0.150144034282917 0.23627700744304481 0 0.16337932716525569 0.22587355635629411 0 0.1701963467878507 0.24768960143064819 0 0.150144034282917 0.23627700744304481 0 0.1701963467878507 0.24768960143064819 0 0.150144034282917 0.23627700744304481 0 0.1701963467878507 0.24768960143064819 0 0.16091116709385311 0.26009277044520263 0 0.2155853680499632 0.2454685525133237 0 0.1934581094955754 0.24549692846012 0 0.2059893589109266 0.2254766241251473 0 0.18183809555743419 0.22710173260253161 0 0.2059893589109266 0.2254766241251473 0 0.1943813213039606 0.2063259502249323 0 0.18183809555743419 0.22710173260253161 0 0.1934581094955754 0.24549692846012 0 0.2059893589109266 0.2254766241251473 0 0.2155853680499632 0.2454685525133237 0 0.2059893589109266 0.2254766241251473 0 0.2275503291146134 0.2211638695966813 0 0.2059893589109266 0.2254766241251473 0 0.21685869557389781 0.20347264971855639 0 0.1943813213039606 0.2063259502249323 0 0.2059893589109266 0.2254766241251473 0 0.21685869557389781 0.20347264971855639 0 0.2275503291146134 0.2211638695966813 0 0.1853086081013155 0.18601321705560869 0 0.1943813213039606 0.2063259502249323 0 0.2064615730286217 0.18335042846838401 0 0.21685869557389781 0.20347264971855639 0 0.2064615730286217 0.18335042846838401 0 0.2241090370852051 0.18743565334942669 0 0.21685869557389781 0.20347264971855639 0 0.1943813213039606 0.2063259502249323 0 0.2064615730286217 0.18335042846838401 0 0.21685869557389781 0.20347264971855639 0 0.23966900094141941 0.19532931555340299 0 0.2241090370852051 0.18743565334942669 0 0.23966900094141941 0.19532931555340299 0 0.2275503291146134 0.2211638695966813 0 0.25476133530301109 0.2181275148829821 0 0.21685869557389781 0.20347264971855639 0 0.23966900094141941 0.19532931555340299 0 0.2275503291146134 0.2211638695966813 0 0.2275503291146134 0.2211638695966813 0 0.23815839548630419 0.23896936503904689 0 0.25476133530301109 0.2181275148829821 0 0.2155853680499632 0.2454685525133237 0 0.2275503291146134 0.2211638695966813 0 0.23815839548630419 0.23896936503904689 0 0.2181930557290066 0.15115939734898959 0 0.20270036245973089 0.14228802493671461 0 0.2195288889008101 0.1346621809955981 0 0.2181930557290066 0.15115939734898959 0 0.20270036245973089 0.14228802493671461 0 0.19911381299567801 0.16250478216979611 0 0.2195288889008101 0.1346621809955981 0 0.22515603169565579 0.1184085954843767 0 0.2075669107460778 0.12489624730388819 0 0.20270036245973089 0.14228802493671461 0 0.2195288889008101 0.1346621809955981 0 0.2075669107460778 0.12489624730388819 0 0.18845385036062109 0.1255646066252552 0 0.20270036245973089 0.14228802493671461 0 0.2075669107460778 0.12489624730388819 0 0.18458338826571921 0.144463903531376 0 0.18845385036062109 0.1255646066252552 0 0.20270036245973089 0.14228802493671461 0 0.17977591794793529 0.1616497730989509 0 0.18458338826571921 0.144463903531376 0 0.19911381299567801 0.16250478216979611 0 0.18458338826571921 0.144463903531376 0 0.20270036245973089 0.14228802493671461 0 0.19911381299567801 0.16250478216979611 0 0.1853086081013155 0.18601321705560869 0 0.17977591794793529 0.1616497730989509 0 0.19911381299567801 0.16250478216979611 0 0.1853086081013155 0.18601321705560869 0 0.19911381299567801 0.16250478216979611 0 0.2064615730286217 0.18335042846838401 0 0.2064615730286217 0.18335042846838401 0 0.21527225309554229 0.16780221008335461 0 0.2241090370852051 0.18743565334942669 0 0.19911381299567801 0.16250478216979611 0 0.2064615730286217 0.18335042846838401 0 0.21527225309554229 0.16780221008335461 0 0.2181930557290066 0.15115939734898959 0 0.19911381299567801 0.16250478216979611 0 0.21527225309554229 0.16780221008335461 0 0.2181930557290066 0.15115939734898959 0 0.23165097208387461 0.17130101751415761 0 0.23603682312337029 0.15252931132252831 0 0.2181930557290066 0.15115939734898959 0 0.21527225309554229 0.16780221008335461 0 0.23165097208387461 0.17130101751415761 0 0.23966900094141941 0.19532931555340299 0 0.23165097208387461 0.17130101751415761 0 0.2241090370852051 0.18743565334942669 0 0.21527225309554229 0.16780221008335461 0 0.23165097208387461 0.17130101751415761 0 0.2241090370852051 0.18743565334942669 0 0.23966900094141941 0.19532931555340299 0 0.23165097208387461 0.17130101751415761 0 0.25261461925863138 0.1786417962190793 0 0.23165097208387461 0.17130101751415761 0 0.23603682312337029 0.15252931132252831 0 0.25445905839527161 0.16039071336427871 0 0.23165097208387461 0.17130101751415761 0 0.25445905839527161 0.16039071336427871 0 0.25261461925863138 0.1786417962190793 0 0.23603682312337029 0.15252931132252831 0 0.242370025005264 0.13515589139757009 0 0.25445905839527161 0.16039071336427871 0 0.2181930557290066 0.15115939734898959 0 0.23603682312337029 0.15252931132252831 0 0.2195288889008101 0.1346621809955981 0 0.23603682312337029 0.15252931132252831 0 0.2195288889008101 0.1346621809955981 0 0.242370025005264 0.13515589139757009 0 0.2195288889008101 0.1346621809955981 0 0.242370025005264 0.13515589139757009 0 0.22515603169565579 0.1184085954843767 0 0.242370025005264 0.13515589139757009 0 0.24860865383399569 0.1078791526201152 0 0.22515603169565579 0.1184085954843767 0 0.242370025005264 0.13515589139757009 0 0.24860865383399569 0.1078791526201152 0 0.25796246660041422 0.12514498787557121 0 0.24860865383399569 0.1078791526201152 0 0.22642554589104341 0.1000476350675808 0 0.24860865383399569 0.1078791526201152 0 0.22642554589104341 0.1000476350675808 0 0.2449193701002049 0.091721339195502294 0 0.22642554589104341 0.1000476350675808 0 0.22515603169565579 0.1184085954843767 0 0.20643616579674401 0.1078104655215078 0 0.24860865383399569 0.1078791526201152 0 0.22642554589104341 0.1000476350675808 0 0.22515603169565579 0.1184085954843767 0 0.2075669107460778 0.12489624730388819 0 0.20643616579674401 0.1078104655215078 0 0.19830579417964339 0.1167456690371272 0 0.22515603169565579 0.1184085954843767 0 0.2075669107460778 0.12489624730388819 0 0.20643616579674401 0.1078104655215078 0 0.22642554589104341 0.1000476350675808 0 0.20643616579674401 0.1078104655215078 0 0.2041978046368772 0.088186147146366176 0 0.20643616579674401 0.1078104655215078 0 0.19112516330219501 0.094909998293625064 0 0.19076624981513091 0.1087113566978576 0 0.20643616579674401 0.1078104655215078 0 0.19112516330219501 0.094909998293625064 0 0.2041978046368772 0.088186147146366176 0 0.18845385036062109 0.1255646066252552 0 0.2075669107460778 0.12489624730388819 0 0.19830579417964339 0.1167456690371272 0 0.18845385036062109 0.1255646066252552 0 0.19076624981513091 0.1087113566978576 0 0.19830579417964339 0.1167456690371272 0 0.20643616579674401 0.1078104655215078 0 0.19076624981513091 0.1087113566978576 0 0.19830579417964339 0.1167456690371272 0 0.1986806355344225 0.068160865140211024 0 0.1863528453814399 0.055986697391849437 0 0.1854341362162201 0.067477583068156904 0 0.1986806355344225 0.068160865140211024 0 0.18899574658802951 0.080375365095748816 0 0.1854341362162201 0.067477583068156904 0 0.1986806355344225 0.068160865140211024 0 0.18899574658802951 0.080375365095748816 0 0.2041978046368772 0.088186147146366176 0 0.19112516330219501 0.094909998293625064 0 0.18899574658802951 0.080375365095748816 0 0.2041978046368772 0.088186147146366176 0 0.22642554589104341 0.1000476350675808 0 0.21865725324253929 0.078456320268034355 0 0.2041978046368772 0.088186147146366176 0 0.1986806355344225 0.068160865140211024 0 0.21865725324253929 0.078456320268034355 0 0.2041978046368772 0.088186147146366176 0 0.21865725324253929 0.078456320268034355 0 0.22619777908680319 0.061077731618933317 0 0.21079660324394639 0.061193264074773268 0 0.1986806355344225 0.068160865140211024 0 0.21865725324253929 0.078456320268034355 0 0.21079660324394639 0.061193264074773268 0 0.2363403457590425 0.075819314388454226 0 0.23911423392101411 0.058495970295198423 0 0.22619777908680319 0.061077731618933317 0 0.21865725324253929 0.078456320268034355 0 0.2363403457590425 0.075819314388454226 0 0.22619777908680319 0.061077731618933317 0 0.22642554589104341 0.1000476350675808 0 0.21865725324253929 0.078456320268034355 0 0.2363403457590425 0.075819314388454226 0 0.22642554589104341 0.1000476350675808 0 0.2449193701002049 0.091721339195502294 0 0.2363403457590425 0.075819314388454226 0 0.2449193701002049 0.091721339195502294 0 0.2363403457590425 0.075819314388454226 0 0.25256789807426272 0.076610585162129263 0 0.2363403457590425 0.075819314388454226 0 0.24680425729062291 0.065565833265697746 0 0.23911423392101411 0.058495970295198423 0 0.2363403457590425 0.075819314388454226 0 0.24680425729062291 0.065565833265697746 0 0.25256789807426272 0.076610585162129263 0 0.24680425729062291 0.065565833265697746 0 0.23911423392101411 0.058495970295198423 0 0.24874711789062551 0.054586450797678973 0 0.23911423392101411 0.058495970295198423 0 0.24874711789062551 0.054586450797678973 0 0.23625259783765251 0.043905365838981157 0 0.24874711789062551 0.054586450797678973 0 0.23625259783765251 0.043905365838981157 0 0.25536203797007168 0.029707822892285279 0 0.23625259783765251 0.043905365838981157 0 0.23773897383564699 0.020910623389461671 0 0.25536203797007168 0.029707822892285279 0 0.23625259783765251 0.043905365838981157 0 0.2226169142411015 0.033845428087476127 0 0.21651670798869971 0.046931244263032718 0 0.23625259783765251 0.043905365838981157 0 0.2226169142411015 0.033845428087476127 0 0.23773897383564699 0.020910623389461671 0 0.23911423392101411 0.058495970295198423 0 0.23625259783765251 0.043905365838981157 0 0.22619777908680319 0.061077731618933317 0 0.23625259783765251 0.043905365838981157 0 0.22619777908680319 0.061077731618933317 0 0.21651670798869971 0.046931244263032718 0 0.23773897383564699 0.020910623389461671 0 0.23217944861580139 0.00082119188944633514 0 0.26197695804951793 0.0048291949868915756 0 0.2226169142411015 0.033845428087476127 0 0.23773897383564699 0.020910623389461671 0 0.21129040510010089 0.01424670208149692 0 0.23217944861580139 0.00082119188944633514 0 0.21129040510010089 0.01424670208149692 0 0.2136044149022393 -0.0085729472650377288 0 0.23773897383564699 0.020910623389461671 0 0.23217944861580139 0.00082119188944633514 0 0.21129040510010089 0.01424670208149692 0 0.21129040510010089 0.01424670208149692 0 0.2136044149022393 -0.0085729472650377288 0 0.19284884512754091 -0.0047895318830809691 0 0.2226169142411015 0.033845428087476127 0 0.21129040510010089 0.01424670208149692 0 0.20599585255110431 0.03230812613519915 0 0.21129040510010089 0.01424670208149692 0 0.20599585255110431 0.03230812613519915 0 0.18332346455833179 0.019412057179666181 0 0.21129040510010089 0.01424670208149692 0 0.18332346455833179 0.019412057179666181 0 0.19284884512754091 -0.0047895318830809691 0 0.18332346455833179 0.019412057179666181 0 0.19284884512754091 -0.0047895318830809691 0 0.21079660324394639 0.061193264074773268 0 0.21651670798869971 0.046931244263032718 0 0.19623177086728771 0.047105199064323797 0 0.22619777908680319 0.061077731618933317 0 0.21079660324394639 0.061193264074773268 0 0.21651670798869971 0.046931244263032718 0 0.21651670798869971 0.046931244263032718 0 0.20599585255110431 0.03230812613519915 0 0.19623177086728771 0.047105199064323797 0 0.2226169142411015 0.033845428087476127 0 0.21651670798869971 0.046931244263032718 0 0.20599585255110431 0.03230812613519915 0 0.20599585255110431 0.03230812613519915 0 0.19623177086728771 0.047105199064323797 0 0.18332346455833179 0.019412057179666181 0 0.1986806355344225 0.068160865140211024 0 0.21079660324394639 0.061193264074773268 0 0.19623177086728771 0.047105199064323797 0 0.1986806355344225 0.068160865140211024 0 0.19623177086728771 0.047105199064323797 0 0.1863528453814399 0.055986697391849437 0 0.19623177086728771 0.047105199064323797 0 0.1863528453814399 0.055986697391849437 0 0.17379808398912269 0.043613646242413318 0 0.1863528453814399 0.055986697391849437 0 0.1771478151899796 0.061517890057464719 0 0.1854341362162201 0.067477583068156904 0 0.1863528453814399 0.055986697391849437 0 0.1771478151899796 0.061517890057464719 0 0.17379808398912269 0.043613646242413318 0 0.19623177086728771 0.047105199064323797 0 0.17379808398912269 0.043613646242413318 0 0.18332346455833179 0.019412057179666181 0 0.17379808398912269 0.043613646242413318 0 0.18332346455833179 0.019412057179666181 0 0.17379808398912269 0.043613646242413318 0 0.1563874478058071 0.037182203102910552 0 0.16903547857146309 0.027994969520564739 0 0.17379808398912269 0.043613646242413318 0 0.1563874478058071 0.037182203102910552 0 0.1545532417310421 0.062716274705700889 0 0.1771478151899796 0.061517890057464719 0 0.17379808398912269 0.043613646242413318 0 0.16427270341991371 0.067815235305160315 0 0.17379808398912269 0.043613646242413318 0 0.1545532417310421 0.062716274705700889 0 0.16427270341991371 0.067815235305160315 0 0.17379808398912269 0.043613646242413318 0 0.16427270341991371 0.067815235305160315 0 0.18332346455833179 0.019412057179666181 0 0.17121596801905389 -0.00566959597392655 0 0.19284884512754091 -0.0047895318830809691 0 0.17379808398912269 0.043613646242413318 0 0.18332346455833179 0.019412057179666181 0 0.16903547857146309 0.027994969520564739 0 0.1563874478058071 0.037182203102910552 0 0.15822165388057211 0.01164813150012021 0 0.1563874478058071 0.037182203102910552 0 0.16903547857146309 0.027994969520564739 0 0.15822165388057211 0.01164813150012021 0 0.18332346455833179 0.019412057179666181 0 0.16903547857146309 0.027994969520564739 0 0.15822165388057211 0.01164813150012021 0 0.18332346455833179 0.019412057179666181 0 0.15822165388057211 0.01164813150012021 0 0.17121596801905389 -0.00566959597392655 0 0.15822165388057211 0.01164813150012021 0 0.13765298315019489 0.01955092585550041 0 0.14081281966452511 -0.0095151106078309455 0 0.1563874478058071 0.037182203102910552 0 0.13765298315019489 0.01955092585550041 0 0.13639795901043611 0.03637941702855535 0 0.1563874478058071 0.037182203102910552 0 0.15822165388057211 0.01164813150012021 0 0.13765298315019489 0.01955092585550041 0 0.1220313637131429 0.022760193568987119 0 0.13765298315019489 0.01955092585550041 0 0.13639795901043611 0.03637941702855535 0 0.1220313637131429 0.022760193568987119 0 0.1205669280919696 0.0057596786120213007 0 0.13765298315019489 0.01955092585550041 0 0.1205669280919696 0.0057596786120213007 0 0.13765298315019489 0.01955092585550041 0 0.14081281966452511 -0.0095151106078309455 0 0.1205669280919696 0.0057596786120213007 0 0.13765298315019489 0.01955092585550041 0 0.1563874478058071 0.037182203102910552 0 0.1545532417310421 0.062716274705700889 0 0.1563874478058071 0.037182203102910552 0 0.14336373979303441 0.054507940675904309 0 0.1545532417310421 0.062716274705700889 0 0.14336373979303441 0.054507940675904309 0 0.1466918126800483 0.067099463300703863 0 0.1545532417310421 0.062716274705700889 0 0.1563874478058071 0.037182203102910552 0 0.14336373979303441 0.054507940675904309 0 0.13639795901043611 0.03637941702855535 0 0.1169149142440675 0.039841794919529543 0 0.13639795901043611 0.03637941702855535 0 0.13155545197153851 0.048981969461597268 0 0.1169149142440675 0.039841794919529543 0 0.1220313637131429 0.022760193568987119 0 0.13639795901043611 0.03637941702855535 0 0.14336373979303441 0.054507940675904309 0 0.13639795901043611 0.03637941702855535 0 0.13155545197153851 0.048981969461597268 0 0.14336373979303441 0.054507940675904309 0 0.13155545197153851 0.048981969461597268 0 0.13229439073648919 0.059998650224657828 0 0.14336373979303441 0.054507940675904309 0 0.13229439073648919 0.059998650224657828 0 0.13893497809382699 0.066530944621429972 0 0.1201787744976187 0.058688821341612039 0 0.13155545197153851 0.048981969461597268 0 0.13229439073648919 0.059998650224657828 0 0.1201787744976187 0.058688821341612039 0 0.13229439073648919 0.059998650224657828 0 0.1274390093264274 0.071283575022745543 0 0.1274390093264274 0.071283575022745543 0 0.1402077147042079 0.074956800367491347 0 0.13893497809382699 0.066530944621429972 0 0.1274390093264274 0.071283575022745543 0 0.1402077147042079 0.074956800367491347 0 0.13294468507682919 0.081622048932873684 0 0.13229439073648919 0.059998650224657828 0 0.1274390093264274 0.071283575022745543 0 0.13893497809382699 0.066530944621429972 0 0.14847241333788119 0.075101129809772238 0 0.1545532417310421 0.062716274705700889 0 0.15271903565627709 0.088250346308491406 0 0.1402077147042079 0.074956800367491347 0 0.13893497809382699 0.066530944621429972 0 0.1466918126800483 0.067099463300703863 0 0.1545532417310421 0.062716274705700889 0 0.15271903565627709 0.088250346308491406 0 0.14336373979303441 0.054507940675904309 0 0.13893497809382699 0.066530944621429972 0 0.1466918126800483 0.067099463300703863 0 0.1402077147042079 0.074956800367491347 0 0.1466918126800483 0.067099463300703863 0 0.14847241333788119 0.075101129809772238 0 0.1402077147042079 0.074956800367491347 0 0.14847241333788119 0.075101129809772238 0 0.14536433106388971 0.082584777120036978 0 0.1466918126800483 0.067099463300703863 0 0.14847241333788119 0.075101129809772238 0 0.1545532417310421 0.062716274705700889 0 0.15271903565627709 0.088250346308491406 0 0.14536433106388971 0.082584777120036978 0 0.14727405700085541 0.088387522608329605 0 0.15113615450799911 0.091482524619095965 0 0.15271903565627709 0.088250346308491406 0 0.14727405700085541 0.088387522608329605 0 0.15113615450799911 0.091482524619095965 0 0.14727405700085541 0.088387522608329605 0 0.14769742016713219 0.093320754141595436 0 0.15113615450799911 0.091482524619095965 0 0.14769742016713219 0.093320754141595436 0 0.15127233345630159 0.095248261242658019 0 0.15113615450799911 0.091482524619095965 0 0.15474732285070461 0.092016824367907271 0 0.15271903565627709 0.088250346308491406 0 0.15113615450799911 0.091482524619095965 0 0.15474732285070461 0.092016824367907271 0 0.15127233345630159 0.095248261242658019 0 0.14847241333788119 0.075101129809772238 0 0.15271903565627709 0.088250346308491406 0 0.14536433106388971 0.082584777120036978 0 0.14536433106388971 0.082584777120036978 0 0.14331437886797849 0.086295176208324886 0 0.14727405700085541 0.088387522608329605 0 0.1402077147042079 0.074956800367491347 0 0.14536433106388971 0.082584777120036978 0 0.14019838681613861 0.08251768741781243 0 0.14536433106388971 0.082584777120036978 0 0.14331437886797849 0.086295176208324886 0 0.14019838681613861 0.08251768741781243 0 0.14331437886797849 0.086295176208324886 0 0.1436560884866602 0.090784461389372434 0 0.13796516577326681 0.08923622010780892 0 0.14331437886797849 0.086295176208324886 0 0.14727405700085541 0.088387522608329605 0 0.1436560884866602 0.090784461389372434 0 0.14727405700085541 0.088387522608329605 0 0.14769742016713219 0.093320754141595436 0 0.1436560884866602 0.090784461389372434 0 0.1436560884866602 0.090784461389372434 0 0.13796516577326681 0.08923622010780892 0 0.1420542412974963 0.096056943491365301 0 0.14769742016713219 0.093320754141595436 0 0.1436560884866602 0.090784461389372434 0 0.1420542412974963 0.096056943491365301 0 0.13796516577326681 0.08923622010780892 0 0.13294468507682919 0.081622048932873684 0 0.13066675483743509 0.090993225500164712 0 0.14331437886797849 0.086295176208324886 0 0.13796516577326681 0.08923622010780892 0 0.14019838681613861 0.08251768741781243 0 0.13796516577326681 0.08923622010780892 0 0.13066675483743509 0.090993225500164712 0 0.13550623253950081 0.096326578616984584 0 0.1402077147042079 0.074956800367491347 0 0.14019838681613861 0.08251768741781243 0 0.13294468507682919 0.081622048932873684 0 0.13796516577326681 0.08923622010780892 0 0.14019838681613861 0.08251768741781243 0 0.13294468507682919 0.081622048932873684 0 0.1203117455976995 0.082403184006213714 0 0.13294468507682919 0.081622048932873684 0 0.13066675483743509 0.090993225500164712 0 0.1203117455976995 0.082403184006213714 0 0.1274390093264274 0.071283575022745543 0 0.13294468507682919 0.081622048932873684 0 0.1226434496705287 0.096036255115265812 0 0.13066675483743509 0.090993225500164712 0 0.1292184415129094 0.1025253920042658 0 0.13066675483743509 0.090993225500164712 0 0.1292184415129094 0.1025253920042658 0 0.13550623253950081 0.096326578616984584 0 0.13762655927639619 0.1028211119813182 0 0.13332530849524149 0.1107978325068484 0 0.14140861636496799 0.1088796605392347 0 0.1292184415129094 0.1025253920042658 0 0.13762655927639619 0.1028211119813182 0 0.13332530849524149 0.1107978325068484 0 0.1292184415129094 0.1025253920042658 0 0.13762655927639619 0.1028211119813182 0 0.13550623253950081 0.096326578616984584 0 0.13762655927639619 0.1028211119813182 0 0.13550623253950081 0.096326578616984584 0 0.1420542412974963 0.096056943491365301 0 0.13796516577326681 0.08923622010780892 0 0.13550623253950081 0.096326578616984584 0 0.1420542412974963 0.096056943491365301 0 0.12870428466905709 0.1248846646381075 0 0.12534788703802999 0.1154052058327277 0 0.1372777235492384 0.1200142365073109 0 0.1292184415129094 0.1025253920042658 0 0.12534788703802999 0.1154052058327277 0 0.13332530849524149 0.1107978325068484 0 0.12534788703802999 0.1154052058327277 0 0.13332530849524149 0.1107978325068484 0 0.1372777235492384 0.1200142365073109 0 0.13332530849524149 0.1107978325068484 0 0.1372777235492384 0.1200142365073109 0 0.14140861636496799 0.1088796605392347 0 0.14408055706876799 0.12985533945019651 0 0.1372777235492384 0.1200142365073109 0 0.14692359149268 0.11654084333214609 0 0.1372777235492384 0.1200142365073109 0 0.14692359149268 0.11654084333214609 0 0.14140861636496799 0.1088796605392347 0 0.14692359149268 0.11654084333214609 0 0.14140861636496799 0.1088796605392347 0 0.14893460350170029 0.10626342185004541 0 0.14692359149268 0.11654084333214609 0 0.15441083938762351 0.1115460503610539 0 0.1570213049074376 0.11791170793349511 0 0.14692359149268 0.11654084333214609 0 0.15441083938762351 0.1115460503610539 0 0.14893460350170029 0.10626342185004541 0 0.15551470037425119 0.1274578246000615 0 0.14692359149268 0.11654084333214609 0 0.1570213049074376 0.11791170793349511 0 0.14408055706876799 0.12985533945019651 0 0.15551470037425119 0.1274578246000615 0 0.14692359149268 0.11654084333214609 0 0.1466410025136361 0.09784619238767446 0 0.14455861954447641 0.1020606868779538 0 0.1506866943126613 0.1004967910180849 0 0.14769742016713219 0.093320754141595436 0 0.1466410025136361 0.09784619238767446 0 0.1420542412974963 0.096056943491365301 0 0.1466410025136361 0.09784619238767446 0 0.1420542412974963 0.096056943491365301 0 0.14455861954447641 0.1020606868779538 0 0.13762655927639619 0.1028211119813182 0 0.1420542412974963 0.096056943491365301 0 0.14455861954447641 0.1020606868779538 0 0.13762655927639619 0.1028211119813182 0 0.14140861636496799 0.1088796605392347 0 0.14455861954447641 0.1020606868779538 0 0.14140861636496799 0.1088796605392347 0 0.14455861954447641 0.1020606868779538 0 0.14893460350170029 0.10626342185004541 0 0.14455861954447641 0.1020606868779538 0 0.14893460350170029 0.10626342185004541 0 0.1506866943126613 0.1004967910180849 0 0.14893460350170029 0.10626342185004541 0 0.1561120458771828 0.1046921396154072 0 0.1506866943126613 0.1004967910180849 0 0.15441083938762351 0.1115460503610539 0 0.14893460350170029 0.10626342185004541 0 0.1561120458771828 0.1046921396154072 0 0.1506866943126613 0.1004967910180849 0 0.15127233345630159 0.095248261242658019 0 0.1564041882700779 0.097633461211689115 0 0.1561120458771828 0.1046921396154072 0 0.1506866943126613 0.1004967910180849 0 0.1564041882700779 0.097633461211689115 0 0.1466410025136361 0.09784619238767446 0 0.1506866943126613 0.1004967910180849 0 0.15127233345630159 0.095248261242658019 0 0.14769742016713219 0.093320754141595436 0 0.1466410025136361 0.09784619238767446 0 0.15127233345630159 0.095248261242658019 0 0.15474732285070461 0.092016824367907271 0 0.15127233345630159 0.095248261242658019 0 0.1564041882700779 0.097633461211689115 0 0.1564041882700779 0.097633461211689115 0 0.16221590345817821 0.10105801121075671 0 0.1639334256773041 0.093025034717159921 0 0.15474732285070461 0.092016824367907271 0 0.1564041882700779 0.097633461211689115 0 0.1639334256773041 0.093025034717159921 0 0.1561120458771828 0.1046921396154072 0 0.1564041882700779 0.097633461211689115 0 0.16221590345817821 0.10105801121075671 0 0.1561120458771828 0.1046921396154072 0 0.16221590345817821 0.10105801121075671 0 0.16402004633285591 0.11115510204081309 0 0.15441083938762351 0.1115460503610539 0 0.1561120458771828 0.1046921396154072 0 0.16402004633285591 0.11115510204081309 0 0.16221590345817821 0.10105801121075671 0 0.16973474828380641 0.1009703460863192 0 0.16402004633285591 0.11115510204081309 0 0.16973474828380641 0.1009703460863192 0 0.16402004633285591 0.11115510204081309 0 0.17703434540393631 0.10960533463114371 0 0.16973474828380641 0.1009703460863192 0 0.17248049540083729 0.093737671120728214 0 0.1639334256773041 0.093025034717159921 0 0.16221590345817821 0.10105801121075671 0 0.16973474828380641 0.1009703460863192 0 0.1639334256773041 0.093025034717159921 0 0.15551470037425119 0.1274578246000615 0 0.1570213049074376 0.11791170793349511 0 0.16423734694977721 0.12285871933340101 0 0.1570213049074376 0.11791170793349511 0 0.16402004633285591 0.11115510204081309 0 0.16423734694977721 0.12285871933340101 0 0.15441083938762351 0.1115460503610539 0 0.1570213049074376 0.11791170793349511 0 0.16402004633285591 0.11115510204081309 0 0.16402004633285591 0.11115510204081309 0 0.17333055351888119 0.1209127134046958 0 0.17703434540393631 0.10960533463114371 0 0.16402004633285591 0.11115510204081309 0 0.16423734694977721 0.12285871933340101 0 0.17333055351888119 0.1209127134046958 0 0.18845385036062109 0.1255646066252552 0 0.17333055351888119 0.1209127134046958 0 0.17703434540393631 0.10960533463114371 0 0.18845385036062109 0.1255646066252552 0 0.19076624981513091 0.1087113566978576 0 0.17703434540393631 0.10960533463114371 0 0.16973474828380641 0.1009703460863192 0 0.17994631041693751 0.098645945204559854 0 0.17248049540083729 0.093737671120728214 0 0.16973474828380641 0.1009703460863192 0 0.17703434540393631 0.10960533463114371 0 0.17994631041693751 0.098645945204559854 0 0.19076624981513091 0.1087113566978576 0 0.17703434540393631 0.10960533463114371 0 0.17994631041693751 0.098645945204559854 0 0.19112516330219501 0.094909998293625064 0 0.19076624981513091 0.1087113566978576 0 0.17994631041693751 0.098645945204559854 0 0.19112516330219501 0.094909998293625064 0 0.17994631041693751 0.098645945204559854 0 0.1791902610630958 0.087304313591041849 0 0.19112516330219501 0.094909998293625064 0 0.18899574658802951 0.080375365095748816 0 0.1791902610630958 0.087304313591041849 0 0.17994631041693751 0.098645945204559854 0 0.1791902610630958 0.087304313591041849 0 0.17248049540083729 0.093737671120728214 0 0.1791902610630958 0.087304313591041849 0 0.17248049540083729 0.093737671120728214 0 0.1667739390708449 0.083292686896414364 0 0.1791902610630958 0.087304313591041849 0 0.17578301837858351 0.074350808407519162 0 0.1667739390708449 0.083292686896414364 0 0.18899574658802951 0.080375365095748816 0 0.1791902610630958 0.087304313591041849 0 0.17578301837858351 0.074350808407519162 0 0.18899574658802951 0.080375365095748816 0 0.1854341362162201 0.067477583068156904 0 0.17578301837858351 0.074350808407519162 0 0.1771478151899796 0.061517890057464719 0 0.17578301837858351 0.074350808407519162 0 0.16427270341991371 0.067815235305160315 0 0.1771478151899796 0.061517890057464719 0 0.1854341362162201 0.067477583068156904 0 0.17578301837858351 0.074350808407519162 0 0.1545532417310421 0.062716274705700889 0 0.15271903565627709 0.088250346308491406 0 0.16427270341991371 0.067815235305160315 0 0.17578301837858351 0.074350808407519162 0 0.16427270341991371 0.067815235305160315 0 0.1667739390708449 0.083292686896414364 0 0.15474732285070461 0.092016824367907271 0 0.16427270341991371 0.067815235305160315 0 0.15474732285070461 0.092016824367907271 0 0.16427270341991371 0.067815235305160315 0 0.1667739390708449 0.083292686896414364 0 0.15474732285070461 0.092016824367907271 0 0.15271903565627709 0.088250346308491406 0 0.16427270341991371 0.067815235305160315 0 0.15474732285070461 0.092016824367907271 0 0.1639334256773041 0.093025034717159921 0 0.1667739390708449 0.083292686896414364 0 0.17248049540083729 0.093737671120728214 0 0.1639334256773041 0.093025034717159921 0 0.1667739390708449 0.083292686896414364 0 0.10140791181470619 0.47422516160202499 0 0.092649628581555218 0.46485854459114512 0 0.08739398484648242 0.47631294234535609 0 0.10140791181470619 0.47422516160202499 0 0.1188445563734884 0.4810771424510617 0 0.092143581786368167 0.5 0 0.12164442002622 0.5 0 0.1188445563734884 0.4810771424510617 0 0.092143581786368167 0.5 0 0.10140791181470619 0.47422516160202499 0 0.1188445563734884 0.4810771424510617 0 0.1134848704437179 0.46581423891545082 0 0.1188445563734884 0.4810771424510617 0 0.1134848704437179 0.46581423891545082 0 0.12649529081507571 0.46499619514199553 0 0.1244792167265696 0.44876440366696702 0 0.114345053865503 0.45273714355469419 0 0.12649529081507571 0.46499619514199553 0 0.1134848704437179 0.46581423891545082 0 0.114345053865503 0.45273714355469419 0 0.12649529081507571 0.46499619514199553 0 0.114345053865503 0.45273714355469419 0 0.12649529081507571 0.46499619514199553 0 0.1134848704437179 0.46581423891545082 0 0.114345053865503 0.45273714355469419 0 0.1024346773011684 0.45920600133002337 0 0.1244792167265696 0.44876440366696702 0 0.1157679817721174 0.43993264924009401 0 0.12692561954430451 0.43414889707916138 0 0.1244792167265696 0.44876440366696702 0 0.114345053865503 0.45273714355469419 0 0.1157679817721174 0.43993264924009401 0 0.114345053865503 0.45273714355469419 0 0.1157679817721174 0.43993264924009401 0 0.1021948169159294 0.44047809196739379 0 0.114345053865503 0.45273714355469419 0 0.1021948169159294 0.44047809196739379 0 0.1024346773011684 0.45920600133002337 0 0.1021948169159294 0.44047809196739379 0 0.1024346773011684 0.45920600133002337 0 0.09128175467274427 0.45150434516618032 0 0.114345053865503 0.45273714355469419 0 0.1021948169159294 0.44047809196739379 0 0.1021948169159294 0.44047809196739379 0 0.09128175467274427 0.45150434516618032 0 0.1021948169159294 0.44047809196739379 0 0.092507215516101235 0.44180358270633391 0 0.09128175467274427 0.45150434516618032 0 0.10140791181470619 0.47422516160202499 0 0.1134848704437179 0.46581423891545082 0 0.1024346773011684 0.45920600133002337 0 0.1024346773011684 0.45920600133002337 0 0.092649628581555218 0.46485854459114512 0 0.09128175467274427 0.45150434516618032 0 0.10140791181470619 0.47422516160202499 0 0.1024346773011684 0.45920600133002337 0 0.092649628581555218 0.46485854459114512 0 0.092649628581555218 0.46485854459114512 0 0.080368692429559047 0.46253059836496679 0 0.08739398484648242 0.47631294234535609 0 0.092649628581555218 0.46485854459114512 0 0.080368692429559047 0.46253059836496679 0 0.09128175467274427 0.45150434516618032 0 0.080368692429559047 0.46253059836496679 0 0.09128175467274427 0.45150434516618032 0 0.080368692429559047 0.46253059836496679 0 0.09128175467274427 0.45150434516618032 0 0.076873640002635343 0.45226371574169011 0 0.092507215516101235 0.44180358270633391 0 0.082829582713083702 0.4431999959370535 0 0.090973679900376664 0.42915646111255801 0 0.092507215516101235 0.44180358270633391 0 0.09128175467274427 0.45150434516618032 0 0.082829582713083702 0.4431999959370535 0 0.09128175467274427 0.45150434516618032 0 0.082829582713083702 0.4431999959370535 0 0.076873640002635343 0.45226371574169011 0 0.082829582713083702 0.4431999959370535 0 0.071085633560026507 0.44143867812289489 0 0.075264012174585573 0.43039415260305453 0 0.082829582713083702 0.4431999959370535 0 0.071085633560026507 0.44143867812289489 0 0.076873640002635343 0.45226371574169011 0 0.071085633560026507 0.44143867812289489 0 0.076873640002635343 0.45226371574169011 0 0.065739689510376759 0.45150500323706522 0 0.071085633560026507 0.44143867812289489 0 0.065739689510376759 0.45150500323706522 0 0.057188577512807787 0.44315662620256002 0 0.071085633560026507 0.44143867812289489 0 0.057188577512807787 0.44315662620256002 0 0.062261428369865007 0.43260229556217122 0 0.080368692429559047 0.46253059836496679 0 0.06757267915696942 0.46365656332173177 0 0.070400109620223542 0.47995040716864412 0 0.080368692429559047 0.46253059836496679 0 0.076873640002635343 0.45226371574169011 0 0.06757267915696942 0.46365656332173177 0 0.065739689510376759 0.45150500323706522 0 0.06757267915696942 0.46365656332173177 0 0.055370418172196532 0.45743849630430689 0 0.076873640002635343 0.45226371574169011 0 0.065739689510376759 0.45150500323706522 0 0.06757267915696942 0.46365656332173177 0 0.06757267915696942 0.46365656332173177 0 0.070400109620223542 0.47995040716864412 0 0.057008476074734062 0.47096432399060029 0 0.080368692429559047 0.46253059836496679 0 0.070400109620223542 0.47995040716864412 0 0.08739398484648242 0.47631294234535609 0 0.10140791181470619 0.47422516160202499 0 0.08739398484648242 0.47631294234535609 0 0.092143581786368167 0.5 0 0.070400109620223542 0.47995040716864412 0 0.08739398484648242 0.47631294234535609 0 0.092143581786368167 0.5 0 0.070400109620223542 0.47995040716864412 0 0.092143581786368167 0.5 0 0.062642743546516166 0.5 0 0.062642743546516166 0.5 0 0.045275542218907887 0.48400046582128159 0 0.03314190530666411 0.5 0 0.070400109620223542 0.47995040716864412 0 0.062642743546516166 0.5 0 0.045275542218907887 0.48400046582128159 0 0.057008476074734062 0.47096432399060029 0 0.045275542218907887 0.48400046582128159 0 0.042268184619287962 0.46357103082260859 0 0.070400109620223542 0.47995040716864412 0 0.057008476074734062 0.47096432399060029 0 0.045275542218907887 0.48400046582128159 0 0.045275542218907887 0.48400046582128159 0 0.030928538821030239 0.47296644875822902 0 0.042268184619287962 0.46357103082260859 0 0.045275542218907887 0.48400046582128159 0 0.0205572889690511 0.48604729060896651 0 0.030928538821030239 0.47296644875822902 0 0.045275542218907887 0.48400046582128159 0 0.03314190530666411 0.5 0 0.0205572889690511 0.48604729060896651 0 0.03314190530666411 0.5 0 0.0205572889690511 0.48604729060896651 0 0.003641067066812111 0.499999999999997 0 0.0205572889690511 0.48604729060896651 0 0.030928538821030239 0.47296644875822902 0 0.016146061479879899 0.47180070987189138 0 -0.00059145440143645606 0.47882382679114199 0 0.0205572889690511 0.48604729060896651 0 0.016146061479879899 0.47180070987189138 0 -0.00059145440143645606 0.47882382679114199 0 0.016146061479879899 0.47180070987189138 0 0.0087880670763246238 0.45719326767816881 0 -0.00059145440143645606 0.47882382679114199 0 0.003641067066812111 0.499999999999997 0 -0.00059145440143645606 0.47882382679114199 0 0.0205572889690511 0.48604729060896651 0 0.003641067066812111 0.499999999999997 0 0.0076771621591133054 0.43907224436652847 0 0.0087880670763246238 0.45719326767816881 0 0.023363309046750561 0.44247814598406121 0 0.0076771621591133054 0.43907224436652847 0 0.00063738163838372264 0.44755209642831101 0 0.0087880670763246238 0.45719326767816881 0 -0.0048239758696860639 0.4576476535822871 0 0.00063738163838372264 0.44755209642831101 0 0.0087880670763246238 0.45719326767816881 0 -0.0048239758696860639 0.4576476535822871 0 -0.00059145440143645606 0.47882382679114199 0 0.0087880670763246238 0.45719326767816881 0 -0.0048239758696860639 0.4576476535822871 0 0.0087880670763246238 0.45719326767816881 0 0.0087880670763246238 0.45719326767816881 0 0.026373464237004481 0.45992677262763387 0 0.023363309046750561 0.44247814598406121 0 0.016146061479879899 0.47180070987189138 0 0.0087880670763246238 0.45719326767816881 0 0.026373464237004481 0.45992677262763387 0 0.030928538821030239 0.47296644875822902 0 0.016146061479879899 0.47180070987189138 0 0.026373464237004481 0.45992677262763387 0 0.026373464237004481 0.45992677262763387 0 0.023363309046750561 0.44247814598406121 0 0.034836223870449018 0.45108670925981348 0 0.023363309046750561 0.44247814598406121 0 0.035877974560222729 0.44003992226860711 0 0.034836223870449018 0.45108670925981348 0 0.035877974560222729 0.44003992226860711 0 0.045871070992407663 0.44781032339663468 0 0.045292172424668861 0.42954707848620771 0 0.035877974560222729 0.44003992226860711 0 0.034836223870449018 0.45108670925981348 0 0.045871070992407663 0.44781032339663468 0 0.030928538821030239 0.47296644875822902 0 0.026373464237004481 0.45992677262763387 0 0.042268184619287962 0.46357103082260859 0 0.026373464237004481 0.45992677262763387 0 0.034836223870449018 0.45108670925981348 0 0.042268184619287962 0.46357103082260859 0 0.034836223870449018 0.45108670925981348 0 0.045871070992407663 0.44781032339663468 0 0.042268184619287962 0.46357103082260859 0 0.045871070992407663 0.44781032339663468 0 0.042268184619287962 0.46357103082260859 0 0.055370418172196532 0.45743849630430689 0 0.057008476074734062 0.47096432399060029 0 0.042268184619287962 0.46357103082260859 0 0.055370418172196532 0.45743849630430689 0 0.06757267915696942 0.46365656332173177 0 0.057008476074734062 0.47096432399060029 0 0.055370418172196532 0.45743849630430689 0 0.045871070992407663 0.44781032339663468 0 0.057188577512807787 0.44315662620256002 0 0.045292172424668861 0.42954707848620771 0 0.045871070992407663 0.44781032339663468 0 0.055370418172196532 0.45743849630430689 0 0.057188577512807787 0.44315662620256002 0 0.065739689510376759 0.45150500323706522 0 0.055370418172196532 0.45743849630430689 0 0.057188577512807787 0.44315662620256002 0 0.057188577512807787 0.44315662620256002 0 0.062261428369865007 0.43260229556217122 0 0.045292172424668861 0.42954707848620771 0 0.062261428369865007 0.43260229556217122 0 0.062013831165541058 0.41900276395429098 0 0.045292172424668861 0.42954707848620771 0 0.050073730427290429 0.40970838084555949 0 0.062013831165541058 0.41900276395429098 0 0.067047309396388546 0.40501581171431239 0 0.050073730427290429 0.40970838084555949 0 0.067047309396388546 0.40501581171431239 0 0.050073730427290429 0.40970838084555949 0 0.062013831165541058 0.41900276395429098 0 0.045292172424668861 0.42954707848620771 0 0.050073730427290429 0.40970838084555949 0 0.033100151458192069 0.41440094997680549 0 0.045292172424668861 0.42954707848620771 0 0.050073730427290429 0.40970838084555949 0 0.033100151458192069 0.41440094997680549 0 0.032826088687829838 0.39815852081857228 0 0.050073730427290429 0.40970838084555949 0 0.033100151458192069 0.41440094997680549 0 0.033100151458192069 0.41440094997680549 0 0.045292172424668861 0.42954707848620771 0 0.029813538518551681 0.428473678616557 0 0.035877974560222729 0.44003992226860711 0 0.045292172424668861 0.42954707848620771 0 0.029813538518551681 0.428473678616557 0 0.023363309046750561 0.44247814598406121 0 0.029813538518551681 0.428473678616557 0 0.014528793172290919 0.42265373379447452 0 0.023363309046750561 0.44247814598406121 0 0.035877974560222729 0.44003992226860711 0 0.029813538518551681 0.428473678616557 0 0.033100151458192069 0.41440094997680549 0 0.029813538518551681 0.428473678616557 0 0.014528793172290919 0.42265373379447452 0 0.033100151458192069 0.41440094997680549 0 0.014528793172290919 0.42265373379447452 0 0.0099919366312765535 0.39937711396805792 0 0.0014116017653585989 0.41634805679065118 0 0.014528793172290919 0.42265373379447452 0 0.0099919366312765535 0.39937711396805792 0 0.014528793172290919 0.42265373379447452 0 0.0099919366312765535 0.39937711396805792 0 0.0076771621591133054 0.43907224436652847 0 0.0014116017653585989 0.41634805679065118 0 0.014528793172290919 0.42265373379447452 0 0.0076771621591133054 0.43907224436652847 0 0.023363309046750561 0.44247814598406121 0 0.014528793172290919 0.42265373379447452 0 -0.0023987804065742141 0.38971174395534308 0 0.0054550800902624036 0.37610049414164137 0 0.0099919366312765535 0.39937711396805792 0 0.0054550800902624036 0.37610049414164137 0 0.0099919366312765535 0.39937711396805792 0 0.024995274555783532 0.38355707581520337 0 0.0054550800902624036 0.37610049414164137 0 0.0099919366312765535 0.39937711396805792 0 -0.0043378879502923226 0.40247430403533679 0 0.0014116017653585989 0.41634805679065118 0 0.0099919366312765535 0.39937711396805792 0 -0.0043378879502923226 0.40247430403533679 0 -0.0023987804065742141 0.38971174395534308 0 0.0099919366312765535 0.39937711396805792 0 0.033100151458192069 0.41440094997680549 0 0.0099919366312765535 0.39937711396805792 0 0.032826088687829838 0.39815852081857228 0 0.0099919366312765535 0.39937711396805792 0 0.024995274555783532 0.38355707581520337 0 0.032826088687829838 0.39815852081857228 0 0.024995274555783532 0.38355707581520337 0 0.04596935036660664 0.38374908348723491 0 0.032826088687829838 0.39815852081857228 0 0.024995274555783532 0.38355707581520337 0 0.04596935036660664 0.38374908348723491 0 0.024891391336823779 0.36248235526015848 0 0.050073730427290429 0.40970838084555949 0 0.04596935036660664 0.38374908348723491 0 0.032826088687829838 0.39815852081857228 0 0.04596935036660664 0.38374908348723491 0 0.073275994723399185 0.38654074934585791 0 0.067047309396388546 0.40501581171431239 0 0.04596935036660664 0.38374908348723491 0 0.067047309396388546 0.40501581171431239 0 0.050073730427290429 0.40970838084555949 0 0.04596935036660664 0.38374908348723491 0 0.067047309396388546 0.40501581171431239 0 0.04596935036660664 0.38374908348723491 0 0.073275994723399185 0.38654074934585791 0 0.070180653046426705 0.36843121938257273 0 0.073275994723399185 0.38654074934585791 0 0.093551609413112344 0.37673539291259939 0 0.070180653046426705 0.36843121938257273 0 0.073275994723399185 0.38654074934585791 0 0.093551609413112344 0.37673539291259939 0 0.089631051394461383 0.3987722392325691 0 0.089631051394461383 0.3987722392325691 0 0.067047309396388546 0.40501581171431239 0 0.089457400166610981 0.41090800983669712 0 0.089631051394461383 0.3987722392325691 0 0.067047309396388546 0.40501581171431239 0 0.073275994723399185 0.38654074934585791 0 0.089631051394461383 0.3987722392325691 0 0.067047309396388546 0.40501581171431239 0 0.062013831165541058 0.41900276395429098 0 0.067047309396388546 0.40501581171431239 0 0.079010494648383597 0.41708613641343423 0 0.067047309396388546 0.40501581171431239 0 0.079010494648383597 0.41708613641343423 0 0.062013831165541058 0.41900276395429098 0 0.075264012174585573 0.43039415260305453 0 0.079010494648383597 0.41708613641343423 0 0.071085633560026507 0.44143867812289489 0 0.062261428369865007 0.43260229556217122 0 0.075264012174585573 0.43039415260305453 0 0.062261428369865007 0.43260229556217122 0 0.062013831165541058 0.41900276395429098 0 0.075264012174585573 0.43039415260305453 0 0.082829582713083702 0.4431999959370535 0 0.075264012174585573 0.43039415260305453 0 0.090973679900376664 0.42915646111255801 0 0.075264012174585573 0.43039415260305453 0 0.090973679900376664 0.42915646111255801 0 0.079010494648383597 0.41708613641343423 0 0.090973679900376664 0.42915646111255801 0 0.079010494648383597 0.41708613641343423 0 0.082829582713083702 0.4431999959370535 0 0.090973679900376664 0.42915646111255801 0 0.067047309396388546 0.40501581171431239 0 0.079010494648383597 0.41708613641343423 0 0.089457400166610981 0.41090800983669712 0 0.090973679900376664 0.42915646111255801 0 0.079010494648383597 0.41708613641343423 0 0.089457400166610981 0.41090800983669712 0 0.089631051394461383 0.3987722392325691 0 0.089457400166610981 0.41090800983669712 0 0.10159423664645439 0.41084256393169011 0 0.090973679900376664 0.42915646111255801 0 0.10159423664645439 0.41084256393169011 0 0.090973679900376664 0.42915646111255801 0 0.089457400166610981 0.41090800983669712 0 0.10159423664645439 0.41084256393169011 0 0.090973679900376664 0.42915646111255801 0 0.10159423664645439 0.41084256393169011 0 0.1060677154068745 0.42249346652161762 0 0.10159423664645439 0.41084256393169011 0 0.1060677154068745 0.42249346652161762 0 0.1136547621081084 0.40560020443972428 0 0.1021948169159294 0.44047809196739379 0 0.090973679900376664 0.42915646111255801 0 0.1060677154068745 0.42249346652161762 0 0.1021948169159294 0.44047809196739379 0 0.092507215516101235 0.44180358270633391 0 0.090973679900376664 0.42915646111255801 0 0.1021948169159294 0.44047809196739379 0 0.090973679900376664 0.42915646111255801 0 0.1021948169159294 0.44047809196739379 0 0.1060677154068745 0.42249346652161762 0 0.12224609009331951 0.42021884574619672 0 0.1157679817721174 0.43993264924009401 0 0.1021948169159294 0.44047809196739379 0 0.12224609009331951 0.42021884574619672 0 0.1021948169159294 0.44047809196739379 0 0.12224609009331951 0.42021884574619672 0 0.1157679817721174 0.43993264924009401 0 0.12224609009331951 0.42021884574619672 0 0.12692561954430451 0.43414889707916138 0 0.1060677154068745 0.42249346652161762 0 0.12224609009331951 0.42021884574619672 0 0.1136547621081084 0.40560020443972428 0 0.12224609009331951 0.42021884574619672 0 0.12442843047430401 0.40228931215735381 0 0.1136547621081084 0.40560020443972428 0 0.12442843047430401 0.40228931215735381 0 0.1136547621081084 0.40560020443972428 0 0.1122147933925334 0.39252866675082299 0 0.12442843047430401 0.40228931215735381 0 0.1122147933925334 0.39252866675082299 0 0.1270447910362878 0.38842871886792818 0 0.1122147933925334 0.39252866675082299 0 0.1245065244279219 0.3713330266597189 0 0.1122147933925334 0.39252866675082299 0 0.1088140805266337 0.3714611400172661 0 0.1245065244279219 0.3713330266597189 0 0.1122147933925334 0.39252866675082299 0 0.1245065244279219 0.3713330266597189 0 0.1270447910362878 0.38842871886792818 0 0.1122147933925334 0.39252866675082299 0 0.1270447910362878 0.38842871886792818 0 0.093551609413112344 0.37673539291259939 0 0.089631051394461383 0.3987722392325691 0 0.1122147933925334 0.39252866675082299 0 0.093551609413112344 0.37673539291259939 0 0.1122147933925334 0.39252866675082299 0 0.1088140805266337 0.3714611400172661 0 0.10159423664645439 0.41084256393169011 0 0.1136547621081084 0.40560020443972428 0 0.1122147933925334 0.39252866675082299 0 0.10159423664645439 0.41084256393169011 0 0.1122147933925334 0.39252866675082299 0 0.089631051394461383 0.3987722392325691 0 0.10159423664645439 0.41084256393169011 0 0.1122147933925334 0.39252866675082299 0 0.089631051394461383 0.3987722392325691 0 0.1122147933925334 0.39252866675082299 0 0.098840216191118185 0.35560525564588091 0 0.10707127126618821 0.33217253477731251 0 0.098840216191118185 0.35560525564588091 0 0.11402845361969111 0.34715989060602681 0 0.10707127126618821 0.33217253477731251 0 0.098840216191118185 0.35560525564588091 0 0.1149572592084836 0.36110335811730893 0 0.11402845361969111 0.34715989060602681 0 0.098840216191118185 0.35560525564588091 0 0.1088140805266337 0.3714611400172661 0 0.1149572592084836 0.36110335811730893 0 0.093551609413112344 0.37673539291259939 0 0.098840216191118185 0.35560525564588091 0 0.1088140805266337 0.3714611400172661 0 0.1245065244279219 0.3713330266597189 0 0.1149572592084836 0.36110335811730893 0 0.12794780254243901 0.35522871921702182 0 0.1088140805266337 0.3714611400172661 0 0.1245065244279219 0.3713330266597189 0 0.1149572592084836 0.36110335811730893 0 0.11402845361969111 0.34715989060602681 0 0.1216250644418472 0.33198426656288282 0 0.12794780254243901 0.35522871921702182 0 0.1149572592084836 0.36110335811730893 0 0.11402845361969111 0.34715989060602681 0 0.12794780254243901 0.35522871921702182 0 0.1216250644418472 0.33198426656288282 0 0.12794780254243901 0.35522871921702182 0 0.11402845361969111 0.34715989060602681 0 0.1216250644418472 0.33198426656288282 0 0.10707127126618821 0.33217253477731251 0 0.10707127126618821 0.33217253477731251 0 0.1153023263412567 0.30873981390874339 0 0.1216250644418472 0.33198426656288282 0 0.10707127126618821 0.33217253477731251 0 0.1153023263412567 0.30873981390874339 0 0.1216250644418472 0.33198426656288282 0 0.1218822396745744 0.31087201384488589 0 0.1286536681997483 0.32146714615792871 0 0.1216250644418472 0.33198426656288282 0 0.1153023263412567 0.30873981390874339 0 0.1218822396745744 0.31087201384488589 0 0.1216250644418472 0.33198426656288282 0 0.1153023263412567 0.30873981390874339 0 0.10190031974215009 0.31717079836973922 0 0.10707127126618821 0.33217253477731251 0 0.091223013185021073 0.32667232266402141 0 0.10190031974215009 0.31717079836973922 0 0.10707127126618821 0.33217253477731251 0 0.1153023263412567 0.30873981390874339 0 0.10190031974215009 0.31717079836973922 0 0.091138810123241334 0.31341405149698981 0 0.091223013185021073 0.32667232266402141 0 0.098840216191118185 0.35560525564588091 0 0.10707127126618821 0.33217253477731251 0 0.091780155722257825 0.3410798700728237 0 0.10707127126618821 0.33217253477731251 0 0.091780155722257825 0.3410798700728237 0 0.091223013185021073 0.32667232266402141 0 0.091780155722257825 0.3410798700728237 0 0.078355868171072582 0.33641986086243808 0 0.091223013185021073 0.32667232266402141 0 0.078355868171072582 0.33641986086243808 0 0.091223013185021073 0.32667232266402141 0 0.076093030225632921 0.3192157818787838 0 0.091138810123241334 0.31341405149698981 0 0.091223013185021073 0.32667232266402141 0 0.076093030225632921 0.3192157818787838 0 0.076093030225632921 0.3192157818787838 0 0.061458712828689199 0.32964770038118912 0 0.057456216141277799 0.30901388904520571 0 0.078355868171072582 0.33641986086243808 0 0.076093030225632921 0.3192157818787838 0 0.061458712828689199 0.32964770038118912 0 0.078355868171072582 0.33641986086243808 0 0.066755332383763188 0.34834362108443873 0 0.061458712828689199 0.32964770038118912 0 0.078355868171072582 0.33641986086243808 0 0.066755332383763188 0.34834362108443873 0 0.083410409797889051 0.3545293764144658 0 0.066755332383763188 0.34834362108443873 0 0.083410409797889051 0.3545293764144658 0 0.070180653046426705 0.36843121938257273 0 0.066755332383763188 0.34834362108443873 0 0.070180653046426705 0.36843121938257273 0 0.054950402941949 0.35961732379246042 0 0.091780155722257825 0.3410798700728237 0 0.078355868171072582 0.33641986086243808 0 0.083410409797889051 0.3545293764144658 0 0.098840216191118185 0.35560525564588091 0 0.091780155722257825 0.3410798700728237 0 0.083410409797889051 0.3545293764144658 0 0.093551609413112344 0.37673539291259939 0 0.098840216191118185 0.35560525564588091 0 0.083410409797889051 0.3545293764144658 0 0.093551609413112344 0.37673539291259939 0 0.083410409797889051 0.3545293764144658 0 0.070180653046426705 0.36843121938257273 0 0.04596935036660664 0.38374908348723491 0 0.070180653046426705 0.36843121938257273 0 0.054950402941949 0.35961732379246042 0 0.054950402941949 0.35961732379246042 0 0.038621878477877333 0.35286202769772668 0 0.052352365618930898 0.34324170013529509 0 0.066755332383763188 0.34834362108443873 0 0.054950402941949 0.35961732379246042 0 0.052352365618930898 0.34324170013529509 0 0.038621878477877333 0.35286202769772668 0 0.038795827610871567 0.33850180113171302 0 0.052352365618930898 0.34324170013529509 0 0.038621878477877333 0.35286202769772668 0 0.052352365618930898 0.34324170013529509 0 0.038621878477877333 0.35286202769772668 0 0.024891391336823779 0.36248235526015848 0 0.038621878477877333 0.35286202769772668 0 0.028156418727911608 0.34718147878430661 0 0.038795827610871567 0.33850180113171302 0 0.04596935036660664 0.38374908348723491 0 0.054950402941949 0.35961732379246042 0 0.038621878477877333 0.35286202769772668 0 0.04596935036660664 0.38374908348723491 0 0.038621878477877333 0.35286202769772668 0 0.024891391336823779 0.36248235526015848 0 0.04596935036660664 0.38374908348723491 0 0.024891391336823779 0.36248235526015848 0 0.0054550800902624036 0.37610049414164137 0 0.024995274555783532 0.38355707581520337 0 0.024891391336823779 0.36248235526015848 0 0.0054550800902624036 0.37610049414164137 0 0.024891391336823779 0.36248235526015848 0 0.017105864843172679 0.35628948596882593 0 0.038621878477877333 0.35286202769772668 0 0.024891391336823779 0.36248235526015848 0 0.028156418727911608 0.34718147878430661 0 0.024891391336823779 0.36248235526015848 0 0.028156418727911608 0.34718147878430661 0 0.017309323385297389 0.35483238410799872 0 0.024891391336823779 0.36248235526015848 0 0.017309323385297389 0.35483238410799872 0 0.017105864843172679 0.35628948596882593 0 0.024891391336823779 0.36248235526015848 0 0.017309323385297389 0.35483238410799872 0 0.017309323385297389 0.35483238410799872 0 0.017105864843172679 0.35628948596882593 0 -0.0026069525759439792 0.33473774270725021 0 0.017309323385297389 0.35483238410799872 0 0.017309323385297389 0.35483238410799872 0 0.017105864843172679 0.35628948596882593 0 0.0014240637571583321 0.3554191184244459 0 -0.0026069525759439792 0.33473774270725021 0 0.017309323385297389 0.35483238410799872 0 0.0014240637571583321 0.3554191184244459 0 -0.0045848980022860242 0.36787674550054877 0 0.0054550800902624036 0.37610049414164137 0 0.0014240637571583321 0.3554191184244459 0 0.0054550800902624036 0.37610049414164137 0 0.024891391336823779 0.36248235526015848 0 0.0054550800902624036 0.37610049414164137 0 0.017105864843172679 0.35628948596882593 0 0.0014240637571583321 0.3554191184244459 0 0.0054550800902624036 0.37610049414164137 0 0.0014240637571583321 0.3554191184244459 0 0.0074988095433214334 0.32534984461408301 0 0.021163672828686659 0.32722882572393752 0 0.0086998533199505595 0.30840945726301161 0 -0.0053928765229688067 0.32044438959062932 0 0.0074988095433214334 0.32534984461408301 0 0.0086998533199505595 0.30840945726301161 0 -0.0026069525759439792 0.33473774270725021 0 0.017309323385297389 0.35483238410799872 0 0.0074988095433214334 0.32534984461408301 0 0.017309323385297389 0.35483238410799872 0 0.0074988095433214334 0.32534984461408301 0 0.021163672828686659 0.32722882572393752 0 0.028156418727911608 0.34718147878430661 0 0.021163672828686659 0.32722882572393752 0 0.038795827610871567 0.33850180113171302 0 0.028156418727911608 0.34718147878430661 0 0.017309323385297389 0.35483238410799872 0 0.021163672828686659 0.32722882572393752 0 0.017309323385297389 0.35483238410799872 0 0.021163672828686659 0.32722882572393752 0 0.021163672828686659 0.32722882572393752 0 0.025018022272077101 0.29962526733987649 0 0.021163672828686659 0.32722882572393752 0 0.043218549832642832 0.32494745384647927 0 0.040978942097131543 0.30809232123533592 0 0.021163672828686659 0.32722882572393752 0 0.043218549832642832 0.32494745384647927 0 0.038795827610871567 0.33850180113171302 0 0.043218549832642832 0.32494745384647927 0 0.038795827610871567 0.33850180113171302 0 0.052352365618930898 0.34324170013529509 0 0.066755332383763188 0.34834362108443873 0 0.061458712828689199 0.32964770038118912 0 0.052352365618930898 0.34324170013529509 0 0.043218549832642832 0.32494745384647927 0 0.061458712828689199 0.32964770038118912 0 0.052352365618930898 0.34324170013529509 0 0.043218549832642832 0.32494745384647927 0 0.057456216141277799 0.30901388904520571 0 0.040978942097131543 0.30809232123533592 0 0.043218549832642832 0.32494745384647927 0 0.061458712828689199 0.32964770038118912 0 0.057456216141277799 0.30901388904520571 0 0.057456216141277799 0.30901388904520571 0 0.044874943835374 0.29129896341093992 0 0.040978942097131543 0.30809232123533592 0 0.044874943835374 0.29129896341093992 0 0.049407454730932637 0.26819785819589997 0 0.066108358786849231 0.28620282791720192 0 0.057456216141277799 0.30901388904520571 0 0.044874943835374 0.29129896341093992 0 0.066108358786849231 0.28620282791720192 0 0.044874943835374 0.29129896341093992 0 0.025018022272077101 0.29962526733987649 0 0.02887237171546753 0.27202170895581562 0 0.044874943835374 0.29129896341093992 0 0.040978942097131543 0.30809232123533592 0 0.025018022272077101 0.29962526733987649 0 0.021163672828686659 0.32722882572393752 0 0.040978942097131543 0.30809232123533592 0 0.025018022272077101 0.29962526733987649 0 0.021163672828686659 0.32722882572393752 0 0.025018022272077101 0.29962526733987649 0 0.0086998533199505595 0.30840945726301161 0 0.025018022272077101 0.29962526733987649 0 0.01311486275497544 0.28182799890026172 0 0.02887237171546753 0.27202170895581562 0 0.025018022272077101 0.29962526733987649 0 0.02887237171546753 0.27202170895581562 0 -0.0050426315733072694 0.28833554097356762 0 0.01311486275497544 0.28182799890026172 0 0.0086998533199505595 0.30840945726301161 0 0.025018022272077101 0.29962526733987649 0 0.01311486275497544 0.28182799890026172 0 0.0086998533199505595 0.30840945726301161 0 0.01188298138564646 0.2489178613587168 0 0.0003291665693064352 0.24474665195800591 0 5.4449697198585628e-05 0.2648549279980501 0 0.01188298138564646 0.2489178613587168 0 5.4449697198585628e-05 0.2648549279980501 0 0.021087111098466171 0.25772109087124878 0 0.01311486275497544 0.28182799890026172 0 5.4449697198585628e-05 0.2648549279980501 0 0.021087111098466171 0.25772109087124878 0 -0.0050426315733072694 0.28833554097356762 0 0.01311486275497544 0.28182799890026172 0 5.4449697198585628e-05 0.2648549279980501 0 0.01311486275497544 0.28182799890026172 0 0.02887237171546753 0.27202170895581562 0 0.021087111098466171 0.25772109087124878 0 0.032726721158857962 0.24441815057175459 0 0.02887237171546753 0.27202170895581562 0 0.032726721158857962 0.24441815057175459 0 0.02887237171546753 0.27202170895581562 0 0.021087111098466171 0.25772109087124878 0 0.032726721158857962 0.24441815057175459 0 0.049407454730932637 0.26819785819589997 0 0.049115989726689763 0.25005625140347748 0 0.032726721158857962 0.24441815057175459 0 0.02887237171546753 0.27202170895581562 0 0.049407454730932637 0.26819785819589997 0 0.044874943835374 0.29129896341093992 0 0.02887237171546753 0.27202170895581562 0 0.049407454730932637 0.26819785819589997 0 0.049407454730932637 0.26819785819589997 0 0.064609340114167607 0.27119552791294532 0 0.066108358786849231 0.28620282791720192 0 0.049407454730932637 0.26819785819589997 0 0.063553825871315431 0.25904075349275701 0 0.064609340114167607 0.27119552791294532 0 0.049407454730932637 0.26819785819589997 0 0.049115989726689763 0.25005625140347748 0 0.063553825871315431 0.25904075349275701 0 0.064944704837927275 0.2453355997948192 0 0.058929044337716167 0.25028285571895481 0 0.063553825871315431 0.25904075349275701 0 0.049115989726689763 0.25005625140347748 0 0.058929044337716167 0.25028285571895481 0 0.063553825871315431 0.25904075349275701 0 0.063553825871315431 0.25904075349275701 0 0.079529801227446295 0.25391657230169201 0 0.079367721067573158 0.27134067204592233 0 0.064944704837927275 0.2453355997948192 0 0.063553825871315431 0.25904075349275701 0 0.079529801227446295 0.25391657230169201 0 0.079529801227446295 0.25391657230169201 0 0.079367721067573158 0.27134067204592233 0 0.097678209040562874 0.2641479973813739 0 0.092223360092669029 0.24897853345958451 0 0.079529801227446295 0.25391657230169201 0 0.097678209040562874 0.2641479973813739 0 0.079367721067573158 0.27134067204592233 0 0.090943590558377974 0.28880336474567858 0 0.097678209040562874 0.2641479973813739 0 0.063553825871315431 0.25904075349275701 0 0.079367721067573158 0.27134067204592233 0 0.064609340114167607 0.27119552791294532 0 0.079367721067573158 0.27134067204592233 0 0.064609340114167607 0.27119552791294532 0 0.066108358786849231 0.28620282791720192 0 0.066108358786849231 0.28620282791720192 0 0.076743042845222431 0.30169538968510679 0 0.090943590558377974 0.28880336474567858 0 0.076093030225632921 0.3192157818787838 0 0.057456216141277799 0.30901388904520571 0 0.076743042845222431 0.30169538968510679 0 0.057456216141277799 0.30901388904520571 0 0.066108358786849231 0.28620282791720192 0 0.076743042845222431 0.30169538968510679 0 0.091138810123241334 0.31341405149698981 0 0.076093030225632921 0.3192157818787838 0 0.076743042845222431 0.30169538968510679 0 0.076743042845222431 0.30169538968510679 0 0.090047870175120573 0.30111658752285891 0 0.090943590558377974 0.28880336474567858 0 0.091138810123241334 0.31341405149698981 0 0.076743042845222431 0.30169538968510679 0 0.090047870175120573 0.30111658752285891 0 0.079367721067573158 0.27134067204592233 0 0.066108358786849231 0.28620282791720192 0 0.090943590558377974 0.28880336474567858 0 0.090943590558377974 0.28880336474567858 0 0.1112840477558566 0.29396730794005571 0 0.1072657691704577 0.27919480197136748 0 0.090943590558377974 0.28880336474567858 0 0.101937192978551 0.30444251197198469 0 0.1112840477558566 0.29396730794005571 0 0.1112840477558566 0.29396730794005571 0 0.1072657691704577 0.27919480197136748 0 0.090047870175120573 0.30111658752285891 0 0.090943590558377974 0.28880336474567858 0 0.101937192978551 0.30444251197198469 0 0.091138810123241334 0.31341405149698981 0 0.090047870175120573 0.30111658752285891 0 0.101937192978551 0.30444251197198469 0 0.10190031974215009 0.31717079836973922 0 0.091138810123241334 0.31341405149698981 0 0.101937192978551 0.30444251197198469 0 0.10190031974215009 0.31717079836973922 0 0.101937192978551 0.30444251197198469 0 0.1153023263412567 0.30873981390874339 0 0.1160025533395219 0.3067463606217356 0 0.1218822396745744 0.31087201384488589 0 0.13198143751894231 0.30768914057294738 0 0.1153023263412567 0.30873981390874339 0 0.1160025533395219 0.3067463606217356 0 0.101937192978551 0.30444251197198469 0 0.1153023263412567 0.30873981390874339 0 0.1112840477558566 0.29396730794005571 0 0.1153023263412567 0.30873981390874339 0 0.1112840477558566 0.29396730794005571 0 0.1153023263412567 0.30873981390874339 0 0.1160025533395219 0.3067463606217356 0 0.1112840477558566 0.29396730794005571 0 0.1153023263412567 0.30873981390874339 0 0.1160025533395219 0.3067463606217356 0 0.1218822396745744 0.31087201384488589 0 0.1112840477558566 0.29396730794005571 0 0.1236074624252631 0.28509619424431021 0 0.1072657691704577 0.27919480197136748 0 0.1160025533395219 0.3067463606217356 0 0.1112840477558566 0.29396730794005571 0 0.1236074624252631 0.28509619424431021 0 0.1160025533395219 0.3067463606217356 0 0.1236074624252631 0.28509619424431021 0 0.1193079827556722 0.27142519883347849 0 0.11184209643106589 0.26146122501885433 0 0.1072657691704577 0.27919480197136748 0 0.1236074624252631 0.28509619424431021 0 0.1193079827556722 0.27142519883347849 0 0.13121237151100451 0.26344602786688481 0 0.1236074624252631 0.28509619424431021 0 0.1193079827556722 0.27142519883347849 0 0.1072657691704577 0.27919480197136748 0 0.11184209643106589 0.26146122501885433 0 0.11853129707230969 0.25009864336859239 0 0.13121237151100451 0.26344602786688481 0 0.1193079827556722 0.27142519883347849 0 0.11184209643106589 0.26146122501885433 0 0.13121237151100451 0.26344602786688481 0 0.1044128275227478 0.23949263001706919 0 0.11184209643106589 0.26146122501885433 0 0.11853129707230969 0.25009864336859239 0 0.092223360092669029 0.24897853345958451 0 0.1044128275227478 0.23949263001706919 0 0.097678209040562874 0.2641479973813739 0 0.1044128275227478 0.23949263001706919 0 0.11184209643106589 0.26146122501885433 0 0.097678209040562874 0.2641479973813739 0 0.1044128275227478 0.23949263001706919 0 0.097678209040562874 0.2641479973813739 0 0.090943590558377974 0.28880336474567858 0 0.097678209040562874 0.2641479973813739 0 0.11184209643106589 0.26146122501885433 0 0.097678209040562874 0.2641479973813739 0 0.1072657691704577 0.27919480197136748 0 0.090943590558377974 0.28880336474567858 0 0.097678209040562874 0.2641479973813739 0 0.1072657691704577 0.27919480197136748 0 0.1447665614907129 0.27399108607466482 0 0.144722464118337 0.25681807311731691 0 0.1615099731750384 0.27780847834959299 0 0.144722464118337 0.25681807311731691 0 0.1615099731750384 0.27780847834959299 0 0.150144034282917 0.23627700744304481 0 0.144722464118337 0.25681807311731691 0 0.16091116709385311 0.26009277044520263 0 0.144722464118337 0.25681807311731691 0 0.1615099731750384 0.27780847834959299 0 0.16091116709385311 0.26009277044520263 0 0.12793495506163571 0.23582766788504039 0 0.144722464118337 0.25681807311731691 0 0.13121237151100451 0.26344602786688481 0 0.1447665614907129 0.27399108607466482 0 0.144722464118337 0.25681807311731691 0 0.13121237151100451 0.26344602786688481 0 0.1236074624252631 0.28509619424431021 0 0.13121237151100451 0.26344602786688481 0 0.1236074624252631 0.28509619424431021 0 0.13121237151100451 0.26344602786688481 0 0.134585664671065 0.27870268191788078 0 0.1447665614907129 0.27399108607466482 0 0.13121237151100451 0.26344602786688481 0 0.134585664671065 0.27870268191788078 0 0.1160025533395219 0.3067463606217356 0 0.1236074624252631 0.28509619424431021 0 0.13875626325727961 0.29227741948566338 0 0.1447665614907129 0.27399108607466482 0 0.134585664671065 0.27870268191788078 0 0.13875626325727961 0.29227741948566338 0 0.1236074624252631 0.28509619424431021 0 0.134585664671065 0.27870268191788078 0 0.13875626325727961 0.29227741948566338 0 0.13875626325727961 0.29227741948566338 0 0.13198143751894231 0.30768914057294738 0 0.1459653206541118 0.30911365557712589 0 0.1160025533395219 0.3067463606217356 0 0.13875626325727961 0.29227741948566338 0 0.1160025533395219 0.3067463606217356 0 0.13875626325727961 0.29227741948566338 0 0.13198143751894231 0.30768914057294738 0 0.1218822396745744 0.31087201384488589 0 0.13198143751894231 0.30768914057294738 0 0.13039768951286551 0.31294197871295037 0 0.13198143751894231 0.30768914057294738 0 0.1369859384703668 0.3157960452869123 0 0.13039768951286551 0.31294197871295037 0 0.13198143751894231 0.30768914057294738 0 0.1459653206541118 0.30911365557712589 0 0.1369859384703668 0.3157960452869123 0 0.1459653206541118 0.30911365557712589 0 0.15745889908702429 0.29814466437151099 0 0.16204665402821269 0.31581271060635219 0 0.13875626325727961 0.29227741948566338 0 0.1459653206541118 0.30911365557712589 0 0.15745889908702429 0.29814466437151099 0 0.1447665614907129 0.27399108607466482 0 0.13875626325727961 0.29227741948566338 0 0.1615099731750384 0.27780847834959299 0 0.13875626325727961 0.29227741948566338 0 0.1615099731750384 0.27780847834959299 0 0.13875626325727961 0.29227741948566338 0 0.15745889908702429 0.29814466437151099 0 0.1615099731750384 0.27780847834959299 0 0.15745889908702429 0.29814466437151099 0 0.17711766411554519 0.29732368793040931 0 0.1615099731750384 0.27780847834959299 0 0.17711766411554519 0.29732368793040931 0 0.1615099731750384 0.27780847834959299 0 0.15745889908702429 0.29814466437151099 0 0.17711766411554519 0.29732368793040931 0 0.16204665402821269 0.31581271060635219 0 0.17711766411554519 0.29732368793040931 0 0.19272535505605229 0.3168388975112254 0 0.17711766411554519 0.29732368793040931 0 0.18425510429904449 0.2804229604934414 0 0.20098562644604101 0.28408153077181247 0 0.17711766411554519 0.29732368793040931 0 0.18425510429904449 0.2804229604934414 0 0.1615099731750384 0.27780847834959299 0 0.18425510429904449 0.2804229604934414 0 0.1615099731750384 0.27780847834959299 0 0.18117734009780631 0.26530212332723963 0 0.1615099731750384 0.27780847834959299 0 0.18117734009780631 0.26530212332723963 0 0.1615099731750384 0.27780847834959299 0 0.16091116709385311 0.26009277044520263 0 0.18117734009780631 0.26530212332723963 0 0.1701963467878507 0.24768960143064819 0 0.16091116709385311 0.26009277044520263 0 0.18117734009780631 0.26530212332723963 0 0.1701963467878507 0.24768960143064819 0 0.1934581094955754 0.24549692846012 0 0.18117734009780631 0.26530212332723963 0 0.1934581094955754 0.24549692846012 0 0.18117734009780631 0.26530212332723963 0 0.20098851271284909 0.26425596646320082 0 0.18425510429904449 0.2804229604934414 0 0.18117734009780631 0.26530212332723963 0 0.20098851271284909 0.26425596646320082 0 0.18425510429904449 0.2804229604934414 0 0.20098851271284909 0.26425596646320082 0 0.20098562644604101 0.28408153077181247 0 0.20098851271284909 0.26425596646320082 0 0.224346267030092 0.26775487178995178 0 0.20098562644604101 0.28408153077181247 0 0.2155853680499632 0.2454685525133237 0 0.1934581094955754 0.24549692846012 0 0.20098851271284909 0.26425596646320082 0 0.2155853680499632 0.2454685525133237 0 0.20098851271284909 0.26425596646320082 0 0.224346267030092 0.26775487178995178 0 0.2155853680499632 0.2454685525133237 0 0.23815839548630419 0.23896936503904689 0 0.224346267030092 0.26775487178995178 0 0.224346267030092 0.26775487178995178 0 0.24122639441773891 0.28625879088204892 0 0.25348366299370251 0.26496177753465527 0 0.224346267030092 0.26775487178995178 0 0.25348366299370251 0.26496177753465527 0 0.23815839548630419 0.23896936503904689 0 0.224346267030092 0.26775487178995178 0 0.25348366299370251 0.26496177753465527 0 0.23874482156995211 0.31002984586363408 0 0.24122639441773891 0.28625879088204892 0 0.25728752406865391 0.30295120601186809 0 0.224346267030092 0.26775487178995178 0 0.24122639441773891 0.28625879088204892 0 0.2213954200720209 0.29712120940996423 0 0.23874482156995211 0.31002984586363408 0 0.2213954200720209 0.29712120940996423 0 0.21670163299598391 0.31554875472428767 0 0.23874482156995211 0.31002984586363408 0 0.24122639441773891 0.28625879088204892 0 0.2213954200720209 0.29712120940996423 0 0.2213954200720209 0.29712120940996423 0 0.20178513973712869 0.30218281606953978 0 0.21670163299598391 0.31554875472428767 0 0.20178513973712869 0.30218281606953978 0 0.19272535505605229 0.3168388975112254 0 0.21670163299598391 0.31554875472428767 0 0.2213954200720209 0.29712120940996423 0 0.20098562644604101 0.28408153077181247 0 0.20178513973712869 0.30218281606953978 0 0.224346267030092 0.26775487178995178 0 0.2213954200720209 0.29712120940996423 0 0.20098562644604101 0.28408153077181247 0 0.17711766411554519 0.29732368793040931 0 0.20098562644604101 0.28408153077181247 0 0.20178513973712869 0.30218281606953978 0 0.17711766411554519 0.29732368793040931 0 0.20178513973712869 0.30218281606953978 0 0.19272535505605229 0.3168388975112254 0 0.19272535505605229 0.3168388975112254 0 0.20833304599655941 0.33635410709204161 0 0.19272535505605229 0.3168388975112254 0 0.1876287005294526 0.34374898495805523 0 0.20833304599655941 0.33635410709204161 0 0.19272535505605229 0.3168388975112254 0 0.20833304599655941 0.33635410709204161 0 0.21670163299598391 0.31554875472428767 0 0.20833304599655941 0.33635410709204161 0 0.21670163299598391 0.31554875472428767 0 0.23509126535580249 0.33070685795160348 0 0.23874482156995211 0.31002984586363408 0 0.21670163299598391 0.31554875472428767 0 0.23509126535580249 0.33070685795160348 0 0.20833304599655941 0.33635410709204161 0 0.23509126535580249 0.33070685795160348 0 0.22995101075481361 0.3450872194375087 0 0.23509126535580249 0.33070685795160348 0 0.25534670799253578 0.34516339100314619 0 0.25907630987568092 0.32316517518123561 0 0.23509126535580249 0.33070685795160348 0 0.22995101075481361 0.3450872194375087 0 0.25534670799253578 0.34516339100314619 0 0.23874482156995211 0.31002984586363408 0 0.23509126535580249 0.33070685795160348 0 0.25907630987568092 0.32316517518123561 0 0.2479141745057612 0.36016308760514631 0 0.23105996285988439 0.35738141470948492 0 0.23954842787757011 0.37538452625367691 0 0.23105996285988439 0.35738141470948492 0 0.22995101075481361 0.3450872194375087 0 0.25534670799253578 0.34516339100314619 0 0.2479141745057612 0.36016308760514631 0 0.23105996285988439 0.35738141470948492 0 0.25534670799253578 0.34516339100314619 0 0.23105996285988439 0.35738141470948492 0 0.25534670799253578 0.34516339100314619 0 0.20833304599655941 0.33635410709204161 0 0.22995101075481361 0.3450872194375087 0 0.22394073693706659 0.35586931667285782 0 0.23105996285988439 0.35738141470948492 0 0.22995101075481361 0.3450872194375087 0 0.22394073693706659 0.35586931667285782 0 0.22394073693706659 0.35586931667285782 0 0.23954842787757011 0.37538452625367691 0 0.23105996285988439 0.35738141470948492 0 0.22394073693706659 0.35586931667285782 0 0.23954842787757011 0.37538452625367691 0 0.22394073693706659 0.35586931667285782 0 0.22378702633255129 0.36977092368666448 0 0.23954842787757011 0.37538452625367691 0 0.22394073693706659 0.35586931667285782 0 0.22378702633255129 0.36977092368666448 0 0.21660774853532941 0.36235788689699028 0 0.22378702633255129 0.36977092368666448 0 0.21124290918089669 0.36902174200290988 0 0.2216619232613202 0.3840439012145509 0 0.21124290918089669 0.36902174200290988 0 0.207460321690803 0.35476956522552922 0 0.19418919311205271 0.36445848270108527 0 0.21124290918089669 0.36902174200290988 0 0.21660774853532941 0.36235788689699028 0 0.207460321690803 0.35476956522552922 0 0.22378702633255129 0.36977092368666448 0 0.21124290918089669 0.36902174200290988 0 0.21660774853532941 0.36235788689699028 0 0.22394073693706659 0.35586931667285782 0 0.21660774853532941 0.36235788689699028 0 0.207460321690803 0.35476956522552922 0 0.20833304599655941 0.33635410709204161 0 0.22394073693706659 0.35586931667285782 0 0.20833304599655941 0.33635410709204161 0 0.22394073693706659 0.35586931667285782 0 0.207460321690803 0.35476956522552922 0 0.1876287005294526 0.34374898495805523 0 0.20833304599655941 0.33635410709204161 0 0.207460321690803 0.35476956522552922 0 0.1876287005294526 0.34374898495805523 0 0.207460321690803 0.35476956522552922 0 0.19418919311205271 0.36445848270108527 0 0.19418919311205271 0.36445848270108527 0 0.1848198924194274 0.38080700813970753 0 0.20130621932069981 0.37849211466451083 0 0.21124290918089669 0.36902174200290988 0 0.19418919311205271 0.36445848270108527 0 0.20130621932069981 0.37849211466451083 0 0.17372703254740079 0.35898887263974028 0 0.16785436600035211 0.37717766229902011 0 0.1848198924194274 0.38080700813970753 0 0.19418919311205271 0.36445848270108527 0 0.17372703254740079 0.35898887263974028 0 0.1848198924194274 0.38080700813970753 0 0.1602526472839475 0.36549048648448401 0 0.17372703254740079 0.35898887263974028 0 0.16785436600035211 0.37717766229902011 0 0.1602526472839475 0.36549048648448401 0 0.1531494876235695 0.37556152777569768 0 0.16785436600035211 0.37717766229902011 0 0.1602526472839475 0.36549048648448401 0 0.15661489786366789 0.35281136800249102 0 0.17372703254740079 0.35898887263974028 0 0.15661489786366789 0.35281136800249102 0 0.17372703254740079 0.35898887263974028 0 0.16362983924942651 0.33782264595945422 0 0.1876287005294526 0.34374898495805523 0 0.17372703254740079 0.35898887263974028 0 0.16362983924942651 0.33782264595945422 0 0.1876287005294526 0.34374898495805523 0 0.19418919311205271 0.36445848270108527 0 0.17372703254740079 0.35898887263974028 0 0.19272535505605229 0.3168388975112254 0 0.1876287005294526 0.34374898495805523 0 0.1769675108447209 0.32553327726115799 0 0.1876287005294526 0.34374898495805523 0 0.1769675108447209 0.32553327726115799 0 0.16362983924942651 0.33782264595945422 0 0.17711766411554519 0.29732368793040931 0 0.19272535505605229 0.3168388975112254 0 0.1769675108447209 0.32553327726115799 0 0.17711766411554519 0.29732368793040931 0 0.1769675108447209 0.32553327726115799 0 0.16204665402821269 0.31581271060635219 0 0.16204665402821269 0.31581271060635219 0 0.16362983924942651 0.33782264595945422 0 0.14856273156284541 0.32496195313936899 0 0.1769675108447209 0.32553327726115799 0 0.16204665402821269 0.31581271060635219 0 0.16362983924942651 0.33782264595945422 0 0.15661489786366789 0.35281136800249102 0 0.16362983924942651 0.33782264595945422 0 0.14806657066954729 0.3397169835043648 0 0.14806657066954729 0.3397169835043648 0 0.1352534355472183 0.33407324228599428 0 0.1418482433946186 0.35202019815220359 0 0.16362983924942651 0.33782264595945422 0 0.14806657066954729 0.3397169835043648 0 0.14856273156284541 0.32496195313936899 0 0.14806657066954729 0.3397169835043648 0 0.14856273156284541 0.32496195313936899 0 0.1352534355472183 0.33407324228599428 0 0.1459653206541118 0.30911365557712589 0 0.14856273156284541 0.32496195313936899 0 0.1369859384703668 0.3157960452869123 0 0.1459653206541118 0.30911365557712589 0 0.16204665402821269 0.31581271060635219 0 0.14856273156284541 0.32496195313936899 0 0.14856273156284541 0.32496195313936899 0 0.1369859384703668 0.3157960452869123 0 0.1352534355472183 0.33407324228599428 0 0.1369859384703668 0.3157960452869123 0 0.1286536681997483 0.32146714615792871 0 0.1352534355472183 0.33407324228599428 0 0.1369859384703668 0.3157960452869123 0 0.1286536681997483 0.32146714615792871 0 0.13039768951286551 0.31294197871295037 0 0.1218822396745744 0.31087201384488589 0 0.1286536681997483 0.32146714615792871 0 0.13039768951286551 0.31294197871295037 0 0.1216250644418472 0.33198426656288282 0 0.1352534355472183 0.33407324228599428 0 0.12794780254243901 0.35522871921702182 0 0.1216250644418472 0.33198426656288282 0 0.1286536681997483 0.32146714615792871 0 0.1352534355472183 0.33407324228599428 0 0.12794780254243901 0.35522871921702182 0 0.13848715210659959 0.37075235587283012 0 0.1418482433946186 0.35202019815220359 0 0.1352534355472183 0.33407324228599428 0 0.12794780254243901 0.35522871921702182 0 0.1418482433946186 0.35202019815220359 0 0.1245065244279219 0.3713330266597189 0 0.12794780254243901 0.35522871921702182 0 0.13848715210659959 0.37075235587283012 0 0.13848715210659959 0.37075235587283012 0 0.14991745238474741 0.36291300170547108 0 0.1418482433946186 0.35202019815220359 0 0.13848715210659959 0.37075235587283012 0 0.14991745238474741 0.36291300170547108 0 0.1531494876235695 0.37556152777569768 0 0.1602526472839475 0.36549048648448401 0 0.14991745238474741 0.36291300170547108 0 0.1531494876235695 0.37556152777569768 0 0.1602526472839475 0.36549048648448401 0 0.15661489786366789 0.35281136800249102 0 0.14991745238474741 0.36291300170547108 0 0.15661489786366789 0.35281136800249102 0 0.14991745238474741 0.36291300170547108 0 0.1418482433946186 0.35202019815220359 0 0.15661489786366789 0.35281136800249102 0 0.14806657066954729 0.3397169835043648 0 0.1418482433946186 0.35202019815220359 0 0.1422973632707096 0.39995959952499949 0 0.14187478868004161 0.38432877098503182 0 0.15706350010466491 0.39092737946340672 0 0.1422973632707096 0.39995959952499949 0 0.15500659017174981 0.40495013118565881 0 0.15706350010466491 0.39092737946340672 0 0.1531494876235695 0.37556152777569768 0 0.14187478868004161 0.38432877098503182 0 0.15706350010466491 0.39092737946340672 0 0.13848715210659959 0.37075235587283012 0 0.1531494876235695 0.37556152777569768 0 0.14187478868004161 0.38432877098503182 0 0.14187478868004161 0.38432877098503182 0 0.1270447910362878 0.38842871886792818 0 0.1245065244279219 0.3713330266597189 0 0.13848715210659959 0.37075235587283012 0 0.1270447910362878 0.38842871886792818 0 0.13848715210659959 0.37075235587283012 0 0.14187478868004161 0.38432877098503182 0 0.1270447910362878 0.38842871886792818 0 0.12442843047430401 0.40228931215735381 0 0.1422973632707096 0.39995959952499949 0 0.1270447910362878 0.38842871886792818 0 0.1422973632707096 0.39995959952499949 0 0.14187478868004161 0.38432877098503182 0 0.1270447910362878 0.38842871886792818 0 0.12224609009331951 0.42021884574619672 0 0.1422973632707096 0.39995959952499949 0 0.12224609009331951 0.42021884574619672 0 0.12442843047430401 0.40228931215735381 0 0.1422973632707096 0.39995959952499949 0 0.12224609009331951 0.42021884574619672 0 0.1422973632707096 0.39995959952499949 0 0.13671813965313609 0.42410075207556119 0 0.12224609009331951 0.42021884574619672 0 0.12692561954430451 0.43414889707916138 0 0.13671813965313609 0.42410075207556119 0 0.13671813965313609 0.42410075207556119 0 0.14633771586803079 0.43128091837903942 0 0.13541666947638001 0.43772783466698861 0 0.12692561954430451 0.43414889707916138 0 0.13671813965313609 0.42410075207556119 0 0.13541666947638001 0.43772783466698861 0 0.13671813965313609 0.42410075207556119 0 0.14633771586803079 0.43128091837903942 0 0.14929592537743219 0.4162630818951274 0 0.14633771586803079 0.43128091837903942 0 0.14929592537743219 0.4162630818951274 0 0.15909406237366519 0.42473128239103702 0 0.1422973632707096 0.39995959952499949 0 0.13671813965313609 0.42410075207556119 0 0.14929592537743219 0.4162630818951274 0 0.1422973632707096 0.39995959952499949 0 0.15500659017174981 0.40495013118565881 0 0.14929592537743219 0.4162630818951274 0 0.15500659017174981 0.40495013118565881 0 0.14929592537743219 0.4162630818951274 0 0.16254756252885311 0.41369364217807281 0 0.15500659017174981 0.40495013118565881 0 0.16254756252885311 0.41369364217807281 0 0.16754699057435421 0.40203732276446391 0 0.14929592537743219 0.4162630818951274 0 0.16254756252885311 0.41369364217807281 0 0.15909406237366519 0.42473128239103702 0 0.16254756252885311 0.41369364217807281 0 0.15909406237366519 0.42473128239103702 0 0.17125225281510001 0.42412851926041839 0 0.16254756252885311 0.41369364217807281 0 0.17125225281510001 0.42412851926041839 0 0.176282025729363 0.411108027444192 0 0.16254756252885311 0.41369364217807281 0 0.176282025729363 0.411108027444192 0 0.16754699057435421 0.40203732276446391 0 0.14633771586803079 0.43128091837903942 0 0.16743877635997981 0.43707132507847268 0 0.14633771586803079 0.43128091837903942 0 0.15909406237366519 0.42473128239103702 0 0.16743877635997981 0.43707132507847268 0 0.14633771586803079 0.43128091837903942 0 0.16743877635997981 0.43707132507847268 0 0.1563701039271147 0.44028281500577982 0 0.15909406237366519 0.42473128239103702 0 0.17125225281510001 0.42412851926041839 0 0.16743877635997981 0.43707132507847268 0 0.16743877635997981 0.43707132507847268 0 0.18005003314535639 0.4312043015974249 0 0.18853983685192879 0.442861731777906 0 0.17125225281510001 0.42412851926041839 0 0.16743877635997981 0.43707132507847268 0 0.18005003314535639 0.4312043015974249 0 0.17125225281510001 0.42412851926041839 0 0.18005003314535639 0.4312043015974249 0 0.183049794990161 0.42152539345154061 0 0.18005003314535639 0.4312043015974249 0 0.183049794990161 0.42152539345154061 0 0.18948999777144421 0.43052459325352888 0 0.18005003314535639 0.4312043015974249 0 0.18948999777144421 0.43052459325352888 0 0.18853983685192879 0.442861731777906 0 0.176282025729363 0.411108027444192 0 0.18317065430436091 0.39861097465200068 0 0.1935859574930647 0.41056849932104611 0 0.176282025729363 0.411108027444192 0 0.183049794990161 0.42152539345154061 0 0.1935859574930647 0.41056849932104611 0 0.17125225281510001 0.42412851926041839 0 0.176282025729363 0.411108027444192 0 0.183049794990161 0.42152539345154061 0 0.18317065430436091 0.39861097465200068 0 0.16754699057435421 0.40203732276446391 0 0.17202342913651661 0.39014450886369922 0 0.176282025729363 0.411108027444192 0 0.18317065430436091 0.39861097465200068 0 0.16754699057435421 0.40203732276446391 0 0.16754699057435421 0.40203732276446391 0 0.15706350010466491 0.39092737946340672 0 0.17202342913651661 0.39014450886369922 0 0.15500659017174981 0.40495013118565881 0 0.16754699057435421 0.40203732276446391 0 0.15706350010466491 0.39092737946340672 0 0.1531494876235695 0.37556152777569768 0 0.15706350010466491 0.39092737946340672 0 0.16785436600035211 0.37717766229902011 0 0.15706350010466491 0.39092737946340672 0 0.16785436600035211 0.37717766229902011 0 0.17202342913651661 0.39014450886369922 0 0.16785436600035211 0.37717766229902011 0 0.1848198924194274 0.38080700813970753 0 0.17202342913651661 0.39014450886369922 0 0.18317065430436091 0.39861097465200068 0 0.1848198924194274 0.38080700813970753 0 0.17202342913651661 0.39014450886369922 0 0.1848198924194274 0.38080700813970753 0 0.20130621932069981 0.37849211466451083 0 0.2020505436609 0.39402260714732518 0 0.2020505436609 0.39402260714732518 0 0.2114865204208741 0.41168757235457187 0 0.1935859574930647 0.41056849932104611 0 0.18317065430436091 0.39861097465200068 0 0.2020505436609 0.39402260714732518 0 0.1935859574930647 0.41056849932104611 0 0.18317065430436091 0.39861097465200068 0 0.1848198924194274 0.38080700813970753 0 0.2020505436609 0.39402260714732518 0 0.2020505436609 0.39402260714732518 0 0.2164818011818298 0.3982252972970528 0 0.2216619232613202 0.3840439012145509 0 0.2020505436609 0.39402260714732518 0 0.2164818011818298 0.3982252972970528 0 0.2114865204208741 0.41168757235457187 0 0.20130621932069981 0.37849211466451083 0 0.2020505436609 0.39402260714732518 0 0.2216619232613202 0.3840439012145509 0 0.21124290918089669 0.36902174200290988 0 0.20130621932069981 0.37849211466451083 0 0.2216619232613202 0.3840439012145509 0 0.22378702633255129 0.36977092368666448 0 0.2216619232613202 0.3840439012145509 0 0.23954842787757011 0.37538452625367691 0 0.2216619232613202 0.3840439012145509 0 0.23954842787757011 0.37538452625367691 0 0.2216619232613202 0.3840439012145509 0 0.23541851748044371 0.38965648586110541 0 0.23954842787757011 0.37538452625367691 0 0.2164818011818298 0.3982252972970528 0 0.2216619232613202 0.3840439012145509 0 0.23072821738422489 0.40314710847176333 0 0.2164818011818298 0.3982252972970528 0 0.23072821738422489 0.40314710847176333 0 0.2114865204208741 0.41168757235457187 0 0.2216619232613202 0.3840439012145509 0 0.23072821738422489 0.40314710847176333 0 0.23541851748044371 0.38965648586110541 0 0.23072821738422489 0.40314710847176333 0 0.23541851748044371 0.38965648586110541 0 0.25760275028212959 0.39795890236783132 0 0.23954842787757011 0.37538452625367691 0 0.25760275028212959 0.39795890236783132 0 0.23541851748044371 0.38965648586110541 0 0.23954842787757011 0.37538452625367691 0 0.25760275028212959 0.39795890236783132 0 0.249664918390469 0.41885428452132961 0 0.22608982636559549 0.42390434166137742 0 0.24049441614698031 0.43807453436844018 0 0.23072821738422489 0.40314710847176333 0 0.249664918390469 0.41885428452132961 0 0.22608982636559549 0.42390434166137742 0 0.23072821738422489 0.40314710847176333 0 0.249664918390469 0.41885428452132961 0 0.25760275028212959 0.39795890236783132 0 0.23072821738422489 0.40314710847176333 0 0.22608982636559549 0.42390434166137742 0 0.2114865204208741 0.41168757235457187 0 0.22608982636559549 0.42390434166137742 0 0.21451712649945459 0.44046813307317317 0 0.24049441614698031 0.43807453436844018 0 0.22608982636559549 0.42390434166137742 0 0.21324088293056451 0.42589764813749381 0 0.21451712649945459 0.44046813307317317 0 0.21324088293056451 0.42589764813749381 0 0.20087005843633371 0.42753054546085251 0 0.21451712649945459 0.44046813307317317 0 0.21324088293056451 0.42589764813749381 0 0.2114865204208741 0.41168757235457187 0 0.20087005843633371 0.42753054546085251 0 0.22608982636559549 0.42390434166137742 0 0.21324088293056451 0.42589764813749381 0 0.2114865204208741 0.41168757235457187 0 0.183049794990161 0.42152539345154061 0 0.1935859574930647 0.41056849932104611 0 0.20087005843633371 0.42753054546085251 0 0.2114865204208741 0.41168757235457187 0 0.1935859574930647 0.41056849932104611 0 0.20087005843633371 0.42753054546085251 0 0.20087005843633371 0.42753054546085251 0 0.18853983685192879 0.442861731777906 0 0.21451712649945459 0.44046813307317317 0 0.183049794990161 0.42152539345154061 0 0.20087005843633371 0.42753054546085251 0 0.18948999777144421 0.43052459325352888 0 0.20087005843633371 0.42753054546085251 0 0.18948999777144421 0.43052459325352888 0 0.18853983685192879 0.442861731777906 0 0.18853983685192879 0.442861731777906 0 0.19607538229148161 0.46125591422686241 0 0.20518215233470921 0.4474286005901319 0 0.18853983685192879 0.442861731777906 0 0.20518215233470921 0.4474286005901319 0 0.21451712649945459 0.44046813307317317 0 0.18853983685192879 0.442861731777906 0 0.20518215233470921 0.4474286005901319 0 0.18853983685192879 0.442861731777906 0 0.21451712649945459 0.44046813307317317 0 0.18853983685192879 0.442861731777906 0 0.19607538229148161 0.46125591422686241 0 0.1794923257824661 0.4647696713538233 0 0.19607538229148161 0.46125591422686241 0 0.19186302501162861 0.48014168750942993 0 0.1794923257824661 0.4647696713538233 0 0.21152643653024569 0.46113780261077242 0 0.20518215233470921 0.4474286005901319 0 0.22182446781748971 0.4519954694023578 0 0.19607538229148161 0.46125591422686241 0 0.21152643653024569 0.46113780261077242 0 0.21096092129919891 0.47617247275391261 0 0.19607538229148161 0.46125591422686241 0 0.21152643653024569 0.46113780261077242 0 0.20518215233470921 0.4474286005901319 0 0.20518215233470921 0.4474286005901319 0 0.22182446781748971 0.4519954694023578 0 0.20518215233470921 0.4474286005901319 0 0.21451712649945459 0.44046813307317317 0 0.22182446781748971 0.4519954694023578 0 0.21451712649945459 0.44046813307317317 0 0.24049441614698031 0.43807453436844018 0 0.21451712649945459 0.44046813307317317 0 0.22182446781748971 0.4519954694023578 0 0.24049441614698031 0.43807453436844018 0 0.22182446781748971 0.4519954694023578 0 0.24144574914751671 0.46045028638385871 0 0.22545269902510651 0.47048943885734379 0 0.21152643653024569 0.46113780261077242 0 0.22182446781748971 0.4519954694023578 0 0.22545269902510651 0.47048943885734379 0 0.22182446781748971 0.4519954694023578 0 0.24144574914751671 0.46045028638385871 0 0.24049441614698031 0.43807453436844018 0 0.24144574914751671 0.46045028638385871 0 0.24049441614698031 0.43807453436844018 0 0.26156886804988699 0.45515437769281569 0 0.23727503317853299 0.5 0 0.2335060539263234 0.48752864197054502 0 0.25066702592345969 0.48978915785424237 0 0.2335060539263234 0.48752864197054502 0 0.25686517310687201 0.47505728394109348 0 0.2335060539263234 0.48752864197054502 0 0.25686517310687201 0.47505728394109348 0 0.25066702592345969 0.48978915785424237 0 0.24144574914751671 0.46045028638385871 0 0.2335060539263234 0.48752864197054502 0 0.25686517310687201 0.47505728394109348 0 0.24144574914751671 0.46045028638385871 0 0.22545269902510651 0.47048943885734379 0 0.2335060539263234 0.48752864197054502 0 0.22545269902510651 0.47048943885734379 0 0.2335060539263234 0.48752864197054502 0 0.21096092129919891 0.47617247275391261 0 0.23727503317853299 0.5 0 0.2335060539263234 0.48752864197054502 0 0.21014693474577559 0.499999999999998 0 0.2335060539263234 0.48752864197054502 0 0.21014693474577559 0.499999999999998 0 0.21014693474577559 0.499999999999998 0 0.21096092129919891 0.47617247275391261 0 0.19186302501162861 0.48014168750942993 0 0.2335060539263234 0.48752864197054502 0 0.21014693474577559 0.499999999999998 0 0.21096092129919891 0.47617247275391261 0 0.21152643653024569 0.46113780261077242 0 0.22545269902510651 0.47048943885734379 0 0.21096092129919891 0.47617247275391261 0 0.19607538229148161 0.46125591422686241 0 0.21096092129919891 0.47617247275391261 0 0.19186302501162861 0.48014168750942993 0 0.21014693474577559 0.499999999999998 0 0.19186302501162861 0.48014168750942993 0 0.1806460965059237 0.5 0 0.19186302501162861 0.48014168750942993 0 0.1806460965059237 0.5 0 0.17239470934243789 0.48332069708503739 0 0.1806460965059237 0.5 0 0.17239470934243789 0.48332069708503739 0 0.15114525826607181 0.5 0 0.1588268411460993 0.47169212656193399 0 0.17239470934243789 0.48332069708503739 0 0.15114525826607181 0.5 0 0.1588268411460993 0.47169212656193399 0 0.17239470934243789 0.48332069708503739 0 0.1794923257824661 0.4647696713538233 0 0.19186302501162861 0.48014168750942993 0 0.17239470934243789 0.48332069708503739 0 0.1794923257824661 0.4647696713538233 0 0.18853983685192879 0.442861731777906 0 0.1794923257824661 0.4647696713538233 0 0.16966566362572011 0.4567067085879235 0 0.18853983685192879 0.442861731777906 0 0.16718629681014241 0.44482928907425973 0 0.18853983685192879 0.442861731777906 0 0.16718629681014241 0.44482928907425973 0 0.16966566362572011 0.4567067085879235 0 0.16743877635997981 0.43707132507847268 0 0.18853983685192879 0.442861731777906 0 0.16718629681014241 0.44482928907425973 0 0.16743877635997981 0.43707132507847268 0 0.18853983685192879 0.442861731777906 0 0.16718629681014241 0.44482928907425973 0 0.15678757522570769 0.45651508101715771 0 0.145832756768356 0.44679684637061329 0 0.16718629681014241 0.44482928907425973 0 0.145832756768356 0.44679684637061329 0 0.16718629681014241 0.44482928907425973 0 0.1563701039271147 0.44028281500577982 0 0.145832756768356 0.44679684637061329 0 0.16718629681014241 0.44482928907425973 0 0.16966566362572011 0.4567067085879235 0 0.15678757522570769 0.45651508101715771 0 0.16743877635997981 0.43707132507847268 0 0.16718629681014241 0.44482928907425973 0 0.1563701039271147 0.44028281500577982 0 0.1588268411460993 0.47169212656193399 0 0.1794923257824661 0.4647696713538233 0 0.16966566362572011 0.4567067085879235 0 0.1588268411460993 0.47169212656193399 0 0.16966566362572011 0.4567067085879235 0 0.15678757522570769 0.45651508101715771 0 0.14277660321904501 0.46289523972736307 0 0.145832756768356 0.44679684637061329 0 0.1348959668822616 0.45586317122673459 0 0.15678757522570769 0.45651508101715771 0 0.14277660321904501 0.46289523972736307 0 0.145832756768356 0.44679684637061329 0 0.1588268411460993 0.47169212656193399 0 0.15678757522570769 0.45651508101715771 0 0.14277660321904501 0.46289523972736307 0 0.14633771586803079 0.43128091837903942 0 0.1563701039271147 0.44028281500577982 0 0.145832756768356 0.44679684637061329 0 0.14633771586803079 0.43128091837903942 0 0.145832756768356 0.44679684637061329 0 0.13541666947638001 0.43772783466698861 0 0.1244792167265696 0.44876440366696702 0 0.145832756768356 0.44679684637061329 0 0.13541666947638001 0.43772783466698861 0 0.1244792167265696 0.44876440366696702 0 0.145832756768356 0.44679684637061329 0 0.1244792167265696 0.44876440366696702 0 0.145832756768356 0.44679684637061329 0 0.1348959668822616 0.45586317122673459 0 0.1244792167265696 0.44876440366696702 0 0.12692561954430451 0.43414889707916138 0 0.13541666947638001 0.43772783466698861 0 0.1244792167265696 0.44876440366696702 0 0.1348959668822616 0.45586317122673459 0 0.12649529081507571 0.46499619514199553 0 0.14277660321904501 0.46289523972736307 0 0.1348959668822616 0.45586317122673459 0 0.12649529081507571 0.46499619514199553 0 0.1188445563734884 0.4810771424510617 0 0.12649529081507571 0.46499619514199553 0 0.1374803306313748 0.48344169709916041 0 0.14277660321904501 0.46289523972736307 0 0.12649529081507571 0.46499619514199553 0 0.1374803306313748 0.48344169709916041 0 0.12164442002622 0.5 0 0.1188445563734884 0.4810771424510617 0 0.1374803306313748 0.48344169709916041 0 0.12164442002622 0.5 0 0.1374803306313748 0.48344169709916041 0 0.15114525826607181 0.5 0 0.1588268411460993 0.47169212656193399 0 0.1374803306313748 0.48344169709916041 0 0.15114525826607181 0.5 0 0.1588268411460993 0.47169212656193399 0 0.14277660321904501 0.46289523972736307 0 0.1374803306313748 0.48344169709916041 0 0.34394174324725391 0.48443166937527088 0 0.37205666451988589 0.48225009470308772 0 0.35734844249818309 0.467724772570495 0 0.34394174324725391 0.48443166937527088 0 0.35781484602829738 0.5 0 0.37205666451988589 0.48225009470308772 0 0.34394174324725391 0.48443166937527088 0 0.35781484602829738 0.5 0 0.33109524182359079 0.5 0 0.35781484602829738 0.5 0 0.37205666451988589 0.48225009470308772 0 0.38453445023300409 0.50000000000000144 0 0.37205666451988589 0.48225009470308772 0 0.35734844249818309 0.467724772570495 0 0.38570818617695768 0.46418111535248979 0 0.37033912320150092 0.45446506759063438 0 0.35734844249818309 0.467724772570495 0 0.38570818617695768 0.46418111535248979 0 0.35734844249818309 0.467724772570495 0 0.38570818617695768 0.46418111535248979 0 0.37033912320150092 0.45446506759063438 0 0.35078000614205029 0.4442358064471213 0 0.35734844249818309 0.467724772570495 0 0.37033912320150092 0.45446506759063438 0 0.35078000614205029 0.4442358064471213 0 0.37503047248596738 0.43900391469939892 0 0.35078000614205029 0.4442358064471213 0 0.35734844249818309 0.467724772570495 0 0.34005731709052989 0.45739982389161299 0 0.35734844249818309 0.467724772570495 0 0.34005731709052989 0.45739982389161299 0 0.32898869881940851 0.4712684297885002 0 0.34005731709052989 0.45739982389161299 0 0.32955355007011161 0.44309865546606969 0 0.31509125260537257 0.45895537123628699 0 0.35078000614205029 0.4442358064471213 0 0.34005731709052989 0.45739982389161299 0 0.32955355007011161 0.44309865546606969 0 0.32955355007011161 0.44309865546606969 0 0.31509125260537257 0.45895537123628699 0 0.3043547669791824 0.44609653335727711 0 0.32955355007011161 0.44309865546606969 0 0.3043547669791824 0.44609653335727711 0 0.31328775917448692 0.42747544266054088 0 0.32955355007011161 0.44309865546606969 0 0.31509125260537257 0.45895537123628699 0 0.34005731709052989 0.45739982389161299 0 0.31509125260537257 0.45895537123628699 0 0.32898869881940851 0.4712684297885002 0 0.31509125260537257 0.45895537123628699 0 0.32898869881940851 0.4712684297885002 0 0.30062895514063398 0.47481208700650479 0 0.32898869881940851 0.4712684297885002 0 0.31634656579415749 0.48534671918954331 0 0.30062895514063398 0.47481208700650479 0 0.32898869881940851 0.4712684297885002 0 0.30062895514063398 0.47481208700650479 0 0.35734844249818309 0.467724772570495 0 0.32898869881940851 0.4712684297885002 0 0.34394174324725391 0.48443166937527088 0 0.35734844249818309 0.467724772570495 0 0.32898869881940851 0.4712684297885002 0 0.34394174324725391 0.48443166937527088 0 0.32898869881940851 0.4712684297885002 0 0.31634656579415749 0.48534671918954331 0 0.34394174324725391 0.48443166937527088 0 0.33109524182359079 0.5 0 0.31634656579415749 0.48534671918954331 0 0.33109524182359079 0.5 0 0.31634656579415749 0.48534671918954331 0 0.30437563761888409 0.5 0 0.31634656579415749 0.48534671918954331 0 0.30241379335465007 0.48706434037057661 0 0.30437563761888409 0.5 0 0.30241379335465007 0.48706434037057661 0 0.30437563761888409 0.5 0 0.28914249427740518 0.48740604350325162 0 0.31634656579415749 0.48534671918954331 0 0.30241379335465007 0.48706434037057661 0 0.30062895514063398 0.47481208700650479 0 0.30241379335465007 0.48706434037057661 0 0.30062895514063398 0.47481208700650479 0 0.28914249427740518 0.48740604350325162 0 0.30062895514063398 0.47481208700650479 0 0.27829900425280418 0.47760229881298882 0 0.29026462433848332 0.46698115712128663 0 0.30062895514063398 0.47481208700650479 0 0.27829900425280418 0.47760229881298882 0 0.30062895514063398 0.47481208700650479 0 0.28914249427740518 0.48740604350325162 0 0.27829900425280418 0.47760229881298882 0 0.30062895514063398 0.47481208700650479 0 0.28914249427740518 0.48740604350325162 0 0.28914249427740518 0.48740604350325162 0 0.27983871112573061 0.48679792249185599 0 0.27829900425280418 0.47760229881298882 0 0.27829900425280418 0.47760229881298882 0 0.28022429228742107 0.46258592591164288 0 0.29026462433848332 0.46698115712128663 0 0.30437563761888409 0.5 0 0.28914249427740518 0.48740604350325162 0 0.27765603341417727 0.49999999999999911 0 0.28914249427740518 0.48740604350325162 0 0.27765603341417727 0.49999999999999911 0 0.27983871112573061 0.48679792249185599 0 0.28914249427740518 0.48740604350325162 0 0.27765603341417727 0.49999999999999911 0 0.27231371194935511 0.4812929629558178 0 0.26440313161129048 0.49999999999999323 0 0.27983871112573061 0.48679792249185599 0 0.27231371194935511 0.4812929629558178 0 0.26440313161129048 0.49999999999999323 0 0.27231371194935511 0.4812929629558178 0 0.26440313161129048 0.49999999999999323 0 0.26106226064774429 0.4865348511877885 0 0.27765603341417727 0.49999999999999911 0 0.27983871112573061 0.48679792249185599 0 0.26440313161129048 0.49999999999999323 0 0.27231371194935511 0.4812929629558178 0 0.28022429228742107 0.46258592591164288 0 0.25686517310687201 0.47505728394109348 0 0.28022429228742107 0.46258592591164288 0 0.27231371194935511 0.4812929629558178 0 0.25686517310687201 0.47505728394109348 0 0.28022429228742107 0.46258592591164288 0 0.27983871112573061 0.48679792249185599 0 0.27829900425280418 0.47760229881298882 0 0.27231371194935511 0.4812929629558178 0 0.27829900425280418 0.47760229881298882 0 0.27231371194935511 0.4812929629558178 0 0.28022429228742107 0.46258592591164288 0 0.27231371194935511 0.4812929629558178 0 0.25686517310687201 0.47505728394109348 0 0.26106226064774429 0.4865348511877885 0 0.25686517310687201 0.47505728394109348 0 0.25066702592345969 0.48978915785424237 0 0.26106226064774429 0.4865348511877885 0 0.23727503317853299 0.5 0 0.25066702592345969 0.48978915785424237 0 0.26440313161129048 0.49999999999999323 0 0.25066702592345969 0.48978915785424237 0 0.26440313161129048 0.49999999999999323 0 0.26106226064774429 0.4865348511877885 0 0.24049441614698031 0.43807453436844018 0 0.26156886804988699 0.45515437769281569 0 0.26647170579450608 0.43568093566370741 0 0.24144574914751671 0.46045028638385871 0 0.25686517310687201 0.47505728394109348 0 0.26156886804988699 0.45515437769281569 0 0.25686517310687201 0.47505728394109348 0 0.26156886804988699 0.45515437769281569 0 0.28022429228742107 0.46258592591164288 0 0.26156886804988699 0.45515437769281569 0 0.28022429228742107 0.46258592591164288 0 0.27505734307825791 0.44706094097702742 0 0.26156886804988699 0.45515437769281569 0 0.27505734307825791 0.44706094097702742 0 0.26647170579450608 0.43568093566370741 0 0.27505734307825791 0.44706094097702742 0 0.29196450618121778 0.43482252463994431 0 0.26647170579450608 0.43568093566370741 0 0.28022429228742107 0.46258592591164288 0 0.29134442747717348 0.45664892177140071 0 0.29196450618121778 0.43482252463994431 0 0.29134442747717348 0.45664892177140071 0 0.3043547669791824 0.44609653335727711 0 0.29196450618121778 0.43482252463994431 0 0.28022429228742107 0.46258592591164288 0 0.29196450618121778 0.43482252463994431 0 0.28022429228742107 0.46258592591164288 0 0.27505734307825791 0.44706094097702742 0 0.29196450618121778 0.43482252463994431 0 0.28022429228742107 0.46258592591164288 0 0.29134442747717348 0.45664892177140071 0 0.29026462433848332 0.46698115712128663 0 0.28022429228742107 0.46258592591164288 0 0.29134442747717348 0.45664892177140071 0 0.29134442747717348 0.45664892177140071 0 0.29026462433848332 0.46698115712128663 0 0.30047670165851642 0.46142959638579278 0 0.31509125260537257 0.45895537123628699 0 0.30062895514063398 0.47481208700650479 0 0.31509125260537257 0.45895537123628699 0 0.30062895514063398 0.47481208700650479 0 0.30047670165851642 0.46142959638579278 0 0.30062895514063398 0.47481208700650479 0 0.29026462433848332 0.46698115712128663 0 0.30047670165851642 0.46142959638579278 0 0.29134442747717348 0.45664892177140071 0 0.30047670165851642 0.46142959638579278 0 0.3043547669791824 0.44609653335727711 0 0.31509125260537257 0.45895537123628699 0 0.30047670165851642 0.46142959638579278 0 0.3043547669791824 0.44609653335727711 0 0.3043547669791824 0.44609653335727711 0 0.29196450618121778 0.43482252463994431 0 0.31328775917448692 0.42747544266054088 0 0.30370472007501348 0.40705912336824512 0 0.29196450618121778 0.43482252463994431 0 0.31328775917448692 0.42747544266054088 0 0.30370472007501348 0.40705912336824512 0 0.29196450618121778 0.43482252463994431 0 0.30370472007501348 0.40705912336824512 0 0.29196450618121778 0.43482252463994431 0 0.27660259436937767 0.41435988459485812 0 0.29196450618121778 0.43482252463994431 0 0.26647170579450608 0.43568093566370741 0 0.27660259436937767 0.41435988459485812 0 0.249664918390469 0.41885428452132961 0 0.27660259436937767 0.41435988459485812 0 0.25760275028212959 0.39795890236783132 0 0.24049441614698031 0.43807453436844018 0 0.26647170579450608 0.43568093566370741 0 0.249664918390469 0.41885428452132961 0 0.26647170579450608 0.43568093566370741 0 0.27660259436937767 0.41435988459485812 0 0.249664918390469 0.41885428452132961 0 0.24049441614698031 0.43807453436844018 0 0.26647170579450608 0.43568093566370741 0 0.23954842787757011 0.37538452625367691 0 0.25760275028212959 0.39795890236783132 0 0.27008973314490009 0.38228030472619468 0 0.27660259436937767 0.41435988459485812 0 0.25760275028212959 0.39795890236783132 0 0.28622360980836897 0.39610276231258462 0 0.25760275028212959 0.39795890236783132 0 0.27008973314490009 0.38228030472619468 0 0.28622360980836897 0.39610276231258462 0 0.27008973314490009 0.38228030472619468 0 0.28948671770656947 0.37950321012031513 0 0.28316249301481278 0.36807146214856878 0 0.28948671770656947 0.37950321012031513 0 0.28622360980836897 0.39610276231258462 0 0.30786798722070458 0.38749277490555789 0 0.27008973314490009 0.38228030472619468 0 0.28948671770656947 0.37950321012031513 0 0.28622360980836897 0.39610276231258462 0 0.30370472007501348 0.40705912336824512 0 0.27660259436937767 0.41435988459485812 0 0.28622360980836897 0.39610276231258462 0 0.30370472007501348 0.40705912336824512 0 0.28622360980836897 0.39610276231258462 0 0.30786798722070458 0.38749277490555789 0 0.30786798722070458 0.38749277490555789 0 0.31703334186827009 0.37217889892944389 0 0.30093254887773457 0.36899357797025362 0 0.28948671770656947 0.37950321012031513 0 0.30786798722070458 0.38749277490555789 0 0.30093254887773457 0.36899357797025362 0 0.30786798722070458 0.38749277490555789 0 0.33067263988671391 0.38470307031506518 0 0.31703334186827009 0.37217889892944389 0 0.33067263988671391 0.38470307031506518 0 0.35143258086070489 0.37478306660707228 0 0.33461383391697719 0.36557534364129152 0 0.33067263988671391 0.38470307031506518 0 0.34519550230709728 0.40017105677672538 0 0.35143258086070489 0.37478306660707228 0 0.33067263988671391 0.38470307031506518 0 0.32719413349782811 0.4057307359448728 0 0.34519550230709728 0.40017105677672538 0 0.30786798722070458 0.38749277490555789 0 0.33067263988671391 0.38470307031506518 0 0.32719413349782811 0.4057307359448728 0 0.30370472007501348 0.40705912336824512 0 0.30786798722070458 0.38749277490555789 0 0.32719413349782811 0.4057307359448728 0 0.32719413349782811 0.4057307359448728 0 0.31328775917448692 0.42747544266054088 0 0.33208879326094243 0.42418013305942842 0 0.30370472007501348 0.40705912336824512 0 0.32719413349782811 0.4057307359448728 0 0.31328775917448692 0.42747544266054088 0 0.32955355007011161 0.44309865546606969 0 0.31328775917448692 0.42747544266054088 0 0.33208879326094243 0.42418013305942842 0 0.35078000614205029 0.4442358064471213 0 0.32955355007011161 0.44309865546606969 0 0.33208879326094243 0.42418013305942842 0 0.32719413349782811 0.4057307359448728 0 0.33208879326094243 0.42418013305942842 0 0.35111230299189777 0.42236732532213589 0 0.32719413349782811 0.4057307359448728 0 0.35111230299189777 0.42236732532213589 0 0.34519550230709728 0.40017105677672538 0 0.32719413349782811 0.4057307359448728 0 0.35111230299189777 0.42236732532213589 0 0.35078000614205029 0.4442358064471213 0 0.35111230299189777 0.42236732532213589 0 0.37503047248596738 0.43900391469939892 0 0.35078000614205029 0.4442358064471213 0 0.33208879326094243 0.42418013305942842 0 0.35111230299189777 0.42236732532213589 0 0.35111230299189777 0.42236732532213589 0 0.37503047248596738 0.43900391469939892 0 0.35111230299189777 0.42236732532213589 0 0.37519061142037119 0.41521178534186709 0 0.37503047248596738 0.43900391469939892 0 0.35111230299189777 0.42236732532213589 0 0.3633115961405381 0.39499742597446968 0 0.37519061142037119 0.41521178534186709 0 0.3633115961405381 0.39499742597446968 0 0.37519061142037119 0.41521178534186709 0 0.3633115961405381 0.39499742597446968 0 0.35143258086070489 0.37478306660707228 0 0.37495861409371878 0.37289021742063772 0 0.3633115961405381 0.39499742597446968 0 0.34519550230709728 0.40017105677672538 0 0.35143258086070489 0.37478306660707228 0 0.3633115961405381 0.39499742597446968 0 0.35143258086070489 0.37478306660707228 0 0.35111230299189777 0.42236732532213589 0 0.3633115961405381 0.39499742597446968 0 0.34519550230709728 0.40017105677672538 0 0.35579067708903678 0.35813876275007678 0 0.36031554495004042 0.33723878377190941 0 0.33618707517536961 0.34690239431174102 0 0.35579067708903678 0.35813876275007678 0 0.35143258086070489 0.37478306660707228 0 0.33461383391697719 0.36557534364129152 0 0.35579067708903678 0.35813876275007678 0 0.35143258086070489 0.37478306660707228 0 0.37495861409371878 0.37289021742063772 0 0.35579067708903678 0.35813876275007678 0 0.37495861409371878 0.37289021742063772 0 0.37081372906369509 0.34986981094033642 0 0.35579067708903678 0.35813876275007678 0 0.37081372906369509 0.34986981094033642 0 0.36031554495004042 0.33723878377190941 0 0.37081372906369509 0.34986981094033642 0 0.36031554495004042 0.33723878377190941 0 0.38424968400338738 0.3316139944449592 0 0.36031554495004042 0.33723878377190941 0 0.37031428495499058 0.31207698725667588 0 0.38424968400338738 0.3316139944449592 0 0.34416111353950662 0.32473849505607633 0 0.37031428495499058 0.31207698725667588 0 0.36031554495004042 0.33723878377190941 0 0.34416111353950662 0.32473849505607633 0 0.37031428495499058 0.31207698725667588 0 0.36031554495004042 0.33723878377190941 0 0.34416111353950662 0.32473849505607633 0 0.33618707517536961 0.34690239431174102 0 0.34416111353950662 0.32473849505607633 0 0.31800794212402261 0.33740000285547672 0 0.34416111353950662 0.32473849505607633 0 0.31800794212402261 0.33740000285547672 0 0.33618707517536961 0.34690239431174102 0 0.34416111353950662 0.32473849505607633 0 0.31800794212402261 0.33740000285547672 0 0.32820694339049022 0.30850931988413011 0 0.30392019825783878 0.32072734359046873 0 0.32820694339049022 0.30850931988413011 0 0.31800794212402261 0.33740000285547672 0 0.30392019825783878 0.32072734359046873 0 0.32820694339049022 0.30850931988413011 0 0.31800794212402261 0.33740000285547672 0 0.31618998274751231 0.35665361106275922 0 0.33618707517536961 0.34690239431174102 0 0.35579067708903678 0.35813876275007678 0 0.33618707517536961 0.34690239431174102 0 0.33461383391697719 0.36557534364129152 0 0.31618998274751231 0.35665361106275922 0 0.33618707517536961 0.34690239431174102 0 0.33461383391697719 0.36557534364129152 0 0.33067263988671391 0.38470307031506518 0 0.33461383391697719 0.36557534364129152 0 0.31703334186827009 0.37217889892944389 0 0.31618998274751231 0.35665361106275922 0 0.33461383391697719 0.36557534364129152 0 0.31703334186827009 0.37217889892944389 0 0.31618998274751231 0.35665361106275922 0 0.31703334186827009 0.37217889892944389 0 0.30093254887773457 0.36899357797025362 0 0.31618998274751231 0.35665361106275922 0 0.30093254887773457 0.36899357797025362 0 0.2918547707085386 0.35006151065487701 0 0.31800794212402261 0.33740000285547672 0 0.31618998274751231 0.35665361106275922 0 0.2918547707085386 0.35006151065487701 0 0.30093254887773457 0.36899357797025362 0 0.2918547707085386 0.35006151065487701 0 0.28316249301481278 0.36807146214856878 0 0.28948671770656947 0.37950321012031513 0 0.30093254887773457 0.36899357797025362 0 0.28316249301481278 0.36807146214856878 0 0.2918547707085386 0.35006151065487701 0 0.28316249301481278 0.36807146214856878 0 0.26570159929305448 0.3627230184542774 0 0.27008973314490009 0.38228030472619468 0 0.28316249301481278 0.36807146214856878 0 0.26570159929305448 0.3627230184542774 0 0.2918547707085386 0.35006151065487701 0 0.26570159929305448 0.3627230184542774 0 0.2716728603048737 0.34736882574780992 0 0.2918547707085386 0.35006151065487701 0 0.26570159929305448 0.3627230184542774 0 0.26570159929305448 0.3627230184542774 0 0.2716728603048737 0.34736882574780992 0 0.25534670799253578 0.34516339100314619 0 0.2479141745057612 0.36016308760514631 0 0.26570159929305448 0.3627230184542774 0 0.25534670799253578 0.34516339100314619 0 0.23954842787757011 0.37538452625367691 0 0.26570159929305448 0.3627230184542774 0 0.23954842787757011 0.37538452625367691 0 0.27008973314490009 0.38228030472619468 0 0.26570159929305448 0.3627230184542774 0 0.2479141745057612 0.36016308760514631 0 0.23954842787757011 0.37538452625367691 0 0.26570159929305448 0.3627230184542774 0 0.25534670799253578 0.34516339100314619 0 0.25907630987568092 0.32316517518123561 0 0.27963345312518728 0.33294536729680752 0 0.2918547707085386 0.35006151065487701 0 0.2716728603048737 0.34736882574780992 0 0.27963345312518728 0.33294536729680752 0 0.25534670799253578 0.34516339100314619 0 0.27963345312518728 0.33294536729680752 0 0.2716728603048737 0.34736882574780992 0 0.25534670799253578 0.34516339100314619 0 0.27963345312518728 0.33294536729680752 0 0.25907630987568092 0.32316517518123561 0 0.27963345312518728 0.33294536729680752 0 0.28328423457980878 0.30802690598796412 0 0.27963345312518728 0.33294536729680752 0 0.30392019825783878 0.32072734359046873 0 0.27963345312518728 0.33294536729680752 0 0.30392019825783878 0.32072734359046873 0 0.28328423457980878 0.30802690598796412 0 0.2918547707085386 0.35006151065487701 0 0.27963345312518728 0.33294536729680752 0 0.30392019825783878 0.32072734359046873 0 0.31800794212402261 0.33740000285547672 0 0.2918547707085386 0.35006151065487701 0 0.30392019825783878 0.32072734359046873 0 0.31800794212402261 0.33740000285547672 0 0.2918547707085386 0.35006151065487701 0 0.30392019825783878 0.32072734359046873 0 0.30738249338640578 0.30267855074496941 0 0.28328423457980878 0.30802690598796412 0 0.30738249338640578 0.30267855074496941 0 0.29884909468360382 0.28604130033717262 0 0.3226519960202871 0.2900878839251117 0 0.29884909468360382 0.28604130033717262 0 0.28328423457980878 0.30802690598796412 0 0.27208777776336729 0.28438371028858023 0 0.30738249338640578 0.30267855074496941 0 0.29884909468360382 0.28604130033717262 0 0.28328423457980878 0.30802690598796412 0 0.25907630987568092 0.32316517518123561 0 0.28328423457980878 0.30802690598796412 0 0.25728752406865391 0.30295120601186809 0 0.28328423457980878 0.30802690598796412 0 0.27208777776336729 0.28438371028858023 0 0.25728752406865391 0.30295120601186809 0 0.24122639441773891 0.28625879088204892 0 0.27208777776336729 0.28438371028858023 0 0.25728752406865391 0.30295120601186809 0 0.23874482156995211 0.31002984586363408 0 0.25907630987568092 0.32316517518123561 0 0.25728752406865391 0.30295120601186809 0 0.24122639441773891 0.28625879088204892 0 0.27208777776336729 0.28438371028858023 0 0.25348366299370251 0.26496177753465527 0 0.27208777776336729 0.28438371028858023 0 0.25348366299370251 0.26496177753465527 0 0.28262105895731299 0.26216868327935883 0 0.25348366299370251 0.26496177753465527 0 0.28262105895731299 0.26216868327935883 0 0.25348366299370251 0.26496177753465527 0 0.28262105895731299 0.26216868327935883 0 0.26137503399989398 0.2431877453960484 0 0.28262105895731299 0.26216868327935883 0 0.31175845492092352 0.25937558902406233 0 0.28307155973224662 0.24136411220901249 0 0.29884909468360382 0.28604130033717262 0 0.27208777776336729 0.28438371028858023 0 0.28262105895731299 0.26216868327935883 0 0.29884909468360382 0.28604130033717262 0 0.31175845492092352 0.25937558902406233 0 0.3226519960202871 0.2900878839251117 0 0.29884909468360382 0.28604130033717262 0 0.28262105895731299 0.26216868327935883 0 0.31175845492092352 0.25937558902406233 0 0.28262105895731299 0.26216868327935883 0 0.31175845492092352 0.25937558902406233 0 0.31175845492092352 0.25937558902406233 0 0.33869566701828369 0.27696178757034662 0 0.34120334275359859 0.24952302012845881 0 0.31175845492092352 0.25937558902406233 0 0.33869566701828369 0.27696178757034662 0 0.3226519960202871 0.2900878839251117 0 0.30392019825783878 0.32072734359046873 0 0.30738249338640578 0.30267855074496941 0 0.32820694339049022 0.30850931988413011 0 0.30738249338640578 0.30267855074496941 0 0.3226519960202871 0.2900878839251117 0 0.32820694339049022 0.30850931988413011 0 0.34416111353950662 0.32473849505607633 0 0.32820694339049022 0.30850931988413011 0 0.34788274556315041 0.29870400867873881 0 0.3226519960202871 0.2900878839251117 0 0.32820694339049022 0.30850931988413011 0 0.34788274556315041 0.29870400867873881 0 0.33869566701828369 0.27696178757034662 0 0.3226519960202871 0.2900878839251117 0 0.34788274556315041 0.29870400867873881 0 0.34788274556315041 0.29870400867873881 0 0.37031428495499058 0.31207698725667588 0 0.36963965244617708 0.28025570089278118 0 0.33869566701828369 0.27696178757034662 0 0.34788274556315041 0.29870400867873881 0 0.36963965244617708 0.28025570089278118 0 0.34416111353950662 0.32473849505607633 0 0.34788274556315041 0.29870400867873881 0 0.37031428495499058 0.31207698725667588 0 0.36963965244617708 0.28025570089278118 0 0.35760099761850778 0.2615930995031388 0 0.38047561886082559 0.25290209541945968 0 0.35760099761850778 0.2615930995031388 0 0.38047561886082559 0.25290209541945968 0 0.36403565509757702 0.240127612042288 0 0.35760099761850778 0.2615930995031388 0 0.34120334275359859 0.24952302012845881 0 0.36403565509757702 0.240127612042288 0 0.33869566701828369 0.27696178757034662 0 0.35760099761850778 0.2615930995031388 0 0.34120334275359859 0.24952302012845881 0 0.33869566701828369 0.27696178757034662 0 0.36963965244617708 0.28025570089278118 0 0.35760099761850778 0.2615930995031388 0 0.36963965244617708 0.28025570089278118 0 0.40242443404331629 0.26870077314858892 0 0.38047561886082559 0.25290209541945968 0 0.40242443404331629 0.26870077314858892 0 0.38047561886082559 0.25290209541945968 0 0.39996680172052312 0.24480030614595971 0 0.36963965244617708 0.28025570089278118 0 0.38047561886082559 0.25290209541945968 0 0.36963965244617708 0.28025570089278118 0 0.40242443404331629 0.26870077314858892 0 0.39646745637047459 0.29941547945727548 0 0.37031428495499058 0.31207698725667588 0 0.36963965244617708 0.28025570089278118 0 0.39646745637047459 0.29941547945727548 0 0.37031428495499058 0.31207698725667588 0 0.39646745637047459 0.29941547945727548 0 0.42262062778595882 0.28675397165787508 0 0.4460900380664411 0.29611096545750648 0 0.43717992930965688 0.32034088031875851 0 0.42262062778595882 0.28675397165787508 0 0.43717992930965688 0.32034088031875851 0 0.41051003933776259 0.32146217229415669 0 0.40242443404331629 0.26870077314858892 0 0.39646745637047459 0.29941547945727548 0 0.42262062778595882 0.28675397165787508 0 0.39646745637047459 0.29941547945727548 0 0.42262062778595882 0.28675397165787508 0 0.39646745637047459 0.29941547945727548 0 0.42262062778595882 0.28675397165787508 0 0.41051003933776259 0.32146217229415669 0 0.42262062778595882 0.28675397165787508 0 0.44877379920144289 0.27409246385847469 0 0.42262062778595882 0.28675397165787508 0 0.42717119862135189 0.26724826421181269 0 0.44877379920144289 0.27409246385847469 0 0.40242443404331629 0.26870077314858892 0 0.42262062778595882 0.28675397165787508 0 0.42717119862135189 0.26724826421181269 0 0.40242443404331629 0.26870077314858892 0 0.39996680172052312 0.24480030614595971 0 0.42062588464296152 0.24913014349927551 0 0.40242443404331629 0.26870077314858892 0 0.42717119862135189 0.26724826421181269 0 0.42062588464296152 0.24913014349927551 0 0.42717119862135189 0.26724826421181269 0 0.44137813013798938 0.25408075830529098 0 0.42062588464296152 0.24913014349927551 0 0.42717119862135189 0.26724826421181269 0 0.44137813013798938 0.25408075830529098 0 0.44877379920144289 0.27409246385847469 0 0.47979116036557939 0.25216128507319407 0 0.5 0.29367279642027688 0 0.5 0.2203047622599775 0 0.44877379920144289 0.27409246385847469 0 0.46984514492335661 0.26084913391052439 0 0.46395697681677339 0.28712650767820169 0 0.44137813013798938 0.25408075830529098 0 0.46984514492335661 0.26084913391052439 0 0.45701114446795982 0.23956273009887119 0 0.44137813013798938 0.25408075830529098 0 0.44877379920144289 0.27409246385847469 0 0.46984514492335661 0.26084913391052439 0 0.46984514492335661 0.26084913391052439 0 0.45701114446795982 0.23956273009887119 0 0.47979116036557939 0.25216128507319407 0 0.5 0.29367279642027688 0 0.48267914537875328 0.2821355377221777 0 0.47979116036557939 0.25216128507319407 0 0.46984514492335661 0.26084913391052439 0 0.48267914537875328 0.2821355377221777 0 0.47979116036557939 0.25216128507319407 0 0.46984514492335661 0.26084913391052439 0 0.45701114446795982 0.23956273009887119 0 0.46984514492335661 0.26084913391052439 0 0.48267914537875328 0.2821355377221777 0 0.46395697681677339 0.28712650767820169 0 0.46984514492335661 0.26084913391052439 0 0.48267914537875328 0.2821355377221777 0 0.49551314583415002 0.30342194153383079 0 0.48267914537875328 0.2821355377221777 0 0.49551314583415002 0.30342194153383079 0 0.48267914537875328 0.2821355377221777 0 0.47619969710581739 0.29957984622525541 0 0.49551314583415002 0.30342194153383079 0 0.5 0.29367279642027688 0 0.48267914537875328 0.2821355377221777 0 0.48267914537875328 0.2821355377221777 0 0.47619969710581739 0.29957984622525541 0 0.46395697681677339 0.28712650767820169 0 0.49551314583415002 0.30342194153383079 0 0.47619969710581739 0.29957984622525541 0 0.47601859441060529 0.31651777495281452 0 0.47619969710581739 0.29957984622525541 0 0.46238921523128562 0.30774119401632138 0 0.47601859441060529 0.31651777495281452 0 0.46238921523128562 0.30774119401632138 0 0.46395697681677339 0.28712650767820169 0 0.4460900380664411 0.29611096545750648 0 0.47619969710581739 0.29957984622525541 0 0.46238921523128562 0.30774119401632138 0 0.46395697681677339 0.28712650767820169 0 0.44877379920144289 0.27409246385847469 0 0.46395697681677339 0.28712650767820169 0 0.4460900380664411 0.29611096545750648 0 0.42262062778595882 0.28675397165787508 0 0.44877379920144289 0.27409246385847469 0 0.4460900380664411 0.29611096545750648 0 0.46238921523128562 0.30774119401632138 0 0.4460900380664411 0.29611096545750648 0 0.43717992930965688 0.32034088031875851 0 0.49551314583415002 0.30342194153383079 0 0.48064939563201459 0.34366122785008618 0 0.5 0.39179496962623772 0 0.49551314583415002 0.30342194153383079 0 0.5 0.29367279642027688 0 0.5 0.39179496962623772 0 0.46043944530347292 0.33016580212457242 0 0.44007216421892092 0.34633022812147451 0 0.43717992930965688 0.32034088031875851 0 0.44007216421892092 0.34633022812147451 0 0.43717992930965688 0.32034088031875851 0 0.46043944530347292 0.33016580212457242 0 0.48064939563201459 0.34366122785008618 0 0.46448471676106567 0.35278761787592222 0 0.46043944530347292 0.33016580212457242 0 0.46448471676106567 0.35278761787592222 0 0.44007216421892092 0.34633022812147451 0 0.46238921523128562 0.30774119401632138 0 0.46043944530347292 0.33016580212457242 0 0.43717992930965688 0.32034088031875851 0 0.46238921523128562 0.30774119401632138 0 0.46043944530347292 0.33016580212457242 0 0.47601859441060529 0.31651777495281452 0 0.49551314583415002 0.30342194153383079 0 0.47601859441060529 0.31651777495281452 0 0.48064939563201459 0.34366122785008618 0 0.46043944530347292 0.33016580212457242 0 0.47601859441060529 0.31651777495281452 0 0.48064939563201459 0.34366122785008618 0 0.48064939563201459 0.34366122785008618 0 0.4750074331354146 0.37158181872121249 0 0.5 0.39179496962623772 0 0.48064939563201459 0.34366122785008618 0 0.4750074331354146 0.37158181872121249 0 0.46448471676106567 0.35278761787592222 0 0.4750074331354146 0.37158181872121249 0 0.46448471676106567 0.35278761787592222 0 0.4578160770647467 0.37732301489660081 0 0.46448471676106567 0.35278761787592222 0 0.4578160770647467 0.37732301489660081 0 0.46448471676106567 0.35278761787592222 0 0.44296439912818492 0.37231957592419052 0 0.4578160770647467 0.37732301489660081 0 0.44007216421892092 0.34633022812147451 0 0.44296439912818492 0.37231957592419052 0 0.46448471676106567 0.35278761787592222 0 0.44007216421892092 0.34633022812147451 0 0.44296439912818492 0.37231957592419052 0 0.44007216421892092 0.34633022812147451 0 0.44296439912818492 0.37231957592419052 0 0.42368481262497748 0.36841890242320718 0 0.42368481262497748 0.36841890242320718 0 0.41988534305022263 0.34579214462265262 0 0.40381744996236602 0.36791856326311251 0 0.41988534305022263 0.34579214462265262 0 0.40381744996236602 0.36791856326311251 0 0.40191987721367473 0.34382155656082908 0 0.44007216421892092 0.34633022812147451 0 0.42368481262497748 0.36841890242320718 0 0.41988534305022263 0.34579214462265262 0 0.41988534305022263 0.34579214462265262 0 0.43717992930965688 0.32034088031875851 0 0.41051003933776259 0.32146217229415669 0 0.44007216421892092 0.34633022812147451 0 0.41988534305022263 0.34579214462265262 0 0.43717992930965688 0.32034088031875851 0 0.41988534305022263 0.34579214462265262 0 0.41051003933776259 0.32146217229415669 0 0.40191987721367473 0.34382155656082908 0 0.39646745637047459 0.29941547945727548 0 0.41051003933776259 0.32146217229415669 0 0.38424968400338738 0.3316139944449592 0 0.41051003933776259 0.32146217229415669 0 0.38424968400338738 0.3316139944449592 0 0.40191987721367473 0.34382155656082908 0 0.37031428495499058 0.31207698725667588 0 0.39646745637047459 0.29941547945727548 0 0.38424968400338738 0.3316139944449592 0 0.37081372906369509 0.34986981094033642 0 0.38424968400338738 0.3316139944449592 0 0.38808075178961948 0.35786093369867289 0 0.37495861409371878 0.37289021742063772 0 0.37081372906369509 0.34986981094033642 0 0.38808075178961948 0.35786093369867289 0 0.37495861409371878 0.37289021742063772 0 0.38808075178961948 0.35786093369867289 0 0.39250331663637711 0.38024476785904487 0 0.38808075178961948 0.35786093369867289 0 0.40381744996236602 0.36791856326311251 0 0.39250331663637711 0.38024476785904487 0 0.38424968400338738 0.3316139944449592 0 0.38808075178961948 0.35786093369867289 0 0.40191987721367473 0.34382155656082908 0 0.40381744996236602 0.36791856326311251 0 0.40191987721367473 0.34382155656082908 0 0.38808075178961948 0.35786093369867289 0 0.40381744996236602 0.36791856326311251 0 0.40191987721367473 0.34382155656082908 0 0.40571502271105719 0.39201556996539583 0 0.38679284525112601 0.39907707922950469 0 0.40761259545974837 0.41611257666767931 0 0.40571502271105719 0.39201556996539583 0 0.39250331663637711 0.38024476785904487 0 0.38679284525112601 0.39907707922950469 0 0.40381744996236602 0.36791856326311251 0 0.40571502271105719 0.39201556996539583 0 0.39250331663637711 0.38024476785904487 0 0.40381744996236602 0.36791856326311251 0 0.40571502271105719 0.39201556996539583 0 0.37495861409371878 0.37289021742063772 0 0.39250331663637711 0.38024476785904487 0 0.38679284525112601 0.39907707922950469 0 0.3633115961405381 0.39499742597446968 0 0.37495861409371878 0.37289021742063772 0 0.38679284525112601 0.39907707922950469 0 0.3633115961405381 0.39499742597446968 0 0.38679284525112601 0.39907707922950469 0 0.37519061142037119 0.41521178534186709 0 0.38679284525112601 0.39907707922950469 0 0.37519061142037119 0.41521178534186709 0 0.39016960892825092 0.41989838345453773 0 0.37519061142037119 0.41521178534186709 0 0.39016960892825092 0.41989838345453773 0 0.38706962670020439 0.4354261447092645 0 0.37519061142037119 0.41521178534186709 0 0.38706962670020439 0.4354261447092645 0 0.37503047248596738 0.43900391469939892 0 0.37519061142037119 0.41521178534186709 0 0.38706962670020439 0.4354261447092645 0 0.39016960892825092 0.41989838345453773 0 0.39844894260316172 0.43094005888480541 0 0.40761259545974837 0.41611257666767931 0 0.39844894260316172 0.43094005888480541 0 0.40761259545974837 0.41611257666767931 0 0.40951016820843961 0.44020958336996291 0 0.38706962670020439 0.4354261447092645 0 0.39844894260316172 0.43094005888480541 0 0.40001600211584343 0.44169147000279863 0 0.39016960892825092 0.41989838345453773 0 0.38706962670020439 0.4354261447092645 0 0.39844894260316172 0.43094005888480541 0 0.38679284525112601 0.39907707922950469 0 0.39016960892825092 0.41989838345453773 0 0.40761259545974837 0.41611257666767931 0 0.40761259545974837 0.41611257666767931 0 0.42513363378122132 0.42534079101450162 0 0.42570297036789723 0.41020317851192251 0 0.40761259545974837 0.41611257666767931 0 0.42570297036789723 0.41020317851192251 0 0.42120084404153652 0.39880052778519648 0 0.40761259545974837 0.41611257666767931 0 0.42513363378122132 0.42534079101450162 0 0.40951016820843961 0.44020958336996291 0 0.40761259545974837 0.41611257666767931 0 0.40951016820843961 0.44020958336996291 0 0.42513363378122132 0.42534079101450162 0 0.42472184133322333 0.4420742649103126 0 0.40951016820843961 0.44020958336996291 0 0.42513363378122132 0.42534079101450162 0 0.44447879767210863 0.4263938089379577 0 0.42472184133322333 0.4420742649103126 0 0.42513363378122132 0.42534079101450162 0 0.44092352120339479 0.41138006538915461 0 0.44447879767210863 0.4263938089379577 0 0.42513363378122132 0.42534079101450162 0 0.42570297036789723 0.41020317851192251 0 0.44092352120339479 0.41138006538915461 0 0.42570297036789723 0.41020317851192251 0 0.43259138761510818 0.40108617729810753 0 0.44092352120339479 0.41138006538915461 0 0.43259138761510818 0.40108617729810753 0 0.42888613653333402 0.38765831937796952 0 0.44585663403744891 0.39830892372690629 0 0.43259138761510818 0.40108617729810753 0 0.42120084404153652 0.39880052778519648 0 0.42888613653333402 0.38765831937796952 0 0.42570297036789723 0.41020317851192251 0 0.43259138761510818 0.40108617729810753 0 0.42120084404153652 0.39880052778519648 0 0.40571502271105719 0.39201556996539583 0 0.40761259545974837 0.41611257666767931 0 0.40571502271105719 0.39201556996539583 0 0.40761259545974837 0.41611257666767931 0 0.42120084404153652 0.39880052778519648 0 0.40571502271105719 0.39201556996539583 0 0.42120084404153652 0.39880052778519648 0 0.42888613653333402 0.38765831937796952 0 0.42368481262497748 0.36841890242320718 0 0.40381744996236602 0.36791856326311251 0 0.40571502271105719 0.39201556996539583 0 0.42368481262497748 0.36841890242320718 0 0.40571502271105719 0.39201556996539583 0 0.42888613653333402 0.38765831937796952 0 0.44296439912818492 0.37231957592419052 0 0.42368481262497748 0.36841890242320718 0 0.42888613653333402 0.38765831937796952 0 0.44296439912818492 0.37231957592419052 0 0.44585663403744891 0.39830892372690629 0 0.44296439912818492 0.37231957592419052 0 0.44585663403744891 0.39830892372690629 0 0.4578160770647467 0.37732301489660081 0 0.44296439912818492 0.37231957592419052 0 0.42888613653333402 0.38765831937796952 0 0.44585663403744891 0.39830892372690629 0 0.44585663403744891 0.39830892372690629 0 0.45114743736842772 0.40185841191727928 0 0.4578160770647467 0.37732301489660081 0 0.43259138761510818 0.40108617729810753 0 0.44585663403744891 0.39830892372690629 0 0.44092352120339479 0.41138006538915461 0 0.44585663403744891 0.39830892372690629 0 0.45114743736842772 0.40185841191727928 0 0.44092352120339479 0.41138006538915461 0 0.4750074331354146 0.37158181872121249 0 0.4578160770647467 0.37732301489660081 0 0.47208697621924572 0.39234226335721561 0 0.45114743736842772 0.40185841191727928 0 0.4578160770647467 0.37732301489660081 0 0.47208697621924572 0.39234226335721561 0 0.45114743736842772 0.40185841191727928 0 0.4578160770647467 0.37732301489660081 0 0.4750074331354146 0.37158181872121249 0 0.47208697621924572 0.39234226335721561 0 0.5 0.39179496962623772 0 0.47208697621924572 0.39234226335721561 0 0.5 0.39179496962623772 0 0.47168432782438169 0.42613769547945451 0 0.45114743736842772 0.40185841191727928 0 0.47208697621924572 0.39234226335721561 0 0.47168432782438169 0.42613769547945451 0 0.47168432782438169 0.42613769547945451 0 0.44447879767210863 0.4263938089379577 0 0.46079564236931719 0.45415384462467512 0 0.45114743736842772 0.40185841191727928 0 0.47168432782438169 0.42613769547945451 0 0.44447879767210863 0.4263938089379577 0 0.45114743736842772 0.40185841191727928 0 0.44092352120339479 0.41138006538915461 0 0.44447879767210863 0.4263938089379577 0 0.45114743736842772 0.40185841191727928 0 0.44447879767210863 0.4263938089379577 0 0.44447879767210863 0.4263938089379577 0 0.43781015797578959 0.45092920595863623 0 0.46079564236931719 0.45415384462467512 0 0.47168432782438169 0.42613769547945451 0 0.46079564236931719 0.45415384462467512 0 0.5 0.5 0 0.5 0.39179496962623772 0 0.47168432782438169 0.42613769547945451 0 0.5 0.5 0 0.44447879767210863 0.4263938089379577 0 0.43781015797578959 0.45092920595863623 0 0.43781015797578959 0.45092920595863623 0 0.44795735207361292 0.4685935584660601 0 0.43114151827947061 0.4754646029793147 0 0.43781015797578959 0.45092920595863623 0 0.44795735207361292 0.4685935584660601 0 0.46079564236931719 0.45415384462467512 0 0.44795735207361292 0.4685935584660601 0 0.46079564236931719 0.45415384462467512 0 0.46226050294840332 0.47880575951223509 0 0.5 0.5 0 0.45642382442646229 0.5 0 0.46226050294840332 0.47880575951223509 0 0.46079564236931719 0.45415384462467512 0 0.5 0.5 0 0.46226050294840332 0.47880575951223509 0 0.45642382442646229 0.5 0 0.46226050294840332 0.47880575951223509 0 0.4477789387950834 0.48361437925543932 0 0.45642382442646229 0.5 0 0.43995429002104242 0.48976974555868852 0 0.42447287858315308 0.49999999999999362 0 0.44795735207361292 0.4685935584660601 0 0.4477789387950834 0.48361437925543932 0 0.43114151827947061 0.4754646029793147 0 0.4477789387950834 0.48361437925543932 0 0.43995429002104242 0.48976974555868852 0 0.43114151827947061 0.4754646029793147 0 0.44795735207361292 0.4685935584660601 0 0.46226050294840332 0.47880575951223509 0 0.4477789387950834 0.48361437925543932 0 0.45642382442646229 0.5 0 0.4477789387950834 0.48361437925543932 0 0.43995429002104242 0.48976974555868852 0 0.42447287858315308 0.49999999999999362 0 0.43114151827947061 0.4754646029793147 0 0.43995429002104242 0.48976974555868852 0 0.42447287858315308 0.49999999999999362 0 0.43114151827947061 0.4754646029793147 0 0.42447287858315308 0.49999999999999362 0 0.42063755776723721 0.48530543998470932 0 0.43114151827947061 0.4754646029793147 0 0.42447287858315308 0.49999999999999362 0 0.4095645842925012 0.48773164174400679 0 0.40450366440807861 0.5 0 0.42447287858315308 0.49999999999999362 0 0.42063755776723721 0.48530543998470932 0 0.4095645842925012 0.48773164174400679 0 0.41101626695864452 0.47617581801321968 0 0.41670753839179192 0.47057972368792289 0 0.41140774095713029 0.46430659007224639 0 0.41101626695864452 0.47617581801321968 0 0.40846254727731102 0.46547856215403438 0 0.40441369410120648 0.46494030923192609 0 0.41101626695864452 0.47617581801321968 0 0.40441369410120648 0.46494030923192609 0 0.4095645842925012 0.48773164174400679 0 0.41101626695864452 0.47617581801321968 0 0.41834772637852208 0.47793988842984808 0 0.42063755776723721 0.48530543998470932 0 0.4095645842925012 0.48773164174400679 0 0.41834772637852208 0.47793988842984808 0 0.42063755776723721 0.48530543998470932 0 0.41834772637852208 0.47793988842984808 0 0.42423642990878552 0.47322974911208199 0 0.41834772637852208 0.47793988842984808 0 0.41670753839179192 0.47057972368792289 0 0.42423642990878552 0.47322974911208199 0 0.41670753839179192 0.47057972368792289 0 0.42423642990878552 0.47322974911208199 0 0.41140774095713029 0.46430659007224639 0 0.42423642990878552 0.47322974911208199 0 0.41140774095713029 0.46430659007224639 0 0.41101626695864452 0.47617581801321968 0 0.41834772637852208 0.47793988842984808 0 0.41670753839179192 0.47057972368792289 0 0.42423642990878552 0.47322974911208199 0 0.43114151827947061 0.4754646029793147 0 0.42388634738416098 0.45967922677389011 0 0.42063755776723721 0.48530543998470932 0 0.42423642990878552 0.47322974911208199 0 0.43114151827947061 0.4754646029793147 0 0.43781015797578959 0.45092920595863623 0 0.43114151827947061 0.4754646029793147 0 0.43781015797578959 0.45092920595863623 0 0.43114151827947061 0.4754646029793147 0 0.42388634738416098 0.45967922677389011 0 0.42423642990878552 0.47322974911208199 0 0.42388634738416098 0.45967922677389011 0 0.42003640857417063 0.46558467115957403 0 0.44447879767210863 0.4263938089379577 0 0.43781015797578959 0.45092920595863623 0 0.42472184133322333 0.4420742649103126 0 0.43781015797578959 0.45092920595863623 0 0.42388634738416098 0.45967922677389011 0 0.42472184133322333 0.4420742649103126 0 0.41613348829698921 0.45267273803555969 0 0.40951016820843961 0.44020958336996291 0 0.41140774095713029 0.46430659007224639 0 0.42388634738416098 0.45967922677389011 0 0.42472184133322333 0.4420742649103126 0 0.41613348829698921 0.45267273803555969 0 0.40951016820843961 0.44020958336996291 0 0.40952424221657019 0.45592717785892772 0 0.40443498090518548 0.44845960281661801 0 0.40951016820843961 0.44020958336996291 0 0.41140774095713029 0.46430659007224639 0 0.42472184133322333 0.4420742649103126 0 0.41613348829698921 0.45267273803555969 0 0.40951016820843961 0.44020958336996291 0 0.40951016820843961 0.44020958336996291 0 0.40952424221657019 0.45592717785892772 0 0.41140774095713029 0.46430659007224639 0 0.42423642990878552 0.47322974911208199 0 0.42003640857417063 0.46558467115957403 0 0.41140774095713029 0.46430659007224639 0 0.42003640857417063 0.46558467115957403 0 0.41786599630311272 0.4605608065103175 0 0.41140774095713029 0.46430659007224639 0 0.42388634738416098 0.45967922677389011 0 0.42003640857417063 0.46558467115957403 0 0.41786599630311272 0.4605608065103175 0 0.42388634738416098 0.45967922677389011 0 0.41613348829698921 0.45267273803555969 0 0.41786599630311272 0.4605608065103175 0 0.41613348829698921 0.45267273803555969 0 0.41786599630311272 0.4605608065103175 0 0.41140774095713029 0.46430659007224639 0 0.40952424221657019 0.45592717785892772 0 0.40664959497182079 0.46099700064173849 0 0.41140774095713029 0.46430659007224639 0 0.40952424221657019 0.45592717785892772 0 0.40664959497182079 0.46099700064173849 0 0.41101626695864452 0.47617581801321968 0 0.41140774095713029 0.46430659007224639 0 0.40846254727731102 0.46547856215403438 0 0.40664959497182079 0.46099700064173849 0 0.41140774095713029 0.46430659007224639 0 0.40846254727731102 0.46547856215403438 0 0.40664959497182079 0.46099700064173849 0 0.40846254727731102 0.46547856215403438 0 0.40441369410120648 0.46494030923192609 0 0.40664959497182079 0.46099700064173849 0 0.41140774095713029 0.46430659007224639 0 0.40441369410120648 0.46494030923192609 0 0.39894864198003738 0.45564050407666201 0 0.39507673629920481 0.46417151632218068 0 0.40664959497182079 0.46099700064173849 0 0.40441369410120648 0.46494030923192609 0 0.40441369410120648 0.46494030923192609 0 0.39894864198003738 0.45564050407666201 0 0.40952424221657019 0.45592717785892772 0 0.39894864198003738 0.45564050407666201 0 0.40443498090518548 0.44845960281661801 0 0.40664959497182079 0.46099700064173849 0 0.40441369410120648 0.46494030923192609 0 0.39894864198003738 0.45564050407666201 0 0.40952424221657019 0.45592717785892772 0 0.40664959497182079 0.46099700064173849 0 0.39894864198003738 0.45564050407666201 0 0.40664959497182079 0.46099700064173849 0 0.39894864198003738 0.45564050407666201 0 0.39894864198003738 0.45564050407666201 0 0.39084155733079112 0.45906315401714598 0 0.39507673629920481 0.46417151632218068 0 0.39894864198003738 0.45564050407666201 0 0.39084155733079112 0.45906315401714598 0 0.38363266486696479 0.45225948031725122 0 0.38706962670020439 0.4354261447092645 0 0.39894864198003738 0.45564050407666201 0 0.38706962670020439 0.4354261447092645 0 0.39894864198003738 0.45564050407666201 0 0.40001600211584343 0.44169147000279863 0 0.40951016820843961 0.44020958336996291 0 0.40001600211584343 0.44169147000279863 0 0.40443498090518548 0.44845960281661801 0 0.39844894260316172 0.43094005888480541 0 0.40951016820843961 0.44020958336996291 0 0.40001600211584343 0.44169147000279863 0 0.39894864198003738 0.45564050407666201 0 0.40001600211584343 0.44169147000279863 0 0.40443498090518548 0.44845960281661801 0 0.38706962670020439 0.4354261447092645 0 0.39894864198003738 0.45564050407666201 0 0.37503047248596738 0.43900391469939892 0 0.39894864198003738 0.45564050407666201 0 0.38363266486696479 0.45225948031725122 0 0.37503047248596738 0.43900391469939892 0 0.39894864198003738 0.45564050407666201 0 0.37503047248596738 0.43900391469939892 0 0.37033912320150092 0.45446506759063438 0 0.38363266486696479 0.45225948031725122 0 0.37503047248596738 0.43900391469939892 0 0.39084155733079112 0.45906315401714598 0 0.39507673629920481 0.46417151632218068 0 0.38570818617695768 0.46418111535248979 0 0.39084155733079112 0.45906315401714598 0 0.38363266486696479 0.45225948031725122 0 0.38570818617695768 0.46418111535248979 0 0.37033912320150092 0.45446506759063438 0 0.38363266486696479 0.45225948031725122 0 0.38570818617695768 0.46418111535248979 0 0.37205666451988589 0.48225009470308772 0 0.38570818617695768 0.46418111535248979 0 0.39447407216710612 0.4824701546159641 0 0.37205666451988589 0.48225009470308772 0 0.38453445023300409 0.50000000000000144 0 0.39447407216710612 0.4824701546159641 0 0.38453445023300409 0.50000000000000144 0 0.39447407216710612 0.4824701546159641 0 0.4095645842925012 0.48773164174400679 0 0.40450366440807861 0.5 0 0.39447407216710612 0.4824701546159641 0 0.38453445023300409 0.50000000000000144 0 0.40450366440807861 0.5 0 0.39447407216710612 0.4824701546159641 0 0.40441369410120648 0.46494030923192609 0 0.39447407216710612 0.4824701546159641 0 0.39507673629920481 0.46417151632218068 0 0.38570818617695768 0.46418111535248979 0 0.39447407216710612 0.4824701546159641 0 0.4095645842925012 0.48773164174400679 0 0.41101626695864452 0.47617581801321968 0 0.39447407216710612 0.4824701546159641 0 0.41101626695864452 0.47617581801321968 0 0.40441369410120648 0.46494030923192609 0 0.39447407216710612 0.4824701546159641 0 0.40441369410120648 0.46494030923192609 0 0.39507673629920481 0.46417151632218068 0 0.39447407216710612 0.4824701546159641 0 0.33410857552058348 0.084913711585616822 0 0.33967122204715011 0.09903722268193095 0 0.34959133774974188 0.077512682270950775 0 0.33410857552058348 0.084913711585616822 0 0.33088850863167341 0.06847206835540845 0 0.32418474295070387 0.082254543534044045 0 0.33410857552058348 0.084913711585616822 0 0.32620706622364831 0.097292041085749861 0 0.33967122204715011 0.09903722268193095 0 0.33410857552058348 0.084913711585616822 0 0.32418474295070387 0.082254543534044045 0 0.32620706622364831 0.097292041085749861 0 0.33410857552058348 0.084913711585616822 0 0.33088850863167341 0.06847206835540845 0 0.34959133774974188 0.077512682270950775 0 0.33088850863167341 0.06847206835540845 0 0.34959133774974188 0.077512682270950775 0 0.3464718706323659 0.047856181385270008 0 0.32010736850201932 0.07393116773198434 0 0.31603496830601913 0.056179682354020349 0 0.31171707898121293 0.080140427761071997 0 0.33088850863167341 0.06847206835540845 0 0.32010736850201932 0.07393116773198434 0 0.32418474295070387 0.082254543534044045 0 0.33088850863167341 0.06847206835540845 0 0.32010736850201932 0.07393116773198434 0 0.31603496830601913 0.056179682354020349 0 0.31603496830601913 0.056179682354020349 0 0.31171707898121293 0.080140427761071997 0 0.31797535970602903 0.082079565180081901 0 0.31690530208185941 0.089958644028094545 0 0.31171707898121293 0.080140427761071997 0 0.32010736850201932 0.07393116773198434 0 0.31797535970602903 0.082079565180081901 0 0.31171707898121293 0.080140427761071997 0 0.31797535970602903 0.082079565180081901 0 0.32418474295070387 0.082254543534044045 0 0.31690530208185941 0.089958644028094545 0 0.32010736850201932 0.07393116773198434 0 0.31797535970602903 0.082079565180081901 0 0.32418474295070387 0.082254543534044045 0 0.32418474295070387 0.082254543534044045 0 0.31690530208185941 0.089958644028094545 0 0.32620706622364831 0.097292041085749861 0 0.31690530208185941 0.089958644028094545 0 0.31754689190751412 0.1005576410878971 0 0.32620706622364831 0.097292041085749861 0 0.31690530208185941 0.089958644028094545 0 0.31754689190751412 0.1005576410878971 0 0.30739918965640722 0.1041011731681238 0 0.31754689190751412 0.1005576410878971 0 0.31967600966814153 0.11087870606962 0 0.30739918965640722 0.1041011731681238 0 0.32620706622364831 0.097292041085749861 0 0.31967600966814153 0.11087870606962 0 0.33301397838098978 0.1128878763867296 0 0.31754689190751412 0.1005576410878971 0 0.32620706622364831 0.097292041085749861 0 0.31967600966814153 0.11087870606962 0 0.31967600966814153 0.11087870606962 0 0.33301397838098978 0.1128878763867296 0 0.32783552986287678 0.12690126447313901 0 0.31331478950246822 0.1233885057138905 0 0.31967600966814153 0.11087870606962 0 0.32783552986287678 0.12690126447313901 0 0.31331478950246822 0.1233885057138905 0 0.31967600966814153 0.11087870606962 0 0.30739918965640722 0.1041011731681238 0 0.33301397838098978 0.1128878763867296 0 0.3527108048671177 0.1071691831566319 0 0.33301397838098978 0.1128878763867296 0 0.32783552986287678 0.12690126447313901 0 0.35500362434251259 0.12896681725381201 0 0.33301397838098978 0.1128878763867296 0 0.33967122204715011 0.09903722268193095 0 0.3527108048671177 0.1071691831566319 0 0.32620706622364831 0.097292041085749861 0 0.33301397838098978 0.1128878763867296 0 0.33967122204715011 0.09903722268193095 0 0.33967122204715011 0.09903722268193095 0 0.3527108048671177 0.1071691831566319 0 0.34959133774974188 0.077512682270950775 0 0.3527108048671177 0.1071691831566319 0 0.36897188640866729 0.1184268111539238 0 0.35500362434251259 0.12896681725381201 0 0.3527108048671177 0.1071691831566319 0 0.35500362434251259 0.12896681725381201 0 0.33301397838098978 0.1128878763867296 0 0.3527108048671177 0.1071691831566319 0 0.35500362434251259 0.12896681725381201 0 0.3527108048671177 0.1071691831566319 0 0.36897188640866729 0.1184268111539238 0 0.3727694772291269 0.1013454331265338 0 0.3527108048671177 0.1071691831566319 0 0.3727694772291269 0.1013454331265338 0 0.36318982769231778 0.087032171579457973 0 0.3527108048671177 0.1071691831566319 0 0.3727694772291269 0.1013454331265338 0 0.3727694772291269 0.1013454331265338 0 0.36318982769231778 0.087032171579457973 0 0.37720588383819448 0.081113920407392348 0 0.36318982769231778 0.087032171579457973 0 0.36367163477740788 0.068019638935781029 0 0.37720588383819448 0.081113920407392348 0 0.3527108048671177 0.1071691831566319 0 0.36318982769231778 0.087032171579457973 0 0.34959133774974188 0.077512682270950775 0 0.3527108048671177 0.1071691831566319 0 0.34959133774974188 0.077512682270950775 0 0.34959133774974188 0.077512682270950775 0 0.36367163477740788 0.068019638935781029 0 0.3464718706323659 0.047856181385270008 0 0.34959133774974188 0.077512682270950775 0 0.3464718706323659 0.047856181385270008 0 0.36318982769231778 0.087032171579457973 0 0.34959133774974188 0.077512682270950775 0 0.36367163477740788 0.068019638935781029 0 0.36367163477740788 0.068019638935781029 0 0.3785704386585852 0.062610727266587604 0 0.37720588383819448 0.081113920407392348 0 0.36367163477740788 0.068019638935781029 0 0.36774622979425892 0.050824196821956782 0 0.3785704386585852 0.062610727266587604 0 0.36774622979425892 0.050824196821956782 0 0.36970625667786472 0.033639078085568153 0 0.38417187881002068 0.045967091039355409 0 0.36774622979425892 0.050824196821956782 0 0.36970625667786472 0.033639078085568153 0 0.3464718706323659 0.047856181385270008 0 0.36970625667786472 0.033639078085568153 0 0.3464718706323659 0.047856181385270008 0 0.35060833340924419 0.022306169530745618 0 0.3464718706323659 0.047856181385270008 0 0.34343985082573031 0.018052316561859599 0 0.36367163477740788 0.068019638935781029 0 0.36774622979425892 0.050824196821956782 0 0.3464718706323659 0.047856181385270008 0 0.36940081093110122 0.0024380013531546982 0 0.36447362525213961 0.013527693564028919 0 0.35731025264866528 0.001549759338037285 0 0.36940081093110122 0.0024380013531546982 0 0.36447362525213961 0.013527693564028919 0 0.37972164843785078 0.01174314258803808 0 0.36970625667786472 0.033639078085568153 0 0.36447362525213961 0.013527693564028919 0 0.35842984865215788 0.019320869155584119 0 0.36970625667786472 0.033639078085568153 0 0.35060833340924419 0.022306169530745618 0 0.35842984865215788 0.019320869155584119 0 0.36447362525213961 0.013527693564028919 0 0.38550743087864953 0.027053498305232331 0 0.36970625667786472 0.033639078085568153 0 0.35060833340924419 0.022306169530745618 0 0.36970625667786472 0.033639078085568153 0 0.36447362525213961 0.013527693564028919 0 0.38550743087864953 0.027053498305232331 0 0.3464718706323659 0.047856181385270008 0 0.35060833340924419 0.022306169530745618 0 0.34343985082573031 0.018052316561859599 0 0.35060833340924419 0.022306169530745618 0 0.34695007535732653 0.015783346213752641 0 0.33907036820565972 0.012306415994872781 0 0.35060833340924419 0.022306169530745618 0 0.33907036820565972 0.012306415994872781 0 0.34343985082573031 0.018052316561859599 0 0.35060833340924419 0.022306169530745618 0 0.34695007535732653 0.015783346213752641 0 0.35279309966917832 0.013130943475259759 0 0.35060833340924419 0.022306169530745618 0 0.34343985082573031 0.018052316561859599 0 0.35060833340924419 0.022306169530745618 0 0.35842984865215788 0.019320869155584119 0 0.35279309966917832 0.013130943475259759 0 0.36447362525213961 0.013527693564028919 0 0.34572979546969512 0.0068805266439300504 0 0.34283295550395021 0.001076216492461129 0 0.36447362525213961 0.013527693564028919 0 0.35279309966917832 0.013130943475259759 0 0.34572979546969512 0.0068805266439300504 0 0.36447362525213961 0.013527693564028919 0 0.34283295550395021 0.001076216492461129 0 0.36447362525213961 0.013527693564028919 0 0.35731025264866528 0.001549759338037285 0 0.34283295550395021 0.001076216492461129 0 0.36447362525213961 0.013527693564028919 0 0.35842984865215788 0.019320869155584119 0 0.35279309966917832 0.013130943475259759 0 0.34695007535732653 0.015783346213752641 0 0.35279309966917832 0.013130943475259759 0 0.3464830873345402 0.011734823694263289 0 0.34695007535732653 0.015783346213752641 0 0.3464830873345402 0.011734823694263289 0 0.34322257010146601 0.01250692118297987 0 0.3464830873345402 0.011734823694263289 0 0.34572979546969512 0.0068805266439300504 0 0.34318387147783841 0.0089283273740104231 0 0.3464830873345402 0.011734823694263289 0 0.34318387147783841 0.0089283273740104231 0 0.34322257010146601 0.01250692118297987 0 0.35279309966917832 0.013130943475259759 0 0.3464830873345402 0.011734823694263289 0 0.34572979546969512 0.0068805266439300504 0 0.35731025264866528 0.001549759338037285 0 0.34283295550395021 0.001076216492461129 0 0.34929042176046959 -0.0019858673855873408 0 0.33030905587603782 0.0009821161988461172 0 0.33232416452871127 0.0085961447578896885 0 0.33650931121741101 -0.0034436008223670041 0 0.33232416452871127 0.0085961447578896885 0 0.33650931121741101 -0.0034436008223670041 0 0.33030905587603782 0.0009821161988461172 0 0.32855992702179232 0.0056441583030761092 0 0.32697184598496509 0.0021443011911175939 0 0.33030905587603782 0.0009821161988461172 0 0.32855992702179232 0.0056441583030761092 0 0.33232416452871127 0.0085961447578896885 0 0.34283295550395021 0.001076216492461129 0 0.33232416452871127 0.0085961447578896885 0 0.34283295550395021 0.001076216492461129 0 0.33232416452871127 0.0085961447578896885 0 0.33650931121741101 -0.0034436008223670041 0 0.34283295550395021 0.001076216492461129 0 0.33642796689861038 0.0078655881093820275 0 0.33232416452871127 0.0085961447578896885 0 0.34572979546969512 0.0068805266439300504 0 0.34283295550395021 0.001076216492461129 0 0.34166025552339929 0.0060230296366634217 0 0.34283295550395021 0.001076216492461129 0 0.34166025552339929 0.0060230296366634217 0 0.33642796689861038 0.0078655881093820275 0 0.34572979546969512 0.0068805266439300504 0 0.34166025552339929 0.0060230296366634217 0 0.34318387147783841 0.0089283273740104231 0 0.34166025552339929 0.0060230296366634217 0 0.33966727597891322 0.0081651621794594734 0 0.34318387147783841 0.0089283273740104231 0 0.34166025552339929 0.0060230296366634217 0 0.33642796689861038 0.0078655881093820275 0 0.33966727597891322 0.0081651621794594734 0 0.33151041014062232 0.010973260975925421 0 0.34343985082573031 0.018052316561859599 0 0.33642796689861038 0.0078655881093820275 0 0.33907036820565972 0.012306415994872781 0 0.33483322744340099 0.0099353524595175158 0 0.33642796689861038 0.0078655881093820275 0 0.33891058402115898 0.0096081732754108185 0 0.33907036820565972 0.012306415994872781 0 0.33907036820565972 0.012306415994872781 0 0.33151041014062232 0.010973260975925421 0 0.34343985082573031 0.018052316561859599 0 0.34695007535732653 0.015783346213752641 0 0.34322257010146601 0.01250692118297987 0 0.33907036820565972 0.012306415994872781 0 0.33891058402115898 0.0096081732754108185 0 0.34047672500145271 0.010095526817928999 0 0.33907036820565972 0.012306415994872781 0 0.33642796689861038 0.0078655881093820275 0 0.33891058402115898 0.0096081732754108185 0 0.33966727597891322 0.0081651621794594734 0 0.33891058402115898 0.0096081732754108185 0 0.33966727597891322 0.0081651621794594734 0 0.34047672500145271 0.010095526817928999 0 0.34047672500145271 0.010095526817928999 0 0.34322257010146601 0.01250692118297987 0 0.33907036820565972 0.012306415994872781 0 0.33966727597891322 0.0081651621794594734 0 0.34047672500145271 0.010095526817928999 0 0.34318387147783841 0.0089283273740104231 0 0.34047672500145271 0.010095526817928999 0 0.34318387147783841 0.0089283273740104231 0 0.34322257010146601 0.01250692118297987 0 0.33151041014062232 0.010973260975925421 0 0.32591959925658348 0.020307614450068429 0 0.32770202776989271 0.014382183200258971 0 0.33907036820565972 0.012306415994872781 0 0.33483322744340099 0.0099353524595175158 0 0.33151041014062232 0.010973260975925421 0 0.33642796689861038 0.0078655881093820275 0 0.33483322744340099 0.0099353524595175158 0 0.33232416452871127 0.0085961447578896885 0 0.33483322744340099 0.0099353524595175158 0 0.33232416452871127 0.0085961447578896885 0 0.33151041014062232 0.010973260975925421 0 0.32855992702179232 0.0056441583030761092 0 0.33232416452871127 0.0085961447578896885 0 0.33151041014062232 0.010973260975925421 0 0.33232416452871127 0.0085961447578896885 0 0.33151041014062232 0.010973260975925421 0 0.33151041014062232 0.010973260975925421 0 0.33306997598254928 0.025508483515348561 0 0.3237726892233207 0.03357647166497281 0 0.34343985082573031 0.018052316561859599 0 0.33306997598254928 0.025508483515348561 0 0.33677920419048429 0.03611046493946983 0 0.33151041014062232 0.010973260975925421 0 0.34343985082573031 0.018052316561859599 0 0.33306997598254928 0.025508483515348561 0 0.33306997598254928 0.025508483515348561 0 0.33111087103049153 0.032697404528833997 0 0.3237726892233207 0.03357647166497281 0 0.33151041014062232 0.010973260975925421 0 0.3237726892233207 0.03357647166497281 0 0.32158710811979568 0.025369858726070709 0 0.32314768049001291 0.015162694788471549 0 0.30118235059606502 0.03088074508732366 0 0.33151041014062232 0.010973260975925421 0 0.32591959925658348 0.020307614450068429 0 0.3237726892233207 0.03357647166497281 0 0.32346518865906931 0.02744346162071358 0 0.32591959925658348 0.020307614450068429 0 0.3237726892233207 0.03357647166497281 0 0.32158710811979568 0.025369858726070709 0 0.32346518865906931 0.02744346162071358 0 0.3237726892233207 0.03357647166497281 0 0.32158710811979568 0.025369858726070709 0 0.32346518865906931 0.02744346162071358 0 0.32314768049001291 0.015162694788471549 0 0.32346518865906931 0.02744346162071358 0 0.32314768049001291 0.015162694788471549 0 0.32346518865906931 0.02744346162071358 0 0.32591959925658348 0.020307614450068429 0 0.32314768049001291 0.015162694788471549 0 0.32591959925658348 0.020307614450068429 0 0.32770202776989271 0.014382183200258971 0 0.32314768049001291 0.015162694788471549 0 0.33151041014062232 0.010973260975925421 0 0.32314768049001291 0.015162694788471549 0 0.32314768049001291 0.015162694788471549 0 0.32290737791607382 0.0058681311603064152 0 0.33151041014062232 0.010973260975925421 0 0.32770202776989271 0.014382183200258971 0 0.32314768049001291 0.015162694788471549 0 0.33151041014062232 0.010973260975925421 0 0.32290737791607382 0.0058681311603064152 0 0.33151041014062232 0.010973260975925421 0 0.32314768049001291 0.015162694788471549 0 0.32290737791607382 0.0058681311603064152 0 0.32314768049001291 0.015162694788471549 0 0.32290737791607382 0.0058681311603064152 0 0.31076376885716223 0.010973948663270091 0 0.32855992702179232 0.0056441583030761092 0 0.33151041014062232 0.010973260975925421 0 0.32290737791607382 0.0058681311603064152 0 0.32290737791607382 0.0058681311603064152 0 0.32697184598496509 0.0021443011911175939 0 0.32611102312595602 -0.0039172008977574682 0 0.32855992702179232 0.0056441583030761092 0 0.32290737791607382 0.0058681311603064152 0 0.32697184598496509 0.0021443011911175939 0 0.33088850863167341 0.06847206835540845 0 0.3464718706323659 0.047856181385270008 0 0.32789210436405858 0.047612690602622278 0 0.3464718706323659 0.047856181385270008 0 0.34343985082573031 0.018052316561859599 0 0.33677920419048429 0.03611046493946983 0 0.3464718706323659 0.047856181385270008 0 0.33677920419048429 0.03611046493946983 0 0.32789210436405858 0.047612690602622278 0 0.33306997598254928 0.025508483515348561 0 0.33677920419048429 0.03611046493946983 0 0.33111087103049153 0.032697404528833997 0 0.33677920419048429 0.03611046493946983 0 0.32954775348136911 0.038809991628104473 0 0.33111087103049153 0.032697404528833997 0 0.32954775348136911 0.038809991628104473 0 0.33111087103049153 0.032697404528833997 0 0.3237726892233207 0.03357647166497281 0 0.33677920419048429 0.03611046493946983 0 0.32954775348136911 0.038809991628104473 0 0.32789210436405858 0.047612690602622278 0 0.3237726892233207 0.03357647166497281 0 0.31881103821290713 0.040774770540045482 0 0.31603496830601913 0.056179682354020349 0 0.3237726892233207 0.03357647166497281 0 0.31603496830601913 0.056179682354020349 0 0.32158710811979568 0.025369858726070709 0 0.31881103821290713 0.040774770540045482 0 0.30118235059606502 0.03088074508732366 0 0.3237726892233207 0.03357647166497281 0 0.32789210436405858 0.047612690602622278 0 0.31603496830601913 0.056179682354020349 0 0.32954775348136911 0.038809991628104473 0 0.3237726892233207 0.03357647166497281 0 0.32789210436405858 0.047612690602622278 0 0.32158710811979568 0.025369858726070709 0 0.3237726892233207 0.03357647166497281 0 0.31881103821290713 0.040774770540045482 0 0.32158710811979568 0.025369858726070709 0 0.31881103821290713 0.040774770540045482 0 0.33088850863167341 0.06847206835540845 0 0.32789210436405858 0.047612690602622278 0 0.31603496830601913 0.056179682354020349 0 0.31881103821290713 0.040774770540045482 0 0.31603496830601913 0.056179682354020349 0 0.31881103821290713 0.040774770540045482 0 0.31603496830601913 0.056179682354020349 0 0.30423143356130211 0.046100015846550178 0 0.31603496830601913 0.056179682354020349 0 0.30423143356130211 0.046100015846550178 0 0.30269987476615101 0.065235042344194694 0 0.30423143356130211 0.046100015846550178 0 0.2924932473638418 0.055412196499163922 0 0.30269987476615101 0.065235042344194694 0 0.31881103821290713 0.040774770540045482 0 0.30423143356130211 0.046100015846550178 0 0.30118235059606502 0.03088074508732366 0 0.30118235059606502 0.03088074508732366 0 0.28181830244170292 0.01754354390880054 0 0.27921702070211718 0.046598795386175777 0 0.30118235059606502 0.03088074508732366 0 0.27921702070211718 0.046598795386175777 0 0.30423143356130211 0.046100015846550178 0 0.30118235059606502 0.03088074508732366 0 0.27921702070211718 0.046598795386175777 0 0.2924932473638418 0.055412196499163922 0 0.27921702070211718 0.046598795386175777 0 0.28786993478093142 0.068384021766133646 0 0.30423143356130211 0.046100015846550178 0 0.2924932473638418 0.055412196499163922 0 0.27921702070211718 0.046598795386175777 0 0.32290737791607382 0.0058681311603064152 0 0.31076376885716223 0.010973948663270091 0 0.30003599551562199 -0.0077039877356053074 0 0.2994846891420555 0.01112764378035155 0 0.31076376885716223 0.010973948663270091 0 0.30003599551562199 -0.0077039877356053074 0 0.32314768049001291 0.015162694788471549 0 0.31076376885716223 0.010973948663270091 0 0.30118235059606502 0.03088074508732366 0 0.32314768049001291 0.015162694788471549 0 0.30118235059606502 0.03088074508732366 0 0.2994846891420555 0.01112764378035155 0 0.31076376885716223 0.010973948663270091 0 0.30118235059606502 0.03088074508732366 0 0.2994846891420555 0.01112764378035155 0 0.30118235059606502 0.03088074508732366 0 0.28181830244170292 0.01754354390880054 0 0.28181830244170292 0.01754354390880054 0 0.28911478695099579 0.0039930708862836416 0 0.27512016070460282 -0.0049949164084122149 0 0.2994846891420555 0.01112764378035155 0 0.28911478695099579 0.0039930708862836416 0 0.30003599551562199 -0.0077039877356053074 0 0.2994846891420555 0.01112764378035155 0 0.28181830244170292 0.01754354390880054 0 0.28911478695099579 0.0039930708862836416 0 0.28181830244170292 0.01754354390880054 0 0.26197695804951793 0.0048291949868915756 0 0.27512016070460282 -0.0049949164084122149 0 0.28181830244170292 0.01754354390880054 0 0.25536203797007168 0.029707822892285279 0 0.26197695804951793 0.0048291949868915756 0 0.23773897383564699 0.020910623389461671 0 0.25536203797007168 0.029707822892285279 0 0.26197695804951793 0.0048291949868915756 0 0.25536203797007168 0.029707822892285279 0 0.26197695804951793 0.0048291949868915756 0 0.27921702070211718 0.046598795386175777 0 0.25725169080816951 0.062316845685027843 0 0.27072544023006379 0.071953160582100412 0 0.27921702070211718 0.046598795386175777 0 0.25725169080816951 0.062316845685027843 0 0.27921702070211718 0.046598795386175777 0 0.26234745348161259 0.047571689458999089 0 0.25725169080816951 0.062316845685027843 0 0.27921702070211718 0.046598795386175777 0 0.27072544023006379 0.071953160582100412 0 0.28786993478093142 0.068384021766133646 0 0.25536203797007168 0.029707822892285279 0 0.27921702070211718 0.046598795386175777 0 0.26234745348161259 0.047571689458999089 0 0.28181830244170292 0.01754354390880054 0 0.25536203797007168 0.029707822892285279 0 0.27921702070211718 0.046598795386175777 0 0.24874711789062551 0.054586450797678973 0 0.25536203797007168 0.029707822892285279 0 0.24874711789062551 0.054586450797678973 0 0.25536203797007168 0.029707822892285279 0 0.26234745348161259 0.047571689458999089 0 0.24680425729062291 0.065565833265697746 0 0.24874711789062551 0.054586450797678973 0 0.25725169080816951 0.062316845685027843 0 0.24874711789062551 0.054586450797678973 0 0.26234745348161259 0.047571689458999089 0 0.25725169080816951 0.062316845685027843 0 0.25725169080816951 0.062316845685027843 0 0.25256789807426272 0.076610585162129263 0 0.27072544023006379 0.071953160582100412 0 0.24680425729062291 0.065565833265697746 0 0.25725169080816951 0.062316845685027843 0 0.25256789807426272 0.076610585162129263 0 0.25256789807426272 0.076610585162129263 0 0.26400970731399248 0.087117495682959234 0 0.27072544023006379 0.071953160582100412 0 0.2449193701002049 0.091721339195502294 0 0.25256789807426272 0.076610585162129263 0 0.26400970731399248 0.087117495682959234 0 0.2449193701002049 0.091721339195502294 0 0.26400970731399248 0.087117495682959234 0 0.26114673751632739 0.10023781702260549 0 0.26400970731399248 0.087117495682959234 0 0.28053613697809948 0.082519819502565539 0 0.27072544023006379 0.071953160582100412 0 0.26400970731399248 0.087117495682959234 0 0.28053613697809948 0.082519819502565539 0 0.27740419455649601 0.098760427441801538 0 0.28053613697809948 0.082519819502565539 0 0.27072544023006379 0.071953160582100412 0 0.28786993478093142 0.068384021766133646 0 0.2924932473638418 0.055412196499163922 0 0.28786993478093142 0.068384021766133646 0 0.30269987476615101 0.065235042344194694 0 0.28786993478093142 0.068384021766133646 0 0.30269987476615101 0.065235042344194694 0 0.29934089145619519 0.075190829011044208 0 0.28786993478093142 0.068384021766133646 0 0.29353938155917592 0.08146114928309553 0 0.29934089145619519 0.075190829011044208 0 0.28053613697809948 0.082519819502565539 0 0.28786993478093142 0.068384021766133646 0 0.29353938155917592 0.08146114928309553 0 0.28053613697809948 0.082519819502565539 0 0.2899043903342674 0.092492313355914971 0 0.27740419455649601 0.098760427441801538 0 0.28053613697809948 0.082519819502565539 0 0.2899043903342674 0.092492313355914971 0 0.29353938155917592 0.08146114928309553 0 0.2899043903342674 0.092492313355914971 0 0.29353938155917592 0.08146114928309553 0 0.29828753065262159 0.088366150327158027 0 0.31690530208185941 0.089958644028094545 0 0.31171707898121293 0.080140427761071997 0 0.30739918965640722 0.1041011731681238 0 0.31171707898121293 0.080140427761071997 0 0.30768789236908239 0.080562923628361843 0 0.30739918965640722 0.1041011731681238 0 0.29971392400926877 0.081395263062414902 0 0.30768789236908239 0.080562923628361843 0 0.29934089145619519 0.075190829011044208 0 0.29971392400926877 0.081395263062414902 0 0.29828753065262159 0.088366150327158027 0 0.30768789236908239 0.080562923628361843 0 0.30768789236908239 0.080562923628361843 0 0.29934081643214511 0.1049461649027031 0 0.29353938155917592 0.08146114928309553 0 0.29971392400926877 0.081395263062414902 0 0.29934089145619519 0.075190829011044208 0 0.29828753065262159 0.088366150327158027 0 0.30768789236908239 0.080562923628361843 0 0.29934081643214511 0.1049461649027031 0 0.31171707898121293 0.080140427761071997 0 0.30739918965640722 0.1041011731681238 0 0.29353938155917592 0.08146114928309553 0 0.29971392400926877 0.081395263062414902 0 0.29828753065262159 0.088366150327158027 0 0.31603496830601913 0.056179682354020349 0 0.30768789236908239 0.080562923628361843 0 0.30269987476615101 0.065235042344194694 0 0.31603496830601913 0.056179682354020349 0 0.30768789236908239 0.080562923628361843 0 0.31603496830601913 0.056179682354020349 0 0.31171707898121293 0.080140427761071997 0 0.30768789236908239 0.080562923628361843 0 0.30768789236908239 0.080562923628361843 0 0.30269987476615101 0.065235042344194694 0 0.29934089145619519 0.075190829011044208 0 0.31331478950246822 0.1233885057138905 0 0.29934081643214511 0.1049461649027031 0 0.31331478950246822 0.1233885057138905 0 0.30149658561505321 0.11852756870722821 0 0.29934081643214511 0.1049461649027031 0 0.31331478950246822 0.1233885057138905 0 0.30739918965640722 0.1041011731681238 0 0.29934081643214511 0.1049461649027031 0 0.30149658561505321 0.11852756870722821 0 0.29934081643214511 0.1049461649027031 0 0.29297486971990139 0.1235421877251815 0 0.30149658561505321 0.11852756870722821 0 0.29297486971990139 0.1235421877251815 0 0.30172886406909399 0.12663269517692599 0 0.31331478950246822 0.1233885057138905 0 0.30149658561505321 0.11852756870722821 0 0.30172886406909399 0.12663269517692599 0 0.30768789236908239 0.080562923628361843 0 0.30739918965640722 0.1041011731681238 0 0.29934081643214511 0.1049461649027031 0 0.2899043903342674 0.092492313355914971 0 0.29828753065262159 0.088366150327158027 0 0.29934081643214511 0.1049461649027031 0 0.29934081643214511 0.1049461649027031 0 0.28794178128407311 0.1016659339168416 0 0.28511772381338379 0.110464829966947 0 0.2899043903342674 0.092492313355914971 0 0.29934081643214511 0.1049461649027031 0 0.28794178128407311 0.1016659339168416 0 0.2899043903342674 0.092492313355914971 0 0.29934081643214511 0.1049461649027031 0 0.2899043903342674 0.092492313355914971 0 0.28794178128407311 0.1016659339168416 0 0.27740419455649601 0.098760427441801538 0 0.28794178128407311 0.1016659339168416 0 0.28511772381338379 0.110464829966947 0 0.27740419455649601 0.098760427441801538 0 0.29934081643214511 0.1049461649027031 0 0.29297486971990139 0.1235421877251815 0 0.28511772381338379 0.110464829966947 0 0.29297486971990139 0.1235421877251815 0 0.27079176177694808 0.11571067017264949 0 0.29297486971990139 0.1235421877251815 0 0.27079176177694808 0.11571067017264949 0 0.29934081643214511 0.1049461649027031 0 0.28511772381338379 0.110464829966947 0 0.29297486971990139 0.1235421877251815 0 0.27079176177694808 0.11571067017264949 0 0.25796246660041422 0.12514498787557121 0 0.27869780211766843 0.12864953235777821 0 0.29297486971990139 0.1235421877251815 0 0.27079176177694808 0.11571067017264949 0 0.27869780211766843 0.12864953235777821 0 0.27079176177694808 0.11571067017264949 0 0.27740419455649601 0.098760427441801538 0 0.26114673751632739 0.10023781702260549 0 0.26400970731399248 0.087117495682959234 0 0.27740419455649601 0.098760427441801538 0 0.26114673751632739 0.10023781702260549 0 0.28511772381338379 0.110464829966947 0 0.27079176177694808 0.11571067017264949 0 0.27740419455649601 0.098760427441801538 0 0.24860865383399569 0.1078791526201152 0 0.2449193701002049 0.091721339195502294 0 0.26114673751632739 0.10023781702260549 0 0.24860865383399569 0.1078791526201152 0 0.27079176177694808 0.11571067017264949 0 0.26114673751632739 0.10023781702260549 0 0.24860865383399569 0.1078791526201152 0 0.27079176177694808 0.11571067017264949 0 0.24860865383399569 0.1078791526201152 0 0.27079176177694808 0.11571067017264949 0 0.25796246660041422 0.12514498787557121 0 0.242370025005264 0.13515589139757009 0 0.26434953081497992 0.14013946150297779 0 0.25796246660041422 0.12514498787557121 0 0.26434953081497992 0.14013946150297779 0 0.25796246660041422 0.12514498787557121 0 0.27869780211766843 0.12864953235777821 0 0.26434953081497992 0.14013946150297779 0 0.27869780211766843 0.12864953235777821 0 0.28684967266947042 0.14143493946985389 0 0.26434953081497992 0.14013946150297779 0 0.27441815794790192 0.15315276707387229 0 0.28684967266947042 0.14143493946985389 0 0.26434953081497992 0.14013946150297779 0 0.27441815794790192 0.15315276707387229 0 0.25445905839527161 0.16039071336427871 0 0.242370025005264 0.13515589139757009 0 0.26434953081497992 0.14013946150297779 0 0.25445905839527161 0.16039071336427871 0 0.25445905839527161 0.16039071336427871 0 0.25261461925863138 0.1786417962190793 0 0.27273273521517849 0.16967583291489011 0 0.25261461925863138 0.1786417962190793 0 0.27273273521517849 0.16967583291489011 0 0.26741777611568851 0.19154315576832959 0 0.27273273521517849 0.16967583291489011 0 0.29240581061994791 0.1782470255985478 0 0.26741777611568851 0.19154315576832959 0 0.27441815794790192 0.15315276707387229 0 0.25445905839527161 0.16039071336427871 0 0.27273273521517849 0.16967583291489011 0 0.27441815794790192 0.15315276707387229 0 0.27273273521517849 0.16967583291489011 0 0.29264301808634652 0.1561691673518294 0 0.27273273521517849 0.16967583291489011 0 0.29240581061994791 0.1782470255985478 0 0.29264301808634652 0.1561691673518294 0 0.29240581061994791 0.1782470255985478 0 0.30903769941154069 0.16599015489075389 0 0.3176987059829961 0.18905241925974789 0 0.29240581061994791 0.1782470255985478 0 0.30903769941154069 0.16599015489075389 0 0.29264301808634652 0.1561691673518294 0 0.30903769941154069 0.16599015489075389 0 0.30880435935165568 0.1479575959043366 0 0.29264301808634652 0.1561691673518294 0 0.30880435935165568 0.1479575959043366 0 0.29962021686934359 0.13738322023868399 0 0.29264301808634652 0.1561691673518294 0 0.30880435935165568 0.1479575959043366 0 0.31015139847307072 0.13543857271178289 0 0.29962021686934359 0.13738322023868399 0 0.31331478950246822 0.1233885057138905 0 0.31015139847307072 0.13543857271178289 0 0.30172886406909399 0.12663269517692599 0 0.29297486971990139 0.1235421877251815 0 0.30172886406909399 0.12663269517692599 0 0.29297486971990139 0.1235421877251815 0 0.30172886406909399 0.12663269517692599 0 0.29962021686934359 0.13738322023868399 0 0.31015139847307072 0.13543857271178289 0 0.30172886406909399 0.12663269517692599 0 0.29962021686934359 0.13738322023868399 0 0.29297486971990139 0.1235421877251815 0 0.27869780211766843 0.12864953235777821 0 0.28684967266947042 0.14143493946985389 0 0.29297486971990139 0.1235421877251815 0 0.28684967266947042 0.14143493946985389 0 0.29297486971990139 0.1235421877251815 0 0.29962021686934359 0.13738322023868399 0 0.28684967266947042 0.14143493946985389 0 0.29962021686934359 0.13738322023868399 0 0.29264301808634652 0.1561691673518294 0 0.28684967266947042 0.14143493946985389 0 0.27441815794790192 0.15315276707387229 0 0.29264301808634652 0.1561691673518294 0 0.28684967266947042 0.14143493946985389 0 0.26137503399989398 0.2431877453960484 0 0.27314667259571068 0.2273531091990795 0 0.28307155973224662 0.24136411220901249 0 0.28262105895731299 0.26216868327935883 0 0.26137503399989398 0.2431877453960484 0 0.28307155973224662 0.24136411220901249 0 0.23815839548630419 0.23896936503904689 0 0.25348366299370251 0.26496177753465527 0 0.26137503399989398 0.2431877453960484 0 0.26137503399989398 0.2431877453960484 0 0.27314667259571068 0.2273531091990795 0 0.25476133530301109 0.2181275148829821 0 0.23815839548630419 0.23896936503904689 0 0.26137503399989398 0.2431877453960484 0 0.25476133530301109 0.2181275148829821 0 0.27871028743870441 0.20924476582473731 0 0.25476133530301109 0.2181275148829821 0 0.26741777611568851 0.19154315576832959 0 0.27314667259571068 0.2273531091990795 0 0.27871028743870441 0.20924476582473731 0 0.25476133530301109 0.2181275148829821 0 0.23966900094141941 0.19532931555340299 0 0.25476133530301109 0.2181275148829821 0 0.26741777611568851 0.19154315576832959 0 0.23966900094141941 0.19532931555340299 0 0.25261461925863138 0.1786417962190793 0 0.26741777611568851 0.19154315576832959 0 0.27871028743870441 0.20924476582473731 0 0.26741777611568851 0.19154315576832959 0 0.29490492890793729 0.19705142340573609 0 0.29240581061994791 0.1782470255985478 0 0.26741777611568851 0.19154315576832959 0 0.29490492890793729 0.19705142340573609 0 0.29490492890793729 0.19705142340573609 0 0.3105345715952525 0.20650204735625549 0 0.3176987059829961 0.18905241925974789 0 0.29240581061994791 0.1782470255985478 0 0.29490492890793729 0.19705142340573609 0 0.3176987059829961 0.18905241925974789 0 0.29490492890793729 0.19705142340573609 0 0.3105345715952525 0.20650204735625549 0 0.29974123253490498 0.22595838274071911 0 0.27871028743870441 0.20924476582473731 0 0.29490492890793729 0.19705142340573609 0 0.29974123253490498 0.22595838274071911 0 0.31175845492092352 0.25937558902406233 0 0.29974123253490498 0.22595838274071911 0 0.28307155973224662 0.24136411220901249 0 0.31175845492092352 0.25937558902406233 0 0.29974123253490498 0.22595838274071911 0 0.32279090879048999 0.2362447242817112 0 0.27314667259571068 0.2273531091990795 0 0.27871028743870441 0.20924476582473731 0 0.29974123253490498 0.22595838274071911 0 0.27314667259571068 0.2273531091990795 0 0.29974123253490498 0.22595838274071911 0 0.28307155973224662 0.24136411220901249 0 0.34120334275359859 0.24952302012845881 0 0.32279090879048999 0.2362447242817112 0 0.3468879606788306 0.22569118438826 0 0.31175845492092352 0.25937558902406233 0 0.34120334275359859 0.24952302012845881 0 0.32279090879048999 0.2362447242817112 0 0.29974123253490498 0.22595838274071911 0 0.32279090879048999 0.2362447242817112 0 0.32862588727804848 0.21397881079747449 0 0.32279090879048999 0.2362447242817112 0 0.32862588727804848 0.21397881079747449 0 0.3468879606788306 0.22569118438826 0 0.32862588727804848 0.21397881079747449 0 0.35140598010692081 0.20165436080605109 0 0.3468879606788306 0.22569118438826 0 0.3105345715952525 0.20650204735625549 0 0.32862588727804848 0.21397881079747449 0 0.3176987059829961 0.18905241925974789 0 0.3105345715952525 0.20650204735625549 0 0.29974123253490498 0.22595838274071911 0 0.32862588727804848 0.21397881079747449 0 0.32862588727804848 0.21397881079747449 0 0.3176987059829961 0.18905241925974789 0 0.33667114056398378 0.19096542737301531 0 0.32862588727804848 0.21397881079747449 0 0.33667114056398378 0.19096542737301531 0 0.35140598010692081 0.20165436080605109 0 0.35140598010692081 0.20165436080605109 0 0.36003386373506202 0.18808516938735789 0 0.34656619225620872 0.17903562812837071 0 0.33667114056398378 0.19096542737301531 0 0.35140598010692081 0.20165436080605109 0 0.34656619225620872 0.17903562812837071 0 0.35140598010692081 0.20165436080605109 0 0.36003386373506202 0.18808516938735789 0 0.37028298530288711 0.19828438445398611 0 0.37028298530288711 0.19828438445398611 0 0.36895027807776748 0.2206236649479334 0 0.3835261860845639 0.20737595305748971 0 0.35140598010692081 0.20165436080605109 0 0.37028298530288711 0.19828438445398611 0 0.36895027807776748 0.2206236649479334 0 0.37028298530288711 0.19828438445398611 0 0.36895027807776748 0.2206236649479334 0 0.35140598010692081 0.20165436080605109 0 0.3468879606788306 0.22569118438826 0 0.36895027807776748 0.2206236649479334 0 0.36895027807776748 0.2206236649479334 0 0.36403565509757702 0.240127612042288 0 0.39131158527547399 0.22554848994613819 0 0.3468879606788306 0.22569118438826 0 0.36895027807776748 0.2206236649479334 0 0.36403565509757702 0.240127612042288 0 0.34120334275359859 0.24952302012845881 0 0.3468879606788306 0.22569118438826 0 0.36403565509757702 0.240127612042288 0 0.32728876257279182 0.14183084652507749 0 0.32277988891773968 0.157742743478544 0 0.34126273564311538 0.16027318733626439 0 0.34201797381008109 0.14046176169204549 0 0.32728876257279182 0.14183084652507749 0 0.34126273564311538 0.16027318733626439 0 0.32728876257279182 0.14183084652507749 0 0.34126273564311538 0.16027318733626439 0 0.34201797381008109 0.14046176169204549 0 0.32783552986287678 0.12690126447313901 0 0.35500362434251259 0.12896681725381201 0 0.34201797381008109 0.14046176169204549 0 0.32783552986287678 0.12690126447313901 0 0.32728876257279182 0.14183084652507749 0 0.31331478950246822 0.1233885057138905 0 0.31015139847307072 0.13543857271178289 0 0.32728876257279182 0.14183084652507749 0 0.31331478950246822 0.1233885057138905 0 0.32783552986287678 0.12690126447313901 0 0.32728876257279182 0.14183084652507749 0 0.31331478950246822 0.1233885057138905 0 0.32728876257279182 0.14183084652507749 0 0.30880435935165568 0.1479575959043366 0 0.32728876257279182 0.14183084652507749 0 0.32277988891773968 0.157742743478544 0 0.30880435935165568 0.1479575959043366 0 0.31015139847307072 0.13543857271178289 0 0.32728876257279182 0.14183084652507749 0 0.30903769941154069 0.16599015489075389 0 0.30880435935165568 0.1479575959043366 0 0.32277988891773968 0.157742743478544 0 0.30903769941154069 0.16599015489075389 0 0.32277988891773968 0.157742743478544 0 0.32750588760959493 0.17266193273628769 0 0.3176987059829961 0.18905241925974789 0 0.33667114056398378 0.19096542737301531 0 0.32750588760959493 0.17266193273628769 0 0.30903769941154069 0.16599015489075389 0 0.3176987059829961 0.18905241925974789 0 0.32750588760959493 0.17266193273628769 0 0.33667114056398378 0.19096542737301531 0 0.32750588760959493 0.17266193273628769 0 0.34656619225620872 0.17903562812837071 0 0.32750588760959493 0.17266193273628769 0 0.34126273564311538 0.16027318733626439 0 0.34656619225620872 0.17903562812837071 0 0.32277988891773968 0.157742743478544 0 0.32750588760959493 0.17266193273628769 0 0.34126273564311538 0.16027318733626439 0 0.34126273564311538 0.16027318733626439 0 0.35790123354388942 0.16373684912796541 0 0.34656619225620872 0.17903562812837071 0 0.34126273564311538 0.16027318733626439 0 0.35790123354388942 0.16373684912796541 0 0.35724717983797688 0.14757780890220759 0 0.35790123354388942 0.16373684912796541 0 0.34656619225620872 0.17903562812837071 0 0.37161569252800758 0.17594510396003879 0 0.34656619225620872 0.17903562812837071 0 0.37161569252800758 0.17594510396003879 0 0.36003386373506202 0.18808516938735789 0 0.37028298530288711 0.19828438445398611 0 0.37161569252800758 0.17594510396003879 0 0.37028298530288711 0.19828438445398611 0 0.37161569252800758 0.17594510396003879 0 0.37028298530288711 0.19828438445398611 0 0.37161569252800758 0.17594510396003879 0 0.3807444220836752 0.18481224464797871 0 0.36003386373506202 0.18808516938735789 0 0.34656619225620872 0.17903562812837071 0 0.37161569252800758 0.17594510396003879 0 0.37161569252800758 0.17594510396003879 0 0.37281436745413871 0.15585251731294519 0 0.35790123354388942 0.16373684912796541 0 0.37161569252800758 0.17594510396003879 0 0.37281436745413871 0.15585251731294519 0 0.35790123354388942 0.16373684912796541 0 0.37281436745413871 0.15585251731294519 0 0.35724717983797688 0.14757780890220759 0 0.37281436745413871 0.15585251731294519 0 0.37401304238027072 0.13575993066585171 0 0.37281436745413871 0.15585251731294519 0 0.35724717983797688 0.14757780890220759 0 0.37401304238027072 0.13575993066585171 0 0.34201797381008109 0.14046176169204549 0 0.34126273564311538 0.16027318733626439 0 0.35724717983797688 0.14757780890220759 0 0.34201797381008109 0.14046176169204549 0 0.35724717983797688 0.14757780890220759 0 0.35500362434251259 0.12896681725381201 0 0.35724717983797688 0.14757780890220759 0 0.35500362434251259 0.12896681725381201 0 0.37401304238027072 0.13575993066585171 0 0.36897188640866729 0.1184268111539238 0 0.35500362434251259 0.12896681725381201 0 0.37401304238027072 0.13575993066585171 0 0.37401304238027072 0.13575993066585171 0 0.39663620256713278 0.136239011399689 0 0.38845217596780801 0.1172973878425469 0 0.39663620256713278 0.136239011399689 0 0.4062845387100521 0.12566953605525411 0 0.38845217596780801 0.1172973878425469 0 0.39663620256713278 0.136239011399689 0 0.40241290561952842 0.1491727180909235 0 0.41743779301148848 0.1406153034431761 0 0.39663620256713278 0.136239011399689 0 0.40241290561952842 0.1491727180909235 0 0.38701784317337268 0.15022667801386641 0 0.40241290561952842 0.1491727180909235 0 0.38701784317337268 0.15022667801386641 0 0.39432196549205117 0.1609086989223194 0 0.37281436745413871 0.15585251731294519 0 0.37401304238027072 0.13575993066585171 0 0.38701784317337268 0.15022667801386641 0 0.37401304238027072 0.13575993066585171 0 0.39663620256713278 0.136239011399689 0 0.38701784317337268 0.15022667801386641 0 0.37161569252800758 0.17594510396003879 0 0.37281436745413871 0.15585251731294519 0 0.38258953034024162 0.16339162062260901 0 0.37281436745413871 0.15585251731294519 0 0.38701784317337268 0.15022667801386641 0 0.38258953034024162 0.16339162062260901 0 0.37161569252800758 0.17594510396003879 0 0.38258953034024162 0.16339162062260901 0 0.3871777830536377 0.17402510490387529 0 0.38258953034024162 0.16339162062260901 0 0.3871777830536377 0.17402510490387529 0 0.39432196549205117 0.1609086989223194 0 0.38701784317337268 0.15022667801386641 0 0.38258953034024162 0.16339162062260901 0 0.39432196549205117 0.1609086989223194 0 0.37161569252800758 0.17594510396003879 0 0.3807444220836752 0.18481224464797871 0 0.3871777830536377 0.17402510490387529 0 0.37161569252800758 0.17594510396003879 0 0.3871777830536377 0.17402510490387529 0 0.3807444220836752 0.18481224464797871 0 0.3871777830536377 0.17402510490387529 0 0.38970711945727488 0.1815782884554191 0 0.3807444220836752 0.18481224464797871 0 0.38970711945727488 0.1815782884554191 0 0.38493853007656847 0.19422834146657411 0 0.40273987357926821 0.17210510584771349 0 0.41298351810477119 0.1708412789994958 0 0.4021475516901224 0.198194884472817 0 0.38970711945727488 0.1815782884554191 0 0.40273987357926821 0.17210510584771349 0 0.4021475516901224 0.198194884472817 0 0.38970711945727488 0.1815782884554191 0 0.40273987357926821 0.17210510584771349 0 0.3871777830536377 0.17402510490387529 0 0.38970711945727488 0.1815782884554191 0 0.40273987357926821 0.17210510584771349 0 0.3871777830536377 0.17402510490387529 0 0.40273987357926821 0.17210510584771349 0 0.3871777830536377 0.17402510490387529 0 0.40273987357926821 0.17210510584771349 0 0.39432196549205117 0.1609086989223194 0 0.40241290561952842 0.1491727180909235 0 0.39432196549205117 0.1609086989223194 0 0.40676971444305637 0.15892846308489569 0 0.40273987357926821 0.17210510584771349 0 0.39432196549205117 0.1609086989223194 0 0.40676971444305637 0.15892846308489569 0 0.40273987357926821 0.17210510584771349 0 0.4149706565253653 0.16582507663250209 0 0.42412508026592022 0.1565607346311769 0 0.40273987357926821 0.17210510584771349 0 0.40676971444305637 0.15892846308489569 0 0.42412508026592022 0.1565607346311769 0 0.41298351810477119 0.1708412789994958 0 0.4149706565253653 0.16582507663250209 0 0.43599779803218108 0.16800185355944169 0 0.40273987357926821 0.17210510584771349 0 0.42412508026592022 0.1565607346311769 0 0.40273987357926821 0.17210510584771349 0 0.41298351810477119 0.1708412789994958 0 0.4149706565253653 0.16582507663250209 0 0.40273987357926821 0.17210510584771349 0 0.41298351810477119 0.1708412789994958 0 0.41298351810477119 0.1708412789994958 0 0.4149706565253653 0.16582507663250209 0 0.41298351810477119 0.1708412789994958 0 0.4021475516901224 0.198194884472817 0 0.41298351810477119 0.1708412789994958 0 0.41342941522899201 0.18741587210166191 0 0.4190334679436637 0.1815146709451271 0 0.41298351810477119 0.1708412789994958 0 0.41342941522899201 0.18741587210166191 0 0.4021475516901224 0.198194884472817 0 0.41298351810477119 0.1708412789994958 0 0.4190334679436637 0.1815146709451271 0 0.42554828966254649 0.177993944769374 0 0.41342941522899201 0.18741587210166191 0 0.4190334679436637 0.1815146709451271 0 0.42417264877834487 0.18980758790997679 0 0.41298351810477119 0.1708412789994958 0 0.42554828966254649 0.177993944769374 0 0.43599779803218108 0.16800185355944169 0 0.42554828966254649 0.177993944769374 0 0.42417264877834487 0.18980758790997679 0 0.44018150075000761 0.1835511453779558 0 0.4190334679436637 0.1815146709451271 0 0.42554828966254649 0.177993944769374 0 0.42417264877834487 0.18980758790997679 0 0.42554828966254649 0.177993944769374 0 0.43599779803218108 0.16800185355944169 0 0.44018150075000761 0.1835511453779558 0 0.4149706565253653 0.16582507663250209 0 0.42412508026592022 0.1565607346311769 0 0.43599779803218108 0.16800185355944169 0 0.41298351810477119 0.1708412789994958 0 0.43599779803218108 0.16800185355944169 0 0.42412508026592022 0.1565607346311769 0 0.43599779803218108 0.16800185355944169 0 0.44551028695257122 0.141016363414639 0 0.42412508026592022 0.1565607346311769 0 0.42917654569054359 0.13790308473258189 0 0.41743779301148848 0.1406153034431761 0 0.42412508026592022 0.1565607346311769 0 0.42917654569054359 0.13790308473258189 0 0.44551028695257122 0.141016363414639 0 0.42412508026592022 0.1565607346311769 0 0.44551028695257122 0.141016363414639 0 0.43601352707200469 0.1260381673230716 0 0.42917654569054359 0.13790308473258189 0 0.44551028695257122 0.141016363414639 0 0.43601352707200469 0.1260381673230716 0 0.42279604115073349 0.12528485485084589 0 0.42917654569054359 0.13790308473258189 0 0.42279604115073349 0.12528485485084589 0 0.42917654569054359 0.13790308473258189 0 0.41743779301148848 0.1406153034431761 0 0.39663620256713278 0.136239011399689 0 0.4062845387100521 0.12566953605525411 0 0.41743779301148848 0.1406153034431761 0 0.42279604115073349 0.12528485485084589 0 0.4062845387100521 0.12566953605525411 0 0.41743779301148848 0.1406153034431761 0 0.40241290561952842 0.1491727180909235 0 0.41743779301148848 0.1406153034431761 0 0.41268637333499841 0.15131930481254299 0 0.42412508026592022 0.1565607346311769 0 0.41743779301148848 0.1406153034431761 0 0.41268637333499841 0.15131930481254299 0 0.40676971444305637 0.15892846308489569 0 0.42412508026592022 0.1565607346311769 0 0.41268637333499841 0.15131930481254299 0 0.40241290561952842 0.1491727180909235 0 0.40676971444305637 0.15892846308489569 0 0.41268637333499841 0.15131930481254299 0 0.38047561886082559 0.25290209541945968 0 0.39131158527547399 0.22554848994613819 0 0.38047561886082559 0.25290209541945968 0 0.39996680172052312 0.24480030614595971 0 0.39131158527547399 0.22554848994613819 0 0.38047561886082559 0.25290209541945968 0 0.36403565509757702 0.240127612042288 0 0.39131158527547399 0.22554848994613819 0 0.39996680172052312 0.24480030614595971 0 0.39131158527547399 0.22554848994613819 0 0.41358815778341529 0.22323001698016201 0 0.39131158527547399 0.22554848994613819 0 0.4021475516901224 0.198194884472817 0 0.39131158527547399 0.22554848994613819 0 0.4021475516901224 0.198194884472817 0 0.41358815778341529 0.22323001698016201 0 0.39131158527547399 0.22554848994613819 0 0.3835261860845639 0.20737595305748971 0 0.4021475516901224 0.198194884472817 0 0.36895027807776748 0.2206236649479334 0 0.39131158527547399 0.22554848994613819 0 0.3835261860845639 0.20737595305748971 0 0.3835261860845639 0.20737595305748971 0 0.38493853007656847 0.19422834146657411 0 0.4021475516901224 0.198194884472817 0 0.37028298530288711 0.19828438445398611 0 0.3835261860845639 0.20737595305748971 0 0.38493853007656847 0.19422834146657411 0 0.37028298530288711 0.19828438445398611 0 0.3807444220836752 0.18481224464797871 0 0.38493853007656847 0.19422834146657411 0 0.38970711945727488 0.1815782884554191 0 0.38493853007656847 0.19422834146657411 0 0.4021475516901224 0.198194884472817 0 0.41342941522899201 0.18741587210166191 0 0.4021475516901224 0.198194884472817 0 0.41681928671024232 0.2042427180999393 0 0.41342941522899201 0.18741587210166191 0 0.42417264877834487 0.18980758790997679 0 0.41681928671024232 0.2042427180999393 0 0.42417264877834487 0.18980758790997679 0 0.43263620232887229 0.20663392152743129 0 0.44018150075000761 0.1835511453779558 0 0.42417264877834487 0.18980758790997679 0 0.43263620232887229 0.20663392152743129 0 0.41681928671024232 0.2042427180999393 0 0.43263620232887229 0.20663392152743129 0 0.41681928671024232 0.2042427180999393 0 0.41358815778341529 0.22323001698016201 0 0.4021475516901224 0.198194884472817 0 0.41681928671024232 0.2042427180999393 0 0.41358815778341529 0.22323001698016201 0 0.43263620232887229 0.20663392152743129 0 0.4348718703365973 0.23195551696300651 0 0.44417714401256297 0.21827632628721791 0 0.43263620232887229 0.20663392152743129 0 0.41358815778341529 0.22323001698016201 0 0.4348718703365973 0.23195551696300651 0 0.44137813013798938 0.25408075830529098 0 0.4348718703365973 0.23195551696300651 0 0.42062588464296152 0.24913014349927551 0 0.41358815778341529 0.22323001698016201 0 0.4348718703365973 0.23195551696300651 0 0.42062588464296152 0.24913014349927551 0 0.39996680172052312 0.24480030614595971 0 0.41358815778341529 0.22323001698016201 0 0.42062588464296152 0.24913014349927551 0 0.47979116036557939 0.25216128507319407 0 0.45701114446795982 0.23956273009887119 0 0.46921152742340699 0.2164427500273369 0 0.44137813013798938 0.25408075830529098 0 0.4348718703365973 0.23195551696300651 0 0.45701114446795982 0.23956273009887119 0 0.4348718703365973 0.23195551696300651 0 0.45701114446795982 0.23956273009887119 0 0.44417714401256297 0.21827632628721791 0 0.45701114446795982 0.23956273009887119 0 0.44417714401256297 0.21827632628721791 0 0.45701114446795982 0.23956273009887119 0 0.44417714401256297 0.21827632628721791 0 0.46921152742340699 0.2164427500273369 0 0.44417714401256297 0.21827632628721791 0 0.4546428079309362 0.19537413907376069 0 0.46921152742340699 0.2164427500273369 0 0.43263620232887229 0.20663392152743129 0 0.44417714401256297 0.21827632628721791 0 0.4546428079309362 0.19537413907376069 0 0.43263620232887229 0.20663392152743129 0 0.4546428079309362 0.19537413907376069 0 0.44018150075000761 0.1835511453779558 0 0.4546428079309362 0.19537413907376069 0 0.46921152742340699 0.2164427500273369 0 0.47734094183559839 0.18618851446382209 0 0.46921152742340699 0.2164427500273369 0 0.5 0.2203047622599775 0 0.47734094183559839 0.18618851446382209 0 0.5 0.2203047622599775 0 0.5 0.16572067394829679 0 0.47734094183559839 0.18618851446382209 0 0.47979116036557939 0.25216128507319407 0 0.46921152742340699 0.2164427500273369 0 0.5 0.2203047622599775 0 0.5 0.16572067394829679 0 0.48639490800155211 0.12981579837027249 0 0.50000000000000033 0.094889798264562897 0 0.46416172455945032 0.14285531019691031 0 0.45901207795959093 0.16516242811938661 0 0.47817846423573529 0.15468357609252401 0 0.46416172455945032 0.14285531019691031 0 0.44551028695257122 0.141016363414639 0 0.45901207795959093 0.16516242811938661 0 0.46689549363922223 0.1254719921981011 0 0.44551028695257122 0.141016363414639 0 0.44936433981173751 0.1175796597164098 0 0.46689549363922223 0.1254719921981011 0 0.44551028695257122 0.141016363414639 0 0.46416172455945032 0.14285531019691031 0 0.46689549363922223 0.1254719921981011 0 0.44551028695257122 0.141016363414639 0 0.43601352707200469 0.1260381673230716 0 0.44551028695257122 0.141016363414639 0 0.44936433981173751 0.1175796597164098 0 0.43599779803218108 0.16800185355944169 0 0.45901207795959093 0.16516242811938661 0 0.43599779803218108 0.16800185355944169 0 0.44551028695257122 0.141016363414639 0 0.45901207795959093 0.16516242811938661 0 0.43599779803218108 0.16800185355944169 0 0.44018150075000761 0.1835511453779558 0 0.45901207795959093 0.16516242811938661 0 0.4546428079309362 0.19537413907376069 0 0.44018150075000761 0.1835511453779558 0 0.45901207795959093 0.16516242811938661 0 0.4546428079309362 0.19537413907376069 0 0.45901207795959093 0.16516242811938661 0 0.47734094183559839 0.18618851446382209 0 0.5 0.16572067394829679 0 0.47734094183559839 0.18618851446382209 0 0.47817846423573529 0.15468357609252401 0 0.45901207795959093 0.16516242811938661 0 0.47734094183559839 0.18618851446382209 0 0.47817846423573529 0.15468357609252401 0 0.5 0.16572067394829679 0 0.47817846423573529 0.15468357609252401 0 0.48639490800155211 0.12981579837027249 0 0.46416172455945032 0.14285531019691031 0 0.47817846423573529 0.15468357609252401 0 0.48639490800155211 0.12981579837027249 0 0.46416172455945032 0.14285531019691031 0 0.46689549363922223 0.1254719921981011 0 0.48639490800155211 0.12981579837027249 0 0.48639490800155211 0.12981579837027249 0 0.48828070032587317 0.1099276209815632 0 0.50000000000000033 0.094889798264562897 0 0.50000000000000033 0.094889798264562897 0 0.47856084991696413 0.096109539085223461 0 0.48828070032587317 0.1099276209815632 0 0.50000000000000033 0.094889798264562897 0 0.47856084991696413 0.096109539085223461 0 0.47856084991696413 0.096109539085223461 0 0.47306031756756278 0.11391325371602359 0 0.48828070032587317 0.1099276209815632 0 0.47856084991696413 0.096109539085223461 0 0.47306031756756278 0.11391325371602359 0 0.46689549363922223 0.1254719921981011 0 0.48639490800155211 0.12981579837027249 0 0.48828070032587317 0.1099276209815632 0 0.46689549363922223 0.1254719921981011 0 0.48828070032587317 0.1099276209815632 0 0.47306031756756278 0.11391325371602359 0 0.46689549363922223 0.1254719921981011 0 0.48828070032587317 0.1099276209815632 0 0.48488241574427049 0.075648364264313483 0 0.5 0.067561044563619888 0 0.49120398157157669 0.05518718944340345 0 0.48488241574427049 0.075648364264313483 0 0.49120398157157669 0.05518718944340345 0 0.50000000000000033 0.094889798264562897 0 0.47856084991696413 0.096109539085223461 0 0.48488241574427049 0.075648364264313483 0 0.50000000000000033 0.094889798264562897 0 0.48488241574427049 0.075648364264313483 0 0.5 0.067561044563619888 0 0.47856084991696413 0.096109539085223461 0 0.48488241574427049 0.075648364264313483 0 0.46561706764093741 0.080903378675770313 0 0.47856084991696413 0.096109539085223461 0 0.48488241574427049 0.075648364264313483 0 0.48488241574427049 0.075648364264313483 0 0.4735012350808403 0.062101497860225993 0 0.49120398157157669 0.05518718944340345 0 0.48488241574427049 0.075648364264313483 0 0.46561706764093741 0.080903378675770313 0 0.4735012350808403 0.062101497860225993 0 0.45768634739124281 0.064303654350047132 0 0.46561706764093741 0.080903378675770313 0 0.44738235784701491 0.076705722706165325 0 0.45768634739124281 0.064303654350047132 0 0.46561706764093741 0.080903378675770313 0 0.4735012350808403 0.062101497860225993 0 0.46561706764093741 0.080903378675770313 0 0.44738235784701491 0.076705722706165325 0 0.4544814789982104 0.097479490390740331 0 0.47856084991696413 0.096109539085223461 0 0.46561706764093741 0.080903378675770313 0 0.4544814789982104 0.097479490390740331 0 0.44738235784701491 0.076705722706165325 0 0.4544814789982104 0.097479490390740331 0 0.43144939335680871 0.086327492997781058 0 0.44738235784701491 0.076705722706165325 0 0.42783270005540008 0.067466511020814579 0 0.44109797747372159 0.057853498171651099 0 0.45768634739124281 0.064303654350047132 0 0.44738235784701491 0.076705722706165325 0 0.44109797747372159 0.057853498171651099 0 0.46689549363922223 0.1254719921981011 0 0.46119372153897031 0.11500760060836419 0 0.44936433981173751 0.1175796597164098 0 0.46119372153897031 0.11500760060836419 0 0.4544814789982104 0.097479490390740331 0 0.44936433981173751 0.1175796597164098 0 0.46689549363922223 0.1254719921981011 0 0.47306031756756278 0.11391325371602359 0 0.46119372153897031 0.11500760060836419 0 0.47856084991696413 0.096109539085223461 0 0.4544814789982104 0.097479490390740331 0 0.47856084991696413 0.096109539085223461 0 0.47306031756756278 0.11391325371602359 0 0.4544814789982104 0.097479490390740331 0 0.47306031756756278 0.11391325371602359 0 0.46119372153897031 0.11500760060836419 0 0.4544814789982104 0.097479490390740331 0 0.4544814789982104 0.097479490390740331 0 0.44936433981173751 0.1175796597164098 0 0.43087397734491029 0.1089204254835824 0 0.4544814789982104 0.097479490390740331 0 0.43087397734491029 0.1089204254835824 0 0.43144939335680871 0.086327492997781058 0 0.43601352707200469 0.1260381673230716 0 0.44936433981173751 0.1175796597164098 0 0.43087397734491029 0.1089204254835824 0 0.43601352707200469 0.1260381673230716 0 0.42279604115073349 0.12528485485084589 0 0.43087397734491029 0.1089204254835824 0 0.42279604115073349 0.12528485485084589 0 0.40818633507621738 0.1091500477614487 0 0.43087397734491029 0.1089204254835824 0 0.42279604115073349 0.12528485485084589 0 0.4062845387100521 0.12566953605525411 0 0.40818633507621738 0.1091500477614487 0 0.40818633507621738 0.1091500477614487 0 0.43087397734491029 0.1089204254835824 0 0.41288682195314619 0.089697933066340094 0 0.43087397734491029 0.1089204254835824 0 0.43144939335680871 0.086327492997781058 0 0.41288682195314619 0.089697933066340094 0 0.43144939335680871 0.086327492997781058 0 0.42783270005540008 0.067466511020814579 0 0.41349404814653212 0.075408011286968529 0 0.44738235784701491 0.076705722706165325 0 0.43144939335680871 0.086327492997781058 0 0.42783270005540008 0.067466511020814579 0 0.41349404814653212 0.075408011286968529 0 0.39681248536655928 0.074957647159264368 0 0.40998098231766311 0.061028546953628457 0 0.42783270005540008 0.067466511020814579 0 0.41349404814653212 0.075408011286968529 0 0.40998098231766311 0.061028546953628457 0 0.43144939335680871 0.086327492997781058 0 0.41349404814653212 0.075408011286968529 0 0.41288682195314619 0.089697933066340094 0 0.41349404814653212 0.075408011286968529 0 0.41288682195314619 0.089697933066340094 0 0.39681248536655928 0.074957647159264368 0 0.41288682195314619 0.089697933066340094 0 0.39681248536655928 0.074957647159264368 0 0.3928281495911366 0.095521683096436952 0 0.41288682195314619 0.089697933066340094 0 0.3928281495911366 0.095521683096436952 0 0.39681248536655928 0.074957647159264368 0 0.39249543415391158 0.057875251192369283 0 0.40998098231766311 0.061028546953628457 0 0.39681248536655928 0.074957647159264368 0 0.3785704386585852 0.062610727266587604 0 0.39249543415391158 0.057875251192369283 0 0.39681248536655928 0.074957647159264368 0 0.3785704386585852 0.062610727266587604 0 0.37720588383819448 0.081113920407392348 0 0.39681248536655928 0.074957647159264368 0 0.37720588383819448 0.081113920407392348 0 0.3928281495911366 0.095521683096436952 0 0.3727694772291269 0.1013454331265338 0 0.37720588383819448 0.081113920407392348 0 0.3928281495911366 0.095521683096436952 0 0.3727694772291269 0.1013454331265338 0 0.3928281495911366 0.095521683096436952 0 0.3727694772291269 0.1013454331265338 0 0.38845217596780801 0.1172973878425469 0 0.3928281495911366 0.095521683096436952 0 0.36897188640866729 0.1184268111539238 0 0.3727694772291269 0.1013454331265338 0 0.38845217596780801 0.1172973878425469 0 0.36897188640866729 0.1184268111539238 0 0.37401304238027072 0.13575993066585171 0 0.38845217596780801 0.1172973878425469 0 0.4062845387100521 0.12566953605525411 0 0.40818633507621738 0.1091500477614487 0 0.38845217596780801 0.1172973878425469 0 0.40818633507621738 0.1091500477614487 0 0.38845217596780801 0.1172973878425469 0 0.3928281495911366 0.095521683096436952 0 0.40818633507621738 0.1091500477614487 0 0.41288682195314619 0.089697933066340094 0 0.3928281495911366 0.095521683096436952 0 0.40433180328965229 0.020455627858034481 0 0.38550743087864953 0.027053498305232331 0 0.40654123650515928 0.040579303046435741 0 0.40433180328965229 0.020455627858034481 0 0.39188409691427328 0.013105569114289881 0 0.38550743087864953 0.027053498305232331 0 0.40433180328965229 0.020455627858034481 0 0.40108386799856471 0.0060655765239010992 0 0.39188409691427328 0.013105569114289881 0 0.40108386799856471 0.0060655765239010992 0 0.39188409691427328 0.013105569114289881 0 0.38734342563041069 -0.00071605477859646219 0 0.36940081093110122 0.0024380013531546982 0 0.37972164843785078 0.01174314258803808 0 0.38734342563041069 -0.00071605477859646219 0 0.39188409691427328 0.013105569114289881 0 0.37972164843785078 0.01174314258803808 0 0.38734342563041069 -0.00071605477859646219 0 0.36447362525213961 0.013527693564028919 0 0.37972164843785078 0.01174314258803808 0 0.38550743087864953 0.027053498305232331 0 0.39188409691427328 0.013105569114289881 0 0.37972164843785078 0.01174314258803808 0 0.38550743087864953 0.027053498305232331 0 0.38550743087864953 0.027053498305232331 0 0.38417187881002068 0.045967091039355409 0 0.39458905501568992 0.042010759193827962 0 0.36970625667786472 0.033639078085568153 0 0.38550743087864953 0.027053498305232331 0 0.38417187881002068 0.045967091039355409 0 0.3785704386585852 0.062610727266587604 0 0.38417187881002068 0.045967091039355409 0 0.39249543415391158 0.057875251192369283 0 0.36774622979425892 0.050824196821956782 0 0.3785704386585852 0.062610727266587604 0 0.38417187881002068 0.045967091039355409 0 0.38417187881002068 0.045967091039355409 0 0.39249543415391158 0.057875251192369283 0 0.39368853316246488 0.048577562194025793 0 0.39249543415391158 0.057875251192369283 0 0.40303619572215488 0.047876341384090533 0 0.40998098231766311 0.061028546953628457 0 0.39249543415391158 0.057875251192369283 0 0.39368853316246488 0.048577562194025793 0 0.40303619572215488 0.047876341384090533 0 0.38550743087864953 0.027053498305232331 0 0.40654123650515928 0.040579303046435741 0 0.38550743087864953 0.027053498305232331 0 0.39458905501568992 0.042010759193827962 0 0.40654123650515928 0.040579303046435741 0 0.39368853316246488 0.048577562194025793 0 0.40303619572215488 0.047876341384090533 0 0.39458905501568992 0.042010759193827962 0 0.38417187881002068 0.045967091039355409 0 0.39368853316246488 0.048577562194025793 0 0.39458905501568992 0.042010759193827962 0 0.40303619572215488 0.047876341384090533 0 0.39458905501568992 0.042010759193827962 0 0.40654123650515928 0.040579303046435741 0 0.40654123650515928 0.040579303046435741 0 0.43094760192051351 0.038460936255633987 0 0.41859824924691152 0.023472146125891252 0 0.40303619572215488 0.047876341384090533 0 0.40654123650515928 0.040579303046435741 0 0.43094760192051351 0.038460936255633987 0 0.40303619572215488 0.047876341384090533 0 0.43094760192051351 0.038460936255633987 0 0.42783270005540008 0.067466511020814579 0 0.40998098231766311 0.061028546953628457 0 0.42257909149789058 0.054537166757163733 0 0.40303619572215488 0.047876341384090533 0 0.42257909149789058 0.054537166757163733 0 0.43094760192051351 0.038460936255633987 0 0.40303619572215488 0.047876341384090533 0 0.40998098231766311 0.061028546953628457 0 0.42257909149789058 0.054537166757163733 0 0.42783270005540008 0.067466511020814579 0 0.42257909149789058 0.054537166757163733 0 0.44109797747372159 0.057853498171651099 0 0.42257909149789058 0.054537166757163733 0 0.43094760192051351 0.038460936255633987 0 0.44109797747372159 0.057853498171651099 0 0.43094760192051351 0.038460936255633987 0 0.41859824924691152 0.023472146125891252 0 0.43540821697491833 0.01434109525513433 0 0.40433180328965229 0.020455627858034481 0 0.41859824924691152 0.023472146125891252 0 0.41576238754431372 0.0035237682142177269 0 0.40433180328965229 0.020455627858034481 0 0.40654123650515928 0.040579303046435741 0 0.41859824924691152 0.023472146125891252 0 0.40433180328965229 0.020455627858034481 0 0.40108386799856471 0.0060655765239010992 0 0.41576238754431372 0.0035237682142177269 0 0.40108386799856471 0.0060655765239010992 0 0.41576238754431372 0.0035237682142177269 0 0.40323300994169692 -0.0078931379381198957 0 0.41576238754431372 0.0035237682142177269 0 0.43540821697491833 0.01434109525513433 0 0.43288439161852083 -0.011344875891412049 0 0.41859824924691152 0.023472146125891252 0 0.41576238754431372 0.0035237682142177269 0 0.43540821697491833 0.01434109525513433 0 0.43540821697491833 0.01434109525513433 0 0.45885900811887198 0.029045531127177431 0 0.45613496019436961 -0.002980211356257137 0 0.43540821697491833 0.01434109525513433 0 0.45613496019436961 -0.002980211356257137 0 0.43288439161852083 -0.011344875891412049 0 0.45885900811887198 0.029045531127177431 0 0.47266155213384198 0.0092732400558605717 0 0.45613496019436961 -0.002980211356257137 0 0.43094760192051351 0.038460936255633987 0 0.43540821697491833 0.01434109525513433 0 0.45885900811887198 0.029045531127177431 0 0.47266155213384198 0.0092732400558605717 0 0.47581986615222582 -0.0052095218244693634 0 0.45613496019436961 -0.002980211356257137 0 0.45768634739124281 0.064303654350047132 0 0.44109797747372159 0.057853498171651099 0 0.45948807369684058 0.047764800201649027 0 0.43094760192051351 0.038460936255633987 0 0.44109797747372159 0.057853498171651099 0 0.45948807369684058 0.047764800201649027 0 0.43094760192051351 0.038460936255633987 0 0.45885900811887198 0.029045531127177431 0 0.43094760192051351 0.038460936255633987 0 0.45885900811887198 0.029045531127177431 0 0.45948807369684058 0.047764800201649027 0 0.45885900811887198 0.029045531127177431 0 0.45948807369684058 0.047764800201649027 0 0.47735178898170832 0.03593274623382451 0 0.45768634739124281 0.064303654350047132 0 0.45948807369684058 0.047764800201649027 0 0.4735012350808403 0.062101497860225993 0 0.45948807369684058 0.047764800201649027 0 0.4735012350808403 0.062101497860225993 0 0.47915154287323491 0.049690618353675622 0 0.4735012350808403 0.062101497860225993 0 0.47915154287323491 0.049690618353675622 0 0.49120398157157669 0.05518718944340345 0 0.45948807369684058 0.047764800201649027 0 0.47915154287323491 0.049690618353675622 0 0.47735178898170832 0.03593274623382451 0 0.47915154287323491 0.049690618353675622 0 0.47735178898170832 0.03593274623382451 0 0.48698128702171212 0.04133721869945927 0 0.49752554739888277 0.034726014622493369 0 0.48698128702171212 0.04133721869945927 0 0.49120398157157669 0.05518718944340345 0 0.49752554739888277 0.034726014622493369 0 0.49120398157157669 0.05518718944340345 0 0.5 0.040232290862676989 0 0.49752554739888277 0.034726014622493369 0 0.49120398157157669 0.05518718944340345 0 0.47735178898170832 0.03593274623382451 0 0.48698128702171212 0.04133721869945927 0 0.48916461116283838 0.030718103156834639 0 0.49752554739888277 0.034726014622493369 0 0.48698128702171212 0.04133721869945927 0 0.48916461116283838 0.030718103156834639 0 0.5 0.067561044563619888 0 0.5 0.040232290862676989 0 0.49120398157157669 0.05518718944340345 0 0.47915154287323491 0.049690618353675622 0 0.48698128702171212 0.04133721869945927 0 0.49120398157157669 0.05518718944340345 0 0.48420986222376983 0.0091193608145344485 0 0.47266155213384198 0.0092732400558605717 0 0.48677041431723073 0.019630125998720879 0 0.48420986222376983 0.0091193608145344485 0 0.49064376094960432 0.000245543645146791 0 0.47581986615222582 -0.0052095218244693634 0 0.48420986222376983 0.0091193608145344485 0 0.47266155213384198 0.0092732400558605717 0 0.47581986615222582 -0.0052095218244693634 0 0.45885900811887198 0.029045531127177431 0 0.48677041431723073 0.019630125998720879 0 0.45885900811887198 0.029045531127177431 0 0.47735178898170832 0.03593274623382451 0 0.48677041431723073 0.019630125998720879 0 0.45885900811887198 0.029045531127177431 0 0.47266155213384198 0.0092732400558605717 0 0.48677041431723073 0.019630125998720879 0 0.47735178898170832 0.03593274623382451 0 0.48677041431723073 0.019630125998720879 0 0.48916461116283838 0.030718103156834639 0 0.48420986222376983 0.0091193608145344485 0 0.48677041431723073 0.019630125998720879 0 0.49607092707479322 0.022539535027572818 0 0.49752554739888277 0.034726014622493369 0 0.49607092707479322 0.022539535027572818 0 0.5 0.012903537161734089 0 0.5 0.040232290862676989 0 0.49752554739888277 0.034726014622493369 0 0.5 0.012903537161734089 0 0.48677041431723073 0.019630125998720879 0 0.48916461116283838 0.030718103156834639 0 0.49607092707479322 0.022539535027572818 0 0.49752554739888277 0.034726014622493369 0 0.48916461116283838 0.030718103156834639 0 0.49607092707479322 0.022539535027572818 0 0.49607092707479322 0.022539535027572818 0 0.49064376094960432 0.000245543645146791 0 0.49607092707479322 0.022539535027572818 0 0.5 0.012903537161734089 0 0.49064376094960432 0.000245543645146791 0 0.48420986222376983 0.0091193608145344485 0 0.49607092707479322 0.022539535027572818 0 0.49064376094960432 0.000245543645146791 0 0.49064376094960432 0.000245543645146791 0 0.5 -0.0144252165392087 0 0.48521659482441543 -0.022048447737279351 0 0.5 0.012903537161734089 0 0.49064376094960432 0.000245543645146791 0 0.5 -0.0144252165392087 0 0.49064376094960432 0.000245543645146791 0 0.48521659482441543 -0.022048447737279351 0 0.49064376094960432 0.000245543645146791 0 0.47581986615222582 -0.0052095218244693634 0 0.48521659482441543 -0.022048447737279351 0 0.47581986615222582 -0.0052095218244693634 0 0.48521659482441543 -0.022048447737279351 0 0.466157651164057 -0.024765455952518809 0 0.48521659482441543 -0.022048447737279351 0 0.47978942869922647 -0.044342439119705548 0 0.466157651164057 -0.024765455952518809 0 0.5 -0.0144252165392087 0 0.48521659482441543 -0.022048447737279351 0 0.5 -0.041753970240151483 0 0.48521659482441543 -0.022048447737279351 0 0.5 -0.041753970240151483 0 0.47978942869922647 -0.044342439119705548 0 0.5 -0.041753970240151483 0 0.4881052687717663 -0.058174396448903549 0 0.5 -0.069082723941094382 0 0.5 -0.041753970240151483 0 0.4881052687717663 -0.058174396448903549 0 0.47978942869922647 -0.044342439119705548 0 0.47978942869922647 -0.044342439119705548 0 0.46835978856604688 -0.053521545551251798 0 0.47128187323774579 -0.064160572866900578 0 0.47978942869922647 -0.044342439119705548 0 0.47436226257403757 -0.06663643050213168 0 0.4881052687717663 -0.058174396448903549 0 0.47978942869922647 -0.044342439119705548 0 0.47436226257403757 -0.06663643050213168 0 0.47978942869922647 -0.044342439119705548 0 0.47436226257403757 -0.06663643050213168 0 0.47128187323774579 -0.064160572866900578 0 0.47978942869922647 -0.044342439119705548 0 0.45932555748167941 -0.044834715346668198 0 0.46835978856604688 -0.053521545551251798 0 0.48521659482441543 -0.022048447737279351 0 0.47978942869922647 -0.044342439119705548 0 0.45932555748167941 -0.044834715346668198 0 0.44799405591033542 -0.027537959904253721 0 0.466157651164057 -0.024765455952518809 0 0.47978942869922647 -0.044342439119705548 0 0.45932555748167941 -0.044834715346668198 0 0.466157651164057 -0.024765455952518809 0 0.46622674941589798 -0.060023594758148578 0 0.46835978856604688 -0.053521545551251798 0 0.47128187323774579 -0.064160572866900578 0 0.46622674941589798 -0.060023594758148578 0 0.46069151047703327 -0.056785889565399067 0 0.46362593853808359 -0.064542651979212745 0 0.46622674941589798 -0.060023594758148578 0 0.46835978856604688 -0.053521545551251798 0 0.46069151047703327 -0.056785889565399067 0 0.45932555748167941 -0.044834715346668198 0 0.46835978856604688 -0.053521545551251798 0 0.46069151047703327 -0.056785889565399067 0 0.45932555748167941 -0.044834715346668198 0 0.46069151047703327 -0.056785889565399067 0 0.45188410347885011 -0.054716235214420761 0 0.46069151047703327 -0.056785889565399067 0 0.45188410347885011 -0.054716235214420761 0 0.45472692538164222 -0.063076594542692335 0 0.46069151047703327 -0.056785889565399067 0 0.46362593853808359 -0.064542651979212745 0 0.45472692538164222 -0.063076594542692335 0 0.44256044761929969 -0.046989143658262268 0 0.45188410347885011 -0.054716235214420761 0 0.44281756627649033 -0.062766504175938945 0 0.45932555748167941 -0.044834715346668198 0 0.44256044761929969 -0.046989143658262268 0 0.45188410347885011 -0.054716235214420761 0 0.45188410347885011 -0.054716235214420761 0 0.45472692538164222 -0.063076594542692335 0 0.44281756627649033 -0.062766504175938945 0 0.44256044761929969 -0.046989143658262268 0 0.44799405591033542 -0.027537959904253721 0 0.42904548457443398 -0.034712032243137937 0 0.45932555748167941 -0.044834715346668198 0 0.44256044761929969 -0.046989143658262268 0 0.44799405591033542 -0.027537959904253721 0 0.44799405591033542 -0.027537959904253721 0 0.45613496019436961 -0.002980211356257137 0 0.43288439161852083 -0.011344875891412049 0 0.47581986615222582 -0.0052095218244693634 0 0.45613496019436961 -0.002980211356257137 0 0.466157651164057 -0.024765455952518809 0 0.44799405591033542 -0.027537959904253721 0 0.45613496019436961 -0.002980211356257137 0 0.466157651164057 -0.024765455952518809 0 0.47623736715543341 -0.123396859174721 0 0.48489179088384271 -0.102715957097158 0 0.46558387320013422 -0.1107729259557579 0 0.49244589544192102 -0.1241158958275623 0 0.5 -0.1209636561000018 0 0.48489179088384271 -0.102715957097158 0 0.49244589544192102 -0.1241158958275623 0 0.48489179088384271 -0.102715957097158 0 0.47623736715543341 -0.123396859174721 0 0.49244589544192102 -0.1241158958275623 0 0.48489179088384271 -0.102715957097158 0 0.48489179088384271 -0.102715957097158 0 0.50000000000000067 -0.096411477642037224 0 0.48988400409300692 -0.084843662758831262 0 0.5 -0.1209636561000018 0 0.48489179088384271 -0.102715957097158 0 0.50000000000000067 -0.096411477642037224 0 0.48489179088384271 -0.102715957097158 0 0.50000000000000067 -0.096411477642037224 0 0.48489179088384271 -0.102715957097158 0 0.46558387320013422 -0.1107729259557579 0 0.48489179088384271 -0.102715957097158 0 0.4709994763600896 -0.096162373344244767 0 0.46558387320013422 -0.1107729259557579 0 0.48489179088384271 -0.102715957097158 0 0.4709994763600896 -0.096162373344244767 0 0.47808683206079372 -0.083438264982029484 0 0.48489179088384271 -0.102715957097158 0 0.47808683206079372 -0.083438264982029484 0 0.48988400409300692 -0.084843662758831262 0 0.48489179088384271 -0.102715957097158 0 0.47808683206079372 -0.083438264982029484 0 0.4709994763600896 -0.096162373344244767 0 0.47808683206079372 -0.083438264982029484 0 0.46666288844268339 -0.081861664618023744 0 0.47808683206079372 -0.083438264982029484 0 0.46840626001669933 -0.073171473647057991 0 0.46666288844268339 -0.081861664618023744 0 0.50000000000000067 -0.096411477642037224 0 0.48988400409300692 -0.084843662758831262 0 0.5 -0.069082723941094382 0 0.47808683206079372 -0.083438264982029484 0 0.48988400409300692 -0.084843662758831262 0 0.48644139752039761 -0.072569890131836914 0 0.48988400409300692 -0.084843662758831262 0 0.48644139752039761 -0.072569890131836914 0 0.5 -0.069082723941094382 0 0.4881052687717663 -0.058174396448903549 0 0.48644139752039761 -0.072569890131836914 0 0.5 -0.069082723941094382 0 0.47808683206079372 -0.083438264982029484 0 0.47128187323774579 -0.064160572866900578 0 0.46840626001669933 -0.073171473647057991 0 0.47808683206079372 -0.083438264982029484 0 0.47128187323774579 -0.064160572866900578 0 0.47808683206079372 -0.083438264982029484 0 0.47436226257403757 -0.06663643050213168 0 0.47128187323774579 -0.064160572866900578 0 0.4881052687717663 -0.058174396448903549 0 0.48644139752039761 -0.072569890131836914 0 0.47436226257403757 -0.06663643050213168 0 0.47808683206079372 -0.083438264982029484 0 0.48644139752039761 -0.072569890131836914 0 0.47436226257403757 -0.06663643050213168 0 0.46362593853808359 -0.064542651979212745 0 0.46840626001669933 -0.073171473647057991 0 0.46237376780418987 -0.071854213789123378 0 0.47128187323774579 -0.064160572866900578 0 0.46362593853808359 -0.064542651979212745 0 0.46840626001669933 -0.073171473647057991 0 0.46362593853808359 -0.064542651979212745 0 0.46237376780418987 -0.071854213789123378 0 0.45738402617758789 -0.068970999105941053 0 0.46622674941589798 -0.060023594758148578 0 0.47128187323774579 -0.064160572866900578 0 0.46362593853808359 -0.064542651979212745 0 0.46237376780418987 -0.071854213789123378 0 0.45583221535890539 -0.076091296271011383 0 0.46666288844268339 -0.081861664618023744 0 0.46840626001669933 -0.073171473647057991 0 0.46237376780418987 -0.071854213789123378 0 0.46666288844268339 -0.081861664618023744 0 0.46237376780418987 -0.071854213789123378 0 0.45583221535890539 -0.076091296271011383 0 0.45738402617758789 -0.068970999105941053 0 0.45583221535890539 -0.076091296271011383 0 0.45738402617758789 -0.068970999105941053 0 0.45036128380511831 -0.069290238947665367 0 0.45738402617758789 -0.068970999105941053 0 0.45472692538164222 -0.063076594542692335 0 0.45036128380511831 -0.069290238947665367 0 0.46362593853808359 -0.064542651979212745 0 0.45738402617758789 -0.068970999105941053 0 0.45472692538164222 -0.063076594542692335 0 0.45036128380511831 -0.069290238947665367 0 0.44281756627649033 -0.062766504175938945 0 0.44343904452425659 -0.0758609520706955 0 0.45472692538164222 -0.063076594542692335 0 0.45036128380511831 -0.069290238947665367 0 0.44281756627649033 -0.062766504175938945 0 0.44281756627649033 -0.062766504175938945 0 0.44343904452425659 -0.0758609520706955 0 0.43073454498719249 -0.07349431862830981 0 0.45583221535890539 -0.076091296271011383 0 0.45036128380511831 -0.069290238947665367 0 0.44343904452425659 -0.0758609520706955 0 0.45583221535890539 -0.076091296271011383 0 0.44343904452425659 -0.0758609520706955 0 0.45103759578760411 -0.084722273292083303 0 0.45103759578760411 -0.084722273292083303 0 0.44073519099281899 -0.088497978557113041 0 0.45636860587928202 -0.094449389591319904 0 0.44343904452425659 -0.0758609520706955 0 0.45103759578760411 -0.084722273292083303 0 0.44073519099281899 -0.088497978557113041 0 0.44343904452425659 -0.0758609520706955 0 0.44073519099281899 -0.088497978557113041 0 0.43073454498719249 -0.07349431862830981 0 0.45103759578760411 -0.084722273292083303 0 0.46666288844268339 -0.081861664618023744 0 0.45636860587928202 -0.094449389591319904 0 0.45583221535890539 -0.076091296271011383 0 0.45103759578760411 -0.084722273292083303 0 0.46666288844268339 -0.081861664618023744 0 0.4709994763600896 -0.096162373344244767 0 0.46666288844268339 -0.081861664618023744 0 0.45636860587928202 -0.094449389591319904 0 0.45636860587928202 -0.094449389591319904 0 0.44350557325462359 -0.1036639366857371 0 0.46558387320013422 -0.1107729259557579 0 0.4709994763600896 -0.096162373344244767 0 0.45636860587928202 -0.094449389591319904 0 0.46558387320013422 -0.1107729259557579 0 0.44073519099281899 -0.088497978557113041 0 0.45636860587928202 -0.094449389591319904 0 0.44350557325462359 -0.1036639366857371 0 0.44073519099281899 -0.088497978557113041 0 0.44350557325462359 -0.1036639366857371 0 0.44350557325462359 -0.1036639366857371 0 0.44627595551642729 -0.11882989481436131 0 0.46558387320013422 -0.1107729259557579 0 0.44350557325462359 -0.1036639366857371 0 0.44627595551642729 -0.11882989481436131 0 0.44350557325462359 -0.1036639366857371 0 0.44627595551642729 -0.11882989481436131 0 0.43085119986478609 -0.11162800181723349 0 0.44627595551642729 -0.11882989481436131 0 0.46558387320013422 -0.1107729259557579 0 0.44627595551642729 -0.11882989481436131 0 0.46558387320013422 -0.1107729259557579 0 0.46198094227655639 -0.1290833837562918 0 0.47623736715543341 -0.123396859174721 0 0.46558387320013422 -0.1107729259557579 0 0.46198094227655639 -0.1290833837562918 0 0.41007334878776452 -0.1068888184614557 0 0.42651198739343499 -0.12707716820229309 0 0.4067480192704449 -0.13532444159022999 0 0.41007334878776452 -0.1068888184614557 0 0.4067480192704449 -0.13532444159022999 0 0.43085119986478609 -0.11162800181723349 0 0.41007334878776452 -0.1068888184614557 0 0.42651198739343499 -0.12707716820229309 0 0.44627595551642729 -0.11882989481436131 0 0.43085119986478609 -0.11162800181723349 0 0.42651198739343499 -0.12707716820229309 0 0.44627595551642729 -0.11882989481436131 0 0.42651198739343499 -0.12707716820229309 0 0.44350557325462359 -0.1036639366857371 0 0.43085119986478609 -0.11162800181723349 0 0.42618328788660348 -0.098992204164819589 0 0.44073519099281899 -0.088497978557113041 0 0.44350557325462359 -0.1036639366857371 0 0.42618328788660348 -0.098992204164819589 0 0.43085119986478609 -0.11162800181723349 0 0.42618328788660348 -0.098992204164819589 0 0.41007334878776452 -0.1068888184614557 0 0.42618328788660348 -0.098992204164819589 0 0.41007334878776452 -0.1068888184614557 0 0.41339867830508331 -0.078453195332681303 0 0.41007334878776452 -0.1068888184614557 0 0.41339867830508331 -0.078453195332681303 0 0.41007334878776452 -0.1068888184614557 0 0.41339867830508331 -0.078453195332681303 0 0.40151161269242969 -0.093163392033961248 0 0.41339867830508331 -0.078453195332681303 0 0.42776292554292461 -0.084859424170730932 0 0.43073454498719249 -0.07349431862830981 0 0.42618328788660348 -0.098992204164819589 0 0.41339867830508331 -0.078453195332681303 0 0.42776292554292461 -0.084859424170730932 0 0.44073519099281899 -0.088497978557113041 0 0.42618328788660348 -0.098992204164819589 0 0.42776292554292461 -0.084859424170730932 0 0.44073519099281899 -0.088497978557113041 0 0.42776292554292461 -0.084859424170730932 0 0.43073454498719249 -0.07349431862830981 0 0.41339867830508331 -0.078453195332681303 0 0.43073454498719249 -0.07349431862830981 0 0.42429591799400967 -0.057367415065154082 0 0.44281756627649033 -0.062766504175938945 0 0.43073454498719249 -0.07349431862830981 0 0.42429591799400967 -0.057367415065154082 0 0.41339867830508331 -0.078453195332681303 0 0.40454381731590522 -0.062865608384830393 0 0.42429591799400967 -0.057367415065154082 0 0.40454381731590522 -0.062865608384830393 0 0.39068635175884242 -0.081142394517014174 0 0.38828597174031682 -0.05531154409897765 0 0.41339867830508331 -0.078453195332681303 0 0.40454381731590522 -0.062865608384830393 0 0.39068635175884242 -0.081142394517014174 0 0.39068635175884242 -0.081142394517014174 0 0.38828597174031682 -0.05531154409897765 0 0.37031295101771011 -0.075669398266300786 0 0.39068635175884242 -0.081142394517014174 0 0.38828597174031682 -0.05531154409897765 0 0.39068635175884242 -0.081142394517014174 0 0.37031295101771011 -0.075669398266300786 0 0.37313551750079982 -0.1001775773275448 0 0.41339867830508331 -0.078453195332681303 0 0.39068635175884242 -0.081142394517014174 0 0.40151161269242969 -0.093163392033961248 0 0.41007334878776452 -0.1068888184614557 0 0.40151161269242969 -0.093163392033961248 0 0.39308673177736791 -0.1069732449350507 0 0.39068635175884242 -0.081142394517014174 0 0.39308673177736791 -0.1069732449350507 0 0.39068635175884242 -0.081142394517014174 0 0.40151161269242969 -0.093163392033961248 0 0.39308673177736791 -0.1069732449350507 0 0.39068635175884242 -0.081142394517014174 0 0.39308673177736791 -0.1069732449350507 0 0.37313551750079982 -0.1001775773275448 0 0.39308673177736791 -0.1069732449350507 0 0.37540706152867631 -0.1221168480718872 0 0.37313551750079982 -0.1001775773275448 0 0.39308673177736791 -0.1069732449350507 0 0.37540706152867631 -0.1221168480718872 0 0.38652555858256898 -0.12392932352082441 0 0.39308673177736791 -0.1069732449350507 0 0.40134880290786801 -0.120497650084956 0 0.39548711179589352 -0.13280409535308729 0 0.41007334878776452 -0.1068888184614557 0 0.39308673177736791 -0.1069732449350507 0 0.40134880290786801 -0.120497650084956 0 0.39308673177736791 -0.1069732449350507 0 0.39548711179589352 -0.13280409535308729 0 0.39308673177736791 -0.1069732449350507 0 0.38652555858256898 -0.12392932352082441 0 0.39548711179589352 -0.13280409535308729 0 0.41007334878776452 -0.1068888184614557 0 0.40134880290786801 -0.120497650084956 0 0.4067480192704449 -0.13532444159022999 0 0.41576238754431372 0.0035237682142177269 0 0.41125866547790652 -0.022570569086933161 0 0.40323300994169692 -0.0078931379381198957 0 0.41576238754431372 0.0035237682142177269 0 0.41125866547790652 -0.022570569086933161 0 0.43288439161852083 -0.011344875891412049 0 0.44799405591033542 -0.027537959904253721 0 0.43288439161852083 -0.011344875891412049 0 0.42904548457443398 -0.034712032243137937 0 0.41125866547790652 -0.022570569086933161 0 0.43288439161852083 -0.011344875891412049 0 0.42904548457443398 -0.034712032243137937 0 0.44256044761929969 -0.046989143658262268 0 0.42904548457443398 -0.034712032243137937 0 0.42429591799400967 -0.057367415065154082 0 0.44256044761929969 -0.046989143658262268 0 0.44281756627649033 -0.062766504175938945 0 0.42429591799400967 -0.057367415065154082 0 0.40454381731590522 -0.062865608384830393 0 0.42429591799400967 -0.057367415065154082 0 0.4051150440700112 -0.042689778055652071 0 0.41125866547790652 -0.022570569086933161 0 0.42904548457443398 -0.034712032243137937 0 0.4051150440700112 -0.042689778055652071 0 0.42904548457443398 -0.034712032243137937 0 0.42429591799400967 -0.057367415065154082 0 0.4051150440700112 -0.042689778055652071 0 0.4051150440700112 -0.042689778055652071 0 0.38828597174031682 -0.05531154409897765 0 0.38588559172179132 -0.029480693680941129 0 0.41125866547790652 -0.022570569086933161 0 0.4051150440700112 -0.042689778055652071 0 0.38588559172179132 -0.029480693680941129 0 0.40454381731590522 -0.062865608384830393 0 0.4051150440700112 -0.042689778055652071 0 0.38828597174031682 -0.05531154409897765 0 0.38828597174031682 -0.05531154409897765 0 0.367919651652859 -0.053263164775586007 0 0.37031295101771011 -0.075669398266300786 0 0.38828597174031682 -0.05531154409897765 0 0.37087155744340972 -0.038545650828355899 0 0.367919651652859 -0.053263164775586007 0 0.38828597174031682 -0.05531154409897765 0 0.38588559172179132 -0.029480693680941129 0 0.38828597174031682 -0.05531154409897765 0 0.38588559172179132 -0.029480693680941129 0 0.37087155744340972 -0.038545650828355899 0 0.38588559172179132 -0.029480693680941129 0 0.37403782560823262 -0.010606928913394679 0 0.36759612655687318 -0.020192181303627248 0 0.41125866547790652 -0.022570569086933161 0 0.38588559172179132 -0.029480693680941129 0 0.40323300994169692 -0.0078931379381198957 0 0.40108386799856471 0.0060655765239010992 0 0.40323300994169692 -0.0078931379381198957 0 0.38734342563041069 -0.00071605477859646219 0 0.38588559172179132 -0.029480693680941129 0 0.40323300994169692 -0.0078931379381198957 0 0.38734342563041069 -0.00071605477859646219 0 0.38588559172179132 -0.029480693680941129 0 0.38734342563041069 -0.00071605477859646219 0 0.37403782560823262 -0.010606928913394679 0 0.36940081093110122 0.0024380013531546982 0 0.38734342563041069 -0.00071605477859646219 0 0.37403782560823262 -0.010606928913394679 0 0.36940081093110122 0.0024380013531546982 0 0.37403782560823262 -0.010606928913394679 0 0.36268257323982639 -0.0065552718449428168 0 0.37403782560823262 -0.010606928913394679 0 0.36268257323982639 -0.0065552718449428168 0 0.36759612655687318 -0.020192181303627248 0 0.36268257323982639 -0.0065552718449428168 0 0.36759612655687318 -0.020192181303627248 0 0.35456051075426781 -0.01298090755962863 0 0.36940081093110122 0.0024380013531546982 0 0.35731025264866528 0.001549759338037285 0 0.36268257323982639 -0.0065552718449428168 0 0.36759612655687318 -0.020192181303627248 0 0.35705558760542933 -0.028616006936371279 0 0.35456051075426781 -0.01298090755962863 0 0.38588559172179132 -0.029480693680941129 0 0.36759612655687318 -0.020192181303627248 0 0.37087155744340972 -0.038545650828355899 0 0.36759612655687318 -0.020192181303627248 0 0.35705558760542933 -0.028616006936371279 0 0.37087155744340972 -0.038545650828355899 0 0.35705558760542933 -0.028616006936371279 0 0.33946268692291898 -0.031440227007083862 0 0.35705558760542933 -0.028616006936371279 0 0.34711004929144729 -0.02287010871688603 0 0.35456051075426781 -0.01298090755962863 0 0.35705558760542933 -0.028616006936371279 0 0.34711004929144729 -0.02287010871688603 0 0.33946268692291898 -0.031440227007083862 0 0.34711004929144729 -0.02287010871688603 0 0.3449994955542991 -0.014494848000891611 0 0.34202034693613981 -0.019866648865608631 0 0.34711004929144729 -0.02287010871688603 0 0.35456051075426781 -0.01298090755962863 0 0.3449994955542991 -0.014494848000891611 0 0.35731025264866528 0.001549759338037285 0 0.35214180127490019 -0.00524891996966896 0 0.34929042176046959 -0.0019858673855873408 0 0.35731025264866528 0.001549759338037285 0 0.36268257323982639 -0.0065552718449428168 0 0.35214180127490019 -0.00524891996966896 0 0.36268257323982639 -0.0065552718449428168 0 0.35214180127490019 -0.00524891996966896 0 0.35456051075426781 -0.01298090755962863 0 0.35214180127490019 -0.00524891996966896 0 0.35456051075426781 -0.01298090755962863 0 0.34790314944294182 -0.0091302509069720438 0 0.35456051075426781 -0.01298090755962863 0 0.34790314944294182 -0.0091302509069720438 0 0.3449994955542991 -0.014494848000891611 0 0.34790314944294182 -0.0091302509069720438 0 0.3449994955542991 -0.014494848000891611 0 0.34354412613855839 -0.0086803812711278711 0 0.34790314944294182 -0.0091302509069720438 0 0.34426981349268337 -0.0042461977335431578 0 0.34354412613855839 -0.0086803812711278711 0 0.35214180127490019 -0.00524891996966896 0 0.34426981349268337 -0.0042461977335431578 0 0.34929042176046959 -0.0019858673855873408 0 0.35214180127490019 -0.00524891996966896 0 0.34790314944294182 -0.0091302509069720438 0 0.34426981349268337 -0.0042461977335431578 0 0.34283295550395021 0.001076216492461129 0 0.34426981349268337 -0.0042461977335431578 0 0.34929042176046959 -0.0019858673855873408 0 0.34283295550395021 0.001076216492461129 0 0.33994158364001131 -0.0042856382226061076 0 0.33380431608871358 -0.0077736889940208439 0 0.34283295550395021 0.001076216492461129 0 0.33650931121741101 -0.0034436008223670041 0 0.33380431608871358 -0.0077736889940208439 0 0.34283295550395021 0.001076216492461129 0 0.34426981349268337 -0.0042461977335431578 0 0.33994158364001131 -0.0042856382226061076 0 0.34426981349268337 -0.0042461977335431578 0 0.34199029909861778 -0.0062249090261328587 0 0.34354412613855839 -0.0086803812711278711 0 0.34426981349268337 -0.0042461977335431578 0 0.34199029909861778 -0.0062249090261328587 0 0.33994158364001131 -0.0042856382226061076 0 0.34199029909861778 -0.0062249090261328587 0 0.3402056731232182 -0.0076874188772542967 0 0.34354412613855839 -0.0086803812711278711 0 0.34199029909861778 -0.0062249090261328587 0 0.33994158364001131 -0.0042856382226061076 0 0.3402056731232182 -0.0076874188772542967 0 0.33994158364001131 -0.0042856382226061076 0 0.33778509391431438 -0.0071638467724377177 0 0.33380431608871358 -0.0077736889940208439 0 0.33994158364001131 -0.0042856382226061076 0 0.3402056731232182 -0.0076874188772542967 0 0.33778509391431438 -0.0071638467724377177 0 0.34283295550395021 0.001076216492461129 0 0.33650931121741101 -0.0034436008223670041 0 0.33650931121741101 -0.0034436008223670041 0 0.32880333585876309 -0.0049329567662216214 0 0.32240601399911928 -0.013523915918377609 0 0.33030905587603782 0.0009821161988461172 0 0.32880333585876309 -0.0049329567662216214 0 0.32611102312595602 -0.0039172008977574682 0 0.33030905587603782 0.0009821161988461172 0 0.33650931121741101 -0.0034436008223670041 0 0.32880333585876309 -0.0049329567662216214 0 0.33650931121741101 -0.0034436008223670041 0 0.32240601399911928 -0.013523915918377609 0 0.33650931121741101 -0.0034436008223670041 0 0.33380431608871358 -0.0077736889940208439 0 0.32240601399911928 -0.013523915918377609 0 0.33380431608871358 -0.0077736889940208439 0 0.33059011470736688 -0.01015276827647767 0 0.32240601399911928 -0.013523915918377609 0 0.3311620653503598 -0.01290252267936828 0 0.32851695259314317 -0.013139275078973261 0 0.33059011470736688 -0.01015276827647767 0 0.3311620653503598 -0.01290252267936828 0 0.33371364524218711 -0.014893310280201881 0 0.32990961631572691 -0.015977893441669461 0 0.3311620653503598 -0.01290252267936828 0 0.32851695259314317 -0.013139275078973261 0 0.32990961631572691 -0.015977893441669461 0 0.33380431608871358 -0.0077736889940208439 0 0.33059011470736688 -0.01015276827647767 0 0.3347774564611169 -0.01150834125688624 0 0.3311620653503598 -0.01290252267936828 0 0.33059011470736688 -0.01015276827647767 0 0.3347774564611169 -0.01150834125688624 0 0.33380431608871358 -0.0077736889940208439 0 0.3347774564611169 -0.01150834125688624 0 0.33718880280531438 -0.0089086409958696218 0 0.3347774564611169 -0.01150834125688624 0 0.33371364524218711 -0.014893310280201881 0 0.33849447961382351 -0.015370969564046049 0 0.3311620653503598 -0.01290252267936828 0 0.3347774564611169 -0.01150834125688624 0 0.33371364524218711 -0.014893310280201881 0 0.3347774564611169 -0.01150834125688624 0 0.33849447961382351 -0.015370969564046049 0 0.33989835131707652 -0.01136366570223276 0 0.3347774564611169 -0.01150834125688624 0 0.33718880280531438 -0.0089086409958696218 0 0.33989835131707652 -0.01136366570223276 0 0.33778509391431438 -0.0071638467724377177 0 0.33380431608871358 -0.0077736889940208439 0 0.33718880280531438 -0.0089086409958696218 0 0.3402056731232182 -0.0076874188772542967 0 0.33718880280531438 -0.0089086409958696218 0 0.33989835131707652 -0.01136366570223276 0 0.3402056731232182 -0.0076874188772542967 0 0.33778509391431438 -0.0071638467724377177 0 0.33718880280531438 -0.0089086409958696218 0 0.3449994955542991 -0.014494848000891611 0 0.33989835131707652 -0.01136366570223276 0 0.34354412613855839 -0.0086803812711278711 0 0.3402056731232182 -0.0076874188772542967 0 0.33989835131707652 -0.01136366570223276 0 0.34354412613855839 -0.0086803812711278711 0 0.3449994955542991 -0.014494848000891611 0 0.33849447961382351 -0.015370969564046049 0 0.33989835131707652 -0.01136366570223276 0 0.34711004929144729 -0.02287010871688603 0 0.34202034693613981 -0.019866648865608631 0 0.33751705700468632 -0.023480335852338292 0 0.3449994955542991 -0.014494848000891611 0 0.33849447961382351 -0.015370969564046049 0 0.34202034693613981 -0.019866648865608631 0 0.32994963162880703 -0.023611035454296291 0 0.32186978624040902 -0.034264447077798167 0 0.33946268692291898 -0.031440227007083862 0 0.34202034693613981 -0.019866648865608631 0 0.33751705700468632 -0.023480335852338292 0 0.33456743077991152 -0.01902330908701472 0 0.33849447961382351 -0.015370969564046049 0 0.34202034693613981 -0.019866648865608631 0 0.33456743077991152 -0.01902330908701472 0 0.34711004929144729 -0.02287010871688603 0 0.33751705700468632 -0.023480335852338292 0 0.33946268692291898 -0.031440227007083862 0 0.33751705700468632 -0.023480335852338292 0 0.32994963162880703 -0.023611035454296291 0 0.33946268692291898 -0.031440227007083862 0 0.33371364524218711 -0.014893310280201881 0 0.33456743077991152 -0.01902330908701472 0 0.32990961631572691 -0.015977893441669461 0 0.33371364524218711 -0.014893310280201881 0 0.33849447961382351 -0.015370969564046049 0 0.33456743077991152 -0.01902330908701472 0 0.33751705700468632 -0.023480335852338292 0 0.32994963162880703 -0.023611035454296291 0 0.33456743077991152 -0.01902330908701472 0 0.32994963162880703 -0.023611035454296291 0 0.33456743077991152 -0.01902330908701472 0 0.32990961631572691 -0.015977893441669461 0 0.32994963162880703 -0.023611035454296291 0 0.32240601399911928 -0.013523915918377609 0 0.32186978624040902 -0.034264447077798167 0 0.32994963162880703 -0.023611035454296291 0 0.32990961631572691 -0.015977893441669461 0 0.32240601399911928 -0.013523915918377609 0 0.3193584069840178 -0.015483681932486049 0 0.32240601399911928 -0.013523915918377609 0 0.32186978624040902 -0.034264447077798167 0 0.3138446157466519 -0.025184852437655249 0 0.3193584069840178 -0.015483681932486049 0 0.32186978624040902 -0.034264447077798167 0 0.32240601399911928 -0.013523915918377609 0 0.32186978624040902 -0.034264447077798167 0 0.3138446157466519 -0.025184852437655249 0 0.3193584069840178 -0.015483681932486049 0 0.31059825503577221 -0.015514074846727909 0 0.32290737791607382 0.0058681311603064152 0 0.3150612098901211 -0.009271505854578253 0 0.32240601399911928 -0.013523915918377609 0 0.32290737791607382 0.0058681311603064152 0 0.3150612098901211 -0.009271505854578253 0 0.30003599551562199 -0.0077039877356053074 0 0.32290737791607382 0.0058681311603064152 0 0.32240601399911928 -0.013523915918377609 0 0.3193584069840178 -0.015483681932486049 0 0.3150612098901211 -0.009271505854578253 0 0.31059825503577221 -0.015514074846727909 0 0.32290737791607382 0.0058681311603064152 0 0.32611102312595602 -0.0039172008977574682 0 0.32240601399911928 -0.013523915918377609 0 0.3193584069840178 -0.015483681932486049 0 0.3150612098901211 -0.009271505854578253 0 0.32240601399911928 -0.013523915918377609 0 0.32880333585876309 -0.0049329567662216214 0 0.32611102312595602 -0.0039172008977574682 0 0.32240601399911928 -0.013523915918377609 0 0.33030905587603782 0.0009821161988461172 0 0.32697184598496509 0.0021443011911175939 0 0.32611102312595602 -0.0039172008977574682 0 0.32851695259314317 -0.013139275078973261 0 0.33059011470736688 -0.01015276827647767 0 0.32240601399911928 -0.013523915918377609 0 0.32851695259314317 -0.013139275078973261 0 0.32990961631572691 -0.015977893441669461 0 0.32240601399911928 -0.013523915918377609 0 0.3193584069840178 -0.015483681932486049 0 0.32240601399911928 -0.013523915918377609 0 0.32129090037394692 -0.056654933500987693 0 0.32186978624040902 -0.034264447077798167 0 0.33258465547723409 -0.044802734763634347 0 0.32129090037394692 -0.056654933500987693 0 0.32186978624040902 -0.034264447077798167 0 0.29997362258003751 -0.037779477714143139 0 0.32129090037394692 -0.056654933500987693 0 0.32186978624040902 -0.034264447077798167 0 0.32186978624040902 -0.034264447077798167 0 0.33946268692291898 -0.031440227007083862 0 0.32186978624040902 -0.034264447077798167 0 0.33258465547723409 -0.044802734763634347 0 0.33946268692291898 -0.031440227007083862 0 0.33258465547723409 -0.044802734763634347 0 0.33946268692291898 -0.031440227007083862 0 0.3466140720711115 -0.039413912986368108 0 0.32129090037394692 -0.056654933500987693 0 0.33258465547723409 -0.044802734763634347 0 0.34948809517485141 -0.067845207288350057 0 0.33258465547723409 -0.044802734763634347 0 0.3466140720711115 -0.039413912986368108 0 0.34948809517485141 -0.067845207288350057 0 0.3466140720711115 -0.039413912986368108 0 0.35848641538318871 -0.044410314174632093 0 0.34948809517485141 -0.067845207288350057 0 0.35848641538318871 -0.044410314174632093 0 0.367919651652859 -0.053263164775586007 0 0.34948809517485141 -0.067845207288350057 0 0.3466140720711115 -0.039413912986368108 0 0.34948809517485141 -0.067845207288350057 0 0.35705558760542933 -0.028616006936371279 0 0.3466140720711115 -0.039413912986368108 0 0.35848641538318871 -0.044410314174632093 0 0.35705558760542933 -0.028616006936371279 0 0.33946268692291898 -0.031440227007083862 0 0.3466140720711115 -0.039413912986368108 0 0.35705558760542933 -0.028616006936371279 0 0.35848641538318871 -0.044410314174632093 0 0.37087155744340972 -0.038545650828355899 0 0.35848641538318871 -0.044410314174632093 0 0.37087155744340972 -0.038545650828355899 0 0.367919651652859 -0.053263164775586007 0 0.367919651652859 -0.053263164775586007 0 0.37031295101771011 -0.075669398266300786 0 0.34948809517485141 -0.067845207288350057 0 0.37031295101771011 -0.075669398266300786 0 0.37313551750079982 -0.1001775773275448 0 0.35236211827859137 -0.096276501590331992 0 0.37031295101771011 -0.075669398266300786 0 0.34948809517485141 -0.067845207288350057 0 0.35236211827859137 -0.096276501590331992 0 0.34948809517485141 -0.067845207288350057 0 0.35236211827859137 -0.096276501590331992 0 0.34948809517485141 -0.067845207288350057 0 0.35236211827859137 -0.096276501590331992 0 0.33752918401464549 -0.081178282488476278 0 0.37540706152867631 -0.1221168480718872 0 0.37313551750079982 -0.1001775773275448 0 0.35523614138233128 -0.1247077958923138 0 0.37313551750079982 -0.1001775773275448 0 0.35236211827859137 -0.096276501590331992 0 0.35523614138233128 -0.1247077958923138 0 0.35236211827859137 -0.096276501590331992 0 0.35523614138233128 -0.1247077958923138 0 0.33701286927447538 -0.11688549613599721 0 0.35236211827859137 -0.096276501590331992 0 0.35523614138233128 -0.1247077958923138 0 0.33701286927447538 -0.11688549613599721 0 0.31730003083790193 -0.1147221606169041 0 0.33434353505174857 -0.13657404674034099 0 0.33701286927447538 -0.11688549613599721 0 0.3321107068850096 -0.097252748116605184 0 0.32643279487928212 -0.10757606496328349 0 0.35236211827859137 -0.096276501590331992 0 0.33701286927447538 -0.11688549613599721 0 0.3321107068850096 -0.097252748116605184 0 0.3170306590845533 -0.098476626860990318 0 0.32643279487928212 -0.10757606496328349 0 0.31730003083790193 -0.1147221606169041 0 0.3321107068850096 -0.097252748116605184 0 0.3170306590845533 -0.098476626860990318 0 0.32643279487928212 -0.10757606496328349 0 0.31730003083790193 -0.1147221606169041 0 0.31052584366630742 -0.11998310663565979 0 0.31876686180747482 -0.13091731252795619 0 0.33701286927447538 -0.11688549613599721 0 0.32643279487928212 -0.10757606496328349 0 0.31730003083790193 -0.1147221606169041 0 0.32129090037394692 -0.056654933500987693 0 0.34948809517485141 -0.067845207288350057 0 0.33752918401464549 -0.081178282488476278 0 0.35236211827859137 -0.096276501590331992 0 0.3321107068850096 -0.097252748116605184 0 0.33752918401464549 -0.081178282488476278 0 0.3321107068850096 -0.097252748116605184 0 0.33752918401464549 -0.081178282488476278 0 0.32071201450748432 -0.079045419924177282 0 0.3321107068850096 -0.097252748116605184 0 0.3170306590845533 -0.098476626860990318 0 0.32071201450748432 -0.079045419924177282 0 0.3170306590845533 -0.098476626860990318 0 0.32071201450748432 -0.079045419924177282 0 0.30246397520143181 -0.084570347736577678 0 0.32129090037394692 -0.056654933500987693 0 0.32071201450748432 -0.079045419924177282 0 0.2995959633077841 -0.05975922420110804 0 0.32129090037394692 -0.056654933500987693 0 0.32071201450748432 -0.079045419924177282 0 0.32129090037394692 -0.056654933500987693 0 0.33752918401464549 -0.081178282488476278 0 0.32071201450748432 -0.079045419924177282 0 0.32071201450748432 -0.079045419924177282 0 0.30246397520143181 -0.084570347736577678 0 0.2995959633077841 -0.05975922420110804 0 0.30246397520143181 -0.084570347736577678 0 0.28903969850560068 -0.090935568862194838 0 0.30305421545823191 -0.1032625727191349 0 0.28903969850560068 -0.090935568862194838 0 0.28619668625431882 -0.075075379463733036 0 0.27028525390246672 -0.082080884880715674 0 0.30246397520143181 -0.084570347736577678 0 0.28903969850560068 -0.090935568862194838 0 0.28619668625431882 -0.075075379463733036 0 0.28619668625431882 -0.075075379463733036 0 0.27562875413869858 -0.061731194852560248 0 0.2995959633077841 -0.05975922420110804 0 0.30246397520143181 -0.084570347736577678 0 0.28619668625431882 -0.075075379463733036 0 0.2995959633077841 -0.05975922420110804 0 0.31052584366630742 -0.11998310663565979 0 0.30305421545823191 -0.1032625727191349 0 0.28319836171155449 -0.1096886595108129 0 0.31730003083790193 -0.1147221606169041 0 0.31052584366630742 -0.11998310663565979 0 0.30305421545823191 -0.1032625727191349 0 0.31052584366630742 -0.11998310663565979 0 0.28319836171155449 -0.1096886595108129 0 0.29712345177954552 -0.12559037111478899 0 0.3170306590845533 -0.098476626860990318 0 0.31730003083790193 -0.1147221606169041 0 0.30305421545823191 -0.1032625727191349 0 0.3170306590845533 -0.098476626860990318 0 0.30246397520143181 -0.084570347736577678 0 0.30305421545823191 -0.1032625727191349 0 0.28903969850560068 -0.090935568862194838 0 0.30305421545823191 -0.1032625727191349 0 0.28319836171155449 -0.1096886595108129 0 0.28319836171155449 -0.1096886595108129 0 0.28415867047889681 -0.13058661118111339 0 0.29712345177954552 -0.12559037111478899 0 0.31052584366630742 -0.11998310663565979 0 0.28319836171155449 -0.1096886595108129 0 0.28319836171155449 -0.1096886595108129 0 0.25587087975680178 -0.099394212385965949 0 0.26456133604165388 -0.12690611689939721 0 0.28319836171155449 -0.1096886595108129 0 0.26456133604165388 -0.12690611689939721 0 0.28415867047889681 -0.13058661118111339 0 0.28319836171155449 -0.1096886595108129 0 0.25587087975680178 -0.099394212385965949 0 0.28319836171155449 -0.1096886595108129 0 0.25587087975680178 -0.099394212385965949 0 0.27028525390246672 -0.082080884880715674 0 0.28903969850560068 -0.090935568862194838 0 0.28319836171155449 -0.1096886595108129 0 0.27028525390246672 -0.082080884880715674 0 0.25587087975680178 -0.099394212385965949 0 0.26456133604165388 -0.12690611689939721 0 0.23839223962912931 -0.1238032165628378 0 0.28619668625431882 -0.075075379463733036 0 0.27028525390246672 -0.082080884880715674 0 0.27562875413869858 -0.061731194852560248 0 0.27028525390246672 -0.082080884880715674 0 0.25924251769733048 -0.063687646760797537 0 0.27562875413869858 -0.061731194852560248 0 0.25587087975680178 -0.099394212385965949 0 0.27028525390246672 -0.082080884880715674 0 0.24366526516234441 -0.07318623794081755 0 0.27028525390246672 -0.082080884880715674 0 0.25924251769733048 -0.063687646760797537 0 0.24366526516234441 -0.07318623794081755 0 0.25924251769733048 -0.063687646760797537 0 0.24722214692836389 -0.052453991776951432 0 0.24366526516234441 -0.07318623794081755 0 0.25924251769733048 -0.063687646760797537 0 0.26289282167975542 -0.050803113453645223 0 0.24722214692836389 -0.052453991776951432 0 0.26289282167975542 -0.050803113453645223 0 0.27562875413869858 -0.061731194852560248 0 0.27807745891966618 -0.041294508350489818 0 0.25924251769733048 -0.063687646760797537 0 0.26289282167975542 -0.050803113453645223 0 0.27562875413869858 -0.061731194852560248 0 0.27807745891966618 -0.041294508350489818 0 0.25429323071471782 -0.034848225527427112 0 0.28142582287644502 -0.0311118079394395 0 0.26289282167975542 -0.050803113453645223 0 0.25429323071471782 -0.034848225527427112 0 0.24722214692836389 -0.052453991776951432 0 0.26289282167975542 -0.050803113453645223 0 0.27807745891966618 -0.041294508350489818 0 0.25429323071471782 -0.034848225527427112 0 0.25429323071471782 -0.034848225527427112 0 0.25497002357771908 -0.020505851178660009 0 0.26859187812896401 -0.020049432918502131 0 0.26197695804951793 0.0048291949868915756 0 0.26859187812896401 -0.020049432918502131 0 0.26197695804951793 0.0048291949868915756 0 0.25497002357771908 -0.020505851178660009 0 0.26859187812896401 -0.020049432918502131 0 0.26197695804951793 0.0048291949868915756 0 0.25497002357771908 -0.020505851178660009 0 0.24579924900532191 -0.010329064769835869 0 0.26197695804951793 0.0048291949868915756 0 0.27512016070460282 -0.0049949164084122149 0 0.26859187812896401 -0.020049432918502131 0 0.27512016070460282 -0.0049949164084122149 0 0.26859187812896401 -0.020049432918502131 0 0.27716461311516988 -0.021276106631516231 0 0.25429323071471782 -0.034848225527427112 0 0.26859187812896401 -0.020049432918502131 0 0.27716461311516988 -0.021276106631516231 0 0.25429323071471782 -0.034848225527427112 0 0.27716461311516988 -0.021276106631516231 0 0.25429323071471782 -0.034848225527427112 0 0.27716461311516988 -0.021276106631516231 0 0.28142582287644502 -0.0311118079394395 0 0.27716461311516988 -0.021276106631516231 0 0.28142582287644502 -0.0311118079394395 0 0.29246570419712031 -0.0240241401236167 0 0.27716461311516988 -0.021276106631516231 0 0.29246570419712031 -0.0240241401236167 0 0.30003599551562199 -0.0077039877356053074 0 0.28142582287644502 -0.0311118079394395 0 0.29246570419712031 -0.0240241401236167 0 0.29997362258003751 -0.037779477714143139 0 0.27716461311516988 -0.021276106631516231 0 0.30003599551562199 -0.0077039877356053074 0 0.28911478695099579 0.0039930708862836416 0 0.27512016070460282 -0.0049949164084122149 0 0.30003599551562199 -0.0077039877356053074 0 0.27512016070460282 -0.0049949164084122149 0 0.27716461311516988 -0.021276106631516231 0 0.30003599551562199 -0.0077039877356053074 0 0.32290737791607382 0.0058681311603064152 0 0.30003599551562199 -0.0077039877356053074 0 0.3150612098901211 -0.009271505854578253 0 0.30003599551562199 -0.0077039877356053074 0 0.31059825503577221 -0.015514074846727909 0 0.30003599551562199 -0.0077039877356053074 0 0.31059825503577221 -0.015514074846727909 0 0.30372846689832689 -0.022249320597379291 0 0.29246570419712031 -0.0240241401236167 0 0.30003599551562199 -0.0077039877356053074 0 0.30372846689832689 -0.022249320597379291 0 0.29246570419712031 -0.0240241401236167 0 0.30372846689832689 -0.022249320597379291 0 0.29997362258003751 -0.037779477714143139 0 0.3138446157466519 -0.025184852437655249 0 0.31059825503577221 -0.015514074846727909 0 0.30372846689832689 -0.022249320597379291 0 0.3138446157466519 -0.025184852437655249 0 0.30372846689832689 -0.022249320597379291 0 0.29997362258003751 -0.037779477714143139 0 0.32186978624040902 -0.034264447077798167 0 0.29997362258003751 -0.037779477714143139 0 0.3138446157466519 -0.025184852437655249 0 0.32186978624040902 -0.034264447077798167 0 0.29997362258003751 -0.037779477714143139 0 0.32129090037394692 -0.056654933500987693 0 0.29997362258003751 -0.037779477714143139 0 0.2995959633077841 -0.05975922420110804 0 0.27562875413869858 -0.061731194852560248 0 0.27807745891966618 -0.041294508350489818 0 0.2995959633077841 -0.05975922420110804 0 0.27807745891966618 -0.041294508350489818 0 0.29997362258003751 -0.037779477714143139 0 0.2995959633077841 -0.05975922420110804 0 0.27807745891966618 -0.041294508350489818 0 0.28142582287644502 -0.0311118079394395 0 0.29997362258003751 -0.037779477714143139 0 0.27807745891966618 -0.041294508350489818 0 0.29997362258003751 -0.037779477714143139 0 0.29135231698056718 -0.2157907266035175 0 0.29236397875638309 -0.2272735060173908 0 0.2799237506145496 -0.2089114790147189 0 0.29236397875638309 -0.2272735060173908 0 0.2799237506145496 -0.2089114790147189 0 0.291928573088858 -0.20822992421020331 0 0.29135231698056718 -0.2157907266035175 0 0.3011929654624782 -0.2187479971717573 0 0.291928573088858 -0.20822992421020331 0 0.29135231698056718 -0.2157907266035175 0 0.2799237506145496 -0.2089114790147189 0 0.29150934490767222 -0.19135358444778011 0 0.27985674948274308 -0.19749105762805999 0 0.27720453436982168 -0.1815531174963799 0 0.291928573088858 -0.20822992421020331 0 0.29150934490767222 -0.19135358444778011 0 0.30549898825631799 -0.19569605267635579 0 0.291928573088858 -0.20822992421020331 0 0.29150934490767222 -0.19135358444778011 0 0.27985674948274308 -0.19749105762805999 0 0.291928573088858 -0.20822992421020331 0 0.3011929654624782 -0.2187479971717573 0 0.31863276111243671 -0.21211706895030119 0 0.291928573088858 -0.20822992421020331 0 0.31863276111243671 -0.21211706895030119 0 0.291928573088858 -0.20822992421020331 0 0.30549898825631799 -0.19569605267635579 0 0.31863276111243671 -0.21211706895030119 0 0.31050727014009061 -0.22837659620856779 0 0.30480420689821658 -0.24563553302006269 0 0.29236397875638309 -0.2272735060173908 0 0.3011929654624782 -0.2187479971717573 0 0.31050727014009061 -0.22837659620856779 0 0.29236397875638309 -0.2272735060173908 0 0.3011929654624782 -0.2187479971717573 0 0.31050727014009061 -0.22837659620856779 0 0.31863276111243671 -0.21211706895030119 0 0.30480420689821658 -0.24563553302006269 0 0.29236397875638309 -0.2272735060173908 0 0.31050727014009061 -0.22837659620856779 0 0.30480420689821658 -0.24563553302006269 0 0.3163303992112006 -0.23867108034601939 0 0.30480420689821658 -0.24563553302006269 0 0.29455942916852418 -0.2384099474669733 0 0.29236397875638309 -0.2272735060173908 0 0.30480420689821658 -0.24563553302006269 0 0.31455363650446949 -0.24681126090303379 0 0.3163303992112006 -0.23867108034601939 0 0.30480420689821658 -0.24563553302006269 0 0.31455363650446949 -0.24681126090303379 0 0.31638581074207073 -0.25471239251993349 0 0.29035555366268628 -0.2299400041790548 0 0.29071397735681082 -0.25079074665138512 0 0.28208453707265202 -0.2385695154447264 0 0.27355499971452291 -0.24791287099247999 0 0.29071397735681082 -0.25079074665138512 0 0.29455942916852418 -0.2384099474669733 0 0.29035555366268628 -0.2299400041790548 0 0.29071397735681082 -0.25079074665138512 0 0.28208453707265202 -0.2385695154447264 0 0.29035555366268628 -0.2299400041790548 0 0.29071397735681082 -0.25079074665138512 0 0.30480420689821658 -0.24563553302006269 0 0.29455942916852418 -0.2384099474669733 0 0.29071397735681082 -0.25079074665138512 0 0.29236397875638309 -0.2272735060173908 0 0.28491079876160869 -0.22378104072315 0 0.2799237506145496 -0.2089114790147189 0 0.29135231698056718 -0.2157907266035175 0 0.3011929654624782 -0.2187479971717573 0 0.29236397875638309 -0.2272735060173908 0 0.29455942916852418 -0.2384099474669733 0 0.29236397875638309 -0.2272735060173908 0 0.29035555366268628 -0.2299400041790548 0 0.29236397875638309 -0.2272735060173908 0 0.29035555366268628 -0.2299400041790548 0 0.28491079876160869 -0.22378104072315 0 0.28208453707265202 -0.2385695154447264 0 0.29035555366268628 -0.2299400041790548 0 0.28164963492655543 -0.23001020735371611 0 0.29035555366268628 -0.2299400041790548 0 0.28164963492655543 -0.23001020735371611 0 0.28491079876160869 -0.22378104072315 0 0.28164963492655543 -0.23001020735371611 0 0.28491079876160869 -0.22378104072315 0 0.27845733562224517 -0.22148241931415141 0 0.27414851970268472 -0.2341937480469958 0 0.27195729889091058 -0.22528190002329149 0 0.25603759837811141 -0.22418425286124399 0 0.28164963492655543 -0.23001020735371611 0 0.27845733562224517 -0.22148241931415141 0 0.27195729889091058 -0.22528190002329149 0 0.27195729889091058 -0.22528190002329149 0 0.25603759837811141 -0.22418425286124399 0 0.26949340582495668 -0.2165388725403502 0 0.28164963492655543 -0.23001020735371611 0 0.27414851970268472 -0.2341937480469958 0 0.27195729889091058 -0.22528190002329149 0 0.28208453707265202 -0.2385695154447264 0 0.28164963492655543 -0.23001020735371611 0 0.27414851970268472 -0.2341937480469958 0 0.27845733562224517 -0.22148241931415141 0 0.27195729889091058 -0.22528190002329149 0 0.26949340582495668 -0.2165388725403502 0 0.27414851970268472 -0.2341937480469958 0 0.27355499971452291 -0.24791287099247999 0 0.25603759837811141 -0.22418425286124399 0 0.28208453707265202 -0.2385695154447264 0 0.27414851970268472 -0.2341937480469958 0 0.27355499971452291 -0.24791287099247999 0 0.27355499971452291 -0.24791287099247999 0 0.25603759837811141 -0.22418425286124399 0 0.27355499971452291 -0.24791287099247999 0 0.25233535094758291 -0.2439050760836787 0 0.26311663764211668 -0.25760161023216088 0 0.27355499971452291 -0.24791287099247999 0 0.25233535094758291 -0.2439050760836787 0 0.25603759837811141 -0.22418425286124399 0 0.25233535094758291 -0.2439050760836787 0 0.25603759837811141 -0.22418425286124399 0 0.2420125409635058 -0.2339491372821742 0 0.25603759837811141 -0.22418425286124399 0 0.26522438506527918 -0.20434277947010521 0 0.26949340582495668 -0.2165388725403502 0 0.25603759837811141 -0.22418425286124399 0 0.26522438506527918 -0.20434277947010521 0 0.2385201970417003 -0.20045563473000791 0 0.291928573088858 -0.20822992421020331 0 0.26522438506527918 -0.20434277947010521 0 0.27985674948274308 -0.19749105762805999 0 0.291928573088858 -0.20822992421020331 0 0.26522438506527918 -0.20434277947010521 0 0.2799237506145496 -0.2089114790147189 0 0.291928573088858 -0.20822992421020331 0 0.26522438506527918 -0.20434277947010521 0 0.26522438506527918 -0.20434277947010521 0 0.26949340582495668 -0.2165388725403502 0 0.2799237506145496 -0.2089114790147189 0 0.28491079876160869 -0.22378104072315 0 0.27845733562224517 -0.22148241931415141 0 0.2799237506145496 -0.2089114790147189 0 0.27845733562224517 -0.22148241931415141 0 0.26949340582495668 -0.2165388725403502 0 0.2799237506145496 -0.2089114790147189 0 0.26522438506527918 -0.20434277947010521 0 0.27985674948274308 -0.19749105762805999 0 0.27720453436982168 -0.1815531174963799 0 0.26522438506527918 -0.20434277947010521 0 0.25135118939902351 -0.1893084647648583 0 0.2385201970417003 -0.20045563473000791 0 0.26522438506527918 -0.20434277947010521 0 0.25135118939902351 -0.1893084647648583 0 0.27720453436982168 -0.1815531174963799 0 0.26522438506527918 -0.20434277947010521 0 0.2385201970417003 -0.20045563473000791 0 0.25135118939902351 -0.1893084647648583 0 0.26063777895919732 -0.16781769599922319 0 0.24150436295925301 -0.17429161822211159 0 0.25135118939902351 -0.1893084647648583 0 0.27720453436982168 -0.1815531174963799 0 0.25135118939902351 -0.1893084647648583 0 0.26063777895919732 -0.16781769599922319 0 0.27720453436982168 -0.1815531174963799 0 0.26063777895919732 -0.16781769599922319 0 0.24892328078959031 -0.1491389388364375 0 0.24150436295925301 -0.17429161822211159 0 0.26063777895919732 -0.16781769599922319 0 0.27124399758217899 -0.14680466200870121 0 0.28271620916975321 -0.16185918246844649 0 0.26063777895919732 -0.16781769599922319 0 0.27720453436982168 -0.1815531174963799 0 0.28271620916975321 -0.16185918246844649 0 0.26456133604165388 -0.12690611689939721 0 0.23839223962912931 -0.1238032165628378 0 0.24892328078959031 -0.1491389388364375 0 0.26456133604165388 -0.12690611689939721 0 0.27124399758217899 -0.14680466200870121 0 0.24892328078959031 -0.1491389388364375 0 0.26063777895919732 -0.16781769599922319 0 0.27124399758217899 -0.14680466200870121 0 0.24892328078959031 -0.1491389388364375 0 0.27124399758217899 -0.14680466200870121 0 0.28646671005398261 -0.14451942666758991 0 0.28271620916975321 -0.16185918246844649 0 0.27124399758217899 -0.14680466200870121 0 0.28415867047889681 -0.13058661118111339 0 0.28646671005398261 -0.14451942666758991 0 0.26456133604165388 -0.12690611689939721 0 0.27124399758217899 -0.14680466200870121 0 0.28415867047889681 -0.13058661118111339 0 0.28415867047889681 -0.13058661118111339 0 0.29900931619621779 -0.13651203916990659 0 0.29712345177954552 -0.12559037111478899 0 0.28415867047889681 -0.13058661118111339 0 0.28646671005398261 -0.14451942666758991 0 0.29900931619621779 -0.13651203916990659 0 0.28646671005398261 -0.14451942666758991 0 0.2994406781140414 -0.15438996639088309 0 0.28271620916975321 -0.16185918246844649 0 0.28646671005398261 -0.14451942666758991 0 0.2994406781140414 -0.15438996639088309 0 0.29900931619621779 -0.13651203916990659 0 0.2994406781140414 -0.15438996639088309 0 0.31241517717978989 -0.14399252758946129 0 0.31572113137472718 -0.15802244330049911 0 0.2994406781140414 -0.15438996639088309 0 0.31241517717978989 -0.14399252758946129 0 0.29900931619621779 -0.13651203916990659 0 0.31241517717978989 -0.14399252758946129 0 0.29900931619621779 -0.13651203916990659 0 0.30872506684475087 -0.13118143907645249 0 0.31052584366630742 -0.11998310663565979 0 0.30872506684475087 -0.13118143907645249 0 0.29712345177954552 -0.12559037111478899 0 0.29900931619621779 -0.13651203916990659 0 0.30872506684475087 -0.13118143907645249 0 0.29712345177954552 -0.12559037111478899 0 0.27720453436982168 -0.1815531174963799 0 0.3030578793406199 -0.1737977702279016 0 0.29150934490767222 -0.19135358444778011 0 0.27720453436982168 -0.1815531174963799 0 0.3030578793406199 -0.1737977702279016 0 0.27720453436982168 -0.1815531174963799 0 0.28271620916975321 -0.16185918246844649 0 0.3030578793406199 -0.1737977702279016 0 0.2994406781140414 -0.15438996639088309 0 0.28271620916975321 -0.16185918246844649 0 0.3030578793406199 -0.1737977702279016 0 0.2994406781140414 -0.15438996639088309 0 0.3030578793406199 -0.1737977702279016 0 0.31572113137472718 -0.15802244330049911 0 0.29150934490767222 -0.19135358444778011 0 0.30549898825631799 -0.19569605267635579 0 0.3030578793406199 -0.1737977702279016 0 0.30549898825631799 -0.19569605267635579 0 0.3030578793406199 -0.1737977702279016 0 0.32211141263130127 -0.18807547930823601 0 0.3030578793406199 -0.1737977702279016 0 0.32891122431141828 -0.1660424229594232 0 0.32211141263130127 -0.18807547930823601 0 0.31572113137472718 -0.15802244330049911 0 0.32891122431141828 -0.1660424229594232 0 0.33478069792776621 -0.15188952933482641 0 0.3030578793406199 -0.1737977702279016 0 0.32891122431141828 -0.1660424229594232 0 0.3030578793406199 -0.1737977702279016 0 0.31572113137472718 -0.15802244330049911 0 0.32891122431141828 -0.1660424229594232 0 0.32891122431141828 -0.1660424229594232 0 0.3386248221218161 -0.16065655263401529 0 0.33478069792776621 -0.15188952933482641 0 0.3386248221218161 -0.16065655263401529 0 0.33478069792776621 -0.15188952933482641 0 0.34783715868705811 -0.15990725662647401 0 0.3386248221218161 -0.16065655263401529 0 0.34214554243333001 -0.1676168875474901 0 0.34783715868705811 -0.15990725662647401 0 0.32891122431141828 -0.1660424229594232 0 0.3386248221218161 -0.16065655263401529 0 0.34214554243333001 -0.1676168875474901 0 0.32891122431141828 -0.1660424229594232 0 0.34214554243333001 -0.1676168875474901 0 0.34312487684735588 -0.18107968816662801 0 0.32891122431141828 -0.1660424229594232 0 0.34312487684735588 -0.18107968816662801 0 0.32211141263130127 -0.18807547930823601 0 0.31730003083790193 -0.1147221606169041 0 0.33434353505174857 -0.13657404674034099 0 0.31730003083790193 -0.1147221606169041 0 0.31876686180747482 -0.13091731252795619 0 0.33434353505174857 -0.13657404674034099 0 0.31241517717978989 -0.14399252758946129 0 0.31876686180747482 -0.13091731252795619 0 0.33434353505174857 -0.13657404674034099 0 0.31052584366630742 -0.11998310663565979 0 0.30872506684475087 -0.13118143907645249 0 0.31876686180747482 -0.13091731252795619 0 0.31241517717978989 -0.14399252758946129 0 0.30872506684475087 -0.13118143907645249 0 0.31876686180747482 -0.13091731252795619 0 0.31241517717978989 -0.14399252758946129 0 0.31572113137472718 -0.15802244330049911 0 0.33478069792776621 -0.15188952933482641 0 0.31241517717978989 -0.14399252758946129 0 0.33478069792776621 -0.15188952933482641 0 0.33434353505174857 -0.13657404674034099 0 0.33478069792776621 -0.15188952933482641 0 0.33434353505174857 -0.13657404674034099 0 0.35138703926559278 -0.15842593286377979 0 0.33434353505174857 -0.13657404674034099 0 0.35138703926559278 -0.15842593286377979 0 0.35523614138233128 -0.1247077958923138 0 0.33701286927447538 -0.11688549613599721 0 0.33434353505174857 -0.13657404674034099 0 0.35523614138233128 -0.1247077958923138 0 0.33434353505174857 -0.13657404674034099 0 0.36196698090626811 -0.13970932404788511 0 0.33434353505174857 -0.13657404674034099 0 0.36196698090626811 -0.13970932404788511 0 0.35138703926559278 -0.15842593286377979 0 0.35138703926559278 -0.15842593286377979 0 0.37906752926801868 -0.14687518722700449 0 0.35138703926559278 -0.15842593286377979 0 0.37397684133438991 -0.162058786260424 0 0.37906752926801868 -0.14687518722700449 0 0.36196698090626811 -0.13970932404788511 0 0.35138703926559278 -0.15842593286377979 0 0.37906752926801868 -0.14687518722700449 0 0.37540706152867631 -0.1221168480718872 0 0.36196698090626811 -0.13970932404788511 0 0.38212132922833852 -0.13382310572327261 0 0.36196698090626811 -0.13970932404788511 0 0.38212132922833852 -0.13382310572327261 0 0.37906752926801868 -0.14687518722700449 0 0.37540706152867631 -0.1221168480718872 0 0.35523614138233128 -0.1247077958923138 0 0.36196698090626811 -0.13970932404788511 0 0.34312487684735588 -0.18107968816662801 0 0.365975429196991 -0.177130057995873 0 0.35565618916650438 -0.1965671358431379 0 0.34312487684735588 -0.18107968816662801 0 0.35009400928606582 -0.16883196464004899 0 0.365975429196991 -0.177130057995873 0 0.34214554243333001 -0.1676168875474901 0 0.34312487684735588 -0.18107968816662801 0 0.35009400928606582 -0.16883196464004899 0 0.34214554243333001 -0.1676168875474901 0 0.35009400928606582 -0.16883196464004899 0 0.34783715868705811 -0.15990725662647401 0 0.35009400928606582 -0.16883196464004899 0 0.35138703926559278 -0.15842593286377979 0 0.365975429196991 -0.177130057995873 0 0.33478069792776621 -0.15188952933482641 0 0.34783715868705811 -0.15990725662647401 0 0.35138703926559278 -0.15842593286377979 0 0.35138703926559278 -0.15842593286377979 0 0.365975429196991 -0.177130057995873 0 0.35009400928606582 -0.16883196464004899 0 0.34783715868705811 -0.15990725662647401 0 0.35138703926559278 -0.15842593286377979 0 0.34783715868705811 -0.15990725662647401 0 0.35138703926559278 -0.15842593286377979 0 0.35138703926559278 -0.15842593286377979 0 0.37397684133438991 -0.162058786260424 0 0.365975429196991 -0.177130057995873 0 0.37397684133438991 -0.162058786260424 0 0.365975429196991 -0.177130057995873 0 0.365975429196991 -0.177130057995873 0 0.37900185477412118 -0.19383155111226971 0 0.37397684133438991 -0.162058786260424 0 0.365975429196991 -0.177130057995873 0 0.38133091378212708 -0.17755007558741229 0 0.365975429196991 -0.177130057995873 0 0.35565618916650438 -0.1965671358431379 0 0.365975429196991 -0.177130057995873 0 0.36723793053784831 -0.1929538445643505 0 0.35565618916650438 -0.1965671358431379 0 0.365975429196991 -0.177130057995873 0 0.36723793053784831 -0.1929538445643505 0 0.37900185477412118 -0.19383155111226971 0 0.36723793053784831 -0.1929538445643505 0 0.36831824901377558 -0.2042866333061219 0 0.37900185477412118 -0.19383155111226971 0 0.36723793053784831 -0.1929538445643505 0 0.36831824901377558 -0.2042866333061219 0 0.35565618916650438 -0.1965671358431379 0 0.36831824901377558 -0.2042866333061219 0 0.36574379363519199 -0.21897469750316301 0 0.38180861452016451 -0.20738576329583541 0 0.36831824901377558 -0.2042866333061219 0 0.35876379523787189 -0.20895817008570489 0 0.36574379363519199 -0.21897469750316301 0 0.36831824901377558 -0.2042866333061219 0 0.35876379523787189 -0.20895817008570489 0 0.35565618916650438 -0.1965671358431379 0 0.36831824901377558 -0.2042866333061219 0 0.36574379363519199 -0.21897469750316301 0 0.34533694913601509 -0.21600421369040129 0 0.36574379363519199 -0.21897469750316301 0 0.34533694913601509 -0.21600421369040129 0 0.35565618916650438 -0.1965671358431379 0 0.35876379523787189 -0.20895817008570489 0 0.34533694913601509 -0.21600421369040129 0 0.35565618916650438 -0.1965671358431379 0 0.34533694913601509 -0.21600421369040129 0 0.35565618916650438 -0.1965671358431379 0 0.33697243777872271 -0.1987687171917405 0 0.35876379523787189 -0.20895817008570489 0 0.34533694913601509 -0.21600421369040129 0 0.36574379363519199 -0.21897469750316301 0 0.34312487684735588 -0.18107968816662801 0 0.35565618916650438 -0.1965671358431379 0 0.33697243777872271 -0.1987687171917405 0 0.34312487684735588 -0.18107968816662801 0 0.33697243777872271 -0.1987687171917405 0 0.32211141263130127 -0.18807547930823601 0 0.34533694913601509 -0.21600421369040129 0 0.33697243777872271 -0.1987687171917405 0 0.31863276111243671 -0.21211706895030119 0 0.34533694913601509 -0.21600421369040129 0 0.31863276111243671 -0.21211706895030119 0 0.33697243777872271 -0.1987687171917405 0 0.31863276111243671 -0.21211706895030119 0 0.32211141263130127 -0.18807547930823601 0 0.30549898825631799 -0.19569605267635579 0 0.31863276111243671 -0.21211706895030119 0 0.32211141263130127 -0.18807547930823601 0 0.32507522188160187 -0.24233195071793179 0 0.3163303992112006 -0.23867108034601939 0 0.32432339824883799 -0.23343389225594011 0 0.32507522188160187 -0.24233195071793179 0 0.32069412916639017 -0.24822603772611981 0 0.32855957754564907 -0.24928726046813449 0 0.32507522188160187 -0.24233195071793179 0 0.32069412916639017 -0.24822603772611981 0 0.3163303992112006 -0.23867108034601939 0 0.32069412916639017 -0.24822603772611981 0 0.31455363650446949 -0.24681126090303379 0 0.3163303992112006 -0.23867108034601939 0 0.32069412916639017 -0.24822603772611981 0 0.31455363650446949 -0.24681126090303379 0 0.31638581074207073 -0.25471239251993349 0 0.31050727014009061 -0.22837659620856779 0 0.31863276111243671 -0.21211706895030119 0 0.32432339824883799 -0.23343389225594011 0 0.31050727014009061 -0.22837659620856779 0 0.3163303992112006 -0.23867108034601939 0 0.32432339824883799 -0.23343389225594011 0 0.31863276111243671 -0.21211706895030119 0 0.32432339824883799 -0.23343389225594011 0 0.33795644420628967 -0.22990595921115281 0 0.34533694913601509 -0.21600421369040129 0 0.31863276111243671 -0.21211706895030119 0 0.33795644420628967 -0.22990595921115281 0 0.34533694913601509 -0.21600421369040129 0 0.33795644420628967 -0.22990595921115281 0 0.34783785400651951 -0.2322869348695476 0 0.34533694913601509 -0.21600421369040129 0 0.33795644420628967 -0.22990595921115281 0 0.33795644420628967 -0.22990595921115281 0 0.33546860523593158 -0.24204148279344501 0 0.34648915357078419 -0.2423612741461752 0 0.32507522188160187 -0.24233195071793179 0 0.32432339824883799 -0.23343389225594011 0 0.33546860523593158 -0.24204148279344501 0 0.32432339824883799 -0.23343389225594011 0 0.33795644420628967 -0.22990595921115281 0 0.33546860523593158 -0.24204148279344501 0 0.33546860523593158 -0.24204148279344501 0 0.32855957754564907 -0.24928726046813449 0 0.3351409682325861 -0.25250282016358372 0 0.32507522188160187 -0.24233195071793179 0 0.33546860523593158 -0.24204148279344501 0 0.32855957754564907 -0.24928726046813449 0 0.33546860523593158 -0.24204148279344501 0 0.34648915357078419 -0.2423612741461752 0 0.34365684795864693 -0.25019368694785837 0 0.33546860523593158 -0.24204148279344501 0 0.3351409682325861 -0.25250282016358372 0 0.34365684795864693 -0.25019368694785837 0 0.35282774722476801 -0.24700184384407131 0 0.34365684795864693 -0.25019368694785837 0 0.34969152230722089 -0.25229806575757502 0 0.34648915357078419 -0.2423612741461752 0 0.35282774722476801 -0.24700184384407131 0 0.34365684795864693 -0.25019368694785837 0 0.34648915357078419 -0.2423612741461752 0 0.35318680949833459 -0.24023591739113831 0 0.35282774722476801 -0.24700184384407131 0 0.33795644420628967 -0.22990595921115281 0 0.34648915357078419 -0.2423612741461752 0 0.34783785400651951 -0.2322869348695476 0 0.34648915357078419 -0.2423612741461752 0 0.35318680949833459 -0.24023591739113831 0 0.34783785400651951 -0.2322869348695476 0 0.35318680949833459 -0.24023591739113831 0 0.34783785400651951 -0.2322869348695476 0 0.35800185216943597 -0.2322202560109479 0 0.35318680949833459 -0.24023591739113831 0 0.35800185216943597 -0.2322202560109479 0 0.36077744052016542 -0.24730927808494951 0 0.35318680949833459 -0.24023591739113831 0 0.35282774722476801 -0.24700184384407131 0 0.36077744052016542 -0.24730927808494951 0 0.35282774722476801 -0.24700184384407131 0 0.36077744052016542 -0.24730927808494951 0 0.3563552534413108 -0.25378940052692223 0 0.34533694913601509 -0.21600421369040129 0 0.35800185216943597 -0.2322202560109479 0 0.36574379363519199 -0.21897469750316301 0 0.34533694913601509 -0.21600421369040129 0 0.34783785400651951 -0.2322869348695476 0 0.35800185216943597 -0.2322202560109479 0 0.36574379363519199 -0.21897469750316301 0 0.36077744052016542 -0.24730927808494951 0 0.35800185216943597 -0.2322202560109479 0 0.36574379363519199 -0.21897469750316301 0 0.36077744052016542 -0.24730927808494951 0 0.36574379363519199 -0.21897469750316301 0 0.36077744052016542 -0.24730927808494951 0 0.37127973600208319 -0.234547541553181 0 0.36574379363519199 -0.21897469750316301 0 0.37127973600208319 -0.234547541553181 0 0.37733779905474357 -0.22857948466165881 0 0.36574379363519199 -0.21897469750316301 0 0.38109348623997469 -0.2212090465430234 0 0.36574379363519199 -0.21897469750316301 0 0.37733779905474357 -0.22857948466165881 0 0.38109348623997469 -0.2212090465430234 0 0.37127973600208319 -0.234547541553181 0 0.37128362870584281 -0.2451606228658926 0 0.3777738668039321 -0.24279705857687839 0 0.36077744052016542 -0.24730927808494951 0 0.37127973600208319 -0.234547541553181 0 0.37128362870584281 -0.2451606228658926 0 0.36077744052016542 -0.24730927808494951 0 0.37128362870584281 -0.2451606228658926 0 0.36989274685626972 -0.2522374082819932 0 0.37128362870584281 -0.2451606228658926 0 0.37669435334676382 -0.2489118278324608 0 0.36989274685626972 -0.2522374082819932 0 0.37128362870584281 -0.2451606228658926 0 0.37669435334676382 -0.2489118278324608 0 0.3777738668039321 -0.24279705857687839 0 0.37669435334676382 -0.2489118278324608 0 0.3777738668039321 -0.24279705857687839 0 0.38392917461226589 -0.2452255861272353 0 0.37669435334676382 -0.2489118278324608 0 0.38392917461226589 -0.2452255861272353 0 0.38173324867488823 -0.25171420486300522 0 0.3777738668039321 -0.24279705857687839 0 0.38145424917389242 -0.23686703861402189 0 0.38392917461226589 -0.2452255861272353 0 0.37127973600208319 -0.234547541553181 0 0.3777738668039321 -0.24279705857687839 0 0.38145424917389242 -0.23686703861402189 0 0.38145424917389242 -0.23686703861402189 0 0.38713976836432229 -0.23992611887071141 0 0.38711773022257528 -0.23129909909490731 0 0.38713976836432229 -0.23992611887071141 0 0.39427521491302497 -0.24198213136784971 0 0.38711773022257528 -0.23129909909490731 0 0.38145424917389242 -0.23686703861402189 0 0.38713976836432229 -0.23992611887071141 0 0.38392917461226589 -0.2452255861272353 0 0.38713976836432229 -0.23992611887071141 0 0.38892247289985288 -0.24425673914954271 0 0.39427521491302497 -0.24198213136784971 0 0.38892247289985288 -0.24425673914954271 0 0.39427521491302497 -0.24198213136784971 0 0.38863051086296652 -0.25071815755376309 0 0.38392917461226589 -0.2452255861272353 0 0.38173324867488823 -0.25171420486300522 0 0.38863051086296652 -0.25071815755376309 0 0.38713976836432229 -0.23992611887071141 0 0.38392917461226589 -0.2452255861272353 0 0.38892247289985288 -0.24425673914954271 0 0.38392917461226589 -0.2452255861272353 0 0.38892247289985288 -0.24425673914954271 0 0.38863051086296652 -0.25071815755376309 0 0.39427521491302497 -0.24198213136784971 0 0.39997579221226232 -0.24582383007024861 0 0.39703085201569938 -0.2524393069666887 0 0.39427521491302497 -0.24198213136784971 0 0.40120512598008851 -0.2380202588011312 0 0.39644317884475722 -0.2234433955828859 0 0.39427521491302497 -0.24198213136784971 0 0.40120512598008851 -0.2380202588011312 0 0.39997579221226232 -0.24582383007024861 0 0.40120512598008851 -0.2380202588011312 0 0.40449484644182848 -0.24606263364935149 0 0.39997579221226232 -0.24582383007024861 0 0.40120512598008851 -0.2380202588011312 0 0.40449484644182848 -0.24606263364935149 0 0.41070599635285199 -0.2448794514627364 0 0.40449484644182848 -0.24606263364935149 0 0.40154418100252109 -0.25065064092174649 0 0.40638565524512071 -0.25101062970194438 0 0.40449484644182848 -0.24606263364935149 0 0.39997579221226232 -0.24582383007024861 0 0.40154418100252109 -0.25065064092174649 0 0.39997579221226232 -0.24582383007024861 0 0.39703085201569938 -0.2524393069666887 0 0.40154418100252109 -0.25065064092174649 0 0.39427521491302497 -0.24198213136784971 0 0.39644317884475722 -0.2234433955828859 0 0.39427521491302497 -0.24198213136784971 0 0.39644317884475722 -0.2234433955828859 0 0.38711773022257528 -0.23129909909490731 0 0.39644317884475722 -0.2234433955828859 0 0.41315303187676239 -0.22587573380877909 0 0.40120512598008851 -0.2380202588011312 0 0.39644317884475722 -0.2234433955828859 0 0.41077109261516559 -0.23548185551606149 0 0.39644317884475722 -0.2234433955828859 0 0.38109348623997469 -0.2212090465430234 0 0.39644317884475722 -0.2234433955828859 0 0.38711773022257528 -0.23129909909490731 0 0.38109348623997469 -0.2212090465430234 0 0.38145424917389242 -0.23686703861402189 0 0.38711773022257528 -0.23129909909490731 0 0.37733779905474357 -0.22857948466165881 0 0.38711773022257528 -0.23129909909490731 0 0.37733779905474357 -0.22857948466165881 0 0.38109348623997469 -0.2212090465430234 0 0.37127973600208319 -0.234547541553181 0 0.38145424917389242 -0.23686703861402189 0 0.37733779905474357 -0.22857948466165881 0 0.36574379363519199 -0.21897469750316301 0 0.38109348623997469 -0.2212090465430234 0 0.38180861452016451 -0.20738576329583541 0 0.39644317884475722 -0.2234433955828859 0 0.38109348623997469 -0.2212090465430234 0 0.38180861452016451 -0.20738576329583541 0 0.38180861452016451 -0.20738576329583541 0 0.37900185477412118 -0.19383155111226971 0 0.39880119505839329 -0.20327948098937521 0 0.37900185477412118 -0.19383155111226971 0 0.39880119505839329 -0.20327948098937521 0 0.39004142316720408 -0.1874203990427287 0 0.36831824901377558 -0.2042866333061219 0 0.38180861452016451 -0.20738576329583541 0 0.37900185477412118 -0.19383155111226971 0 0.39880119505839329 -0.20327948098937521 0 0.40715612157439468 -0.20449565010232201 0 0.40115921127202842 -0.18311556639586429 0 0.40715612157439468 -0.20449565010232201 0 0.40115921127202842 -0.18311556639586429 0 0.39880119505839329 -0.20327948098937521 0 0.40115921127202842 -0.18311556639586429 0 0.39880119505839329 -0.20327948098937521 0 0.39004142316720408 -0.1874203990427287 0 0.40115921127202842 -0.18311556639586429 0 0.39644317884475722 -0.2234433955828859 0 0.39880119505839329 -0.20327948098937521 0 0.40715612157439468 -0.20449565010232201 0 0.39644317884475722 -0.2234433955828859 0 0.38180861452016451 -0.20738576329583541 0 0.39880119505839329 -0.20327948098937521 0 0.39644317884475722 -0.2234433955828859 0 0.40715612157439468 -0.20449565010232201 0 0.41315303187676239 -0.22587573380877909 0 0.39644317884475722 -0.2234433955828859 0 0.39880119505839329 -0.20327948098937521 0 0.40715612157439468 -0.20449565010232201 0 0.42590354884348602 -0.21076825494069701 0 0.41315303187676239 -0.22587573380877909 0 0.40715612157439468 -0.20449565010232201 0 0.42168005787886709 -0.1965362483216638 0 0.42590354884348602 -0.21076825494069701 0 0.40715612157439468 -0.20449565010232201 0 0.41315303187676239 -0.22587573380877909 0 0.40715612157439468 -0.20449565010232201 0 0.42168005787886709 -0.1965362483216638 0 0.40115921127202842 -0.18311556639586429 0 0.42168005787886709 -0.1965362483216638 0 0.43560059711508742 -0.19445841164578559 0 0.42443558343465781 -0.18035097768597119 0 0.42168005787886709 -0.1965362483216638 0 0.43560059711508742 -0.19445841164578559 0 0.42590354884348602 -0.21076825494069701 0 0.42590354884348602 -0.21076825494069701 0 0.43381801992498209 -0.2288837938001558 0 0.45137935810751201 -0.2128850256148038 0 0.43381801992498209 -0.2288837938001558 0 0.41315303187676239 -0.22587573380877909 0 0.42590354884348602 -0.21076825494069701 0 0.43381801992498209 -0.2288837938001558 0 0.41315303187676239 -0.22587573380877909 0 0.43381801992498209 -0.2288837938001558 0 0.418673650738008 -0.2426806496785455 0 0.41315303187676239 -0.22587573380877909 0 0.43381801992498209 -0.2288837938001558 0 0.418673650738008 -0.2426806496785455 0 0.44664130510817418 -0.25014208120156223 0 0.418673650738008 -0.2426806496785455 0 0.44664130510817418 -0.25014208120156223 0 0.43381801992498209 -0.2288837938001558 0 0.418673650738008 -0.2426806496785455 0 0.418673650738008 -0.2426806496785455 0 0.41077109261516559 -0.23548185551606149 0 0.41315303187676239 -0.22587573380877909 0 0.40120512598008851 -0.2380202588011312 0 0.418673650738008 -0.2426806496785455 0 0.41070599635285199 -0.2448794514627364 0 0.40120512598008851 -0.2380202588011312 0 0.418673650738008 -0.2426806496785455 0 0.41077109261516559 -0.23548185551606149 0 0.40120512598008851 -0.2380202588011312 0 0.418673650738008 -0.2426806496785455 0 0.418673650738008 -0.2426806496785455 0 0.41070599635285199 -0.2448794514627364 0 0.40638565524512071 -0.25101062970194438 0 0.40449484644182848 -0.24606263364935149 0 0.41070599635285199 -0.2448794514627364 0 0.40638565524512071 -0.25101062970194438 0 0.39644317884475722 -0.2234433955828859 0 0.41077109261516559 -0.23548185551606149 0 0.41315303187676239 -0.22587573380877909 0 0.418673650738008 -0.2426806496785455 0 0.41315303187676239 -0.22587573380877909 0 0.39548711179589352 -0.13280409535308729 0 0.37906752926801868 -0.14687518722700449 0 0.4067480192704449 -0.13532444159022999 0 0.40134880290786801 -0.120497650084956 0 0.39548711179589352 -0.13280409535308729 0 0.4067480192704449 -0.13532444159022999 0 0.39548711179589352 -0.13280409535308729 0 0.38212132922833852 -0.13382310572327261 0 0.37906752926801868 -0.14687518722700449 0 0.38652555858256898 -0.12392932352082441 0 0.39548711179589352 -0.13280409535308729 0 0.38212132922833852 -0.13382310572327261 0 0.37540706152867631 -0.1221168480718872 0 0.38652555858256898 -0.12392932352082441 0 0.38212132922833852 -0.13382310572327261 0 0.38197825347179132 -0.14698751452497641 0 0.37906752926801868 -0.14687518722700449 0 0.4067480192704449 -0.13532444159022999 0 0.37397684133438991 -0.162058786260424 0 0.38197825347179132 -0.14698751452497641 0 0.38373161457684518 -0.15727817748867831 0 0.37397684133438991 -0.162058786260424 0 0.38197825347179132 -0.14698751452497641 0 0.37906752926801868 -0.14687518722700449 0 0.37397684133438991 -0.162058786260424 0 0.38197825347179132 -0.14698751452497641 0 0.38197825347179132 -0.14698751452497641 0 0.3926119557517897 -0.1526430348305666 0 0.38373161457684518 -0.15727817748867831 0 0.37906752926801868 -0.14687518722700449 0 0.4067480192704449 -0.13532444159022999 0 0.3926119557517897 -0.1526430348305666 0 0.40395361527123758 -0.15922000399304739 0 0.4067480192704449 -0.13532444159022999 0 0.40395361527123758 -0.15922000399304739 0 0.4067480192704449 -0.13532444159022999 0 0.38197825347179132 -0.14698751452497641 0 0.3926119557517897 -0.1526430348305666 0 0.4067480192704449 -0.13532444159022999 0 0.40395361527123758 -0.15922000399304739 0 0.39688558351190839 -0.16787930061321571 0 0.40115921127202842 -0.18311556639586429 0 0.40395361527123758 -0.15922000399304739 0 0.40115921127202842 -0.18311556639586429 0 0.39688558351190839 -0.16787930061321571 0 0.38691988745732259 -0.16576682762107581 0 0.39126740383811842 -0.17634643385205939 0 0.3926119557517897 -0.1526430348305666 0 0.39688558351190839 -0.16787930061321571 0 0.38691988745732259 -0.16576682762107581 0 0.3926119557517897 -0.1526430348305666 0 0.39688558351190839 -0.16787930061321571 0 0.3926119557517897 -0.1526430348305666 0 0.40395361527123758 -0.15922000399304739 0 0.39688558351190839 -0.16787930061321571 0 0.3926119557517897 -0.1526430348305666 0 0.38373161457684518 -0.15727817748867831 0 0.38691988745732259 -0.16576682762107581 0 0.37397684133438991 -0.162058786260424 0 0.38373161457684518 -0.15727817748867831 0 0.38691988745732259 -0.16576682762107581 0 0.37397684133438991 -0.162058786260424 0 0.38691988745732259 -0.16576682762107581 0 0.38133091378212708 -0.17755007558741229 0 0.365975429196991 -0.177130057995873 0 0.37900185477412118 -0.19383155111226971 0 0.38133091378212708 -0.17755007558741229 0 0.37900185477412118 -0.19383155111226971 0 0.38133091378212708 -0.17755007558741229 0 0.39004142316720408 -0.1874203990427287 0 0.38691988745732259 -0.16576682762107581 0 0.38133091378212708 -0.17755007558741229 0 0.39126740383811842 -0.17634643385205939 0 0.38133091378212708 -0.17755007558741229 0 0.39004142316720408 -0.1874203990427287 0 0.39126740383811842 -0.17634643385205939 0 0.39004142316720408 -0.1874203990427287 0 0.39126740383811842 -0.17634643385205939 0 0.40115921127202842 -0.18311556639586429 0 0.39688558351190839 -0.16787930061321571 0 0.39126740383811842 -0.17634643385205939 0 0.40115921127202842 -0.18311556639586429 0 0.39688558351190839 -0.16787930061321571 0 0.40115921127202842 -0.18311556639586429 0 0.42168005787886709 -0.1965362483216638 0 0.40115921127202842 -0.18311556639586429 0 0.42443558343465781 -0.18035097768597119 0 0.40115921127202842 -0.18311556639586429 0 0.42443558343465781 -0.18035097768597119 0 0.41616022934786462 -0.1675249453176052 0 0.42443558343465781 -0.18035097768597119 0 0.43045965498441791 -0.1626796007564898 0 0.44155375000968022 -0.17779109367841839 0 0.43560059711508742 -0.19445841164578559 0 0.42443558343465781 -0.18035097768597119 0 0.44155375000968022 -0.17779109367841839 0 0.42443558343465781 -0.18035097768597119 0 0.43045965498441791 -0.1626796007564898 0 0.41616022934786462 -0.1675249453176052 0 0.40395361527123758 -0.15922000399304739 0 0.41616022934786462 -0.1675249453176052 0 0.41576537790545781 -0.14849012632522321 0 0.43045965498441791 -0.1626796007564898 0 0.41616022934786462 -0.1675249453176052 0 0.41576537790545781 -0.14849012632522321 0 0.40395361527123758 -0.15922000399304739 0 0.40115921127202842 -0.18311556639586429 0 0.41616022934786462 -0.1675249453176052 0 0.40395361527123758 -0.15922000399304739 0 0.41576537790545781 -0.14849012632522321 0 0.4067480192704449 -0.13532444159022999 0 0.43045965498441791 -0.1626796007564898 0 0.43125889974237669 -0.1451945041358457 0 0.44052129547536889 -0.15262659849491789 0 0.43045965498441791 -0.1626796007564898 0 0.41576537790545781 -0.14849012632522321 0 0.43125889974237669 -0.1451945041358457 0 0.43125889974237669 -0.1451945041358457 0 0.43935422211039848 -0.13841580276313381 0 0.44052129547536889 -0.15262659849491789 0 0.43125889974237669 -0.1451945041358457 0 0.42651198739343499 -0.12707716820229309 0 0.43935422211039848 -0.13841580276313381 0 0.44627595551642729 -0.11882989481436131 0 0.42651198739343499 -0.12707716820229309 0 0.43935422211039848 -0.13841580276313381 0 0.41576537790545781 -0.14849012632522321 0 0.43125889974237669 -0.1451945041358457 0 0.42651198739343499 -0.12707716820229309 0 0.41576537790545781 -0.14849012632522321 0 0.42651198739343499 -0.12707716820229309 0 0.4067480192704449 -0.13532444159022999 0 0.42651198739343499 -0.12707716820229309 0 0.4067480192704449 -0.13532444159022999 0 0.44627595551642729 -0.11882989481436131 0 0.46198094227655639 -0.1290833837562918 0 0.45155308230552821 -0.14771857383398551 0 0.46198094227655639 -0.1290833837562918 0 0.45155308230552821 -0.14771857383398551 0 0.46402760085114059 -0.14425820186049901 0 0.46198094227655639 -0.1290833837562918 0 0.46402760085114059 -0.14425820186049901 0 0.47096520023009292 -0.1356029209448649 0 0.44627595551642729 -0.11882989481436131 0 0.43935422211039848 -0.13841580276313381 0 0.45155308230552821 -0.14771857383398551 0 0.44627595551642729 -0.11882989481436131 0 0.45155308230552821 -0.14771857383398551 0 0.45155308230552821 -0.14771857383398551 0 0.44052129547536889 -0.15262659849491789 0 0.44431357639769598 -0.1636110787903374 0 0.43935422211039848 -0.13841580276313381 0 0.45155308230552821 -0.14771857383398551 0 0.44052129547536889 -0.15262659849491789 0 0.45155308230552821 -0.14771857383398551 0 0.46402760085114059 -0.14425820186049901 0 0.46648414857059078 -0.17057222964497401 0 0.46402760085114059 -0.14425820186049901 0 0.46648414857059078 -0.17057222964497401 0 0.47290091713027438 -0.1610465171577603 0 0.46402760085114059 -0.14425820186049901 0 0.46648414857059078 -0.17057222964497401 0 0.45155308230552821 -0.14771857383398551 0 0.45683020909462829 -0.1766072528536099 0 0.45155308230552821 -0.14771857383398551 0 0.46648414857059078 -0.17057222964497401 0 0.45683020909462829 -0.1766072528536099 0 0.45155308230552821 -0.14771857383398551 0 0.44431357639769598 -0.1636110787903374 0 0.45683020909462829 -0.1766072528536099 0 0.43045965498441791 -0.1626796007564898 0 0.44052129547536889 -0.15262659849491789 0 0.44431357639769598 -0.1636110787903374 0 0.43045965498441791 -0.1626796007564898 0 0.44431357639769598 -0.1636110787903374 0 0.44155375000968022 -0.17779109367841839 0 0.44155375000968022 -0.17779109367841839 0 0.45683020909462829 -0.1766072528536099 0 0.45260761037281072 -0.19288461448968311 0 0.44431357639769598 -0.1636110787903374 0 0.44155375000968022 -0.17779109367841839 0 0.45683020909462829 -0.1766072528536099 0 0.46648414857059078 -0.17057222964497401 0 0.46894069629003932 -0.1968862574294491 0 0.46648414857059078 -0.17057222964497401 0 0.45683020909462829 -0.1766072528536099 0 0.46894069629003932 -0.1968862574294491 0 0.47513998914108102 -0.18024330165892219 0 0.48475871426457412 -0.18247569257976809 0 0.46894069629003932 -0.1968862574294491 0 0.46648414857059078 -0.17057222964497401 0 0.47513998914108102 -0.18024330165892219 0 0.46894069629003932 -0.1968862574294491 0 0.46648414857059078 -0.17057222964497401 0 0.47513998914108102 -0.18024330165892219 0 0.4803763974391182 -0.1710390269814977 0 0.47513998914108102 -0.18024330165892219 0 0.48475871426457412 -0.18247569257976809 0 0.4803763974391182 -0.1710390269814977 0 0.5 -0.1754362221173669 0 0.48475871426457412 -0.18247569257976809 0 0.4803763974391182 -0.1710390269814977 0 0.5 -0.1754362221173669 0 0.48475871426457412 -0.18247569257976809 0 0.48511585674618368 -0.19875446614661549 0 0.5 -0.1754362221173669 0 0.48430326091319892 -0.15690777781795379 0 0.4803763974391182 -0.1710390269814977 0 0.5 -0.1754362221173669 0 0.48430326091319892 -0.15690777781795379 0 0.50000000000000022 -0.14551583455796641 0 0.48430326091319892 -0.15690777781795379 0 0.4803763974391182 -0.1710390269814977 0 0.47290091713027438 -0.1610465171577603 0 0.46648414857059078 -0.17057222964497401 0 0.4803763974391182 -0.1710390269814977 0 0.47290091713027438 -0.1610465171577603 0 0.46402760085114059 -0.14425820186049901 0 0.47290091713027438 -0.1610465171577603 0 0.47475069600495201 -0.1471810978495538 0 0.48430326091319892 -0.15690777781795379 0 0.47475069600495201 -0.1471810978495538 0 0.48253731827838792 -0.13914138972548859 0 0.46402760085114059 -0.14425820186049901 0 0.47475069600495201 -0.1471810978495538 0 0.47096520023009292 -0.1356029209448649 0 0.47475069600495201 -0.1471810978495538 0 0.48253731827838792 -0.13914138972548859 0 0.47096520023009292 -0.1356029209448649 0 0.48430326091319892 -0.15690777781795379 0 0.47290091713027438 -0.1610465171577603 0 0.47475069600495201 -0.1471810978495538 0 0.48430326091319892 -0.15690777781795379 0 0.50000000000000022 -0.14551583455796641 0 0.48253731827838792 -0.13914138972548859 0 0.49244589544192102 -0.1241158958275623 0 0.5 -0.1209636561000018 0 0.50000000000000022 -0.14551583455796641 0 0.49244589544192102 -0.1241158958275623 0 0.50000000000000022 -0.14551583455796641 0 0.49244589544192102 -0.1241158958275623 0 0.50000000000000022 -0.14551583455796641 0 0.48253731827838792 -0.13914138972548859 0 0.47623736715543341 -0.123396859174721 0 0.48253731827838792 -0.13914138972548859 0 0.47096520023009292 -0.1356029209448649 0 0.47623736715543341 -0.123396859174721 0 0.49244589544192102 -0.1241158958275623 0 0.48253731827838792 -0.13914138972548859 0 0.47623736715543341 -0.123396859174721 0 0.46198094227655639 -0.1290833837562918 0 0.47096520023009292 -0.1356029209448649 0 0.45313542943081392 -0.2316956960638194 0 0.47069676761334239 -0.21569692787846961 0 0.47245283893664458 -0.23450759832749041 0 0.45313542943081392 -0.2316956960638194 0 0.45137935810751201 -0.2128850256148038 0 0.47069676761334239 -0.21569692787846961 0 0.45313542943081392 -0.2316956960638194 0 0.47245283893664458 -0.23450759832749041 0 0.45313542943081392 -0.2316956960638194 0 0.46170963323849229 -0.2434872220793643 0 0.47245283893664458 -0.23450759832749041 0 0.45313542943081392 -0.2316956960638194 0 0.46170963323849229 -0.2434872220793643 0 0.44664130510817418 -0.25014208120156223 0 0.43381801992498209 -0.2288837938001558 0 0.45313542943081392 -0.2316956960638194 0 0.44664130510817418 -0.25014208120156223 0 0.43381801992498209 -0.2288837938001558 0 0.45137935810751201 -0.2128850256148038 0 0.43381801992498209 -0.2288837938001558 0 0.45313542943081392 -0.2316956960638194 0 0.45137935810751201 -0.2128850256148038 0 0.43381801992498209 -0.2288837938001558 0 0.45313542943081392 -0.2316956960638194 0 0.43560059711508742 -0.19445841164578559 0 0.42590354884348602 -0.21076825494069701 0 0.45137935810751201 -0.2128850256148038 0 0.43560059711508742 -0.19445841164578559 0 0.45137935810751201 -0.2128850256148038 0 0.45260761037281072 -0.19288461448968311 0 0.43560059711508742 -0.19445841164578559 0 0.44155375000968022 -0.17779109367841839 0 0.45260761037281072 -0.19288461448968311 0 0.45683020909462829 -0.1766072528536099 0 0.45260761037281072 -0.19288461448968311 0 0.46894069629003932 -0.1968862574294491 0 0.45137935810751201 -0.2128850256148038 0 0.45260761037281072 -0.19288461448968311 0 0.46894069629003932 -0.1968862574294491 0 0.45137935810751201 -0.2128850256148038 0 0.46894069629003932 -0.1968862574294491 0 0.45137935810751201 -0.2128850256148038 0 0.47069676761334239 -0.21569692787846961 0 0.46894069629003932 -0.1968862574294491 0 0.47069676761334239 -0.21569692787846961 0 0.46894069629003932 -0.1968862574294491 0 0.47069676761334239 -0.21569692787846961 0 0.46894069629003932 -0.1968862574294491 0 0.48511585674618368 -0.19875446614661549 0 0.47069676761334239 -0.21569692787846961 0 0.48511585674618368 -0.19875446614661549 0 0.48767157752577389 -0.21599038990026909 0 0.48475871426457412 -0.18247569257976809 0 0.46894069629003932 -0.1968862574294491 0 0.48511585674618368 -0.19875446614661549 0 0.48475871426457412 -0.18247569257976809 0 0.46894069629003932 -0.1968862574294491 0 0.5 -0.1754362221173669 0 0.48511585674618368 -0.19875446614661549 0 0.5 -0.20535660967676739 0 0.48511585674618368 -0.19875446614661549 0 0.5 -0.20535660967676739 0 0.48767157752577389 -0.21599038990026909 0 0.5 -0.20535660967676739 0 0.48767157752577389 -0.21599038990026909 0 0.5 -0.23527699723616799 0 0.48767157752577389 -0.21599038990026909 0 0.48638969436964302 -0.22904648756093901 0 0.5 -0.23527699723616799 0 0.48638969436964302 -0.22904648756093901 0 0.47245283893664458 -0.23450759832749041 0 0.49819131446073212 -0.23825417094985099 0 0.48638969436964302 -0.22904648756093901 0 0.49819131446073212 -0.23825417094985099 0 0.5 -0.23527699723616799 0 0.47069676761334239 -0.21569692787846961 0 0.48767157752577389 -0.21599038990026909 0 0.48638969436964302 -0.22904648756093901 0 0.47069676761334239 -0.21569692787846961 0 0.48638969436964302 -0.22904648756093901 0 0.47245283893664458 -0.23450759832749041 0 0.47069676761334239 -0.21569692787846961 0 0.47245283893664458 -0.23450759832749041 0 0.47245283893664458 -0.23450759832749041 0 0.47460895947833898 -0.25760351272458493 0 0.46170963323849229 -0.2434872220793643 0 0.47245283893664458 -0.23450759832749041 0 0.47460895947833898 -0.25760351272458493 0 0.47245283893664458 -0.23450759832749041 0 0.4874486958332731 -0.24984443134041059 0 0.47460895947833898 -0.25760351272458493 0 0.47245283893664458 -0.23450759832749041 0 0.4874486958332731 -0.24984443134041059 0 0.49819131446073212 -0.23825417094985099 0 0.49819131446073212 -0.23825417094985099 0 0.5 -0.23527699723616799 0 0.5 -0.26519738479556881 0 0.47245283893664458 -0.23450759832749041 0 0.49819131446073212 -0.23825417094985099 0 0.4874486958332731 -0.24984443134041059 0 0.49837370184668761 -0.26394365821896748 0 0.47460895947833898 -0.25760351272458493 0 0.49837370184668761 -0.26394365821896748 0 0.47460895947833898 -0.25760351272458493 0 0.49819131446073212 -0.23825417094985099 0 0.5 -0.26519738479556881 0 0.49837370184668761 -0.26394365821896748 0 0.4874486958332731 -0.24984443134041059 0 0.49819131446073212 -0.23825417094985099 0 0.49837370184668761 -0.26394365821896748 0 0.49837370184668761 -0.26394365821896748 0 0.48419495894880771 -0.27080435585729279 0 0.47460895947833898 -0.25760351272458493 0 0.5 -0.26519738479556881 0 0.48419495894880771 -0.27080435585729279 0 0.48743281007111938 -0.28599335253076308 0 0.5 -0.26519738479556881 0 0.49837370184668761 -0.26394365821896748 0 0.48419495894880771 -0.27080435585729279 0 0.47641182813471777 -0.27691546646361997 0 0.47460895947833898 -0.25760351272458493 0 0.45737885913338028 -0.26782883015782949 0 0.47641182813471777 -0.27691546646361997 0 0.47460895947833898 -0.25760351272458493 0 0.47641182813471777 -0.27691546646361997 0 0.48419495894880771 -0.27080435585729279 0 0.47460895947833898 -0.25760351272458493 0 0.47641182813471777 -0.27691546646361997 0 0.48419495894880771 -0.27080435585729279 0 0.47343958499663702 -0.29272974265098373 0 0.46170963323849229 -0.2434872220793643 0 0.47460895947833898 -0.25760351272458493 0 0.44664130510817418 -0.25014208120156223 0 0.47460895947833898 -0.25760351272458493 0 0.44664130510817418 -0.25014208120156223 0 0.47460895947833898 -0.25760351272458493 0 0.45737885913338028 -0.26782883015782949 0 0.44664130510817418 -0.25014208120156223 0 0.47641182813471777 -0.27691546646361997 0 0.45737885913338028 -0.26782883015782949 0 0.46242119820305072 -0.28307107241269008 0 0.45737885913338028 -0.26782883015782949 0 0.44708266515026318 -0.27958959308021702 0 0.46242119820305072 -0.28307107241269008 0 0.45737885913338028 -0.26782883015782949 0 0.44708266515026318 -0.27958959308021702 0 0.43623557672327351 -0.26084583704547598 0 0.45737885913338028 -0.26782883015782949 0 0.44664130510817418 -0.25014208120156223 0 0.43623557672327351 -0.26084583704547598 0 0.44708266515026318 -0.27958959308021702 0 0.44174760486624859 -0.30234509592082032 0 0.45779305360025491 -0.29829172971080059 0 0.44708266515026318 -0.27958959308021702 0 0.44174760486624859 -0.30234509592082032 0 0.42694272715830128 -0.28945576443557158 0 0.46242119820305072 -0.28307107241269008 0 0.45779305360025491 -0.29829172971080059 0 0.47343958499663702 -0.29272974265098373 0 0.44708266515026318 -0.27958959308021702 0 0.46242119820305072 -0.28307107241269008 0 0.45779305360025491 -0.29829172971080059 0 0.45779305360025491 -0.29829172971080059 0 0.47343958499663702 -0.29272974265098373 0 0.46268421104446628 -0.31465512944467461 0 0.44174760486624859 -0.30234509592082032 0 0.45779305360025491 -0.29829172971080059 0 0.46268421104446628 -0.31465512944467461 0 0.47343958499663702 -0.29272974265098373 0 0.46268421104446628 -0.31465512944467461 0 0.48354185875621303 -0.30776426270997809 0 0.47343958499663702 -0.29272974265098373 0 0.46268421104446628 -0.31465512944467461 0 0.48419495894880771 -0.27080435585729279 0 0.47343958499663702 -0.29272974265098373 0 0.48743281007111938 -0.28599335253076308 0 0.47641182813471777 -0.27691546646361997 0 0.46242119820305072 -0.28307107241269008 0 0.47343958499663702 -0.29272974265098373 0 0.48354185875621303 -0.30776426270997809 0 0.47343958499663702 -0.29272974265098373 0 0.48743281007111938 -0.28599335253076308 0 0.48419495894880771 -0.27080435585729279 0 0.47343958499663702 -0.29272974265098373 0 0.5 -0.26519738479556881 0 0.48743281007111938 -0.28599335253076308 0 0.5 -0.29511777235496961 0 0.48354185875621303 -0.30776426270997809 0 0.48743281007111938 -0.28599335253076308 0 0.5 -0.29511777235496961 0 0.48354185875621303 -0.30776426270997809 0 0.5 -0.29511777235496961 0 0.5 -0.32503815991437052 0 0.48354185875621303 -0.30776426270997809 0 0.5 -0.32503815991437052 0 0.47769454642505582 -0.33305141936410748 0 0.5 -0.32503815991437052 0 0.47769454642505582 -0.33305141936410748 0 0.5 -0.35495854747377131 0 0.48354185875621303 -0.30776426270997809 0 0.47769454642505582 -0.33305141936410748 0 0.46268421104446628 -0.31465512944467461 0 0.47769454642505582 -0.33305141936410748 0 0.5 -0.35495854747377131 0 0.46785204149200338 -0.35571147120333069 0 0.5 -0.35495854747377131 0 0.47943160683498459 -0.37407669177098313 0 0.46785204149200338 -0.35571147120333069 0 0.5 -0.35495854747377131 0 0.47943160683498459 -0.37407669177098313 0 0.5 -0.38487893503317211 0 0.4560675616784633 -0.36919469701031749 0 0.46785204149200338 -0.35571147120333069 0 0.44117346314012501 -0.35850590303205643 0 0.47943160683498459 -0.37407669177098313 0 0.4560675616784633 -0.36919469701031749 0 0.46785204149200338 -0.35571147120333069 0 0.46785204149200338 -0.35571147120333069 0 0.44117346314012501 -0.35850590303205643 0 0.4519288370922957 -0.33658051623836538 0 0.44117346314012501 -0.35850590303205643 0 0.4519288370922957 -0.33658051623836538 0 0.43582512018967118 -0.34228161658020029 0 0.44117346314012501 -0.35850590303205643 0 0.4519288370922957 -0.33658051623836538 0 0.44117346314012501 -0.35850590303205643 0 0.44641995252677641 -0.38230675589558322 0 0.43041808918795532 -0.3804312898257477 0 0.4560675616784633 -0.36919469701031749 0 0.44117346314012501 -0.35850590303205643 0 0.44641995252677641 -0.38230675589558322 0 0.46268421104446628 -0.31465512944467461 0 0.4519288370922957 -0.33658051623836538 0 0.47769454642505582 -0.33305141936410748 0 0.46268421104446628 -0.31465512944467461 0 0.4519288370922957 -0.33658051623836538 0 0.47769454642505582 -0.33305141936410748 0 0.46785204149200338 -0.35571147120333069 0 0.4519288370922957 -0.33658051623836538 0 0.4519288370922957 -0.33658051623836538 0 0.43499781163014289 -0.32224427443932202 0 0.43582512018967118 -0.34228161658020029 0 0.46268421104446628 -0.31465512944467461 0 0.4519288370922957 -0.33658051623836538 0 0.43499781163014289 -0.32224427443932202 0 0.44174760486624859 -0.30234509592082032 0 0.46268421104446628 -0.31465512944467461 0 0.43499781163014289 -0.32224427443932202 0 0.43499781163014289 -0.32224427443932202 0 0.41351206349253999 -0.31943321985924689 0 0.41793584401068939 -0.30332256860039158 0 0.43499781163014289 -0.32224427443932202 0 0.41927606677597667 -0.33722618457934872 0 0.41351206349253999 -0.31943321985924689 0 0.43499781163014289 -0.32224427443932202 0 0.43582512018967118 -0.34228161658020029 0 0.41927606677597667 -0.33722618457934872 0 0.41927606677597667 -0.33722618457934872 0 0.40635706831215213 -0.35224203981754881 0 0.39995220802875758 -0.33108795960811499 0 0.41927606677597667 -0.33722618457934872 0 0.41351206349253999 -0.31943321985924689 0 0.39995220802875758 -0.33108795960811499 0 0.44117346314012501 -0.35850590303205643 0 0.42116590952135929 -0.36092219556000271 0 0.43041808918795532 -0.3804312898257477 0 0.44117346314012501 -0.35850590303205643 0 0.43041808918795532 -0.3804312898257477 0 0.44117346314012501 -0.35850590303205643 0 0.43582512018967118 -0.34228161658020029 0 0.42116590952135929 -0.36092219556000271 0 0.43582512018967118 -0.34228161658020029 0 0.41927606677597667 -0.33722618457934872 0 0.42116590952135929 -0.36092219556000271 0 0.41927606677597667 -0.33722618457934872 0 0.40635706831215213 -0.35224203981754881 0 0.42116590952135929 -0.36092219556000271 0 0.42116590952135929 -0.36092219556000271 0 0.43041808918795532 -0.3804312898257477 0 0.40644108597551021 -0.37762111359632983 0 0.40635706831215213 -0.35224203981754881 0 0.42116590952135929 -0.36092219556000271 0 0.40644108597551021 -0.37762111359632983 0 0.40635706831215213 -0.35224203981754881 0 0.39210264454768362 -0.36155243363617051 0 0.40644108597551021 -0.37762111359632983 0 0.39210264454768362 -0.36155243363617051 0 0.38246408276306559 -0.37481093736690879 0 0.40644108597551021 -0.37762111359632983 0 0.40635706831215213 -0.35224203981754881 0 0.39210264454768362 -0.36155243363617051 0 0.39084433633696292 -0.3450731943394959 0 0.39210264454768362 -0.36155243363617051 0 0.39084433633696292 -0.3450731943394959 0 0.3757278279979428 -0.35904093597520531 0 0.39084433633696292 -0.3450731943394959 0 0.3757278279979428 -0.35904093597520531 0 0.37640026017689421 -0.32913359683619792 0 0.3757278279979428 -0.35904093597520531 0 0.37640026017689421 -0.32913359683619792 0 0.39084433633696292 -0.3450731943394959 0 0.3757278279979428 -0.35904093597520531 0 0.3757278279979428 -0.35904093597520531 0 0.37535412309888039 -0.37566197152946912 0 0.39210264454768362 -0.36155243363617051 0 0.3757278279979428 -0.35904093597520531 0 0.38246408276306559 -0.37481093736690879 0 0.3757278279979428 -0.35904093597520531 0 0.38246408276306559 -0.37481093736690879 0 0.37535412309888039 -0.37566197152946912 0 0.41351206349253999 -0.31943321985924689 0 0.39995220802875758 -0.33108795960811499 0 0.39124851913890668 -0.30355393236464562 0 0.40635706831215213 -0.35224203981754881 0 0.39084433633696292 -0.3450731943394959 0 0.39995220802875758 -0.33108795960811499 0 0.39084433633696292 -0.3450731943394959 0 0.39995220802875758 -0.33108795960811499 0 0.37640026017689421 -0.32913359683619792 0 0.37640026017689421 -0.32913359683619792 0 0.39124851913890668 -0.30355393236464562 0 0.36761603879828031 -0.31316545387241412 0 0.39995220802875758 -0.33108795960811499 0 0.37640026017689421 -0.32913359683619792 0 0.39124851913890668 -0.30355393236464562 0 0.39124851913890668 -0.30355393236464562 0 0.40457971499160728 -0.29362569101347069 0 0.41793584401068939 -0.30332256860039158 0 0.39124851913890668 -0.30355393236464562 0 0.40457971499160728 -0.29362569101347069 0 0.39534513018312328 -0.27994584961362212 0 0.40457971499160728 -0.29362569101347069 0 0.39534513018312328 -0.27994584961362212 0 0.41220948616128589 -0.2792054618490144 0 0.39124851913890668 -0.30355393236464562 0 0.37715445783546542 -0.28050555434053359 0 0.36340698174539698 -0.2915777614898053 0 0.39124851913890668 -0.30355393236464562 0 0.37715445783546542 -0.28050555434053359 0 0.39534513018312328 -0.27994584961362212 0 0.37715445783546542 -0.28050555434053359 0 0.39759267698249873 -0.26188588385435851 0 0.39534513018312328 -0.27994584961362212 0 0.37715445783546542 -0.28050555434053359 0 0.39759267698249873 -0.26188588385435851 0 0.37715445783546542 -0.28050555434053359 0 0.38566705331877649 -0.26448659489285281 0 0.37473141092706941 -0.26914994494115152 0 0.37715445783546542 -0.28050555434053359 0 0.38566705331877649 -0.26448659489285281 0 0.39759267698249873 -0.26188588385435851 0 0.38173324867488823 -0.25171420486300522 0 0.37546722915105452 -0.25606958948889358 0 0.38394497540139011 -0.25764586331267297 0 0.37669435334676382 -0.2489118278324608 0 0.38173324867488823 -0.25171420486300522 0 0.37546722915105452 -0.25606958948889358 0 0.37546722915105452 -0.25606958948889358 0 0.37796427554805412 -0.26223018220547389 0 0.38394497540139011 -0.25764586331267297 0 0.37796427554805412 -0.26223018220547389 0 0.38566705331877649 -0.26448659489285281 0 0.37473141092706941 -0.26914994494115152 0 0.37796427554805412 -0.26223018220547389 0 0.38566705331877649 -0.26448659489285281 0 0.38394497540139011 -0.25764586331267297 0 0.38566705331877649 -0.26448659489285281 0 0.38394497540139011 -0.25764586331267297 0 0.39210725098129268 -0.26052086715281358 0 0.38394497540139011 -0.25764586331267297 0 0.38863051086296652 -0.25071815755376309 0 0.39210725098129268 -0.26052086715281358 0 0.38173324867488823 -0.25171420486300522 0 0.38394497540139011 -0.25764586331267297 0 0.38863051086296652 -0.25071815755376309 0 0.39427521491302497 -0.24198213136784971 0 0.39210725098129268 -0.26052086715281358 0 0.39427521491302497 -0.24198213136784971 0 0.38863051086296652 -0.25071815755376309 0 0.39210725098129268 -0.26052086715281358 0 0.39427521491302497 -0.24198213136784971 0 0.39703085201569938 -0.2524393069666887 0 0.39210725098129268 -0.26052086715281358 0 0.39703085201569938 -0.2524393069666887 0 0.39694539011782759 -0.25771006601307977 0 0.39210725098129268 -0.26052086715281358 0 0.39703085201569938 -0.2524393069666887 0 0.39694539011782759 -0.25771006601307977 0 0.39937516309392218 -0.25524718996209739 0 0.38566705331877649 -0.26448659489285281 0 0.39210725098129268 -0.26052086715281358 0 0.39759267698249873 -0.26188588385435851 0 0.39694539011782759 -0.25771006601307977 0 0.39759267698249873 -0.26188588385435851 0 0.39937516309392218 -0.25524718996209739 0 0.39694539011782759 -0.25771006601307977 0 0.39210725098129268 -0.26052086715281358 0 0.39759267698249873 -0.26188588385435851 0 0.39759267698249873 -0.26188588385435851 0 0.40122441908101558 -0.25469858611003671 0 0.40638565524512071 -0.25101062970194438 0 0.39759267698249873 -0.26188588385435851 0 0.39937516309392218 -0.25524718996209739 0 0.40122441908101558 -0.25469858611003671 0 0.40122441908101558 -0.25469858611003671 0 0.40154418100252109 -0.25065064092174649 0 0.40638565524512071 -0.25101062970194438 0 0.39703085201569938 -0.2524393069666887 0 0.39937516309392218 -0.25524718996209739 0 0.40154418100252109 -0.25065064092174649 0 0.39937516309392218 -0.25524718996209739 0 0.40122441908101558 -0.25469858611003671 0 0.40154418100252109 -0.25065064092174649 0 0.39759267698249873 -0.26188588385435851 0 0.39534513018312328 -0.27994584961362212 0 0.40436077558571881 -0.27177829701502559 0 0.39534513018312328 -0.27994584961362212 0 0.40436077558571881 -0.27177829701502559 0 0.41220948616128589 -0.2792054618490144 0 0.39759267698249873 -0.26188588385435851 0 0.40436077558571881 -0.27177829701502559 0 0.41229580901596752 -0.26607599274310778 0 0.41220948616128589 -0.2792054618490144 0 0.4261109837582695 -0.27195616456556287 0 0.42694272715830128 -0.28945576443557158 0 0.40436077558571881 -0.27177829701502559 0 0.41220948616128589 -0.2792054618490144 0 0.41229580901596752 -0.26607599274310778 0 0.41220948616128589 -0.2792054618490144 0 0.41229580901596752 -0.26607599274310778 0 0.4261109837582695 -0.27195616456556287 0 0.418673650738008 -0.2426806496785455 0 0.39759267698249873 -0.26188588385435851 0 0.418673650738008 -0.2426806496785455 0 0.39759267698249873 -0.26188588385435851 0 0.41247437916592122 -0.2571417328208872 0 0.418673650738008 -0.2426806496785455 0 0.39759267698249873 -0.26188588385435851 0 0.40638565524512071 -0.25101062970194438 0 0.39759267698249873 -0.26188588385435851 0 0.41229580901596752 -0.26607599274310778 0 0.41247437916592122 -0.2571417328208872 0 0.41229580901596752 -0.26607599274310778 0 0.41247437916592122 -0.2571417328208872 0 0.42197813453568972 -0.25733884131790058 0 0.41229580901596752 -0.26607599274310778 0 0.42197813453568972 -0.25733884131790058 0 0.4261109837582695 -0.27195616456556287 0 0.418673650738008 -0.2426806496785455 0 0.41247437916592122 -0.2571417328208872 0 0.42197813453568972 -0.25733884131790058 0 0.418673650738008 -0.2426806496785455 0 0.42197813453568972 -0.25733884131790058 0 0.418673650738008 -0.2426806496785455 0 0.44664130510817418 -0.25014208120156223 0 0.43623557672327351 -0.26084583704547598 0 0.418673650738008 -0.2426806496785455 0 0.42197813453568972 -0.25733884131790058 0 0.43623557672327351 -0.26084583704547598 0 0.42197813453568972 -0.25733884131790058 0 0.43623557672327351 -0.26084583704547598 0 0.4261109837582695 -0.27195616456556287 0 0.44708266515026318 -0.27958959308021702 0 0.4261109837582695 -0.27195616456556287 0 0.42694272715830128 -0.28945576443557158 0 0.44708266515026318 -0.27958959308021702 0 0.43623557672327351 -0.26084583704547598 0 0.4261109837582695 -0.27195616456556287 0 0.44174760486624859 -0.30234509592082032 0 0.42694272715830128 -0.28945576443557158 0 0.41793584401068939 -0.30332256860039158 0 0.44174760486624859 -0.30234509592082032 0 0.43499781163014289 -0.32224427443932202 0 0.41793584401068939 -0.30332256860039158 0 0.41351206349253999 -0.31943321985924689 0 0.39124851913890668 -0.30355393236464562 0 0.41793584401068939 -0.30332256860039158 0 0.40457971499160728 -0.29362569101347069 0 0.42694272715830128 -0.28945576443557158 0 0.41793584401068939 -0.30332256860039158 0 0.40457971499160728 -0.29362569101347069 0 0.41220948616128589 -0.2792054618490144 0 0.42694272715830128 -0.28945576443557158 0 0.4505680957604784 -0.49483007789553229 0 0.43791037682946399 -0.50000000000000044 0 0.4397186050551023 -0.48426087029996062 0 0.4505680957604784 -0.49483007789553229 0 0.45024466887958781 -0.4999999999999985 0 0.43791037682946399 -0.50000000000000044 0 0.4505680957604784 -0.49483007789553229 0 0.45024466887958781 -0.4999999999999985 0 0.4505680957604784 -0.49483007789553229 0 0.43791037682946399 -0.50000000000000044 0 0.4505680957604784 -0.49483007789553229 0 0.4397186050551023 -0.48426087029996062 0 0.45189025279070982 -0.47369562909087359 0 0.4505680957604784 -0.49483007789553229 0 0.45189025279070982 -0.47369562909087359 0 0.4397186050551023 -0.48426087029996062 0 0.43917740761498009 -0.47272901287043789 0 0.45189025279070982 -0.47369562909087359 0 0.45189025279070982 -0.47369562909087359 0 0.4752840478802407 -0.48473508780345409 0 0.47506026958274611 -0.45796179270592913 0 0.4505680957604784 -0.49483007789553229 0 0.45189025279070982 -0.47369562909087359 0 0.4752840478802407 -0.48473508780345409 0 0.4505680957604784 -0.49483007789553229 0 0.45024466887958781 -0.4999999999999985 0 0.4752840478802407 -0.48473508780345409 0 0.4505680957604784 -0.49483007789553229 0 0.4752840478802407 -0.48473508780345409 0 0.45024466887958781 -0.4999999999999985 0 0.4752840478802407 -0.48473508780345409 0 0.5 -0.5 0 0.4752840478802407 -0.48473508780345409 0 0.5 -0.5 0 0.50000000000000233 -0.47464009771137422 0 0.4752840478802407 -0.48473508780345409 0 0.50000000000000233 -0.47464009771137422 0 0.4752840478802407 -0.48473508780345409 0 0.50000000000000233 -0.47464009771137422 0 0.47506026958274611 -0.45796179270592913 0 0.50000000000000233 -0.47464009771137422 0 0.47506026958274611 -0.45796179270592913 0 0.5 -0.44471971015197342 0 0.47506026958274611 -0.45796179270592913 0 0.5 -0.44471971015197342 0 0.47886241604236313 -0.43261745374231281 0 0.47506026958274611 -0.45796179270592913 0 0.4654174155743076 -0.44364178955400319 0 0.47886241604236313 -0.43261745374231281 0 0.47506026958274611 -0.45796179270592913 0 0.45321240982094368 -0.45256118028621489 0 0.4654174155743076 -0.44364178955400319 0 0.45321240982094368 -0.45256118028621489 0 0.4654174155743076 -0.44364178955400319 0 0.45453456685117749 -0.43142673148155641 0 0.45321240982094368 -0.45256118028621489 0 0.45453456685117749 -0.43142673148155641 0 0.45189025279070982 -0.47369562909087359 0 0.47506026958274611 -0.45796179270592913 0 0.45321240982094368 -0.45256118028621489 0 0.45189025279070982 -0.47369562909087359 0 0.45321240982094368 -0.45256118028621489 0 0.43647239819090922 -0.45908280191605572 0 0.45189025279070982 -0.47369562909087359 0 0.45321240982094368 -0.45256118028621489 0 0.43917740761498009 -0.47272901287043789 0 0.45189025279070982 -0.47369562909087359 0 0.43647239819090922 -0.45908280191605572 0 0.45321240982094368 -0.45256118028621489 0 0.43669016003140099 -0.44188164840300598 0 0.43647239819090922 -0.45908280191605572 0 0.45321240982094368 -0.45256118028621489 0 0.45453456685117749 -0.43142673148155641 0 0.43669016003140099 -0.44188164840300598 0 0.45453456685117749 -0.43142673148155641 0 0.42918692863474428 -0.42557583380002739 0 0.43669016003140099 -0.44188164840300598 0 0.44356103470692121 -0.40929645733356568 0 0.45453456685117749 -0.43142673148155641 0 0.42918692863474428 -0.42557583380002739 0 0.44356103470692121 -0.40929645733356568 0 0.46812297080407272 -0.41297845851634901 0 0.45453456685117749 -0.43142673148155641 0 0.46812297080407272 -0.41297845851634901 0 0.45453456685117749 -0.43142673148155641 0 0.47886241604236313 -0.43261745374231281 0 0.4654174155743076 -0.44364178955400319 0 0.45453456685117749 -0.43142673148155641 0 0.47886241604236313 -0.43261745374231281 0 0.46812297080407272 -0.41297845851634901 0 0.5 -0.41479932259257268 0 0.47764949392688189 -0.39416446387399617 0 0.46812297080407272 -0.41297845851634901 0 0.47886241604236313 -0.43261745374231281 0 0.5 -0.41479932259257268 0 0.5 -0.44471971015197342 0 0.47886241604236313 -0.43261745374231281 0 0.5 -0.41479932259257268 0 0.5 -0.41479932259257268 0 0.47764949392688189 -0.39416446387399617 0 0.5 -0.38487893503317211 0 0.47943160683498459 -0.37407669177098313 0 0.47764949392688189 -0.39416446387399617 0 0.5 -0.38487893503317211 0 0.47943160683498459 -0.37407669177098313 0 0.47764949392688189 -0.39416446387399617 0 0.462421815865598 -0.3841822219654154 0 0.462421815865598 -0.3841822219654154 0 0.45370221329496863 -0.39644056602189182 0 0.44641995252677641 -0.38230675589558322 0 0.4560675616784633 -0.36919469701031749 0 0.462421815865598 -0.3841822219654154 0 0.44641995252677641 -0.38230675589558322 0 0.462421815865598 -0.3841822219654154 0 0.44641995252677641 -0.38230675589558322 0 0.47943160683498459 -0.37407669177098313 0 0.4560675616784633 -0.36919469701031749 0 0.462421815865598 -0.3841822219654154 0 0.46812297080407272 -0.41297845851634901 0 0.47764949392688189 -0.39416446387399617 0 0.45370221329496863 -0.39644056602189182 0 0.44356103470692121 -0.40929645733356568 0 0.46812297080407272 -0.41297845851634901 0 0.45370221329496863 -0.39644056602189182 0 0.47764949392688189 -0.39416446387399617 0 0.462421815865598 -0.3841822219654154 0 0.45370221329496863 -0.39644056602189182 0 0.44356103470692121 -0.40929645733356568 0 0.43854133646300159 -0.39241195643441928 0 0.43160924980469212 -0.39969348000727523 0 0.44356103470692121 -0.40929645733356568 0 0.45370221329496863 -0.39644056602189182 0 0.43854133646300159 -0.39241195643441928 0 0.43854133646300159 -0.39241195643441928 0 0.44641995252677641 -0.38230675589558322 0 0.43041808918795532 -0.3804312898257477 0 0.44641995252677641 -0.38230675589558322 0 0.43041808918795532 -0.3804312898257477 0 0.45370221329496863 -0.39644056602189182 0 0.43854133646300159 -0.39241195643441928 0 0.44641995252677641 -0.38230675589558322 0 0.42630044431710967 -0.38882532213683252 0 0.43041808918795532 -0.3804312898257477 0 0.43854133646300159 -0.39241195643441928 0 0.42630044431710967 -0.38882532213683252 0 0.43041808918795532 -0.3804312898257477 0 0.43854133646300159 -0.39241195643441928 0 0.42630044431710967 -0.38882532213683252 0 0.43160924980469212 -0.39969348000727523 0 0.44356103470692121 -0.40929645733356568 0 0.43160924980469212 -0.39969348000727523 0 0.42862932566854689 -0.40788096343315439 0 0.42101410786788079 -0.40005270069840387 0 0.41913925414903819 -0.41043929033206439 0 0.42862932566854689 -0.40788096343315439 0 0.43160924980469212 -0.39969348000727523 0 0.42101410786788079 -0.40005270069840387 0 0.42862932566854689 -0.40788096343315439 0 0.42630044431710967 -0.38882532213683252 0 0.43160924980469212 -0.39969348000727523 0 0.42101410786788079 -0.40005270069840387 0 0.42630044431710967 -0.38882532213683252 0 0.42101410786788079 -0.40005270069840387 0 0.41064961868842947 -0.39197360170872553 0 0.42101410786788079 -0.40005270069840387 0 0.41034605159943749 -0.40465513568321171 0 0.41913925414903819 -0.41043929033206439 0 0.41034605159943749 -0.40465513568321171 0 0.41064961868842947 -0.39197360170872553 0 0.40027486482563313 -0.40121109766539848 0 0.42101410786788079 -0.40005270069840387 0 0.41034605159943749 -0.40465513568321171 0 0.41064961868842947 -0.39197360170872553 0 0.43041808918795532 -0.3804312898257477 0 0.40644108597551021 -0.37762111359632983 0 0.42630044431710967 -0.38882532213683252 0 0.41064961868842947 -0.39197360170872553 0 0.40644108597551021 -0.37762111359632983 0 0.42630044431710967 -0.38882532213683252 0 0.43041808918795532 -0.3804312898257477 0 0.40644108597551021 -0.37762111359632983 0 0.38246408276306559 -0.37481093736690879 0 0.40644108597551021 -0.37762111359632983 0 0.38246408276306559 -0.37481093736690879 0 0.40644108597551021 -0.37762111359632983 0 0.39077870529976899 -0.38167814703945668 0 0.41064961868842947 -0.39197360170872553 0 0.40644108597551021 -0.37762111359632983 0 0.39276691632795929 -0.39075355942850631 0 0.40644108597551021 -0.37762111359632983 0 0.39077870529976899 -0.38167814703945668 0 0.39276691632795929 -0.39075355942850631 0 0.37535412309888039 -0.37566197152946912 0 0.37498041819981692 -0.39228300708373293 0 0.38144273613254132 -0.38352697776608169 0 0.37535412309888039 -0.37566197152946912 0 0.37498041819981692 -0.39228300708373293 0 0.38144273613254132 -0.38352697776608169 0 0.39276691632795929 -0.39075355942850631 0 0.37498041819981692 -0.39228300708373293 0 0.38246408276306559 -0.37481093736690879 0 0.39077870529976899 -0.38167814703945668 0 0.38144273613254132 -0.38352697776608169 0 0.39077870529976899 -0.38167814703945668 0 0.38144273613254132 -0.38352697776608169 0 0.39276691632795929 -0.39075355942850631 0 0.38246408276306559 -0.37481093736690879 0 0.38144273613254132 -0.38352697776608169 0 0.37535412309888039 -0.37566197152946912 0 0.38825788632073388 -0.40880707481131828 0 0.37498041819981692 -0.39228300708373293 0 0.39276691632795929 -0.39075355942850631 0 0.38825788632073388 -0.40880707481131828 0 0.37498041819981692 -0.39228300708373293 0 0.3767959225380596 -0.40148229526516921 0 0.38825788632073388 -0.40880707481131828 0 0.37498041819981692 -0.39228300708373293 0 0.3767959225380596 -0.40148229526516921 0 0.37498041819981692 -0.39228300708373293 0 0.37471910593750379 -0.40390522668425199 0 0.3767959225380596 -0.40148229526516921 0 0.38825788632073388 -0.40880707481131828 0 0.37471910593750379 -0.40390522668425199 0 0.3767959225380596 -0.40148229526516921 0 0.37471910593750379 -0.40390522668425199 0 0.41064961868842947 -0.39197360170872553 0 0.39276691632795929 -0.39075355942850631 0 0.40027486482563313 -0.40121109766539848 0 0.39276691632795929 -0.39075355942850631 0 0.40027486482563313 -0.40121109766539848 0 0.38825788632073388 -0.40880707481131828 0 0.41034605159943749 -0.40465513568321171 0 0.40027486482563313 -0.40121109766539848 0 0.40235148848732849 -0.41143119131738159 0 0.40235148848732849 -0.41143119131738159 0 0.38825788632073388 -0.40880707481131828 0 0.40153535444165112 -0.42533114253890347 0 0.38825788632073388 -0.40880707481131828 0 0.38843266443526508 -0.42005689003763202 0 0.40153535444165112 -0.42533114253890347 0 0.38825788632073388 -0.40880707481131828 0 0.40153535444165112 -0.42533114253890347 0 0.40235148848732849 -0.41143119131738159 0 0.40153535444165112 -0.42533114253890347 0 0.41242318174568759 -0.41783132082017332 0 0.40027486482563313 -0.40121109766539848 0 0.40235148848732849 -0.41143119131738159 0 0.38825788632073388 -0.40880707481131828 0 0.38825788632073388 -0.40880707481131828 0 0.38843266443526508 -0.42005689003763202 0 0.38121691461453389 -0.41618483571168041 0 0.38843266443526508 -0.42005689003763202 0 0.38121691461453389 -0.41618483571168041 0 0.37980805862995559 -0.42364319542477441 0 0.38121691461453389 -0.41618483571168041 0 0.37547201653346007 -0.41769487196098909 0 0.37980805862995559 -0.42364319542477441 0 0.38121691461453389 -0.41618483571168041 0 0.37547201653346007 -0.41769487196098909 0 0.37456325199462681 -0.41083704355985101 0 0.38825788632073388 -0.40880707481131828 0 0.37456325199462681 -0.41083704355985101 0 0.37471910593750379 -0.40390522668425199 0 0.38825788632073388 -0.40880707481131828 0 0.38121691461453389 -0.41618483571168041 0 0.37456325199462681 -0.41083704355985101 0 0.38074637160329872 -0.43697089678711709 0 0.39131973379798313 -0.42756788445818328 0 0.39479105225311639 -0.44408364448871168 0 0.38074637160329872 -0.43697089678711709 0 0.37980805862995559 -0.42364319542477441 0 0.37013790747139491 -0.43193289252064643 0 0.38074637160329872 -0.43697089678711709 0 0.37980805862995559 -0.42364319542477441 0 0.39131973379798313 -0.42756788445818328 0 0.38843266443526508 -0.42005689003763202 0 0.37980805862995559 -0.42364319542477441 0 0.39131973379798313 -0.42756788445818328 0 0.39131973379798313 -0.42756788445818328 0 0.39479105225311639 -0.44408364448871168 0 0.39794174691566703 -0.43345818010929449 0 0.39131973379798313 -0.42756788445818328 0 0.39479105225311639 -0.44408364448871168 0 0.39794174691566703 -0.43345818010929449 0 0.39131973379798313 -0.42756788445818328 0 0.40153535444165112 -0.42533114253890347 0 0.38843266443526508 -0.42005689003763202 0 0.39131973379798313 -0.42756788445818328 0 0.40153535444165112 -0.42533114253890347 0 0.39794174691566703 -0.43345818010929449 0 0.40153535444165112 -0.42533114253890347 0 0.4041208471699177 -0.43685004895137941 0 0.40153535444165112 -0.42533114253890347 0 0.41481282256256752 -0.44185521026648927 0 0.40153535444165112 -0.42533114253890347 0 0.4041208471699177 -0.43685004895137941 0 0.41481282256256752 -0.44185521026648927 0 0.4139659798751455 -0.42831771319591572 0 0.42918692863474428 -0.42557583380002739 0 0.41481282256256752 -0.44185521026648927 0 0.4139659798751455 -0.42831771319591572 0 0.41242318174568759 -0.41783132082017332 0 0.42918692863474428 -0.42557583380002739 0 0.40153535444165112 -0.42533114253890347 0 0.4139659798751455 -0.42831771319591572 0 0.41481282256256752 -0.44185521026648927 0 0.40153535444165112 -0.42533114253890347 0 0.4139659798751455 -0.42831771319591572 0 0.41242318174568759 -0.41783132082017332 0 0.41242318174568759 -0.41783132082017332 0 0.41913925414903819 -0.41043929033206439 0 0.42918692863474428 -0.42557583380002739 0 0.41034605159943749 -0.40465513568321171 0 0.41242318174568759 -0.41783132082017332 0 0.41913925414903819 -0.41043929033206439 0 0.41034605159943749 -0.40465513568321171 0 0.40235148848732849 -0.41143119131738159 0 0.41242318174568759 -0.41783132082017332 0 0.44356103470692121 -0.40929645733356568 0 0.42862932566854689 -0.40788096343315439 0 0.42918692863474428 -0.42557583380002739 0 0.41913925414903819 -0.41043929033206439 0 0.42862932566854689 -0.40788096343315439 0 0.42918692863474428 -0.42557583380002739 0 0.44356103470692121 -0.40929645733356568 0 0.42918692863474428 -0.42557583380002739 0 0.42918692863474428 -0.42557583380002739 0 0.41481282256256752 -0.44185521026648927 0 0.42918692863474428 -0.42557583380002739 0 0.42571316594658259 -0.43957203572388559 0 0.43669016003140099 -0.44188164840300598 0 0.42918692863474428 -0.42557583380002739 0 0.42571316594658259 -0.43957203572388559 0 0.41481282256256752 -0.44185521026648927 0 0.43669016003140099 -0.44188164840300598 0 0.43647239819090922 -0.45908280191605572 0 0.42113642372945681 -0.44972505510530109 0 0.42571316594658259 -0.43957203572388559 0 0.43669016003140099 -0.44188164840300598 0 0.42113642372945681 -0.44972505510530109 0 0.43647239819090922 -0.45908280191605572 0 0.42506459735863261 -0.46173441964983197 0 0.42862837442319912 -0.47387675017486192 0 0.43917740761498009 -0.47272901287043789 0 0.43647239819090922 -0.45908280191605572 0 0.42862837442319912 -0.47387675017486192 0 0.42506459735863261 -0.46173441964983197 0 0.41402119309096558 -0.46425307140310962 0 0.42862837442319912 -0.47387675017486192 0 0.43647239819090922 -0.45908280191605572 0 0.42506459735863261 -0.46173441964983197 0 0.42113642372945681 -0.44972505510530109 0 0.42506459735863261 -0.46173441964983197 0 0.41402119309096558 -0.46425307140310962 0 0.42113642372945681 -0.44972505510530109 0 0.41402119309096558 -0.46425307140310962 0 0.41481282256256752 -0.44185521026648927 0 0.39826237070824799 -0.46059940451924042 0 0.41402119309096558 -0.46425307140310962 0 0.42113642372945681 -0.44972505510530109 0 0.41481282256256752 -0.44185521026648927 0 0.41481282256256752 -0.44185521026648927 0 0.39826237070824799 -0.46059940451924042 0 0.42113642372945681 -0.44972505510530109 0 0.41481282256256752 -0.44185521026648927 0 0.42571316594658259 -0.43957203572388559 0 0.42113642372945681 -0.44972505510530109 0 0.41481282256256752 -0.44185521026648927 0 0.4041208471699177 -0.43685004895137941 0 0.41481282256256752 -0.44185521026648927 0 0.39479105225311639 -0.44408364448871168 0 0.41481282256256752 -0.44185521026648927 0 0.39479105225311639 -0.44408364448871168 0 0.39826237070824799 -0.46059940451924042 0 0.39479105225311639 -0.44408364448871168 0 0.39826237070824799 -0.46059940451924042 0 0.39794174691566703 -0.43345818010929449 0 0.4041208471699177 -0.43685004895137941 0 0.39479105225311639 -0.44408364448871168 0 0.39479105225311639 -0.44408364448871168 0 0.37835525786219337 -0.45056408363486361 0 0.38362512461059628 -0.46235579696248208 0 0.38074637160329872 -0.43697089678711709 0 0.39479105225311639 -0.44408364448871168 0 0.37835525786219337 -0.45056408363486361 0 0.38074637160329872 -0.43697089678711709 0 0.37835525786219337 -0.45056408363486361 0 0.37096975133959398 -0.44304294562884772 0 0.38362512461059628 -0.46235579696248208 0 0.37327782593314202 -0.4734894475042557 0 0.37087800752595562 -0.46240370080871568 0 0.37835525786219337 -0.45056408363486361 0 0.38362512461059628 -0.46235579696248208 0 0.37087800752595562 -0.46240370080871568 0 0.38362512461059628 -0.46235579696248208 0 0.39826237070824799 -0.46059940451924042 0 0.38625767962211183 -0.47419530290578771 0 0.39826237070824799 -0.46059940451924042 0 0.38625767962211183 -0.47419530290578771 0 0.39479105225311639 -0.44408364448871168 0 0.38362512461059628 -0.46235579696248208 0 0.39826237070824799 -0.46059940451924042 0 0.41402119309096558 -0.46425307140310962 0 0.39826237070824799 -0.46059940451924042 0 0.40240302224298968 -0.48029970225962149 0 0.40240302224298968 -0.48029970225962149 0 0.38625767962211183 -0.47419530290578771 0 0.38498662837763398 -0.48517081542568657 0 0.39826237070824799 -0.46059940451924042 0 0.40240302224298968 -0.48029970225962149 0 0.38625767962211183 -0.47419530290578771 0 0.39826237070824799 -0.46059940451924042 0 0.40240302224298968 -0.48029970225962149 0 0.38625767962211183 -0.47419530290578771 0 0.37425298853597633 -0.48779120129233539 0 0.37327782593314202 -0.4734894475042557 0 0.38625767962211183 -0.47419530290578771 0 0.37425298853597633 -0.48779120129233539 0 0.38625767962211183 -0.47419530290578771 0 0.38498662837763398 -0.48517081542568657 0 0.37425298853597633 -0.48779120129233539 0 0.38362512461059628 -0.46235579696248208 0 0.38625767962211183 -0.47419530290578771 0 0.37327782593314202 -0.4734894475042557 0 0.37994860704251149 -0.5 0 0.38498662837763398 -0.48517081542568657 0 0.37425298853597633 -0.48779120129233539 0 0.37994860704251149 -0.5 0 0.38498662837763398 -0.48517081542568657 0 0.39347048286021641 -0.491367629421327 0 0.37994860704251149 -0.5 0 0.39347048286021641 -0.491367629421327 0 0.40654367377773037 -0.50000000000000266 0 0.40240302224298968 -0.48029970225962149 0 0.38498662837763398 -0.48517081542568657 0 0.39347048286021641 -0.491367629421327 0 0.40240302224298968 -0.48029970225962149 0 0.39347048286021641 -0.491367629421327 0 0.40654367377773037 -0.50000000000000266 0 0.40240302224298968 -0.48029970225962149 0 0.40654367377773037 -0.50000000000000266 0 0.40654367377773037 -0.50000000000000266 0 0.41731533165083551 -0.48500994075440668 0 0.42222702530359713 -0.5 0 0.40240302224298968 -0.48029970225962149 0 0.40654367377773037 -0.50000000000000266 0 0.41731533165083551 -0.48500994075440668 0 0.41402119309096558 -0.46425307140310962 0 0.41731533165083551 -0.48500994075440668 0 0.42862837442319912 -0.47387675017486192 0 0.41402119309096558 -0.46425307140310962 0 0.40240302224298968 -0.48029970225962149 0 0.41731533165083551 -0.48500994075440668 0 0.41731533165083551 -0.48500994075440668 0 0.42862837442319912 -0.47387675017486192 0 0.42915994265243962 -0.48862951224584589 0 0.4397186050551023 -0.48426087029996062 0 0.43917740761498009 -0.47272901287043789 0 0.42862837442319912 -0.47387675017486192 0 0.4397186050551023 -0.48426087029996062 0 0.42862837442319912 -0.47387675017486192 0 0.42915994265243962 -0.48862951224584589 0 0.43791037682946399 -0.50000000000000044 0 0.4397186050551023 -0.48426087029996062 0 0.42915994265243962 -0.48862951224584589 0 0.43791037682946399 -0.50000000000000044 0 0.42222702530359713 -0.5 0 0.42915994265243962 -0.48862951224584589 0 0.41731533165083551 -0.48500994075440668 0 0.42222702530359713 -0.5 0 0.42915994265243962 -0.48862951224584589 0 0.32675847357207383 -0.5 0 0.32261412908711251 -0.48336388753759418 0 0.30391039082730881 -0.48651466872142718 0 0.32261412908711251 -0.48336388753759418 0 0.32161256960485768 -0.46586230821213342 0 0.30391039082730881 -0.48651466872142718 0 0.32161256960485768 -0.46586230821213342 0 0.30391039082730881 -0.48651466872142718 0 0.32261412908711251 -0.48336388753759418 0 0.3381750823442099 -0.48107857321681641 0 0.32161256960485768 -0.46586230821213342 0 0.3381750823442099 -0.48107857321681641 0 0.33993515177463118 -0.46591820812877721 0 0.32161256960485768 -0.46586230821213342 0 0.3381750823442099 -0.48107857321681641 0 0.35080969107733301 -0.47029463983169417 0 0.33993515177463118 -0.46591820812877721 0 0.32675847357207383 -0.5 0 0.32261412908711251 -0.48336388753759418 0 0.3381750823442099 -0.48107857321681641 0 0.32675847357207383 -0.5 0 0.3381750823442099 -0.48107857321681641 0 0.35335354030729271 -0.5 0 0.3381750823442099 -0.48107857321681641 0 0.35335354030729271 -0.5 0 0.35401574248195827 -0.48194409396649762 0 0.35335354030729271 -0.5 0 0.36331734363551532 -0.48329458380386331 0 0.35401574248195827 -0.48194409396649762 0 0.35335354030729271 -0.5 0 0.37425298853597633 -0.48779120129233539 0 0.36331734363551532 -0.48329458380386331 0 0.37994860704251149 -0.5 0 0.35335354030729271 -0.5 0 0.37425298853597633 -0.48779120129233539 0 0.37327782593314202 -0.4734894475042557 0 0.36168662091920678 -0.47324817625622789 0 0.37087800752595562 -0.46240370080871568 0 0.37425298853597633 -0.48779120129233539 0 0.37327782593314202 -0.4734894475042557 0 0.36331734363551532 -0.48329458380386331 0 0.37327782593314202 -0.4734894475042557 0 0.36331734363551532 -0.48329458380386331 0 0.36168662091920678 -0.47324817625622789 0 0.36331734363551532 -0.48329458380386331 0 0.36168662091920678 -0.47324817625622789 0 0.35401574248195827 -0.48194409396649762 0 0.3381750823442099 -0.48107857321681641 0 0.35401574248195827 -0.48194409396649762 0 0.35080969107733301 -0.47029463983169417 0 0.36168662091920678 -0.47324817625622789 0 0.35080969107733301 -0.47029463983169417 0 0.35994872837637498 -0.46297760440638919 0 0.36168662091920678 -0.47324817625622789 0 0.35401574248195827 -0.48194409396649762 0 0.35080969107733301 -0.47029463983169417 0 0.35080969107733301 -0.47029463983169417 0 0.35033985180406402 -0.45474482718583809 0 0.33993515177463118 -0.46591820812877721 0 0.35033985180406402 -0.45474482718583809 0 0.35994872837637498 -0.46297760440638919 0 0.36480064461970291 -0.45333030516698392 0 0.35080969107733301 -0.47029463983169417 0 0.35033985180406402 -0.45474482718583809 0 0.35994872837637498 -0.46297760440638919 0 0.36168662091920678 -0.47324817625622789 0 0.35994872837637498 -0.46297760440638919 0 0.37087800752595562 -0.46240370080871568 0 0.35994872837637498 -0.46297760440638919 0 0.36480064461970291 -0.45333030516698392 0 0.37087800752595562 -0.46240370080871568 0 0.37835525786219337 -0.45056408363486361 0 0.36480064461970291 -0.45333030516698392 0 0.37087800752595562 -0.46240370080871568 0 0.37096975133959398 -0.44304294562884772 0 0.36080857514138059 -0.44241655003462738 0 0.37013790747139491 -0.43193289252064643 0 0.37835525786219337 -0.45056408363486361 0 0.36480064461970291 -0.45333030516698392 0 0.37096975133959398 -0.44304294562884772 0 0.36480064461970291 -0.45333030516698392 0 0.37096975133959398 -0.44304294562884772 0 0.36080857514138059 -0.44241655003462738 0 0.35033985180406402 -0.45474482718583809 0 0.36480064461970291 -0.45333030516698392 0 0.36080857514138059 -0.44241655003462738 0 0.35033985180406402 -0.45474482718583809 0 0.36080857514138059 -0.44241655003462738 0 0.35187002562195169 -0.4417322280292128 0 0.35033985180406402 -0.45474482718583809 0 0.35187002562195169 -0.4417322280292128 0 0.33931474838240672 -0.44520994770283973 0 0.33601050751221789 -0.44246692750413041 0 0.33931474838240672 -0.44520994770283973 0 0.33929744451399779 -0.4333751994222223 0 0.33601050751221789 -0.44246692750413041 0 0.33931474838240672 -0.44520994770283973 0 0.32161256960485768 -0.46586230821213342 0 0.35033985180406402 -0.45474482718583809 0 0.33931474838240672 -0.44520994770283973 0 0.33780058039148991 -0.45793382280739708 0 0.33931474838240672 -0.44520994770283973 0 0.32161256960485768 -0.46586230821213342 0 0.35033985180406402 -0.45474482718583809 0 0.33780058039148991 -0.45793382280739708 0 0.33993515177463118 -0.46591820812877721 0 0.33780058039148991 -0.45793382280739708 0 0.33993515177463118 -0.46591820812877721 0 0.32161256960485768 -0.46586230821213342 0 0.33931474838240672 -0.44520994770283973 0 0.33780058039148991 -0.45793382280739708 0 0.32161256960485768 -0.46586230821213342 0 0.33601050751221789 -0.44246692750413041 0 0.30751004702109352 -0.44934987697332179 0 0.33601050751221789 -0.44246692750413041 0 0.31958618170052377 -0.43637200471854332 0 0.30751004702109352 -0.44934987697332179 0 0.33601050751221789 -0.44246692750413041 0 0.32161256960485768 -0.46586230821213342 0 0.30751004702109352 -0.44934987697332179 0 0.31994109331451231 -0.42528465211472782 0 0.33449762531111238 -0.41946741845400981 0 0.32986657047047291 -0.43139324044272681 0 0.31958618170052377 -0.43637200471854332 0 0.31994109331451231 -0.42528465211472782 0 0.32986657047047291 -0.43139324044272681 0 0.31958618170052377 -0.43637200471854332 0 0.31994109331451231 -0.42528465211472782 0 0.30591109396690869 -0.4299291893469005 0 0.31994109331451231 -0.42528465211472782 0 0.32082567365682302 -0.41348067025076551 0 0.31018251767263161 -0.41743961894882231 0 0.32082567365682302 -0.41348067025076551 0 0.30928594333127379 -0.40412232630252548 0 0.31018251767263161 -0.41743961894882231 0 0.31994109331451231 -0.42528465211472782 0 0.32082567365682302 -0.41348067025076551 0 0.33449762531111238 -0.41946741845400981 0 0.33449762531111238 -0.41946741845400981 0 0.34560397837392692 -0.40966044684353958 0 0.33022118865458477 -0.40108933543374198 0 0.32082567365682302 -0.41348067025076551 0 0.33449762531111238 -0.41946741845400981 0 0.33022118865458477 -0.40108933543374198 0 0.33601050751221789 -0.44246692750413041 0 0.31958618170052377 -0.43637200471854332 0 0.32986657047047291 -0.43139324044272681 0 0.33449762531111238 -0.41946741845400981 0 0.33929744451399779 -0.4333751994222223 0 0.35701692715995548 -0.42455758719354608 0 0.33449762531111238 -0.41946741845400981 0 0.32986657047047291 -0.43139324044272681 0 0.33929744451399779 -0.4333751994222223 0 0.33601050751221789 -0.44246692750413041 0 0.32986657047047291 -0.43139324044272681 0 0.33929744451399779 -0.4333751994222223 0 0.35187002562195169 -0.4417322280292128 0 0.33931474838240672 -0.44520994770283973 0 0.35701692715995548 -0.42455758719354608 0 0.33931474838240672 -0.44520994770283973 0 0.35701692715995548 -0.42455758719354608 0 0.36080857514138059 -0.44241655003462738 0 0.35187002562195169 -0.4417322280292128 0 0.35701692715995548 -0.42455758719354608 0 0.33931474838240672 -0.44520994770283973 0 0.33929744451399779 -0.4333751994222223 0 0.35701692715995548 -0.42455758719354608 0 0.36080857514138059 -0.44241655003462738 0 0.35701692715995548 -0.42455758719354608 0 0.37013790747139491 -0.43193289252064643 0 0.35701692715995548 -0.42455758719354608 0 0.37013790747139491 -0.43193289252064643 0 0.36802517148559277 -0.42055561853451512 0 0.37980805862995559 -0.42364319542477441 0 0.37013790747139491 -0.43193289252064643 0 0.36802517148559277 -0.42055561853451512 0 0.38074637160329872 -0.43697089678711709 0 0.37096975133959398 -0.44304294562884772 0 0.37013790747139491 -0.43193289252064643 0 0.37456325199462681 -0.41083704355985101 0 0.36802517148559277 -0.42055561853451512 0 0.37471910593750379 -0.40390522668425199 0 0.35701692715995548 -0.42455758719354608 0 0.37471910593750379 -0.40390522668425199 0 0.35701692715995548 -0.42455758719354608 0 0.35855336264200999 -0.40680586559051779 0 0.37471910593750379 -0.40390522668425199 0 0.35701692715995548 -0.42455758719354608 0 0.36802517148559277 -0.42055561853451512 0 0.37471910593750379 -0.40390522668425199 0 0.37456325199462681 -0.41083704355985101 0 0.37471910593750379 -0.40390522668425199 0 0.37547201653346007 -0.41769487196098909 0 0.37456325199462681 -0.41083704355985101 0 0.36802517148559277 -0.42055561853451512 0 0.37547201653346007 -0.41769487196098909 0 0.37980805862995559 -0.42364319542477441 0 0.36802517148559277 -0.42055561853451512 0 0.35701692715995548 -0.42455758719354608 0 0.35855336264200999 -0.40680586559051779 0 0.34560397837392692 -0.40966044684353958 0 0.33449762531111238 -0.41946741845400981 0 0.35701692715995548 -0.42455758719354608 0 0.34560397837392692 -0.40966044684353958 0 0.35855336264200999 -0.40680586559051779 0 0.34560397837392692 -0.40966044684353958 0 0.3487495184600139 -0.398401425418069 0 0.3487495184600139 -0.398401425418069 0 0.35480162053188491 -0.38911752632256302 0 0.34509536640325372 -0.38734550867311801 0 0.35850133123051348 -0.39639415672760597 0 0.36303508037895332 -0.38986543687835667 0 0.35480162053188491 -0.38911752632256302 0 0.3487495184600139 -0.398401425418069 0 0.35850133123051348 -0.39639415672760597 0 0.35480162053188491 -0.38911752632256302 0 0.35855336264200999 -0.40680586559051779 0 0.3487495184600139 -0.398401425418069 0 0.35850133123051348 -0.39639415672760597 0 0.35855336264200999 -0.40680586559051779 0 0.36720222485671911 -0.39793509942806021 0 0.37471910593750379 -0.40390522668425199 0 0.35855336264200999 -0.40680586559051779 0 0.35850133123051348 -0.39639415672760597 0 0.36720222485671911 -0.39793509942806021 0 0.35850133123051348 -0.39639415672760597 0 0.36720222485671911 -0.39793509942806021 0 0.36303508037895332 -0.38986543687835667 0 0.36720222485671911 -0.39793509942806021 0 0.37498041819981692 -0.39228300708373293 0 0.37471910593750379 -0.40390522668425199 0 0.37498041819981692 -0.39228300708373293 0 0.37471910593750379 -0.40390522668425199 0 0.36720222485671911 -0.39793509942806021 0 0.37498041819981692 -0.39228300708373293 0 0.36303508037895332 -0.38986543687835667 0 0.37498041819981692 -0.39228300708373293 0 0.36303508037895332 -0.38986543687835667 0 0.35996954415192273 -0.37360168191249388 0 0.37498041819981692 -0.39228300708373293 0 0.35996954415192273 -0.37360168191249388 0 0.37535412309888039 -0.37566197152946912 0 0.37498041819981692 -0.39228300708373293 0 0.35996954415192273 -0.37360168191249388 0 0.36303508037895332 -0.38986543687835667 0 0.35480162053188491 -0.38911752632256302 0 0.35996954415192273 -0.37360168191249388 0 0.34509536640325372 -0.38734550867311801 0 0.35996954415192273 -0.37360168191249388 0 0.34509536640325372 -0.38734550867311801 0 0.35996954415192273 -0.37360168191249388 0 0.35035469610480408 -0.37401783143655343 0 0.35480162053188491 -0.38911752632256302 0 0.34509536640325372 -0.38734550867311801 0 0.35996954415192273 -0.37360168191249388 0 0.34509536640325372 -0.38734550867311801 0 0.35035469610480408 -0.37401783143655343 0 0.33973586500356789 -0.37351634831224328 0 0.33399892333048092 -0.38432450573555837 0 0.33022118865458477 -0.40108933543374198 0 0.32259149844054552 -0.38188800813681317 0 0.34509536640325372 -0.38734550867311801 0 0.33399892333048092 -0.38432450573555837 0 0.33973586500356789 -0.37351634831224328 0 0.33399892333048092 -0.38432450573555837 0 0.32259149844054552 -0.38188800813681317 0 0.33973586500356789 -0.37351634831224328 0 0.34509536640325372 -0.38734550867311801 0 0.33022118865458477 -0.40108933543374198 0 0.34509536640325372 -0.38734550867311801 0 0.33399892333048092 -0.38432450573555837 0 0.33022118865458477 -0.40108933543374198 0 0.34560397837392692 -0.40966044684353958 0 0.3487495184600139 -0.398401425418069 0 0.33022118865458477 -0.40108933543374198 0 0.3487495184600139 -0.398401425418069 0 0.34509536640325372 -0.38734550867311801 0 0.33022118865458477 -0.40108933543374198 0 0.33022118865458477 -0.40108933543374198 0 0.31294515216772367 -0.39083635085582669 0 0.30928594333127379 -0.40412232630252548 0 0.32082567365682302 -0.41348067025076551 0 0.33022118865458477 -0.40108933543374198 0 0.30928594333127379 -0.40412232630252548 0 0.33022118865458477 -0.40108933543374198 0 0.31294515216772367 -0.39083635085582669 0 0.32259149844054552 -0.38188800813681317 0 0.31294515216772367 -0.39083635085582669 0 0.32259149844054552 -0.38188800813681317 0 0.3082893162413004 -0.37167909625049789 0 0.31294515216772367 -0.39083635085582669 0 0.30224497142666268 -0.38511194987919251 0 0.3082893162413004 -0.37167909625049789 0 0.30224497142666268 -0.38511194987919251 0 0.30213625603814231 -0.39420342709749229 0 0.29300975388714151 -0.38943052480095719 0 0.30224497142666268 -0.38511194987919251 0 0.29408069388956798 -0.37854987491659398 0 0.3082893162413004 -0.37167909625049789 0 0.31294515216772367 -0.39083635085582669 0 0.30224497142666268 -0.38511194987919251 0 0.30213625603814231 -0.39420342709749229 0 0.30928594333127379 -0.40412232630252548 0 0.30213625603814231 -0.39420342709749229 0 0.29319545937790981 -0.4015159836489598 0 0.31294515216772367 -0.39083635085582669 0 0.30928594333127379 -0.40412232630252548 0 0.30213625603814231 -0.39420342709749229 0 0.29319545937790981 -0.4015159836489598 0 0.28300304270374882 -0.3933759750212138 0 0.27832277329173999 -0.41086289452824881 0 0.29319545937790981 -0.4015159836489598 0 0.28300304270374882 -0.3933759750212138 0 0.29300975388714151 -0.38943052480095719 0 0.30213625603814231 -0.39420342709749229 0 0.29319545937790981 -0.4015159836489598 0 0.29300975388714151 -0.38943052480095719 0 0.28300304270374882 -0.3933759750212138 0 0.28565425257500149 -0.38243963420137073 0 0.27655387219045102 -0.3819926749646213 0 0.28300304270374882 -0.3933759750212138 0 0.29300975388714151 -0.38943052480095719 0 0.28565425257500149 -0.38243963420137073 0 0.30224497142666268 -0.38511194987919251 0 0.29300975388714151 -0.38943052480095719 0 0.29408069388956798 -0.37854987491659398 0 0.29300975388714151 -0.38943052480095719 0 0.29408069388956798 -0.37854987491659398 0 0.28565425257500149 -0.38243963420137073 0 0.29408069388956798 -0.37854987491659398 0 0.28565425257500149 -0.38243963420137073 0 0.28381788445018402 -0.37249659868489943 0 0.28565425257500149 -0.38243963420137073 0 0.27655387219045102 -0.3819926749646213 0 0.28381788445018402 -0.37249659868489943 0 0.28300304270374882 -0.3933759750212138 0 0.27655387219045102 -0.3819926749646213 0 0.27128214490024888 -0.39401413798312562 0 0.27655387219045102 -0.3819926749646213 0 0.26173735937561721 -0.38067445646533549 0 0.27128214490024888 -0.39401413798312562 0 0.27655387219045102 -0.3819926749646213 0 0.26173735937561721 -0.38067445646533549 0 0.27452805361072929 -0.36868885497209941 0 0.26173735937561721 -0.38067445646533549 0 0.26505314271623781 -0.3713952325324853 0 0.24728128374814221 -0.37753641242697722 0 0.26173735937561721 -0.38067445646533549 0 0.27128214490024888 -0.39401413798312562 0 0.24894666514050171 -0.39266005795856818 0 0.26173735937561721 -0.38067445646533549 0 0.24894666514050171 -0.39266005795856818 0 0.24728128374814221 -0.37753641242697722 0 0.26173735937561721 -0.38067445646533549 0 0.24894666514050171 -0.39266005795856818 0 0.27128214490024888 -0.39401413798312562 0 0.26120332944208208 -0.40874196704789678 0 0.24894666514050171 -0.39266005795856818 0 0.27128214490024888 -0.39401413798312562 0 0.24894666514050171 -0.39266005795856818 0 0.28300304270374882 -0.3933759750212138 0 0.27128214490024888 -0.39401413798312562 0 0.27832277329173999 -0.41086289452824881 0 0.27128214490024888 -0.39401413798312562 0 0.27832277329173999 -0.41086289452824881 0 0.26120332944208208 -0.40874196704789678 0 0.27832277329173999 -0.41086289452824881 0 0.26120332944208208 -0.40874196704789678 0 0.26208579729036757 -0.42674551763226098 0 0.26120332944208208 -0.40874196704789678 0 0.26208579729036757 -0.42674551763226098 0 0.24537926658754941 -0.41942722713727709 0 0.26120332944208208 -0.40874196704789678 0 0.24537926658754941 -0.41942722713727709 0 0.24894666514050171 -0.39266005795856818 0 0.26208579729036757 -0.42674551763226098 0 0.28424662045150773 -0.43483421104887771 0 0.26160685402760409 -0.44662062899480698 0 0.27832277329173999 -0.41086289452824881 0 0.26208579729036757 -0.42674551763226098 0 0.28424662045150773 -0.43483421104887771 0 0.28424662045150773 -0.43483421104887771 0 0.29600270932152911 -0.41658552572988861 0 0.30591109396690869 -0.4299291893469005 0 0.27832277329173999 -0.41086289452824881 0 0.28424662045150773 -0.43483421104887771 0 0.29600270932152911 -0.41658552572988861 0 0.29319545937790981 -0.4015159836489598 0 0.27832277329173999 -0.41086289452824881 0 0.29600270932152911 -0.41658552572988861 0 0.30928594333127379 -0.40412232630252548 0 0.29319545937790981 -0.4015159836489598 0 0.29600270932152911 -0.41658552572988861 0 0.29600270932152911 -0.41658552572988861 0 0.31018251767263161 -0.41743961894882231 0 0.30591109396690869 -0.4299291893469005 0 0.30928594333127379 -0.40412232630252548 0 0.29600270932152911 -0.41658552572988861 0 0.31018251767263161 -0.41743961894882231 0 0.31994109331451231 -0.42528465211472782 0 0.31018251767263161 -0.41743961894882231 0 0.30591109396690869 -0.4299291893469005 0 0.31958618170052377 -0.43637200471854332 0 0.30591109396690869 -0.4299291893469005 0 0.30751004702109352 -0.44934987697332179 0 0.28424662045150773 -0.43483421104887771 0 0.30591109396690869 -0.4299291893469005 0 0.30751004702109352 -0.44934987697332179 0 0.32161256960485768 -0.46586230821213342 0 0.30751004702109352 -0.44934987697332179 0 0.2990216810944567 -0.46724719448338597 0 0.30751004702109352 -0.44934987697332179 0 0.2990216810944567 -0.46724719448338597 0 0.27900958652996882 -0.45623282644251328 0 0.2990216810944567 -0.46724719448338597 0 0.27900958652996882 -0.45623282644251328 0 0.28306581148905458 -0.47827629206753408 0 0.28424662045150773 -0.43483421104887771 0 0.30751004702109352 -0.44934987697332179 0 0.27900958652996882 -0.45623282644251328 0 0.30751004702109352 -0.44934987697332179 0 0.27900958652996882 -0.45623282644251328 0 0.28424662045150773 -0.43483421104887771 0 0.26160685402760409 -0.44662062899480698 0 0.27900958652996882 -0.45623282644251328 0 0.26208579729036757 -0.42674551763226098 0 0.26160685402760409 -0.44662062899480698 0 0.2356901623829499 -0.43917726303835991 0 0.26160685402760409 -0.44662062899480698 0 0.25050912603884412 -0.46311577591170477 0 0.27900958652996882 -0.45623282644251328 0 0.25050912603884412 -0.46311577591170477 0 0.27900958652996882 -0.45623282644251328 0 0.25050912603884412 -0.46311577591170477 0 0.27900958652996882 -0.45623282644251328 0 0.2616024764613904 -0.48183062609196442 0 0.27900958652996882 -0.45623282644251328 0 0.2616024764613904 -0.48183062609196442 0 0.28306581148905458 -0.47827629206753408 0 0.25050912603884412 -0.46311577591170477 0 0.2616024764613904 -0.48183062609196442 0 0.23989856435650339 -0.48152684970058779 0 0.2616024764613904 -0.48183062609196442 0 0.27356834010163628 -0.5 0 0.24697327336641769 -0.5 0 0.2616024764613904 -0.48183062609196442 0 0.27356834010163628 -0.5 0 0.28306581148905458 -0.47827629206753408 0 0.27356834010163628 -0.5 0 0.29046587683075992 -0.49004225322577438 0 0.30016340683685511 -0.5 0 0.29046587683075992 -0.49004225322577438 0 0.28306581148905458 -0.47827629206753408 0 0.30391039082730881 -0.48651466872142718 0 0.27356834010163628 -0.5 0 0.29046587683075992 -0.49004225322577438 0 0.28306581148905458 -0.47827629206753408 0 0.2990216810944567 -0.46724719448338597 0 0.28306581148905458 -0.47827629206753408 0 0.30391039082730881 -0.48651466872142718 0 0.32161256960485768 -0.46586230821213342 0 0.2990216810944567 -0.46724719448338597 0 0.30391039082730881 -0.48651466872142718 0 0.32675847357207383 -0.5 0 0.30016340683685511 -0.5 0 0.30391039082730881 -0.48651466872142718 0 0.29046587683075992 -0.49004225322577438 0 0.30016340683685511 -0.5 0 0.30391039082730881 -0.48651466872142718 0 0.32873807510710668 -0.29113937187087058 0 0.3425466642742091 -0.27246438619889668 0 0.32873807510710668 -0.29113937187087058 0 0.33139457048760212 -0.29145669141250802 0 0.3425466642742091 -0.27246438619889668 0 0.33139457048760212 -0.29145669141250802 0 0.34000256292494258 -0.28704744302745849 0 0.3425466642742091 -0.27246438619889668 0 0.32873807510710668 -0.29113937187087058 0 0.33139457048760212 -0.29145669141250802 0 0.34000256292494258 -0.28704744302745849 0 0.3425466642742091 -0.27246438619889668 0 0.34601125290300538 -0.28726911057195292 0 0.34000256292494258 -0.28704744302745849 0 0.3400577640349538 -0.29699958392647641 0 0.34601125290300538 -0.28726911057195292 0 0.33139457048760212 -0.29145669141250802 0 0.34000256292494258 -0.28704744302745849 0 0.3400577640349538 -0.29699958392647641 0 0.32873807510710668 -0.29113937187087058 0 0.33139457048760212 -0.29145669141250802 0 0.32802801690103489 -0.30836206170323049 0 0.33139457048760212 -0.29145669141250802 0 0.3400577640349538 -0.29699958392647641 0 0.32802801690103489 -0.30836206170323049 0 0.3400577640349538 -0.29699958392647641 0 0.32802801690103489 -0.30836206170323049 0 0.35084473429011193 -0.30397843924852258 0 0.32873807510710668 -0.29113937187087058 0 0.31176950584566349 -0.3140879717601589 0 0.30415341283635627 -0.28820272314925421 0 0.32873807510710668 -0.29113937187087058 0 0.31176950584566349 -0.3140879717601589 0 0.32873807510710668 -0.29113937187087058 0 0.32802801690103489 -0.30836206170323049 0 0.31176950584566349 -0.3140879717601589 0 0.32873807510710668 -0.29113937187087058 0 0.31764852761692408 -0.27969693834589021 0 0.30415341283635627 -0.28820272314925421 0 0.32873807510710668 -0.29113937187087058 0 0.30415341283635627 -0.28820272314925421 0 0.32873807510710668 -0.29113937187087058 0 0.31764852761692408 -0.27969693834589021 0 0.32735318990127532 -0.27891828555999559 0 0.31764852761692408 -0.27969693834589021 0 0.32735318990127532 -0.27891828555999559 0 0.31724443504004929 -0.26399756002273511 0 0.31764852761692408 -0.27969693834589021 0 0.31724443504004929 -0.26399756002273511 0 0.30415341283635627 -0.28820272314925421 0 0.31551748478291081 -0.26408865837471118 0 0.31724443504004929 -0.26399756002273511 0 0.30738704559398372 -0.2743888983700451 0 0.32735318990127532 -0.27891828555999559 0 0.31724443504004929 -0.26399756002273511 0 0.32270811797035448 -0.26643773283962452 0 0.32735318990127532 -0.27891828555999559 0 0.32836407761622671 -0.26951202755246589 0 0.32270811797035448 -0.26643773283962452 0 0.32735318990127532 -0.27891828555999559 0 0.31724443504004929 -0.26399756002273511 0 0.32270811797035448 -0.26643773283962452 0 0.32673297148793079 -0.2644860178892664 0 0.32836407761622671 -0.26951202755246589 0 0.30480420689821658 -0.24563553302006269 0 0.31638581074207073 -0.25471239251993349 0 0.31724443504004929 -0.26399756002273511 0 0.32069412916639017 -0.24822603772611981 0 0.31638581074207073 -0.25471239251993349 0 0.32270593789517271 -0.2561131628039986 0 0.31638581074207073 -0.25471239251993349 0 0.3190290713941506 -0.25849279071670761 0 0.32270593789517271 -0.2561131628039986 0 0.31638581074207073 -0.25471239251993349 0 0.3190290713941506 -0.25849279071670761 0 0.31724443504004929 -0.26399756002273511 0 0.31551748478291081 -0.26408865837471118 0 0.31724443504004929 -0.26399756002273511 0 0.30755535187744198 -0.25637475982974139 0 0.3190290713941506 -0.25849279071670761 0 0.31724443504004929 -0.26399756002273511 0 0.32047760918473578 -0.26001619247198499 0 0.32270811797035448 -0.26643773283962452 0 0.31724443504004929 -0.26399756002273511 0 0.31992545800109751 -0.26450555755482869 0 0.31724443504004929 -0.26399756002273511 0 0.32031787273150297 -0.26259799216012819 0 0.32047760918473578 -0.26001619247198499 0 0.31724443504004929 -0.26399756002273511 0 0.31992545800109751 -0.26450555755482869 0 0.32031787273150297 -0.26259799216012819 0 0.32270811797035448 -0.26643773283962452 0 0.32265691948739078 -0.26336216370766702 0 0.32673297148793079 -0.2644860178892664 0 0.32270811797035448 -0.26643773283962452 0 0.31992545800109751 -0.26450555755482869 0 0.32265691948739078 -0.26336216370766702 0 0.32031787273150297 -0.26259799216012819 0 0.32265691948739078 -0.26336216370766702 0 0.32251966233890622 -0.26081390068264959 0 0.31992545800109751 -0.26450555755482869 0 0.32031787273150297 -0.26259799216012819 0 0.32265691948739078 -0.26336216370766702 0 0.32673297148793079 -0.2644860178892664 0 0.32548603520376113 -0.26076512576595612 0 0.33005036452928849 -0.26095052431689619 0 0.32265691948739078 -0.26336216370766702 0 0.32673297148793079 -0.2644860178892664 0 0.32548603520376113 -0.26076512576595612 0 0.32701574434643221 -0.25804914821382879 0 0.32548603520376113 -0.26076512576595612 0 0.32270593789517271 -0.2561131628039986 0 0.32701574434643221 -0.25804914821382879 0 0.32548603520376113 -0.26076512576595612 0 0.33005036452928849 -0.26095052431689619 0 0.32251966233890622 -0.26081390068264959 0 0.32047760918473578 -0.26001619247198499 0 0.32270593789517271 -0.2561131628039986 0 0.32548603520376113 -0.26076512576595612 0 0.32251966233890622 -0.26081390068264959 0 0.32270593789517271 -0.2561131628039986 0 0.32265691948739078 -0.26336216370766702 0 0.32548603520376113 -0.26076512576595612 0 0.32251966233890622 -0.26081390068264959 0 0.32031787273150297 -0.26259799216012819 0 0.32251966233890622 -0.26081390068264959 0 0.32047760918473578 -0.26001619247198499 0 0.3190290713941506 -0.25849279071670761 0 0.32047760918473578 -0.26001619247198499 0 0.32270593789517271 -0.2561131628039986 0 0.32069412916639017 -0.24822603772611981 0 0.32855957754564907 -0.24928726046813449 0 0.32270593789517271 -0.2561131628039986 0 0.32701574434643221 -0.25804914821382879 0 0.32270593789517271 -0.2561131628039986 0 0.32998991008192619 -0.25461638679421622 0 0.32855957754564907 -0.24928726046813449 0 0.32270593789517271 -0.2561131628039986 0 0.32998991008192619 -0.25461638679421622 0 0.32855957754564907 -0.24928726046813449 0 0.3351409682325861 -0.25250282016358372 0 0.32998991008192619 -0.25461638679421622 0 0.3351409682325861 -0.25250282016358372 0 0.32998991008192619 -0.25461638679421622 0 0.33399608568256062 -0.2580840195480395 0 0.33399608568256062 -0.2580840195480395 0 0.33005036452928849 -0.26095052431689619 0 0.33598556277006397 -0.26435140407537738 0 0.32998991008192619 -0.25461638679421622 0 0.33399608568256062 -0.2580840195480395 0 0.33005036452928849 -0.26095052431689619 0 0.32701574434643221 -0.25804914821382879 0 0.32998991008192619 -0.25461638679421622 0 0.33005036452928849 -0.26095052431689619 0 0.32673297148793079 -0.2644860178892664 0 0.33005036452928849 -0.26095052431689619 0 0.33114624213234478 -0.26630156793158999 0 0.33005036452928849 -0.26095052431689619 0 0.33598556277006397 -0.26435140407537738 0 0.33114624213234478 -0.26630156793158999 0 0.34093039636674399 -0.26326866089728779 0 0.3425466642742091 -0.27246438619889668 0 0.34592624060415778 -0.25820733171144822 0 0.33598556277006397 -0.26435140407537738 0 0.34093039636674399 -0.26326866089728779 0 0.33926311781854551 -0.25805152160342909 0 0.34093039636674399 -0.26326866089728779 0 0.33926311781854551 -0.25805152160342909 0 0.34592624060415778 -0.25820733171144822 0 0.33399608568256062 -0.2580840195480395 0 0.33598556277006397 -0.26435140407537738 0 0.33926311781854551 -0.25805152160342909 0 0.33926311781854551 -0.25805152160342909 0 0.34365684795864693 -0.25019368694785837 0 0.34592624060415778 -0.25820733171144822 0 0.3351409682325861 -0.25250282016358372 0 0.33926311781854551 -0.25805152160342909 0 0.34365684795864693 -0.25019368694785837 0 0.3351409682325861 -0.25250282016358372 0 0.33399608568256062 -0.2580840195480395 0 0.33926311781854551 -0.25805152160342909 0 0.32873807510710668 -0.29113937187087058 0 0.32735318990127532 -0.27891828555999559 0 0.33352957521811832 -0.27340525817290878 0 0.32873807510710668 -0.29113937187087058 0 0.33352957521811832 -0.27340525817290878 0 0.3425466642742091 -0.27246438619889668 0 0.32735318990127532 -0.27891828555999559 0 0.32836407761622671 -0.26951202755246589 0 0.33352957521811832 -0.27340525817290878 0 0.33114624213234478 -0.26630156793158999 0 0.32836407761622671 -0.26951202755246589 0 0.33352957521811832 -0.27340525817290878 0 0.33598556277006397 -0.26435140407537738 0 0.33114624213234478 -0.26630156793158999 0 0.33352957521811832 -0.27340525817290878 0 0.32673297148793079 -0.2644860178892664 0 0.33114624213234478 -0.26630156793158999 0 0.32836407761622671 -0.26951202755246589 0 0.33598556277006397 -0.26435140407537738 0 0.34093039636674399 -0.26326866089728779 0 0.3425466642742091 -0.27246438619889668 0 0.33598556277006397 -0.26435140407537738 0 0.33352957521811832 -0.27340525817290878 0 0.3425466642742091 -0.27246438619889668 0 0.3425466642742091 -0.27246438619889668 0 0.35581108740513862 -0.27564385866673607 0 0.34601125290300538 -0.28726911057195292 0 0.3425466642742091 -0.27246438619889668 0 0.35581108740513862 -0.27564385866673607 0 0.3563552534413108 -0.25378940052692223 0 0.36077744052016542 -0.24730927808494951 0 0.35581108740513862 -0.27564385866673607 0 0.3425466642742091 -0.27246438619889668 0 0.34592624060415778 -0.25820733171144822 0 0.3563552534413108 -0.25378940052692223 0 0.3425466642742091 -0.27246438619889668 0 0.3563552534413108 -0.25378940052692223 0 0.36077744052016542 -0.24730927808494951 0 0.35581108740513862 -0.27564385866673607 0 0.3563552534413108 -0.25378940052692223 0 0.34969152230722089 -0.25229806575757502 0 0.34592624060415778 -0.25820733171144822 0 0.3563552534413108 -0.25378940052692223 0 0.34365684795864693 -0.25019368694785837 0 0.34969152230722089 -0.25229806575757502 0 0.34592624060415778 -0.25820733171144822 0 0.35282774722476801 -0.24700184384407131 0 0.34969152230722089 -0.25229806575757502 0 0.3563552534413108 -0.25378940052692223 0 0.36077744052016542 -0.24730927808494951 0 0.35581108740513862 -0.27564385866673607 0 0.36769063824094528 -0.2631235210290595 0 0.36077744052016542 -0.24730927808494951 0 0.36769063824094528 -0.2631235210290595 0 0.36989274685626972 -0.2522374082819932 0 0.37546722915105452 -0.25606958948889358 0 0.37796427554805412 -0.26223018220547389 0 0.36769063824094528 -0.2631235210290595 0 0.37796427554805412 -0.26223018220547389 0 0.36769063824094528 -0.2631235210290595 0 0.37473141092706941 -0.26914994494115152 0 0.37546722915105452 -0.25606958948889358 0 0.36769063824094528 -0.2631235210290595 0 0.36989274685626972 -0.2522374082819932 0 0.37669435334676382 -0.2489118278324608 0 0.37546722915105452 -0.25606958948889358 0 0.36989274685626972 -0.2522374082819932 0 0.35581108740513862 -0.27564385866673607 0 0.36701287363834939 -0.27503058980870382 0 0.36340698174539698 -0.2915777614898053 0 0.35581108740513862 -0.27564385866673607 0 0.36769063824094528 -0.2631235210290595 0 0.36701287363834939 -0.27503058980870382 0 0.36769063824094528 -0.2631235210290595 0 0.36701287363834939 -0.27503058980870382 0 0.37473141092706941 -0.26914994494115152 0 0.37715445783546542 -0.28050555434053359 0 0.36701287363834939 -0.27503058980870382 0 0.37473141092706941 -0.26914994494115152 0 0.37715445783546542 -0.28050555434053359 0 0.36701287363834939 -0.27503058980870382 0 0.36340698174539698 -0.2915777614898053 0 0.35581108740513862 -0.27564385866673607 0 0.35084473429011193 -0.30397843924852258 0 0.35581108740513862 -0.27564385866673607 0 0.36340698174539698 -0.2915777614898053 0 0.35084473429011193 -0.30397843924852258 0 0.35581108740513862 -0.27564385866673607 0 0.34601125290300538 -0.28726911057195292 0 0.35084473429011193 -0.30397843924852258 0 0.3400577640349538 -0.29699958392647641 0 0.34601125290300538 -0.28726911057195292 0 0.35084473429011193 -0.30397843924852258 0 0.39124851913890668 -0.30355393236464562 0 0.36340698174539698 -0.2915777614898053 0 0.36761603879828031 -0.31316545387241412 0 0.36340698174539698 -0.2915777614898053 0 0.35084473429011193 -0.30397843924852258 0 0.36761603879828031 -0.31316545387241412 0 0.37640026017689421 -0.32913359683619792 0 0.36761603879828031 -0.31316545387241412 0 0.36171014791622502 -0.33890545177108472 0 0.3757278279979428 -0.35904093597520531 0 0.37640026017689421 -0.32913359683619792 0 0.36171014791622502 -0.33890545177108472 0 0.36171014791622502 -0.33890545177108472 0 0.34587838117508513 -0.33231301983030898 0 0.34122575913721981 -0.35066852502788398 0 0.36761603879828031 -0.31316545387241412 0 0.36171014791622502 -0.33890545177108472 0 0.34587838117508513 -0.33231301983030898 0 0.35084473429011193 -0.30397843924852258 0 0.34587838117508513 -0.33231301983030898 0 0.35084473429011193 -0.30397843924852258 0 0.36761603879828031 -0.31316545387241412 0 0.34587838117508513 -0.33231301983030898 0 0.3757278279979428 -0.35904093597520531 0 0.37535412309888039 -0.37566197152946912 0 0.35996954415192273 -0.37360168191249388 0 0.3757278279979428 -0.35904093597520531 0 0.35996954415192273 -0.37360168191249388 0 0.35759910057016969 -0.37065161869768393 0 0.3757278279979428 -0.35904093597520531 0 0.35933762020741988 -0.35606516744077837 0 0.35759910057016969 -0.37065161869768393 0 0.3757278279979428 -0.35904093597520531 0 0.35996954415192273 -0.37360168191249388 0 0.3757278279979428 -0.35904093597520531 0 0.36171014791622502 -0.33890545177108472 0 0.35933762020741988 -0.35606516744077837 0 0.35933762020741988 -0.35606516744077837 0 0.34937360439510662 -0.36497399958722831 0 0.34122575913721981 -0.35066852502788398 0 0.36171014791622502 -0.33890545177108472 0 0.35933762020741988 -0.35606516744077837 0 0.34122575913721981 -0.35066852502788398 0 0.35933762020741988 -0.35606516744077837 0 0.34937360439510662 -0.36497399958722831 0 0.35759910057016969 -0.37065161869768393 0 0.34937360439510662 -0.36497399958722831 0 0.35035469610480408 -0.37401783143655343 0 0.33973586500356789 -0.37351634831224328 0 0.34937360439510662 -0.36497399958722831 0 0.35035469610480408 -0.37401783143655343 0 0.35759910057016969 -0.37065161869768393 0 0.35996954415192273 -0.37360168191249388 0 0.35035469610480408 -0.37401783143655343 0 0.35759910057016969 -0.37065161869768393 0 0.35996954415192273 -0.37360168191249388 0 0.35759910057016969 -0.37065161869768393 0 0.33973586500356789 -0.37351634831224328 0 0.34122575913721981 -0.35066852502788398 0 0.31726840079389501 -0.35527645998084578 0 0.34937360439510662 -0.36497399958722831 0 0.33973586500356789 -0.37351634831224328 0 0.34122575913721981 -0.35066852502788398 0 0.33973586500356789 -0.37351634831224328 0 0.31726840079389501 -0.35527645998084578 0 0.34122575913721981 -0.35066852502788398 0 0.31726840079389501 -0.35527645998084578 0 0.32316183340618682 -0.33295743499197938 0 0.32259149844054552 -0.38188800813681317 0 0.31726840079389501 -0.35527645998084578 0 0.3082893162413004 -0.37167909625049789 0 0.32259149844054552 -0.38188800813681317 0 0.33973586500356789 -0.37351634831224328 0 0.31726840079389501 -0.35527645998084578 0 0.32802801690103489 -0.30836206170323049 0 0.35084473429011193 -0.30397843924852258 0 0.34587838117508513 -0.33231301983030898 0 0.32802801690103489 -0.30836206170323049 0 0.34587838117508513 -0.33231301983030898 0 0.32316183340618682 -0.33295743499197938 0 0.34587838117508513 -0.33231301983030898 0 0.34122575913721981 -0.35066852502788398 0 0.32316183340618682 -0.33295743499197938 0 0.32802801690103489 -0.30836206170323049 0 0.32316183340618682 -0.33295743499197938 0 0.31176950584566349 -0.3140879717601589 0 0.31176950584566349 -0.3140879717601589 0 0.29210994290713449 -0.33199887732797573 0 0.29480093658422202 -0.33703657164944839 0 0.31176950584566349 -0.3140879717601589 0 0.29480093658422202 -0.33703657164944839 0 0.32316183340618682 -0.33295743499197938 0 0.31176950584566349 -0.3140879717601589 0 0.29480093658422202 -0.33703657164944839 0 0.31176950584566349 -0.3140879717601589 0 0.29210994290713449 -0.33199887732797573 0 0.2917512786343659 -0.31113413956619379 0 0.31726840079389501 -0.35527645998084578 0 0.32316183340618682 -0.33295743499197938 0 0.29480093658422202 -0.33703657164944839 0 0.29210994290713449 -0.33199887732797573 0 0.29480093658422202 -0.33703657164944839 0 0.28294701326347282 -0.32741313414703832 0 0.29480093658422202 -0.33703657164944839 0 0.28321948456005092 -0.34134777429049751 0 0.28406997633267328 -0.35154931632734632 0 0.29480093658422202 -0.33703657164944839 0 0.28294701326347282 -0.32741313414703832 0 0.29480093658422202 -0.33703657164944839 0 0.28321948456005092 -0.34134777429049751 0 0.28294701326347282 -0.32741313414703832 0 0.29210994290713449 -0.33199887732797573 0 0.2917512786343659 -0.31113413956619379 0 0.28294701326347282 -0.32741313414703832 0 0.2917512786343659 -0.31113413956619379 0 0.28294701326347282 -0.32741313414703832 0 0.27752978178037158 -0.31259844825611338 0 0.2917512786343659 -0.31113413956619379 0 0.29210994290713449 -0.33199887732797573 0 0.28294701326347282 -0.32741313414703832 0 0.2917512786343659 -0.31113413956619379 0 0.31726840079389501 -0.35527645998084578 0 0.3082893162413004 -0.37167909625049789 0 0.29732081760148749 -0.35783601620101091 0 0.29408069388956798 -0.37854987491659398 0 0.3082893162413004 -0.37167909625049789 0 0.29297420112102007 -0.3684069175256573 0 0.3082893162413004 -0.37167909625049789 0 0.29732081760148749 -0.35783601620101091 0 0.29297420112102007 -0.3684069175256573 0 0.31726840079389501 -0.35527645998084578 0 0.29480093658422202 -0.33703657164944839 0 0.31726840079389501 -0.35527645998084578 0 0.29480093658422202 -0.33703657164944839 0 0.29732081760148749 -0.35783601620101091 0 0.29480093658422202 -0.33703657164944839 0 0.29732081760148749 -0.35783601620101091 0 0.28406997633267328 -0.35154931632734632 0 0.29480093658422202 -0.33703657164944839 0 0.28406997633267328 -0.35154931632734632 0 0.29732081760148749 -0.35783601620101091 0 0.28406997633267328 -0.35154931632734632 0 0.2865220745358143 -0.36306773547226989 0 0.29732081760148749 -0.35783601620101091 0 0.2865220745358143 -0.36306773547226989 0 0.29297420112102007 -0.3684069175256573 0 0.2865220745358143 -0.36306773547226989 0 0.28381788445018402 -0.37249659868489943 0 0.28045540100210548 -0.36437291329237209 0 0.28406997633267328 -0.35154931632734632 0 0.2865220745358143 -0.36306773547226989 0 0.28045540100210548 -0.36437291329237209 0 0.2865220745358143 -0.36306773547226989 0 0.28381788445018402 -0.37249659868489943 0 0.29297420112102007 -0.3684069175256573 0 0.29408069388956798 -0.37854987491659398 0 0.28381788445018402 -0.37249659868489943 0 0.29297420112102007 -0.3684069175256573 0 0.26173735937561721 -0.38067445646533549 0 0.27452805361072929 -0.36868885497209941 0 0.26505314271623781 -0.3713952325324853 0 0.26173735937561721 -0.38067445646533549 0 0.27452805361072929 -0.36868885497209941 0 0.27452805361072929 -0.36868885497209941 0 0.26866967059499441 -0.36717847777119689 0 0.26505314271623781 -0.3713952325324853 0 0.27452805361072929 -0.36868885497209941 0 0.27333901608112687 -0.3660620610052458 0 0.26866967059499441 -0.36717847777119689 0 0.28381788445018402 -0.37249659868489943 0 0.27452805361072929 -0.36868885497209941 0 0.28045540100210548 -0.36437291329237209 0 0.27655387219045102 -0.3819926749646213 0 0.28381788445018402 -0.37249659868489943 0 0.27452805361072929 -0.36868885497209941 0 0.28406997633267328 -0.35154931632734632 0 0.28045540100210548 -0.36437291329237209 0 0.27333901608112687 -0.3660620610052458 0 0.27452805361072929 -0.36868885497209941 0 0.28045540100210548 -0.36437291329237209 0 0.27333901608112687 -0.3660620610052458 0 0.27333901608112687 -0.3660620610052458 0 0.26893952642434171 -0.36258755580358781 0 0.2718211166234914 -0.35777879987708711 0 0.26866967059499441 -0.36717847777119689 0 0.26380092369144159 -0.36034647178242107 0 0.26505314271623781 -0.3713952325324853 0 0.26893952642434171 -0.36258755580358781 0 0.2718211166234914 -0.35777879987708711 0 0.26380092369144159 -0.36034647178242107 0 0.27333901608112687 -0.3660620610052458 0 0.26866967059499441 -0.36717847777119689 0 0.26893952642434171 -0.36258755580358781 0 0.26866967059499441 -0.36717847777119689 0 0.26893952642434171 -0.36258755580358781 0 0.26380092369144159 -0.36034647178242107 0 0.2718211166234914 -0.35777879987708711 0 0.2710600120598356 -0.34939207503815678 0 0.26380092369144159 -0.36034647178242107 0 0.28406997633267328 -0.35154931632734632 0 0.27333901608112687 -0.3660620610052458 0 0.28406997633267328 -0.35154931632734632 0 0.27333901608112687 -0.3660620610052458 0 0.2718211166234914 -0.35777879987708711 0 0.28406997633267328 -0.35154931632734632 0 0.2718211166234914 -0.35777879987708711 0 0.2710600120598356 -0.34939207503815678 0 0.28321948456005092 -0.34134777429049751 0 0.28406997633267328 -0.35154931632734632 0 0.2710600120598356 -0.34939207503815678 0 0.25593275520075132 -0.346165349395334 0 0.26380092369144159 -0.36034647178242107 0 0.25190813535751883 -0.36059210590481772 0 0.2710600120598356 -0.34939207503815678 0 0.25593275520075132 -0.346165349395334 0 0.26380092369144159 -0.36034647178242107 0 0.25190813535751883 -0.36059210590481772 0 0.26505314271623781 -0.3713952325324853 0 0.24728128374814221 -0.37753641242697722 0 0.26380092369144159 -0.36034647178242107 0 0.25190813535751883 -0.36059210590481772 0 0.26505314271623781 -0.3713952325324853 0 0.28294701326347282 -0.32741313414703832 0 0.27752978178037158 -0.31259844825611338 0 0.26077709396183218 -0.30941480337840999 0 0.28294701326347282 -0.32741313414703832 0 0.26226330268729781 -0.33023748374015638 0 0.26077709396183218 -0.30941480337840999 0 0.28294701326347282 -0.32741313414703832 0 0.26077709396183218 -0.30941480337840999 0 0.28294701326347282 -0.32741313414703832 0 0.2710600120598356 -0.34939207503815678 0 0.28321948456005092 -0.34134777429049751 0 0.28294701326347282 -0.32741313414703832 0 0.2710600120598356 -0.34939207503815678 0 0.28294701326347282 -0.32741313414703832 0 0.2710600120598356 -0.34939207503815678 0 0.26226330268729781 -0.33023748374015638 0 0.2710600120598356 -0.34939207503815678 0 0.25593275520075132 -0.346165349395334 0 0.26226330268729781 -0.33023748374015638 0 0.25593275520075132 -0.346165349395334 0 0.26226330268729781 -0.33023748374015638 0 0.25013817673115513 -0.33357465184176133 0 0.26226330268729781 -0.33023748374015638 0 0.25013817673115513 -0.33357465184176133 0 0.25275648173787341 -0.32202407013578199 0 0.26226330268729781 -0.33023748374015638 0 0.25275648173787341 -0.32202407013578199 0 0.26077709396183218 -0.30941480337840999 0 0.25275648173787341 -0.32202407013578199 0 0.26077709396183218 -0.30941480337840999 0 0.24813568835332031 -0.31328500358422018 0 0.25342431258653308 -0.29943394617995028 0 0.26077709396183218 -0.30941480337840999 0 0.24813568835332031 -0.31328500358422018 0 0.25342431258653308 -0.29943394617995028 0 0.26077709396183218 -0.30941480337840999 0 0.27464374126181529 -0.30243171593281121 0 0.25342431258653308 -0.29943394617995028 0 0.27853151593812991 -0.28514217629516708 0 0.24879881178928751 -0.28159059170688733 0 0.27853151593812991 -0.28514217629516708 0 0.24879881178928751 -0.28159059170688733 0 0.25342431258653308 -0.29943394617995028 0 0.27853151593812991 -0.28514217629516708 0 0.27853151593812991 -0.28514217629516708 0 0.27464374126181529 -0.30243171593281121 0 0.28406432366303541 -0.29634477082024169 0 0.25342431258653308 -0.29943394617995028 0 0.27853151593812991 -0.28514217629516708 0 0.27464374126181529 -0.30243171593281121 0 0.27752978178037158 -0.31259844825611338 0 0.26077709396183218 -0.30941480337840999 0 0.27464374126181529 -0.30243171593281121 0 0.2917512786343659 -0.31113413956619379 0 0.28406432366303541 -0.29634477082024169 0 0.29133075881782988 -0.28667105148679489 0 0.27752978178037158 -0.31259844825611338 0 0.27464374126181529 -0.30243171593281121 0 0.2917512786343659 -0.31113413956619379 0 0.27464374126181529 -0.30243171593281121 0 0.2917512786343659 -0.31113413956619379 0 0.28406432366303541 -0.29634477082024169 0 0.2917512786343659 -0.31113413956619379 0 0.29133075881782988 -0.28667105148679489 0 0.2917512786343659 -0.31113413956619379 0 0.29133075881782988 -0.28667105148679489 0 0.30415341283635627 -0.28820272314925421 0 0.27853151593812991 -0.28514217629516708 0 0.28406432366303541 -0.29634477082024169 0 0.29133075881782988 -0.28667105148679489 0 0.27853151593812991 -0.28514217629516708 0 0.29133075881782988 -0.28667105148679489 0 0.29118070460476009 -0.27794188038323009 0 0.27853151593812991 -0.28514217629516708 0 0.29133075881782988 -0.28667105148679489 0 0.27853151593812991 -0.28514217629516708 0 0.29118070460476009 -0.27794188038323009 0 0.29133075881782988 -0.28667105148679489 0 0.29469795099547791 -0.28176088609666339 0 0.29118070460476009 -0.27794188038323009 0 0.29133075881782988 -0.28667105148679489 0 0.29469795099547791 -0.28176088609666339 0 0.30190092849923061 -0.28630953193496012 0 0.29133075881782988 -0.28667105148679489 0 0.29118070460476009 -0.27794188038323009 0 0.29133075881782988 -0.28667105148679489 0 0.30415341283635627 -0.28820272314925421 0 0.29133075881782988 -0.28667105148679489 0 0.30415341283635627 -0.28820272314925421 0 0.30190092849923061 -0.28630953193496012 0 0.29469795099547791 -0.28176088609666339 0 0.30190092849923061 -0.28630953193496012 0 0.29437941206009077 -0.27612108058166868 0 0.30415341283635627 -0.28820272314925421 0 0.30195519974741541 -0.28125555850898198 0 0.30738704559398372 -0.2743888983700451 0 0.30415341283635627 -0.28820272314925421 0 0.30190092849923061 -0.28630953193496012 0 0.30195519974741541 -0.28125555850898198 0 0.31176950584566349 -0.3140879717601589 0 0.2917512786343659 -0.31113413956619379 0 0.30415341283635627 -0.28820272314925421 0 0.2917512786343659 -0.31113413956619379 0 0.30415341283635627 -0.28820272314925421 0 0.30480420689821658 -0.24563553302006269 0 0.31724443504004929 -0.26399756002273511 0 0.30480420689821658 -0.24563553302006269 0 0.31724443504004929 -0.26399756002273511 0 0.30755535187744198 -0.25637475982974139 0 0.30259478643815529 -0.26050862209835468 0 0.30195220129405709 -0.26512983025071568 0 0.30554951764892307 -0.26242128821929211 0 0.30195220129405709 -0.26512983025071568 0 0.30554951764892307 -0.26242128821929211 0 0.30407339647642639 -0.26657165160064761 0 0.30259478643815529 -0.26050862209835468 0 0.30195220129405709 -0.26512983025071568 0 0.2976308486438371 -0.26205050968813159 0 0.30195220129405709 -0.26512983025071568 0 0.2976308486438371 -0.26205050968813159 0 0.29826087949922198 -0.26885292863559729 0 0.30259478643815529 -0.26050862209835468 0 0.2976308486438371 -0.26205050968813159 0 0.30064919780398158 -0.25546404013578378 0 0.30480420689821658 -0.24563553302006269 0 0.30064919780398158 -0.25546404013578378 0 0.30755535187744198 -0.25637475982974139 0 0.30480420689821658 -0.24563553302006269 0 0.30064919780398158 -0.25546404013578378 0 0.29071397735681082 -0.25079074665138512 0 0.30259478643815529 -0.26050862209835468 0 0.30064919780398158 -0.25546404013578378 0 0.30755535187744198 -0.25637475982974139 0 0.31551748478291081 -0.26408865837471118 0 0.30878088357335448 -0.26281612354190048 0 0.30407339647642639 -0.26657165160064761 0 0.31551748478291081 -0.26408865837471118 0 0.30755535187744198 -0.25637475982974139 0 0.30878088357335448 -0.26281612354190048 0 0.30259478643815529 -0.26050862209835468 0 0.30755535187744198 -0.25637475982974139 0 0.30554951764892307 -0.26242128821929211 0 0.30755535187744198 -0.25637475982974139 0 0.30554951764892307 -0.26242128821929211 0 0.30878088357335448 -0.26281612354190048 0 0.30554951764892307 -0.26242128821929211 0 0.30878088357335448 -0.26281612354190048 0 0.30407339647642639 -0.26657165160064761 0 0.31724443504004929 -0.26399756002273511 0 0.30415341283635627 -0.28820272314925421 0 0.30738704559398372 -0.2743888983700451 0 0.31551748478291081 -0.26408865837471118 0 0.29437941206009077 -0.27612108058166868 0 0.31724443504004929 -0.26399756002273511 0 0.30415341283635627 -0.28820272314925421 0 0.31551748478291081 -0.26408865837471118 0 0.30738704559398372 -0.2743888983700451 0 0.29437941206009077 -0.27612108058166868 0 0.31551748478291081 -0.26408865837471118 0 0.30407339647642639 -0.26657165160064761 0 0.29437941206009077 -0.27612108058166868 0 0.30195519974741541 -0.28125555850898198 0 0.30738704559398372 -0.2743888983700451 0 0.29437941206009077 -0.27612108058166868 0 0.30190092849923061 -0.28630953193496012 0 0.30195519974741541 -0.28125555850898198 0 0.29437941206009077 -0.27612108058166868 0 0.30190092849923061 -0.28630953193496012 0 0.29437941206009077 -0.27612108058166868 0 0.30407339647642639 -0.26657165160064761 0 0.29826087949922198 -0.26885292863559729 0 0.29437941206009077 -0.27612108058166868 0 0.30195220129405709 -0.26512983025071568 0 0.30407339647642639 -0.26657165160064761 0 0.29826087949922198 -0.26885292863559729 0 0.2976308486438371 -0.26205050968813159 0 0.29826087949922198 -0.26885292863559729 0 0.29107240105093463 -0.27164148912371561 0 0.29107240105093463 -0.27164148912371561 0 0.28089060434275942 -0.27593573614020422 0 0.27309539476411038 -0.2672445317806737 0 0.29826087949922198 -0.26885292863559729 0 0.29107240105093463 -0.27164148912371561 0 0.29437941206009077 -0.27612108058166868 0 0.29469795099547791 -0.28176088609666339 0 0.29437941206009077 -0.27612108058166868 0 0.29118070460476009 -0.27794188038323009 0 0.29107240105093463 -0.27164148912371561 0 0.29118070460476009 -0.27794188038323009 0 0.29107240105093463 -0.27164148912371561 0 0.29437941206009077 -0.27612108058166868 0 0.29107240105093463 -0.27164148912371561 0 0.29437941206009077 -0.27612108058166868 0 0.29118070460476009 -0.27794188038323009 0 0.29437941206009077 -0.27612108058166868 0 0.29118070460476009 -0.27794188038323009 0 0.27853151593812991 -0.28514217629516708 0 0.29118070460476009 -0.27794188038323009 0 0.28089060434275942 -0.27593573614020422 0 0.29107240105093463 -0.27164148912371561 0 0.29118070460476009 -0.27794188038323009 0 0.28089060434275942 -0.27593573614020422 0 0.27355499971452291 -0.24791287099247999 0 0.29107240105093463 -0.27164148912371561 0 0.29071397735681082 -0.25079074665138512 0 0.27355499971452291 -0.24791287099247999 0 0.29107240105093463 -0.27164148912371561 0 0.2976308486438371 -0.26205050968813159 0 0.29107240105093463 -0.27164148912371561 0 0.29071397735681082 -0.25079074665138512 0 0.29107240105093463 -0.27164148912371561 0 0.29071397735681082 -0.25079074665138512 0 0.2976308486438371 -0.26205050968813159 0 0.30064919780398158 -0.25546404013578378 0 0.29071397735681082 -0.25079074665138512 0 0.27355499971452291 -0.24791287099247999 0 0.27309539476411038 -0.2672445317806737 0 0.26311663764211668 -0.25760161023216088 0 0.27355499971452291 -0.24791287099247999 0 0.29107240105093463 -0.27164148912371561 0 0.27309539476411038 -0.2672445317806737 0 0.27309539476411038 -0.2672445317806737 0 0.2610050674723669 -0.2694491858945644 0 0.26311663764211668 -0.25760161023216088 0 0.27853151593812991 -0.28514217629516708 0 0.28089060434275942 -0.27593573614020422 0 0.26800950176283422 -0.27684150849392902 0 0.28089060434275942 -0.27593573614020422 0 0.27309539476411038 -0.2672445317806737 0 0.26800950176283422 -0.27684150849392902 0 0.27309539476411038 -0.2672445317806737 0 0.26800950176283422 -0.27684150849392902 0 0.2610050674723669 -0.2694491858945644 0 0.26800950176283422 -0.27684150849392902 0 0.2610050674723669 -0.2694491858945644 0 0.24879881178928751 -0.28159059170688733 0 0.27853151593812991 -0.28514217629516708 0 0.26800950176283422 -0.27684150849392902 0 0.24879881178928751 -0.28159059170688733 0 0.2610050674723669 -0.2694491858945644 0 0.25200499140348598 -0.26396768725917108 0 0.24879881178928751 -0.28159059170688733 0 0.25233535094758291 -0.2439050760836787 0 0.26311663764211668 -0.25760161023216088 0 0.25200499140348598 -0.26396768725917108 0 0.2610050674723669 -0.2694491858945644 0 0.26311663764211668 -0.25760161023216088 0 0.25200499140348598 -0.26396768725917108 0 0.25233535094758291 -0.2439050760836787 0 0.25200499140348598 -0.26396768725917108 0 0.23869683847147871 -0.2575448738814074 0 0.25200499140348598 -0.26396768725917108 0 0.23869683847147871 -0.2575448738814074 0 0.23213080023633689 -0.27434445669225038 0 0.25200499140348598 -0.26396768725917108 0 0.23213080023633689 -0.27434445669225038 0 0.24879881178928751 -0.28159059170688733 0 0.25200499140348598 -0.26396768725917108 0 0.23213080023633689 -0.27434445669225038 0 0.23213080023633689 -0.27434445669225038 0 0.2122566090691885 -0.28472122612533091 0 0.23213080023633689 -0.27434445669225038 0 0.22135164691802739 -0.27417366842493501 0 0.2122566090691885 -0.28472122612533091 0 0.22135164691802739 -0.27417366842493501 0 0.22473475541175991 -0.26102589139095289 0 0.21575874809762599 -0.26854494707632209 0 0.23213080023633689 -0.27434445669225038 0 0.22135164691802739 -0.27417366842493501 0 0.22473475541175991 -0.26102589139095289 0 0.23869683847147871 -0.2575448738814074 0 0.23213080023633689 -0.27434445669225038 0 0.22473475541175991 -0.26102589139095289 0 0.22473475541175991 -0.26102589139095289 0 0.21627131317976131 -0.25043794374200129 0 0.23227829435822789 -0.24448125798098391 0 0.23869683847147871 -0.2575448738814074 0 0.22473475541175991 -0.26102589139095289 0 0.23227829435822789 -0.24448125798098391 0 0.22473475541175991 -0.26102589139095289 0 0.21627131317976131 -0.25043794374200129 0 0.21280783220273991 -0.26043158937723482 0 0.21627131317976131 -0.25043794374200129 0 0.20381234086812139 -0.25583552648548591 0 0.21280783220273991 -0.26043158937723482 0 0.21627131317976131 -0.25043794374200129 0 0.20381234086812139 -0.25583552648548591 0 0.2036796567083593 -0.24385769122738171 0 0.2045905942265854 -0.262527088709542 0 0.21280783220273991 -0.26043158937723482 0 0.20865273518708061 -0.26753044399451748 0 0.20381234086812139 -0.25583552648548591 0 0.2045905942265854 -0.262527088709542 0 0.21280783220273991 -0.26043158937723482 0 0.22473475541175991 -0.26102589139095289 0 0.21280783220273991 -0.26043158937723482 0 0.21575874809762599 -0.26854494707632209 0 0.21280783220273991 -0.26043158937723482 0 0.21575874809762599 -0.26854494707632209 0 0.20865273518708061 -0.26753044399451748 0 0.21575874809762599 -0.26854494707632209 0 0.21153147353746049 -0.27222585647962749 0 0.21625845916481781 -0.27639542334088352 0 0.22135164691802739 -0.27417366842493501 0 0.21575874809762599 -0.26854494707632209 0 0.21625845916481781 -0.27639542334088352 0 0.21575874809762599 -0.26854494707632209 0 0.21153147353746049 -0.27222585647962749 0 0.20865273518708061 -0.26753044399451748 0 0.21625845916481781 -0.27639542334088352 0 0.2128133875212633 -0.28075526711867599 0 0.2122566090691885 -0.28472122612533091 0 0.22135164691802739 -0.27417366842493501 0 0.21625845916481781 -0.27639542334088352 0 0.2122566090691885 -0.28472122612533091 0 0.21153147353746049 -0.27222585647962749 0 0.21625845916481781 -0.27639542334088352 0 0.21070233800749921 -0.27647463243868758 0 0.2128133875212633 -0.28075526711867599 0 0.2100415562251331 -0.27992164732164482 0 0.21070233800749921 -0.27647463243868758 0 0.21625845916481781 -0.27639542334088352 0 0.2128133875212633 -0.28075526711867599 0 0.21070233800749921 -0.27647463243868758 0 0.2100415562251331 -0.27992164732164482 0 0.20507424706273089 -0.27874696257147152 0 0.2122566090691885 -0.28472122612533091 0 0.2100415562251331 -0.27992164732164482 0 0.21070233800749921 -0.27647463243868758 0 0.20507424706273089 -0.27874696257147152 0 0.21153147353746049 -0.27222585647962749 0 0.21070233800749921 -0.27647463243868758 0 0.205940671245221 -0.27286846060845799 0 0.21070233800749921 -0.27647463243868758 0 0.20507424706273089 -0.27874696257147152 0 0.205940671245221 -0.27286846060845799 0 0.20507424706273089 -0.27874696257147152 0 0.205940671245221 -0.27286846060845799 0 0.1991805556998342 -0.27416133700074119 0 0.21153147353746049 -0.27222585647962749 0 0.20865273518708061 -0.26753044399451748 0 0.205940671245221 -0.27286846060845799 0 0.20865273518708061 -0.26753044399451748 0 0.205940671245221 -0.27286846060845799 0 0.20128709181285101 -0.26858472171592052 0 0.2045905942265854 -0.262527088709542 0 0.20865273518708061 -0.26753044399451748 0 0.20128709181285101 -0.26858472171592052 0 0.20507424706273089 -0.27874696257147152 0 0.1991805556998342 -0.27416133700074119 0 0.18712757956716461 -0.27725709351273697 0 0.2122566090691885 -0.28472122612533091 0 0.18712757956716461 -0.27725709351273697 0 0.20507424706273089 -0.27874696257147152 0 0.2122566090691885 -0.28472122612533091 0 0.18712757956716461 -0.27725709351273697 0 0.205940671245221 -0.27286846060845799 0 0.20128709181285101 -0.26858472171592052 0 0.1991805556998342 -0.27416133700074119 0 0.20128709181285101 -0.26858472171592052 0 0.1991805556998342 -0.27416133700074119 0 0.1940068965944256 -0.26961049041539747 0 0.20128709181285101 -0.26858472171592052 0 0.1940068965944256 -0.26961049041539747 0 0.19620178000831401 -0.2628022313842216 0 0.1991805556998342 -0.27416133700074119 0 0.1940068965944256 -0.26961049041539747 0 0.18712757956716461 -0.27725709351273697 0 0.1940068965944256 -0.26961049041539747 0 0.18623747588396411 -0.2652470684633671 0 0.18712757956716461 -0.27725709351273697 0 0.1940068965944256 -0.26961049041539747 0 0.19620178000831401 -0.2628022313842216 0 0.18623747588396411 -0.2652470684633671 0 0.18986729669031829 -0.25883816140540022 0 0.19620178000831401 -0.2628022313842216 0 0.18623747588396411 -0.2652470684633671 0 0.18986729669031829 -0.25883816140540022 0 0.19421691027167551 -0.2513876443463911 0 0.1836670555977232 -0.25463318944990798 0 0.18986729669031829 -0.25883816140540022 0 0.19421691027167551 -0.2513876443463911 0 0.19620178000831401 -0.2628022313842216 0 0.20381234086812139 -0.25583552648548591 0 0.19421691027167551 -0.2513876443463911 0 0.19620178000831401 -0.2628022313842216 0 0.20381234086812139 -0.25583552648548591 0 0.19421691027167551 -0.2513876443463911 0 0.2036796567083593 -0.24385769122738171 0 0.2045905942265854 -0.262527088709542 0 0.20128709181285101 -0.26858472171592052 0 0.19620178000831401 -0.2628022313842216 0 0.20381234086812139 -0.25583552648548591 0 0.2045905942265854 -0.262527088709542 0 0.19620178000831401 -0.2628022313842216 0 0.1900160975856085 -0.2963335054778764 0 0.188568455611654 -0.32065692971527793 0 0.1900160975856085 -0.2963335054778764 0 0.2085776229389337 -0.31092681674103451 0 0.188568455611654 -0.32065692971527793 0 0.1900160975856085 -0.2963335054778764 0 0.19060730175724341 -0.2864000342630823 0 0.1832565974617554 -0.28957981474345351 0 0.1900160975856085 -0.2963335054778764 0 0.19060730175724341 -0.2864000342630823 0 0.2122566090691885 -0.28472122612533091 0 0.1900160975856085 -0.2963335054778764 0 0.2122566090691885 -0.28472122612533091 0 0.1900160975856085 -0.2963335054778764 0 0.19060730175724341 -0.2864000342630823 0 0.19060730175724341 -0.2864000342630823 0 0.2122566090691885 -0.28472122612533091 0 0.18712757956716461 -0.27725709351273697 0 0.2122566090691885 -0.28472122612533091 0 0.2230929618702488 -0.28573486142688898 0 0.220088482949124 -0.29056736414634732 0 0.2128133875212633 -0.28075526711867599 0 0.2122566090691885 -0.28472122612533091 0 0.2128133875212633 -0.28075526711867599 0 0.2100415562251331 -0.27992164732164482 0 0.2122566090691885 -0.28472122612533091 0 0.2122566090691885 -0.28472122612533091 0 0.21779171911597639 -0.29863513785966878 0 0.220088482949124 -0.29056736414634732 0 0.2122566090691885 -0.28472122612533091 0 0.2085776229389337 -0.31092681674103451 0 0.21779171911597639 -0.29863513785966878 0 0.2122566090691885 -0.28472122612533091 0 0.2085776229389337 -0.31092681674103451 0 0.1900160975856085 -0.2963335054778764 0 0.2122566090691885 -0.28472122612533091 0 0.2085776229389337 -0.31092681674103451 0 0.2085776229389337 -0.31092681674103451 0 0.21779171911597639 -0.29863513785966878 0 0.22831710923493631 -0.31372571606473371 0 0.21779171911597639 -0.29863513785966878 0 0.229034811035118 -0.29352001136050571 0 0.22831710923493631 -0.31372571606473371 0 0.229034811035118 -0.29352001136050571 0 0.24098089646436241 -0.29266474589723501 0 0.22831710923493631 -0.31372571606473371 0 0.23213080023633689 -0.27434445669225038 0 0.229034811035118 -0.29352001136050571 0 0.24098089646436241 -0.29266474589723501 0 0.23213080023633689 -0.27434445669225038 0 0.2230929618702488 -0.28573486142688898 0 0.229034811035118 -0.29352001136050571 0 0.23213080023633689 -0.27434445669225038 0 0.2122566090691885 -0.28472122612533091 0 0.2230929618702488 -0.28573486142688898 0 0.2230929618702488 -0.28573486142688898 0 0.220088482949124 -0.29056736414634732 0 0.229034811035118 -0.29352001136050571 0 0.21779171911597639 -0.29863513785966878 0 0.220088482949124 -0.29056736414634732 0 0.229034811035118 -0.29352001136050571 0 0.23213080023633689 -0.27434445669225038 0 0.24098089646436241 -0.29266474589723501 0 0.24879881178928751 -0.28159059170688733 0 0.25342431258653308 -0.29943394617995028 0 0.24098089646436241 -0.29266474589723501 0 0.24879881178928751 -0.28159059170688733 0 0.25342431258653308 -0.29943394617995028 0 0.22831710923493631 -0.31372571606473371 0 0.25342431258653308 -0.29943394617995028 0 0.24813568835332031 -0.31328500358422018 0 0.22831710923493631 -0.31372571606473371 0 0.25342431258653308 -0.29943394617995028 0 0.24098089646436241 -0.29266474589723501 0 0.22831710923493631 -0.31372571606473371 0 0.24813568835332031 -0.31328500358422018 0 0.24246814695576149 -0.32360840813436209 0 0.22831710923493631 -0.31372571606473371 0 0.25275648173787341 -0.32202407013578199 0 0.24813568835332031 -0.31328500358422018 0 0.24246814695576149 -0.32360840813436209 0 0.25013817673115513 -0.33357465184176133 0 0.25275648173787341 -0.32202407013578199 0 0.24246814695576149 -0.32360840813436209 0 0.25013817673115513 -0.33357465184176133 0 0.24246814695576149 -0.32360840813436209 0 0.23668936815325201 -0.34614436922074798 0 0.25593275520075132 -0.346165349395334 0 0.25013817673115513 -0.33357465184176133 0 0.23668936815325201 -0.34614436922074798 0 0.24246814695576149 -0.32360840813436209 0 0.23668936815325201 -0.34614436922074798 0 0.2231900778514159 -0.33062423563715032 0 0.23668936815325201 -0.34614436922074798 0 0.21818958301693561 -0.35220769630528598 0 0.24246814695576149 -0.32360840813436209 0 0.2231900778514159 -0.33062423563715032 0 0.23668936815325201 -0.34614436922074798 0 0.24246814695576149 -0.32360840813436209 0 0.2231900778514159 -0.33062423563715032 0 0.22831710923493631 -0.31372571606473371 0 0.2085776229389337 -0.31092681674103451 0 0.2231900778514159 -0.33062423563715032 0 0.22831710923493631 -0.31372571606473371 0 0.25190813535751883 -0.36059210590481772 0 0.23091058935074241 -0.36868033030713387 0 0.24728128374814221 -0.37753641242697722 0 0.25190813535751883 -0.36059210590481772 0 0.23668936815325201 -0.34614436922074798 0 0.23091058935074241 -0.36868033030713387 0 0.25593275520075132 -0.346165349395334 0 0.25190813535751883 -0.36059210590481772 0 0.23668936815325201 -0.34614436922074798 0 0.23668936815325201 -0.34614436922074798 0 0.23091058935074241 -0.36868033030713387 0 0.21818958301693561 -0.35220769630528598 0 0.23668936815325201 -0.34614436922074798 0 0.23091058935074241 -0.36868033030713387 0 0.23091058935074241 -0.36868033030713387 0 0.21437871874321479 -0.36514220766508187 0 0.21818958301693561 -0.35220769630528598 0 0.23091058935074241 -0.36868033030713387 0 0.21437871874321479 -0.36514220766508187 0 0.21207326138649951 -0.37822277001252408 0 0.21437871874321479 -0.36514220766508187 0 0.21818958301693561 -0.35220769630528598 0 0.20121965067841921 -0.36333799797244098 0 0.21437871874321479 -0.36514220766508187 0 0.20121965067841921 -0.36333799797244098 0 0.21207326138649951 -0.37822277001252408 0 0.21818958301693561 -0.35220769630528598 0 0.20121965067841921 -0.36333799797244098 0 0.20489863680867651 -0.33713240735673772 0 0.20121965067841921 -0.36333799797244098 0 0.20489863680867651 -0.33713240735673772 0 0.20121965067841921 -0.36333799797244098 0 0.20489863680867651 -0.33713240735673772 0 0.18712081363769961 -0.34498035395267951 0 0.20121965067841921 -0.36333799797244098 0 0.18567317166374531 -0.36930377819008109 0 0.18712081363769961 -0.34498035395267951 0 0.20121965067841921 -0.36333799797244098 0 0.18567317166374531 -0.36930377819008109 0 0.19754066454816069 -0.38954358858814409 0 0.2085776229389337 -0.31092681674103451 0 0.20489863680867651 -0.33713240735673772 0 0.2085776229389337 -0.31092681674103451 0 0.2231900778514159 -0.33062423563715032 0 0.20489863680867651 -0.33713240735673772 0 0.2231900778514159 -0.33062423563715032 0 0.21818958301693561 -0.35220769630528598 0 0.20489863680867651 -0.33713240735673772 0 0.20489863680867651 -0.33713240735673772 0 0.188568455611654 -0.32065692971527793 0 0.18712081363769961 -0.34498035395267951 0 0.188568455611654 -0.32065692971527793 0 0.18712081363769961 -0.34498035395267951 0 0.2085776229389337 -0.31092681674103451 0 0.20489863680867651 -0.33713240735673772 0 0.188568455611654 -0.32065692971527793 0 0.17902520304212721 -0.31347296617944043 0 0.1763911513681394 -0.32797736118976439 0 0.1671672255526114 -0.31717020392425738 0 0.188568455611654 -0.32065692971527793 0 0.17902520304212721 -0.31347296617944043 0 0.1763911513681394 -0.32797736118976439 0 0.188568455611654 -0.32065692971527793 0 0.1763911513681394 -0.32797736118976439 0 0.18712081363769961 -0.34498035395267951 0 0.1763911513681394 -0.32797736118976439 0 0.16941138491627081 -0.34035307595252162 0 0.18712081363769961 -0.34498035395267951 0 0.1763911513681394 -0.32797736118976439 0 0.16941138491627081 -0.34035307595252162 0 0.1671672255526114 -0.31717020392425738 0 0.16941138491627081 -0.34035307595252162 0 0.1671672255526114 -0.31717020392425738 0 0.16941138491627081 -0.34035307595252162 0 0.1671672255526114 -0.31717020392425738 0 0.1554285675985537 -0.33112393086578229 0 0.16941138491627081 -0.34035307595252162 0 0.15395059026181729 -0.3444654160013978 0 0.1554285675985537 -0.33112393086578229 0 0.1671672255526114 -0.31717020392425738 0 0.1542835942002781 -0.31881604178292278 0 0.1554285675985537 -0.33112393086578229 0 0.1671672255526114 -0.31717020392425738 0 0.1542835942002781 -0.31881604178292278 0 0.15354578972139971 -0.30678873650712002 0 0.18567317166374531 -0.36930377819008109 0 0.1832478458080983 -0.36674914524191132 0 0.18712081363769961 -0.34498035395267951 0 0.17740881825288579 -0.37309628427941599 0 0.17165554427992941 -0.36353594798078598 0 0.17316217675749451 -0.37909993531903019 0 0.17165554427992941 -0.36353594798078598 0 0.17316217675749451 -0.37909993531903019 0 0.17740881825288579 -0.37309628427941599 0 0.18042997870633309 -0.3703518114617424 0 0.17165554427992941 -0.36353594798078598 0 0.17740881825288579 -0.37309628427941599 0 0.17902223963022049 -0.37489549533078931 0 0.18042997870633309 -0.3703518114617424 0 0.17902223963022049 -0.37489549533078931 0 0.18567317166374531 -0.36930377819008109 0 0.18042997870633309 -0.3703518114617424 0 0.18567317166374531 -0.36930377819008109 0 0.18042997870633309 -0.3703518114617424 0 0.1832478458080983 -0.36674914524191132 0 0.1832478458080983 -0.36674914524191132 0 0.17165554427992941 -0.36353594798078598 0 0.1832478458080983 -0.36674914524191132 0 0.17903783766355319 -0.35443608998518977 0 0.17165554427992941 -0.36353594798078598 0 0.18042997870633309 -0.3703518114617424 0 0.1832478458080983 -0.36674914524191132 0 0.17165554427992941 -0.36353594798078598 0 0.16941138491627081 -0.34035307595252162 0 0.18712081363769961 -0.34498035395267951 0 0.17903783766355319 -0.35443608998518977 0 0.16941138491627081 -0.34035307595252162 0 0.17903783766355319 -0.35443608998518977 0 0.17165554427992941 -0.36353594798078598 0 0.1832478458080983 -0.36674914524191132 0 0.18712081363769961 -0.34498035395267951 0 0.17903783766355319 -0.35443608998518977 0 0.18567317166374531 -0.36930377819008109 0 0.18712081363769961 -0.34498035395267951 0 0.16941138491627081 -0.34035307595252162 0 0.17165554427992941 -0.36353594798078598 0 0.16941138491627081 -0.34035307595252162 0 0.16480363863504749 -0.35037403835560349 0 0.17165554427992941 -0.36353594798078598 0 0.16941138491627081 -0.34035307595252162 0 0.16480363863504749 -0.35037403835560349 0 0.15395059026181729 -0.3444654160013978 0 0.16480363863504749 -0.35037403835560349 0 0.15529237955578271 -0.35375879140633998 0 0.15395059026181729 -0.3444654160013978 0 0.16480363863504749 -0.35037403835560349 0 0.1623209457983758 -0.35580377004101121 0 0.15529237955578271 -0.35375879140633998 0 0.1623209457983758 -0.35580377004101121 0 0.1585998619521026 -0.35991712538581139 0 0.15529237955578271 -0.35375879140633998 0 0.16480363863504749 -0.35037403835560349 0 0.1623209457983758 -0.35580377004101121 0 0.17165554427992941 -0.36353594798078598 0 0.1623209457983758 -0.35580377004101121 0 0.17165554427992941 -0.36353594798078598 0 0.1585998619521026 -0.35991712538581139 0 0.17165554427992941 -0.36353594798078598 0 0.1585998619521026 -0.35991712538581139 0 0.16197351656287429 -0.37378811854174032 0 0.17165554427992941 -0.36353594798078598 0 0.1585998619521026 -0.35991712538581139 0 0.17165554427992941 -0.36353594798078598 0 0.16197351656287429 -0.37378811854174032 0 0.17316217675749451 -0.37909993531903019 0 0.1585998619521026 -0.35991712538581139 0 0.16197351656287429 -0.37378811854174032 0 0.14545392519835201 -0.37825502337581218 0 0.1585998619521026 -0.35991712538581139 0 0.14545392519835201 -0.37825502337581218 0 0.1585998619521026 -0.35991712538581139 0 0.13345616166613189 -0.35294770100557987 0 0.14545392519835201 -0.37825502337581218 0 0.1585998619521026 -0.35991712538581139 0 0.13345616166613189 -0.35294770100557987 0 0.15395059026181729 -0.3444654160013978 0 0.13345616166613189 -0.35294770100557987 0 0.14348667676329521 -0.33771030243263089 0 0.15529237955578271 -0.35375879140633998 0 0.15395059026181729 -0.3444654160013978 0 0.13345616166613189 -0.35294770100557987 0 0.1585998619521026 -0.35991712538581139 0 0.15529237955578271 -0.35375879140633998 0 0.13345616166613189 -0.35294770100557987 0 0.13345616166613189 -0.35294770100557987 0 0.14545392519835201 -0.37825502337581218 0 0.1249056612176947 -0.37849896452705611 0 0.13345616166613189 -0.35294770100557987 0 0.1249056612176947 -0.37849896452705611 0 0.1191542631655355 -0.36253308089675412 0 0.14282792997480989 -0.32680535278242528 0 0.1542835942002781 -0.31881604178292278 0 0.1391128715842859 -0.31514920564829452 0 0.1542835942002781 -0.31881604178292278 0 0.1391128715842859 -0.31514920564829452 0 0.15354578972139971 -0.30678873650712002 0 0.14282792997480989 -0.32680535278242528 0 0.1542835942002781 -0.31881604178292278 0 0.1554285675985537 -0.33112393086578229 0 0.15395059026181729 -0.3444654160013978 0 0.1554285675985537 -0.33112393086578229 0 0.14348667676329521 -0.33771030243263089 0 0.14282792997480989 -0.32680535278242528 0 0.1554285675985537 -0.33112393086578229 0 0.14348667676329521 -0.33771030243263089 0 0.13345616166613189 -0.35294770100557987 0 0.1320959162773577 -0.33431980546421752 0 0.1196613621052303 -0.33783189020661342 0 0.14282792997480989 -0.32680535278242528 0 0.14348667676329521 -0.33771030243263089 0 0.1320959162773577 -0.33431980546421752 0 0.13345616166613189 -0.35294770100557987 0 0.14348667676329521 -0.33771030243263089 0 0.1320959162773577 -0.33431980546421752 0 0.14282792997480989 -0.32680535278242528 0 0.1320959162773577 -0.33431980546421752 0 0.132559953425089 -0.3237128305007041 0 0.1320959162773577 -0.33431980546421752 0 0.1234620613425854 -0.32682799292952452 0 0.1196613621052303 -0.33783189020661342 0 0.1320959162773577 -0.33431980546421752 0 0.132559953425089 -0.3237128305007041 0 0.1234620613425854 -0.32682799292952452 0 0.132559953425089 -0.3237128305007041 0 0.12562676990860069 -0.3165724896353066 0 0.1234620613425854 -0.32682799292952452 0 0.14282792997480989 -0.32680535278242528 0 0.132559953425089 -0.3237128305007041 0 0.1391128715842859 -0.31514920564829452 0 0.132559953425089 -0.3237128305007041 0 0.1391128715842859 -0.31514920564829452 0 0.12562676990860069 -0.3165724896353066 0 0.1391128715842859 -0.31514920564829452 0 0.12562676990860069 -0.3165724896353066 0 0.12874557099725109 -0.30223187661107892 0 0.12874557099725109 -0.30223187661107892 0 0.14214649566979559 -0.30260755563785952 0 0.13749144231241181 -0.28754181174973742 0 0.1391128715842859 -0.31514920564829452 0 0.12874557099725109 -0.30223187661107892 0 0.14214649566979559 -0.30260755563785952 0 0.1391128715842859 -0.31514920564829452 0 0.14214649566979559 -0.30260755563785952 0 0.15354578972139971 -0.30678873650712002 0 0.14214649566979559 -0.30260755563785952 0 0.15354578972139971 -0.30678873650712002 0 0.1515931422436757 -0.29489223314712443 0 0.15181933322992661 -0.28260849227085322 0 0.1515931422436757 -0.29489223314712443 0 0.164923066188952 -0.29398733189599308 0 0.14214649566979559 -0.30260755563785952 0 0.1515931422436757 -0.29489223314712443 0 0.13749144231241181 -0.28754181174973742 0 0.15181933322992661 -0.28260849227085322 0 0.1515931422436757 -0.29489223314712443 0 0.13749144231241181 -0.28754181174973742 0 0.13749144231241181 -0.28754181174973742 0 0.1208010538590049 -0.27443547277362718 0 0.12487875632637389 -0.28903586194401371 0 0.12874557099725109 -0.30223187661107892 0 0.13749144231241181 -0.28754181174973742 0 0.12487875632637389 -0.28903586194401371 0 0.13749144231241181 -0.28754181174973742 0 0.1371756888882403 -0.26407350461899343 0 0.1208010538590049 -0.27443547277362718 0 0.1371756888882403 -0.26407350461899343 0 0.14384928496988331 -0.25353602738541609 0 0.1368854100703655 -0.24538935092513289 0 0.1371756888882403 -0.26407350461899343 0 0.1222791924718488 -0.24520246056011449 0 0.1368854100703655 -0.24538935092513289 0 0.1371756888882403 -0.26407350461899343 0 0.15169893610040119 -0.25762328037132493 0 0.16267890682529029 -0.270804459867729 0 0.1371756888882403 -0.26407350461899343 0 0.14384928496988331 -0.25353602738541609 0 0.15169893610040119 -0.25762328037132493 0 0.14384928496988331 -0.25353602738541609 0 0.15169893610040119 -0.25762328037132493 0 0.153897483263742 -0.2473436591893412 0 0.15169893610040119 -0.25762328037132493 0 0.16089331655485031 -0.25235875079514503 0 0.153897483263742 -0.2473436591893412 0 0.15181933322992661 -0.28260849227085322 0 0.13749144231241181 -0.28754181174973742 0 0.1371756888882403 -0.26407350461899343 0 0.1371756888882403 -0.26407350461899343 0 0.16267890682529029 -0.270804459867729 0 0.15181933322992661 -0.28260849227085322 0 0.1371756888882403 -0.26407350461899343 0 0.16267890682529029 -0.270804459867729 0 0.16267890682529029 -0.270804459867729 0 0.16089331655485031 -0.25235875079514503 0 0.1677673794675546 -0.258409466018727 0 0.16267890682529029 -0.270804459867729 0 0.16089331655485031 -0.25235875079514503 0 0.15169893610040119 -0.25762328037132493 0 0.16267890682529029 -0.270804459867729 0 0.16089331655485031 -0.25235875079514503 0 0.16267890682529029 -0.270804459867729 0 0.1677673794675546 -0.258409466018727 0 0.17472276667590911 -0.26192848033632898 0 0.16089331655485031 -0.25235875079514503 0 0.1677673794675546 -0.258409466018727 0 0.17277452781416869 -0.24854617307570531 0 0.1677673794675546 -0.258409466018727 0 0.17472276667590911 -0.26192848033632898 0 0.17277452781416869 -0.24854617307570531 0 0.17472276667590911 -0.26192848033632898 0 0.1836670555977232 -0.25463318944990798 0 0.17277452781416869 -0.24854617307570531 0 0.18986729669031829 -0.25883816140540022 0 0.18623747588396411 -0.2652470684633671 0 0.1836670555977232 -0.25463318944990798 0 0.17472276667590911 -0.26192848033632898 0 0.18623747588396411 -0.2652470684633671 0 0.1836670555977232 -0.25463318944990798 0 0.19421691027167551 -0.2513876443463911 0 0.1836670555977232 -0.25463318944990798 0 0.1831022713226802 -0.24545629794993579 0 0.16267890682529029 -0.270804459867729 0 0.18712757956716461 -0.27725709351273697 0 0.1762927515305053 -0.28545504446294862 0 0.16267890682529029 -0.270804459867729 0 0.17472276667590911 -0.26192848033632898 0 0.18712757956716461 -0.27725709351273697 0 0.16267890682529029 -0.270804459867729 0 0.18712757956716461 -0.27725709351273697 0 0.17472276667590911 -0.26192848033632898 0 0.18623747588396411 -0.2652470684633671 0 0.18712757956716461 -0.27725709351273697 0 0.18712757956716461 -0.27725709351273697 0 0.1843210575791672 -0.28467299674555541 0 0.1762927515305053 -0.28545504446294862 0 0.19060730175724341 -0.2864000342630823 0 0.18712757956716461 -0.27725709351273697 0 0.1843210575791672 -0.28467299674555541 0 0.1843210575791672 -0.28467299674555541 0 0.1762927515305053 -0.28545504446294862 0 0.1832565974617554 -0.28957981474345351 0 0.19060730175724341 -0.2864000342630823 0 0.1843210575791672 -0.28467299674555541 0 0.1832565974617554 -0.28957981474345351 0 0.1762927515305053 -0.28545504446294862 0 0.17749431957188891 -0.29411650543405948 0 0.1832565974617554 -0.28957981474345351 0 0.1762927515305053 -0.28545504446294862 0 0.17749431957188891 -0.29411650543405948 0 0.164923066188952 -0.29398733189599308 0 0.1900160975856085 -0.2963335054778764 0 0.17749431957188891 -0.29411650543405948 0 0.1832565974617554 -0.28957981474345351 0 0.1900160975856085 -0.2963335054778764 0 0.17749431957188891 -0.29411650543405948 0 0.17298308509262289 -0.30522683059002609 0 0.1900160975856085 -0.2963335054778764 0 0.17902520304212721 -0.31347296617944043 0 0.17298308509262289 -0.30522683059002609 0 0.1900160975856085 -0.2963335054778764 0 0.188568455611654 -0.32065692971527793 0 0.17902520304212721 -0.31347296617944043 0 0.1900160975856085 -0.2963335054778764 0 0.17298308509262289 -0.30522683059002609 0 0.17902520304212721 -0.31347296617944043 0 0.1671672255526114 -0.31717020392425738 0 0.17298308509262289 -0.30522683059002609 0 0.17749431957188891 -0.29411650543405948 0 0.17298308509262289 -0.30522683059002609 0 0.164923066188952 -0.29398733189599308 0 0.1671672255526114 -0.31717020392425738 0 0.17298308509262289 -0.30522683059002609 0 0.164923066188952 -0.29398733189599308 0 0.1671672255526114 -0.31717020392425738 0 0.164923066188952 -0.29398733189599308 0 0.1671672255526114 -0.31717020392425738 0 0.15354578972139971 -0.30678873650712002 0 0.164923066188952 -0.29398733189599308 0 0.15354578972139971 -0.30678873650712002 0 0.1515931422436757 -0.29489223314712443 0 0.164923066188952 -0.29398733189599308 0 0.16267890682529029 -0.270804459867729 0 0.164923066188952 -0.29398733189599308 0 0.15181933322992661 -0.28260849227085322 0 0.16267890682529029 -0.270804459867729 0 0.164923066188952 -0.29398733189599308 0 0.16267890682529029 -0.270804459867729 0 0.1762927515305053 -0.28545504446294862 0 0.164923066188952 -0.29398733189599308 0 0.19378313989598009 -0.49999999999999889 0 0.19096467790635499 -0.4782303432229279 0 0.18508998770505411 -0.47823034322292851 0 0.19378313989598009 -0.49999999999999889 0 0.19096467790635499 -0.4782303432229279 0 0.2041285790075697 -0.48502214869078208 0 0.19378313989598009 -0.49999999999999889 0 0.19096467790635499 -0.4782303432229279 0 0.19096467790635499 -0.4782303432229279 0 0.18814621591672931 -0.45646068644585691 0 0.18508998770505411 -0.47823034322292851 0 0.19350820505659491 -0.4768816748500877 0 0.19096467790635499 -0.4782303432229279 0 0.19445766351519031 -0.46861673810244497 0 0.19350820505659491 -0.4768816748500877 0 0.20521155518108261 -0.46289424789090777 0 0.19445766351519031 -0.46861673810244497 0 0.19350820505659491 -0.4768816748500877 0 0.19096467790635499 -0.4782303432229279 0 0.2041285790075697 -0.48502214869078208 0 0.19350820505659491 -0.4768816748500877 0 0.2220086655477195 -0.46999872538089632 0 0.19350820505659491 -0.4768816748500877 0 0.2220086655477195 -0.46999872538089632 0 0.20521155518108261 -0.46289424789090777 0 0.19350820505659491 -0.4768816748500877 0 0.2041285790075697 -0.48502214869078208 0 0.2220086655477195 -0.46999872538089632 0 0.2041285790075697 -0.48502214869078208 0 0.22037820663119889 -0.5 0 0.2220086655477195 -0.46999872538089632 0 0.19378313989598009 -0.49999999999999889 0 0.2041285790075697 -0.48502214869078208 0 0.22037820663119889 -0.5 0 0.2616024764613904 -0.48183062609196442 0 0.24697327336641769 -0.5 0 0.23989856435650339 -0.48152684970058779 0 0.22037820663119889 -0.5 0 0.24697327336641769 -0.5 0 0.23989856435650339 -0.48152684970058779 0 0.25050912603884412 -0.46311577591170477 0 0.23989856435650339 -0.48152684970058779 0 0.2220086655477195 -0.46999872538089632 0 0.22037820663119889 -0.5 0 0.23989856435650339 -0.48152684970058779 0 0.2220086655477195 -0.46999872538089632 0 0.25050912603884412 -0.46311577591170477 0 0.2220086655477195 -0.46999872538089632 0 0.25050912603884412 -0.46311577591170477 0 0.2220086655477195 -0.46999872538089632 0 0.2356901623829499 -0.43917726303835991 0 0.26160685402760409 -0.44662062899480698 0 0.25050912603884412 -0.46311577591170477 0 0.2356901623829499 -0.43917726303835991 0 0.2220086655477195 -0.46999872538089632 0 0.2356901623829499 -0.43917726303835991 0 0.2070143871680597 -0.44876598954831842 0 0.2356901623829499 -0.43917726303835991 0 0.2070143871680597 -0.44876598954831842 0 0.20914880027510049 -0.42995290069176512 0 0.2220086655477195 -0.46999872538089632 0 0.2070143871680597 -0.44876598954831842 0 0.20521155518108261 -0.46289424789090777 0 0.19096467790635499 -0.4782303432229279 0 0.18814621591672931 -0.45646068644585691 0 0.2070143871680597 -0.44876598954831842 0 0.20521155518108261 -0.46289424789090777 0 0.18814621591672931 -0.45646068644585691 0 0.20521155518108261 -0.46289424789090777 0 0.19445766351519031 -0.46861673810244497 0 0.18814621591672931 -0.45646068644585691 0 0.19096467790635499 -0.4782303432229279 0 0.19445766351519031 -0.46861673810244497 0 0.18814621591672931 -0.45646068644585691 0 0.18814621591672931 -0.45646068644585691 0 0.18735794942801301 -0.45037215625764387 0 0.18814621591672931 -0.45646068644585691 0 0.1892498678424003 -0.448599322058364 0 0.2070143871680597 -0.44876598954831842 0 0.18814621591672931 -0.45646068644585691 0 0.1892498678424003 -0.448599322058364 0 0.2070143871680597 -0.44876598954831842 0 0.1892498678424003 -0.448599322058364 0 0.20914880027510049 -0.42995290069176512 0 0.18814621591672931 -0.45646068644585691 0 0.1892498678424003 -0.448599322058364 0 0.18735794942801301 -0.45037215625764387 0 0.1892498678424003 -0.448599322058364 0 0.20914880027510049 -0.42995290069176512 0 0.1892498678424003 -0.448599322058364 0 0.18735794942801301 -0.45037215625764387 0 0.1892498678424003 -0.448599322058364 0 0.19339526619528299 -0.41907145532325452 0 0.1892498678424003 -0.448599322058364 0 0.19339526619528299 -0.41907145532325452 0 0.18467500485042079 -0.42964922906503022 0 0.1892498678424003 -0.448599322058364 0 0.19339526619528299 -0.41907145532325452 0 0.20914880027510049 -0.42995290069176512 0 0.19339526619528299 -0.41907145532325452 0 0.2079300155955425 -0.41907883581700822 0 0.20692001300487711 -0.40933182983671612 0 0.2175747696573655 -0.42068708189528731 0 0.20914880027510049 -0.42995290069176512 0 0.22904773270780271 -0.41130647932516839 0 0.2079300155955425 -0.41907883581700822 0 0.20692001300487711 -0.40933182983671612 0 0.21384509084269029 -0.41329749566639401 0 0.21384509084269029 -0.41329749566639401 0 0.2175747696573655 -0.42068708189528731 0 0.22135329010279919 -0.40595168664440351 0 0.20692001300487711 -0.40933182983671612 0 0.21384509084269029 -0.41329749566639401 0 0.22135329010279919 -0.40595168664440351 0 0.2079300155955425 -0.41907883581700822 0 0.21384509084269029 -0.41329749566639401 0 0.2175747696573655 -0.42068708189528731 0 0.19339526619528299 -0.41907145532325452 0 0.2079300155955425 -0.41907883581700822 0 0.20914880027510049 -0.42995290069176512 0 0.2079300155955425 -0.41907883581700822 0 0.2175747696573655 -0.42068708189528731 0 0.20914880027510049 -0.42995290069176512 0 0.2356901623829499 -0.43917726303835991 0 0.20914880027510049 -0.42995290069176512 0 0.22904773270780271 -0.41130647932516839 0 0.2356901623829499 -0.43917726303835991 0 0.24537926658754941 -0.41942722713727709 0 0.22904773270780271 -0.41130647932516839 0 0.26208579729036757 -0.42674551763226098 0 0.2356901623829499 -0.43917726303835991 0 0.24537926658754941 -0.41942722713727709 0 0.24537926658754941 -0.41942722713727709 0 0.22904773270780271 -0.41130647932516839 0 0.24894666514050171 -0.39266005795856818 0 0.20914880027510049 -0.42995290069176512 0 0.22904773270780271 -0.41130647932516839 0 0.2175747696573655 -0.42068708189528731 0 0.22904773270780271 -0.41130647932516839 0 0.22135329010279919 -0.40595168664440351 0 0.2175747696573655 -0.42068708189528731 0 0.22135329010279919 -0.40595168664440351 0 0.22135329010279919 -0.40595168664440351 0 0.2251318105482325 -0.39121629139351949 0 0.22904773270780271 -0.41130647932516839 0 0.22135329010279919 -0.40595168664440351 0 0.2251318105482325 -0.39121629139351949 0 0.2251318105482325 -0.39121629139351949 0 0.24894666514050171 -0.39266005795856818 0 0.22904773270780271 -0.41130647932516839 0 0.24894666514050171 -0.39266005795856818 0 0.22904773270780271 -0.41130647932516839 0 0.2251318105482325 -0.39121629139351949 0 0.24894666514050171 -0.39266005795856818 0 0.23091058935074241 -0.36868033030713387 0 0.2251318105482325 -0.39121629139351949 0 0.24728128374814221 -0.37753641242697722 0 0.2251318105482325 -0.39121629139351949 0 0.24894666514050171 -0.39266005795856818 0 0.24728128374814221 -0.37753641242697722 0 0.23091058935074241 -0.36868033030713387 0 0.2251318105482325 -0.39121629139351949 0 0.23091058935074241 -0.36868033030713387 0 0.2251318105482325 -0.39121629139351949 0 0.21207326138649951 -0.37822277001252408 0 0.2251318105482325 -0.39121629139351949 0 0.19754066454816069 -0.38954358858814409 0 0.20121965067841921 -0.36333799797244098 0 0.21207326138649951 -0.37822277001252408 0 0.19754066454816069 -0.38954358858814409 0 0.2251318105482325 -0.39121629139351949 0 0.21207326138649951 -0.37822277001252408 0 0.19754066454816069 -0.38954358858814409 0 0.22135329010279919 -0.40595168664440351 0 0.2251318105482325 -0.39121629139351949 0 0.19754066454816069 -0.38954358858814409 0 0.20692001300487711 -0.40933182983671612 0 0.22135329010279919 -0.40595168664440351 0 0.19754066454816069 -0.38954358858814409 0 0.19339526619528299 -0.41907145532325452 0 0.19754066454816069 -0.38954358858814409 0 0.19754066454816069 -0.38954358858814409 0 0.184225529689791 -0.39362720242748278 0 0.18199206027282561 -0.40892630187241669 0 0.19339526619528299 -0.41907145532325452 0 0.19754066454816069 -0.38954358858814409 0 0.18199206027282561 -0.40892630187241669 0 0.19339526619528299 -0.41907145532325452 0 0.20692001300487711 -0.40933182983671612 0 0.19754066454816069 -0.38954358858814409 0 0.19266932990975891 -0.38924826576554172 0 0.19754066454816069 -0.38954358858814409 0 0.184225529689791 -0.39362720242748278 0 0.20121965067841921 -0.36333799797244098 0 0.19754066454816069 -0.38954358858814409 0 0.18567317166374531 -0.36930377819008109 0 0.19266932990975891 -0.38924826576554172 0 0.19754066454816069 -0.38954358858814409 0 0.18567317166374531 -0.36930377819008109 0 0.19266932990975891 -0.38924826576554172 0 0.184225529689791 -0.39362720242748278 0 0.19266932990975891 -0.38924826576554172 0 0.19754066454816069 -0.38954358858814409 0 0.18567317166374531 -0.36930377819008109 0 0.184225529689791 -0.39362720242748278 0 0.18567317166374531 -0.36930377819008109 0 0.17843705277064401 -0.38262566740367682 0 0.184225529689791 -0.39362720242748278 0 0.17843705277064401 -0.38262566740367682 0 0.1746688092350589 -0.39466392265727462 0 0.17316217675749451 -0.37909993531903019 0 0.1746688092350589 -0.39466392265727462 0 0.17316217675749451 -0.37909993531903019 0 0.17843705277064401 -0.38262566740367682 0 0.1746688092350589 -0.39466392265727462 0 0.17843705277064401 -0.38262566740367682 0 0.184225529689791 -0.39362720242748278 0 0.1746688092350589 -0.39466392265727462 0 0.17902223963022049 -0.37489549533078931 0 0.17316217675749451 -0.37909993531903019 0 0.17843705277064401 -0.38262566740367682 0 0.17740881825288579 -0.37309628427941599 0 0.17902223963022049 -0.37489549533078931 0 0.17316217675749451 -0.37909993531903019 0 0.17902223963022049 -0.37489549533078931 0 0.18567317166374531 -0.36930377819008109 0 0.17843705277064401 -0.38262566740367682 0 0.184225529689791 -0.39362720242748278 0 0.1759567655811802 -0.40796891678275282 0 0.18199206027282561 -0.40892630187241669 0 0.1746688092350589 -0.39466392265727462 0 0.1759567655811802 -0.40796891678275282 0 0.184225529689791 -0.39362720242748278 0 0.1746688092350589 -0.39466392265727462 0 0.1759567655811802 -0.40796891678275282 0 0.1746688092350589 -0.39466392265727462 0 0.16136108762407131 -0.38659379633224428 0 0.15329907275495189 -0.39977591305528748 0 0.1746688092350589 -0.39466392265727462 0 0.15329907275495189 -0.39977591305528748 0 0.16707109081199301 -0.41893604648847332 0 0.16197351656287429 -0.37378811854174032 0 0.16136108762407131 -0.38659379633224428 0 0.14545392519835201 -0.37825502337581218 0 0.17316217675749451 -0.37909993531903019 0 0.1746688092350589 -0.39466392265727462 0 0.16136108762407131 -0.38659379633224428 0 0.16197351656287429 -0.37378811854174032 0 0.17316217675749451 -0.37909993531903019 0 0.16136108762407131 -0.38659379633224428 0 0.16136108762407131 -0.38659379633224428 0 0.14545392519835201 -0.37825502337581218 0 0.15329907275495189 -0.39977591305528748 0 0.14545392519835201 -0.37825502337581218 0 0.13230798844460351 -0.39659292136581442 0 0.14545392519835201 -0.37825502337581218 0 0.13230798844460351 -0.39659292136581442 0 0.1249056612176947 -0.37849896452705611 0 0.13230798844460351 -0.39659292136581442 0 0.1191620516908547 -0.41493081935581638 0 0.14545392519835201 -0.37825502337581218 0 0.13230798844460351 -0.39659292136581442 0 0.15329907275495189 -0.39977591305528748 0 0.13230798844460351 -0.39659292136581442 0 0.15329907275495189 -0.39977591305528748 0 0.14193695795564271 -0.4062663770795627 0 0.15065866301251979 -0.41558453977281551 0 0.14876211150152599 -0.42993686371047829 0 0.16707109081199301 -0.41893604648847332 0 0.15329907275495189 -0.39977591305528748 0 0.15065866301251979 -0.41558453977281551 0 0.14193695795564271 -0.4062663770795627 0 0.15065866301251979 -0.41558453977281551 0 0.1364970316712287 -0.41870058190536857 0 0.14876211150152599 -0.42993686371047829 0 0.15065866301251979 -0.41558453977281551 0 0.14193695795564271 -0.4062663770795627 0 0.1364970316712287 -0.41870058190536857 0 0.13230798844460351 -0.39659292136581442 0 0.1364970316712287 -0.41870058190536857 0 0.1191620516908547 -0.41493081935581638 0 0.1364970316712287 -0.41870058190536857 0 0.1236532040512804 -0.4296557798558599 0 0.1191620516908547 -0.41493081935581638 0 0.13230798844460351 -0.39659292136581442 0 0.14193695795564271 -0.4062663770795627 0 0.1364970316712287 -0.41870058190536857 0 0.13747203217250251 -0.43324506882204111 0 0.1281443564117081 -0.44438074035590291 0 0.1236532040512804 -0.4296557798558599 0 0.1281443564117081 -0.44438074035590291 0 0.1236532040512804 -0.4296557798558599 0 0.1364970316712287 -0.41870058190536857 0 0.13747203217250251 -0.43324506882204111 0 0.1236532040512804 -0.4296557798558599 0 0.13747203217250251 -0.43324506882204111 0 0.14876211150152599 -0.42993686371047829 0 0.1503034572267693 -0.44355137828259561 0 0.1364970316712287 -0.41870058190536857 0 0.13747203217250251 -0.43324506882204111 0 0.14876211150152599 -0.42993686371047829 0 0.14876211150152599 -0.42993686371047829 0 0.1503034572267693 -0.44355137828259561 0 0.16707109081199301 -0.41893604648847332 0 0.17267502216182379 -0.43066221429248458 0 0.159473372388928 -0.4432081703196723 0 0.16707109081199301 -0.41893604648847332 0 0.159473372388928 -0.4432081703196723 0 0.14876211150152599 -0.42993686371047829 0 0.16707109081199301 -0.41893604648847332 0 0.159473372388928 -0.4432081703196723 0 0.15329907275495189 -0.39977591305528748 0 0.15065866301251979 -0.41558453977281551 0 0.16707109081199301 -0.41893604648847332 0 0.1746688092350589 -0.39466392265727462 0 0.16707109081199301 -0.41893604648847332 0 0.1746688092350589 -0.39466392265727462 0 0.16707109081199301 -0.41893604648847332 0 0.1759567655811802 -0.40796891678275282 0 0.18199206027282561 -0.40892630187241669 0 0.18467500485042079 -0.42964922906503022 0 0.17652974620027981 -0.41891400556452552 0 0.18199206027282561 -0.40892630187241669 0 0.18467500485042079 -0.42964922906503022 0 0.19339526619528299 -0.41907145532325452 0 0.18199206027282561 -0.40892630187241669 0 0.18467500485042079 -0.42964922906503022 0 0.16707109081199301 -0.41893604648847332 0 0.17652974620027981 -0.41891400556452552 0 0.1759567655811802 -0.40796891678275282 0 0.17652974620027981 -0.41891400556452552 0 0.1759567655811802 -0.40796891678275282 0 0.18199206027282561 -0.40892630187241669 0 0.18467500485042079 -0.42964922906503022 0 0.17267502216182379 -0.43066221429248458 0 0.1756258965574985 -0.44260362002472198 0 0.16707109081199301 -0.41893604648847332 0 0.17652974620027981 -0.41891400556452552 0 0.17267502216182379 -0.43066221429248458 0 0.17652974620027981 -0.41891400556452552 0 0.18467500485042079 -0.42964922906503022 0 0.17267502216182379 -0.43066221429248458 0 0.1756258965574985 -0.44260362002472198 0 0.18735794942801301 -0.45037215625764387 0 0.1679308218161368 -0.45309055279418858 0 0.18467500485042079 -0.42964922906503022 0 0.1756258965574985 -0.44260362002472198 0 0.18735794942801301 -0.45037215625764387 0 0.18467500485042079 -0.42964922906503022 0 0.18735794942801301 -0.45037215625764387 0 0.1892498678424003 -0.448599322058364 0 0.18467500485042079 -0.42964922906503022 0 0.18735794942801301 -0.45037215625764387 0 0.18735794942801301 -0.45037215625764387 0 0.1709567635357101 -0.46574099195242302 0 0.1679308218161368 -0.45309055279418858 0 0.18814621591672931 -0.45646068644585691 0 0.18735794942801301 -0.45037215625764387 0 0.1709567635357101 -0.46574099195242302 0 0.18814621591672931 -0.45646068644585691 0 0.1709567635357101 -0.46574099195242302 0 0.18508998770505411 -0.47823034322292851 0 0.18735794942801301 -0.45037215625764387 0 0.1709567635357101 -0.46574099195242302 0 0.18814621591672931 -0.45646068644585691 0 0.18508998770505411 -0.47823034322292851 0 0.1679308218161368 -0.45309055279418858 0 0.159473372388928 -0.4432081703196723 0 0.1527105630522306 -0.46481304385233008 0 0.1709567635357101 -0.46574099195242302 0 0.1679308218161368 -0.45309055279418858 0 0.1527105630522306 -0.46481304385233008 0 0.1756258965574985 -0.44260362002472198 0 0.159473372388928 -0.4432081703196723 0 0.17267502216182379 -0.43066221429248458 0 0.1756258965574985 -0.44260362002472198 0 0.159473372388928 -0.4432081703196723 0 0.1756258965574985 -0.44260362002472198 0 0.1679308218161368 -0.45309055279418858 0 0.159473372388928 -0.4432081703196723 0 0.14876211150152599 -0.42993686371047829 0 0.159473372388928 -0.4432081703196723 0 0.1503034572267693 -0.44355137828259561 0 0.159473372388928 -0.4432081703196723 0 0.1503034572267693 -0.44355137828259561 0 0.1527105630522306 -0.46481304385233008 0 0.159473372388928 -0.4432081703196723 0 0.1503034572267693 -0.44355137828259561 0 0.1503034572267693 -0.44355137828259561 0 0.1281443564117081 -0.44438074035590291 0 0.14180679008751351 -0.45528040613213477 0 0.13747203217250251 -0.43324506882204111 0 0.1503034572267693 -0.44355137828259561 0 0.1281443564117081 -0.44438074035590291 0 0.1503034572267693 -0.44355137828259561 0 0.1281443564117081 -0.44438074035590291 0 0.1281443564117081 -0.44438074035590291 0 0.1354358685226042 -0.46828712767079939 0 0.12052603218701261 -0.45447427242581018 0 0.1281443564117081 -0.44438074035590291 0 0.1354358685226042 -0.46828712767079939 0 0.1281443564117081 -0.44438074035590291 0 0.1354358685226042 -0.46828712767079939 0 0.14180679008751351 -0.45528040613213477 0 0.1354358685226042 -0.46828712767079939 0 0.121002043364385 -0.46891385370719613 0 0.12052603218701261 -0.45447427242581018 0 0.1503034572267693 -0.44355137828259561 0 0.1527105630522306 -0.46481304385233008 0 0.1354358685226042 -0.46828712767079939 0 0.14520929974532651 -0.46584022873221193 0 0.14180679008751351 -0.45528040613213477 0 0.14520929974532651 -0.46584022873221193 0 0.14180679008751351 -0.45528040613213477 0 0.1527105630522306 -0.46481304385233008 0 0.159473372388928 -0.4432081703196723 0 0.1527105630522306 -0.46481304385233008 0 0.1503034572267693 -0.44355137828259561 0 0.14180679008751351 -0.45528040613213477 0 0.1527105630522306 -0.46481304385233008 0 0.14520929974532651 -0.46584022873221193 0 0.15197824945454991 -0.46715253649162108 0 0.1527105630522306 -0.46481304385233008 0 0.15197824945454991 -0.46715253649162108 0 0.1527105630522306 -0.46481304385233008 0 0.1527105630522306 -0.46481304385233008 0 0.15455557764340949 -0.48110982764720478 0 0.15197824945454991 -0.46715253649162108 0 0.1527105630522306 -0.46481304385233008 0 0.15455557764340949 -0.48110982764720478 0 0.1354358685226042 -0.46828712767079939 0 0.14598127519987811 -0.47491664710550618 0 0.14272738063350149 -0.49219351498569552 0 0.15197824945454991 -0.46715253649162108 0 0.15455557764340949 -0.48110982764720478 0 0.14598127519987811 -0.47491664710550618 0 0.15455557764340949 -0.48110982764720478 0 0.14598127519987811 -0.47491664710550618 0 0.14272738063350149 -0.49219351498569552 0 0.1354358685226042 -0.46828712767079939 0 0.14520929974532651 -0.46584022873221193 0 0.14598127519987811 -0.47491664710550618 0 0.14520929974532651 -0.46584022873221193 0 0.15197824945454991 -0.46715253649162108 0 0.14598127519987811 -0.47491664710550618 0 0.1354358685226042 -0.46828712767079939 0 0.1252258372502898 -0.48570427136229682 0 0.14272738063350149 -0.49219351498569552 0 0.1354358685226042 -0.46828712767079939 0 0.14272738063350149 -0.49219351498569552 0 0.1354358685226042 -0.46828712767079939 0 0.1252258372502898 -0.48570427136229682 0 0.121002043364385 -0.46891385370719613 0 0.1252258372502898 -0.48570427136229682 0 0.134396521066279 -0.49999999999999561 0 0.14272738063350149 -0.49219351498569552 0 0.134396521066279 -0.49999999999999561 0 0.14445424982036481 -0.49785533149171229 0 0.14272738063350149 -0.49219351498569552 0 0.134396521066279 -0.49999999999999561 0 0.14272738063350149 -0.49219351498569552 0 0.134396521066279 -0.49999999999999561 0 0.14445424982036481 -0.49785533149171229 0 0.15669419861669789 -0.49999999999999661 0 0.15455557764340949 -0.48110982764720478 0 0.14272738063350149 -0.49219351498569552 0 0.15669419861669789 -0.49999999999999661 0 0.14445424982036481 -0.49785533149171229 0 0.14272738063350149 -0.49219351498569552 0 0.15669419861669789 -0.49999999999999661 0 0.15455557764340949 -0.48110982764720478 0 0.15669419861669789 -0.49999999999999661 0 0.14445424982036481 -0.49785533149171229 0 0.14272738063350149 -0.49219351498569552 0 0.15455557764340949 -0.48110982764720478 0 0.14272738063350149 -0.49219351498569552 0 0.15669419861669789 -0.49999999999999661 0 0.17029509213088301 -0.48645958369031511 0 0.18203375949337949 -0.50000000000000022 0 0.15455557764340949 -0.48110982764720478 0 0.15669419861669789 -0.49999999999999661 0 0.17029509213088301 -0.48645958369031511 0 0.1709567635357101 -0.46574099195242302 0 0.15455557764340949 -0.48110982764720478 0 0.1709567635357101 -0.46574099195242302 0 0.15455557764340949 -0.48110982764720478 0 0.17029509213088301 -0.48645958369031511 0 0.1709567635357101 -0.46574099195242302 0 0.1527105630522306 -0.46481304385233008 0 0.15455557764340949 -0.48110982764720478 0 0.1709567635357101 -0.46574099195242302 0 0.17029509213088301 -0.48645958369031511 0 0.18508998770505411 -0.47823034322292851 0 0.19378313989598009 -0.49999999999999889 0 0.18508998770505411 -0.47823034322292851 0 0.18203375949337949 -0.50000000000000022 0 0.17029509213088301 -0.48645958369031511 0 0.18508998770505411 -0.47823034322292851 0 0.18203375949337949 -0.50000000000000022 0 0.18508998770505411 -0.47823034322292851 0 0.18203375949337949 -0.50000000000000022 0 0.071192356672165474 -0.48184604877934217 0 0.058178286318653627 -0.50000000000000033 0 0.071192356672165474 -0.48184604877934217 0 0.078668016340373348 -0.50000000000000089 0 0.058178286318653627 -0.50000000000000033 0 0.071192356672165474 -0.48184604877934217 0 0.084206427025677183 -0.46369209755868401 0 0.071192356672165474 -0.48184604877934217 0 0.09262068828925335 -0.48482475747527087 0 0.084206427025677183 -0.46369209755868401 0 0.09262068828925335 -0.48482475747527087 0 0.078668016340373348 -0.50000000000000089 0 0.1065322687033262 -0.5 0 0.071192356672165474 -0.48184604877934217 0 0.09262068828925335 -0.48482475747527087 0 0.078668016340373348 -0.50000000000000089 0 0.09262068828925335 -0.48482475747527087 0 0.078668016340373348 -0.50000000000000089 0 0.09262068828925335 -0.48482475747527087 0 0.1065322687033262 -0.5 0 0.1106394400383825 -0.48267923730221401 0 0.1252258372502898 -0.48570427136229682 0 0.1065322687033262 -0.5 0 0.1106394400383825 -0.48267923730221401 0 0.1252258372502898 -0.48570427136229682 0 0.134396521066279 -0.49999999999999561 0 0.1065322687033262 -0.5 0 0.1252258372502898 -0.48570427136229682 0 0.121002043364385 -0.46891385370719613 0 0.1106394400383825 -0.48267923730221401 0 0.121002043364385 -0.46891385370719613 0 0.1106394400383825 -0.48267923730221401 0 0.10657336023813301 -0.46964951495054053 0 0.09262068828925335 -0.48482475747527087 0 0.10657336023813301 -0.46964951495054053 0 0.084206427025677183 -0.46369209755868401 0 0.09262068828925335 -0.48482475747527087 0 0.1106394400383825 -0.48267923730221401 0 0.10657336023813301 -0.46964951495054053 0 0.09262068828925335 -0.48482475747527087 0 0.10657336023813301 -0.46964951495054053 0 0.10657336023813301 -0.46964951495054053 0 0.1012960160426029 -0.45731596737995212 0 0.084206427025677183 -0.46369209755868401 0 0.1012960160426029 -0.45731596737995212 0 0.09722049737918953 -0.44553814633802619 0 0.084206427025677183 -0.46369209755868401 0 0.121002043364385 -0.46891385370719613 0 0.10657336023813301 -0.46964951495054053 0 0.12052603218701261 -0.45447427242581018 0 0.10657336023813301 -0.46964951495054053 0 0.1012960160426029 -0.45731596737995212 0 0.12052603218701261 -0.45447427242581018 0 0.10657336023813301 -0.46964951495054053 0 0.12052603218701261 -0.45447427242581018 0 0.1012960160426029 -0.45731596737995212 0 0.12052603218701261 -0.45447427242581018 0 0.1084854200148596 -0.44773319545808687 0 0.1281443564117081 -0.44438074035590291 0 0.1069964558828482 -0.4451722556242827 0 0.1281443564117081 -0.44438074035590291 0 0.1069964558828482 -0.4451722556242827 0 0.1161384014735982 -0.43439679737811021 0 0.1281443564117081 -0.44438074035590291 0 0.1069964558828482 -0.4451722556242827 0 0.1084854200148596 -0.44773319545808687 0 0.1281443564117081 -0.44438074035590291 0 0.12052603218701261 -0.45447427242581018 0 0.1084854200148596 -0.44773319545808687 0 0.1069964558828482 -0.4451722556242827 0 0.1027359393312981 -0.43784439169868811 0 0.1161384014735982 -0.43439679737811021 0 0.1069964558828482 -0.4451722556242827 0 0.1027359393312981 -0.43784439169868811 0 0.09722049737918953 -0.44553814633802619 0 0.1069964558828482 -0.4451722556242827 0 0.1027359393312981 -0.43784439169868811 0 0.1069964558828482 -0.4451722556242827 0 0.09722049737918953 -0.44553814633802619 0 0.1069964558828482 -0.4451722556242827 0 0.102589065750135 -0.44945360893105629 0 0.09722049737918953 -0.44553814633802619 0 0.1012960160426029 -0.45731596737995212 0 0.1084854200148596 -0.44773319545808687 0 0.102589065750135 -0.44945360893105629 0 0.1069964558828482 -0.4451722556242827 0 0.1084854200148596 -0.44773319545808687 0 0.102589065750135 -0.44945360893105629 0 0.1069964558828482 -0.4451722556242827 0 0.1084854200148596 -0.44773319545808687 0 0.1012960160426029 -0.45731596737995212 0 0.102589065750135 -0.44945360893105629 0 0.09722049737918953 -0.44553814633802619 0 0.1027359393312981 -0.43784439169868811 0 0.09722049737918953 -0.44553814633802619 0 0.088444904707085659 -0.43415507096785338 0 0.1027359393312981 -0.43784439169868811 0 0.09722049737918953 -0.44553814633802619 0 0.09722049737918953 -0.44553814633802619 0 0.084324177456771704 -0.44602082470652971 0 0.084206427025677183 -0.46369209755868401 0 0.09722049737918953 -0.44553814633802619 0 0.084324177456771704 -0.44602082470652971 0 0.088444904707085659 -0.43415507096785338 0 0.084324177456771704 -0.44602082470652971 0 0.075433130366788961 -0.43744945607232572 0 0.088444904707085659 -0.43415507096785338 0 0.09722049737918953 -0.44553814633802619 0 0.084324177456771704 -0.44602082470652971 0 0.084324177456771704 -0.44602082470652971 0 0.084206427025677183 -0.46369209755868401 0 0.074244258788969578 -0.45478968709791262 0 0.09722049737918953 -0.44553814633802619 0 0.084206427025677183 -0.46369209755868401 0 0.071192356672165474 -0.48184604877934217 0 0.084206427025677183 -0.46369209755868401 0 0.074244258788969578 -0.45478968709791262 0 0.071192356672165474 -0.48184604877934217 0 0.074244258788969578 -0.45478968709791262 0 0.060942371608571078 -0.45354168652560062 0 0.074244258788969578 -0.45478968709791262 0 0.060862430549454193 -0.44033751549571643 0 0.060942371608571078 -0.45354168652560062 0 0.074244258788969578 -0.45478968709791262 0 0.075433130366788961 -0.43744945607232572 0 0.060862430549454193 -0.44033751549571643 0 0.084324177456771704 -0.44602082470652971 0 0.074244258788969578 -0.45478968709791262 0 0.075433130366788961 -0.43744945607232572 0 0.075433130366788961 -0.43744945607232572 0 0.065211003167777851 -0.42670596023348722 0 0.079387181577977736 -0.42445100609051178 0 0.075433130366788961 -0.43744945607232572 0 0.065211003167777851 -0.42670596023348722 0 0.060862430549454193 -0.44033751549571643 0 0.065211003167777851 -0.42670596023348722 0 0.074242678999603628 -0.41242888560158508 0 0.058398217452381773 -0.40824019626002661 0 0.065211003167777851 -0.42670596023348722 0 0.074242678999603628 -0.41242888560158508 0 0.079387181577977736 -0.42445100609051178 0 0.074242678999603628 -0.41242888560158508 0 0.090542035661213494 -0.41687152004454009 0 0.0783481319911324 -0.39589864839039018 0 0.090542035661213494 -0.41687152004454009 0 0.0783481319911324 -0.39589864839039018 0 0.074242678999603628 -0.41242888560158508 0 0.090542035661213494 -0.41687152004454009 0 0.079387181577977736 -0.42445100609051178 0 0.090542035661213494 -0.41687152004454009 0 0.097080417262540158 -0.40941235467787362 0 0.091266360150412659 -0.39759927528264588 0 0.090542035661213494 -0.41687152004454009 0 0.079387181577977736 -0.42445100609051178 0 0.088444904707085659 -0.43415507096785338 0 0.075433130366788961 -0.43744945607232572 0 0.079387181577977736 -0.42445100609051178 0 0.088444904707085659 -0.43415507096785338 0 0.1027359393312981 -0.43784439169868811 0 0.1022558367153846 -0.424577008199437 0 0.1191620516908547 -0.41493081935581638 0 0.1027359393312981 -0.43784439169868811 0 0.090542035661213494 -0.41687152004454009 0 0.1022558367153846 -0.424577008199437 0 0.1027359393312981 -0.43784439169868811 0 0.090542035661213494 -0.41687152004454009 0 0.088444904707085659 -0.43415507096785338 0 0.1027359393312981 -0.43784439169868811 0 0.090542035661213494 -0.41687152004454009 0 0.1161384014735982 -0.43439679737811021 0 0.1236532040512804 -0.4296557798558599 0 0.1191620516908547 -0.41493081935581638 0 0.1027359393312981 -0.43784439169868811 0 0.1161384014735982 -0.43439679737811021 0 0.1191620516908547 -0.41493081935581638 0 0.1027359393312981 -0.43784439169868811 0 0.1191620516908547 -0.41493081935581638 0 0.1236532040512804 -0.4296557798558599 0 0.1191620516908547 -0.41493081935581638 0 0.1281443564117081 -0.44438074035590291 0 0.1161384014735982 -0.43439679737811021 0 0.1236532040512804 -0.4296557798558599 0 0.1022558367153846 -0.424577008199437 0 0.1042574365231497 -0.39860161518487119 0 0.1022558367153846 -0.424577008199437 0 0.1191620516908547 -0.41493081935581638 0 0.1042574365231497 -0.39860161518487119 0 0.1022558367153846 -0.424577008199437 0 0.097080417262540158 -0.40941235467787362 0 0.1042574365231497 -0.39860161518487119 0 0.090542035661213494 -0.41687152004454009 0 0.1022558367153846 -0.424577008199437 0 0.097080417262540158 -0.40941235467787362 0 0.097080417262540158 -0.40941235467787362 0 0.1042574365231497 -0.39860161518487119 0 0.091266360150412659 -0.39759927528264588 0 0.1042574365231497 -0.39860161518487119 0 0.089720200771490954 -0.38474862274093058 0 0.091266360150412659 -0.39759927528264588 0 0.1191620516908547 -0.41493081935581638 0 0.1127105440108838 -0.39377852076306102 0 0.1191620516908547 -0.41493081935581638 0 0.1042574365231497 -0.39860161518487119 0 0.1127105440108838 -0.39377852076306102 0 0.13230798844460351 -0.39659292136581442 0 0.1191620516908547 -0.41493081935581638 0 0.1127105440108838 -0.39377852076306102 0 0.13230798844460351 -0.39659292136581442 0 0.1127105440108838 -0.39377852076306102 0 0.1249056612176947 -0.37849896452705611 0 0.1127105440108838 -0.39377852076306102 0 0.10625903633091401 -0.37262622217030528 0 0.1127105440108838 -0.39377852076306102 0 0.1249056612176947 -0.37849896452705611 0 0.10625903633091401 -0.37262622217030528 0 0.1042574365231497 -0.39860161518487119 0 0.10625903633091401 -0.37262622217030528 0 0.1042574365231497 -0.39860161518487119 0 0.1127105440108838 -0.39377852076306102 0 0.10625903633091401 -0.37262622217030528 0 0.1042574365231497 -0.39860161518487119 0 0.089720200771490954 -0.38474862274093058 0 0.10625903633091401 -0.37262622217030528 0 0.089720200771490954 -0.38474862274093058 0 0.10625903633091401 -0.37262622217030528 0 0.092036011312286434 -0.36884019868113072 0 0.089720200771490954 -0.38474862274093058 0 0.092036011312286434 -0.36884019868113072 0 0.066154228321051251 -0.37492577673624028 0 0.090542035661213494 -0.41687152004454009 0 0.091266360150412659 -0.39759927528264588 0 0.0783481319911324 -0.39589864839039018 0 0.089720200771490954 -0.38474862274093058 0 0.091266360150412659 -0.39759927528264588 0 0.0783481319911324 -0.39589864839039018 0 0.074242678999603628 -0.41242888560158508 0 0.0783481319911324 -0.39589864839039018 0 0.058398217452381773 -0.40824019626002661 0 0.0783481319911324 -0.39589864839039018 0 0.055299840935396298 -0.38951005106854331 0 0.058398217452381773 -0.40824019626002661 0 0.0783481319911324 -0.39589864839039018 0 0.066154228321051251 -0.37492577673624028 0 0.089720200771490954 -0.38474862274093058 0 0.0783481319911324 -0.39589864839039018 0 0.066154228321051251 -0.37492577673624028 0 0.0783481319911324 -0.39589864839039018 0 0.055299840935396298 -0.38951005106854331 0 0.066154228321051251 -0.37492577673624028 0 0.055299840935396298 -0.38951005106854331 0 0.066154228321051251 -0.37492577673624028 0 0.043390155204824442 -0.37014291377492892 0 0.055299840935396298 -0.38951005106854331 0 0.044107572488777343 -0.40077606412064082 0 0.058398217452381773 -0.40824019626002661 0 0.044107572488777343 -0.40077606412064082 0 0.028010888925067829 -0.40035881217380093 0 0.039765743067740771 -0.41678366424320429 0 0.044107572488777343 -0.40077606412064082 0 0.039063172063300032 -0.3889875968576284 0 0.028010888925067829 -0.40035881217380093 0 0.055299840935396298 -0.38951005106854331 0 0.044107572488777343 -0.40077606412064082 0 0.039063172063300032 -0.3889875968576284 0 0.055299840935396298 -0.38951005106854331 0 0.039063172063300032 -0.3889875968576284 0 0.043390155204824442 -0.37014291377492892 0 0.039063172063300032 -0.3889875968576284 0 0.0225339083566647 -0.37985502371645868 0 0.043390155204824442 -0.37014291377492892 0 0.039063172063300032 -0.3889875968576284 0 0.0225339083566647 -0.37985502371645868 0 0.028010888925067829 -0.40035881217380093 0 0.0225339083566647 -0.37985502371645868 0 0.0014485558108012571 -0.37909866288597172 0 0.01165494944980946 -0.39366779998239859 0 -0.0041040463118962476 -0.39375790215505552 0 0.0014485558108012571 -0.37909866288597172 0 0.01165494944980946 -0.39366779998239859 0 -0.0041040463118962476 -0.39375790215505552 0 0.0048893420236064741 -0.40420819009576697 0 0.01165494944980946 -0.39366779998239859 0 0.0048893420236064741 -0.40420819009576697 0 0.01165494944980946 -0.39366779998239859 0 0.016080560825430319 -0.40544818746338279 0 0.01165494944980946 -0.39366779998239859 0 0.016080560825430319 -0.40544818746338279 0 0.028010888925067829 -0.40035881217380093 0 0.0225339083566647 -0.37985502371645868 0 0.01165494944980946 -0.39366779998239859 0 0.028010888925067829 -0.40035881217380093 0 0.028010888925067829 -0.40035881217380093 0 0.023670429256245941 -0.41523399670128353 0 0.039765743067740771 -0.41678366424320429 0 0.023670429256245941 -0.41523399670128353 0 0.021695190745416919 -0.42770339016448539 0 0.039765743067740771 -0.41678366424320429 0 0.023670429256245941 -0.41523399670128353 0 0.017261068319003189 -0.42033958856155729 0 0.01217719447242188 -0.41377213836366378 0 0.023670429256245941 -0.41523399670128353 0 0.017261068319003189 -0.42033958856155729 0 0.021695190745416919 -0.42770339016448539 0 0.016080560825430319 -0.40544818746338279 0 0.028010888925067829 -0.40035881217380093 0 0.023670429256245941 -0.41523399670128353 0 0.016080560825430319 -0.40544818746338279 0 0.023670429256245941 -0.41523399670128353 0 0.01217719447242188 -0.41377213836366378 0 0.0048893420236064741 -0.40420819009576697 0 0.016080560825430319 -0.40544818746338279 0 0.01217719447242188 -0.41377213836366378 0 0.017261068319003189 -0.42033958856155729 0 0.01217719447242188 -0.41377213836366378 0 0.0096593696025079005 -0.42392460795091591 0 0.01217719447242188 -0.41377213836366378 0 0.001341861192652762 -0.41523507961119571 0 0.0096593696025079005 -0.42392460795091591 0 0.0048893420236064741 -0.40420819009576697 0 0.01217719447242188 -0.41377213836366378 0 0.001341861192652762 -0.41523507961119571 0 0.021695190745416919 -0.42770339016448539 0 0.0036246384230930791 -0.43862311608576637 0 0.0096593696025079005 -0.42392460795091591 0 0.021695190745416919 -0.42770339016448539 0 0.0036246384230930791 -0.43862311608576637 0 0.021695190745416919 -0.42770339016448539 0 0.0159789273579704 -0.43876188653114978 0 0.0036246384230930791 -0.43862311608576637 0 0.0007049587128220014 -0.42742169675265118 0 0.0096593696025079005 -0.42392460795091591 0 0.0036246384230930791 -0.43862311608576637 0 0.001341861192652762 -0.41523507961119571 0 0.0007049587128220014 -0.42742169675265118 0 0.0096593696025079005 -0.42392460795091591 0 0.021695190745416919 -0.42770339016448539 0 0.039765743067740771 -0.41678366424320429 0 0.021695190745416919 -0.42770339016448539 0 0.02888938231867649 -0.43218096436574482 0 0.038817217545120117 -0.42765372133165169 0 0.022040321330203842 -0.43608932481247448 0 0.021695190745416919 -0.42770339016448539 0 0.0159789273579704 -0.43876188653114978 0 0.017261068319003189 -0.42033958856155729 0 0.0096593696025079005 -0.42392460795091591 0 0.021695190745416919 -0.42770339016448539 0 0.022040321330203842 -0.43608932481247448 0 0.021695190745416919 -0.42770339016448539 0 0.02888938231867649 -0.43218096436574482 0 0.02888938231867649 -0.43218096436574482 0 0.038817217545120117 -0.42765372133165169 0 0.037451062217975631 -0.44158173641467241 0 0.021695190745416919 -0.42770339016448539 0 0.038817217545120117 -0.42765372133165169 0 0.039765743067740771 -0.41678366424320429 0 0.038817217545120117 -0.42765372133165169 0 0.048496754662285341 -0.43399035565774102 0 0.037451062217975631 -0.44158173641467241 0 0.038817217545120117 -0.42765372133165169 0 0.052694796666410103 -0.42121544878342171 0 0.048496754662285341 -0.43399035565774102 0 0.038817217545120117 -0.42765372133165169 0 0.039765743067740771 -0.41678366424320429 0 0.052694796666410103 -0.42121544878342171 0 0.039765743067740771 -0.41678366424320429 0 0.058398217452381773 -0.40824019626002661 0 0.052694796666410103 -0.42121544878342171 0 0.065211003167777851 -0.42670596023348722 0 0.058398217452381773 -0.40824019626002661 0 0.052694796666410103 -0.42121544878342171 0 0.044107572488777343 -0.40077606412064082 0 0.039765743067740771 -0.41678366424320429 0 0.058398217452381773 -0.40824019626002661 0 0.065211003167777851 -0.42670596023348722 0 0.052694796666410103 -0.42121544878342171 0 0.048496754662285341 -0.43399035565774102 0 0.065211003167777851 -0.42670596023348722 0 0.048496754662285341 -0.43399035565774102 0 0.060862430549454193 -0.44033751549571643 0 0.049075379716397 -0.44516854267243522 0 0.060942371608571078 -0.45354168652560062 0 0.037624279543698777 -0.45639141926844562 0 0.048496754662285341 -0.43399035565774102 0 0.049075379716397 -0.44516854267243522 0 0.060862430549454193 -0.44033751549571643 0 0.049075379716397 -0.44516854267243522 0 0.060862430549454193 -0.44033751549571643 0 0.060942371608571078 -0.45354168652560062 0 0.060942371608571078 -0.45354168652560062 0 0.037624279543698777 -0.45639141926844562 0 0.045386880276860088 -0.47688137295222371 0 0.060942371608571078 -0.45354168652560062 0 0.037624279543698777 -0.45639141926844562 0 0.037624279543698777 -0.45639141926844562 0 0.027030926764745819 -0.46776130122662529 0 0.045386880276860088 -0.47688137295222371 0 0.037624279543698777 -0.45639141926844562 0 0.037451062217975631 -0.44158173641467241 0 0.021597784898751551 -0.44571105818851792 0 0.049075379716397 -0.44516854267243522 0 0.037624279543698777 -0.45639141926844562 0 0.037451062217975631 -0.44158173641467241 0 0.048496754662285341 -0.43399035565774102 0 0.049075379716397 -0.44516854267243522 0 0.037451062217975631 -0.44158173641467241 0 0.022040321330203842 -0.43608932481247448 0 0.02888938231867649 -0.43218096436574482 0 0.021597784898751551 -0.44571105818851792 0 0.02888938231867649 -0.43218096436574482 0 0.037451062217975631 -0.44158173641467241 0 0.021597784898751551 -0.44571105818851792 0 0.02888938231867649 -0.43218096436574482 0 0.021597784898751551 -0.44571105818851792 0 0.021597784898751551 -0.44571105818851792 0 0.014306187478826549 -0.45924115201129079 0 0.021597784898751551 -0.44571105818851792 0 0.0159789273579704 -0.43876188653114978 0 0.01084327693291306 -0.44675481197249101 0 0.022040321330203842 -0.43608932481247448 0 0.021597784898751551 -0.44571105818851792 0 0.0159789273579704 -0.43876188653114978 0 0.0159789273579704 -0.43876188653114978 0 0.01084327693291306 -0.44675481197249101 0 0.0036246384230930791 -0.43862311608576637 0 0.021597784898751551 -0.44571105818851792 0 0.01084327693291306 -0.44675481197249101 0 0.014306187478826549 -0.45924115201129079 0 0.01084327693291306 -0.44675481197249101 0 0.00092431969050615079 -0.45131483466567629 0 0.014306187478826549 -0.45924115201129079 0 0.01084327693291306 -0.44675481197249101 0 0.00092431969050615079 -0.45131483466567629 0 0.0036246384230930791 -0.43862311608576637 0 -0.0095652295488123529 -0.46215850727914631 0 0.014306187478826549 -0.45924115201129079 0 -0.0095652295488123529 -0.46215850727914631 0 0.014306187478826549 -0.45924115201129079 0 0.002110883457200916 -0.46882316696891002 0 -0.0095652295488123529 -0.46215850727914631 0 0.00092431969050615079 -0.45131483466567629 0 0.014306187478826549 -0.45924115201129079 0 0.037624279543698777 -0.45639141926844562 0 0.014306187478826549 -0.45924115201129079 0 0.037624279543698777 -0.45639141926844562 0 0.021597784898751551 -0.44571105818851792 0 0.014306187478826549 -0.45924115201129079 0 0.037624279543698777 -0.45639141926844562 0 0.014306187478826549 -0.45924115201129079 0 0.027030926764745819 -0.46776130122662529 0 0.014306187478826549 -0.45924115201129079 0 0.027030926764745819 -0.46776130122662529 0 0.01747642853504789 -0.47434793023194011 0 0.027030926764745819 -0.46776130122662529 0 0.028125120990506451 -0.48038823991721702 0 0.01747642853504789 -0.47434793023194011 0 0.028125120990506451 -0.48038823991721702 0 0.01747642853504789 -0.47434793023194011 0 0.016214092564922782 -0.48648746705058721 0 0.014306187478826549 -0.45924115201129079 0 0.01747642853504789 -0.47434793023194011 0 0.0033233696681567401 -0.47962057600564473 0 0.014306187478826549 -0.45924115201129079 0 0.0033233696681567401 -0.47962057600564473 0 0.014306187478826549 -0.45924115201129079 0 0.0033233696681567401 -0.47962057600564473 0 0.002110883457200916 -0.46882316696891002 0 0.01747642853504789 -0.47434793023194011 0 0.0033233696681567401 -0.47962057600564473 0 0.016214092564922782 -0.48648746705058721 0 -0.0028820248650171972 -0.47943335383390762 0 0.0033233696681567401 -0.47962057600564473 0 0.0003792062306327272 -0.47427243257955842 0 0.0033233696681567401 -0.47962057600564473 0 0.0003792062306327272 -0.47427243257955842 0 0.002110883457200916 -0.46882316696891002 0 -0.0076594481425126754 -0.49999999999999878 0 0.0033233696681567401 -0.47962057600564473 0 0.014286463344542749 -0.5 0 0.0033233696681567401 -0.47962057600564473 0 0.014286463344542749 -0.5 0 0.016214092564922782 -0.48648746705058721 0 0.028125120990506451 -0.48038823991721702 0 0.016214092564922782 -0.48648746705058721 0 0.036232374831598142 -0.5 0 0.014286463344542749 -0.5 0 0.016214092564922782 -0.48648746705058721 0 0.036232374831598142 -0.5 0 0.028125120990506451 -0.48038823991721702 0 0.036232374831598142 -0.5 0 0.045386880276860088 -0.47688137295222371 0 0.036232374831598142 -0.5 0 0.045386880276860088 -0.47688137295222371 0 0.058178286318653627 -0.50000000000000033 0 0.027030926764745819 -0.46776130122662529 0 0.028125120990506451 -0.48038823991721702 0 0.045386880276860088 -0.47688137295222371 0 0.071192356672165474 -0.48184604877934217 0 0.060942371608571078 -0.45354168652560062 0 0.045386880276860088 -0.47688137295222371 0 0.071192356672165474 -0.48184604877934217 0 0.045386880276860088 -0.47688137295222371 0 0.058178286318653627 -0.50000000000000033 0 0.08759144736267635 -0.28672823359182181 0 0.081895706349086467 -0.29968765594197277 0 0.09817657319793871 -0.30024059171490208 0 0.08759144736267635 -0.28672823359182181 0 0.081895706349086467 -0.29968765594197277 0 0.075194788012858629 -0.28831588743564818 0 0.08759144736267635 -0.28672823359182181 0 0.075194788012858629 -0.28831588743564818 0 0.077828661691757436 -0.27384009035699258 0 0.081895706349086467 -0.29968765594197277 0 0.09817657319793871 -0.30024059171490208 0 0.08804891702869351 -0.31292143687087692 0 0.081895706349086467 -0.29968765594197277 0 0.07448490158610134 -0.312148897206322 0 0.08804891702869351 -0.31292143687087692 0 0.081895706349086467 -0.29968765594197277 0 0.07448490158610134 -0.312148897206322 0 0.068826970190508235 -0.29841634353228552 0 0.07448490158610134 -0.312148897206322 0 0.068826970190508235 -0.29841634353228552 0 0.052774601415521268 -0.30304865802822167 0 0.068826970190508235 -0.29841634353228552 0 0.075194788012858629 -0.28831588743564818 0 0.061729873038780643 -0.28419802315520809 0 0.075194788012858629 -0.28831588743564818 0 0.077828661691757436 -0.27384009035699258 0 0.061729873038780643 -0.28419802315520809 0 0.081895706349086467 -0.29968765594197277 0 0.068826970190508235 -0.29841634353228552 0 0.075194788012858629 -0.28831588743564818 0 0.077828661691757436 -0.27384009035699258 0 0.061729873038780643 -0.28419802315520809 0 0.062198872720085001 -0.26513980913525098 0 0.08616925301414069 -0.25061159412152162 0 0.062198872720085001 -0.26513980913525098 0 0.060040770716370179 -0.24371561552392551 0 0.077828661691757436 -0.27384009035699258 0 0.08616925301414069 -0.25061159412152162 0 0.062198872720085001 -0.26513980913525098 0 0.08616925301414069 -0.25061159412152162 0 0.062198872720085001 -0.26513980913525098 0 0.077828661691757436 -0.27384009035699258 0 0.08616925301414069 -0.25061159412152162 0 0.095037095286261253 -0.26869244940252501 0 0.08759144736267635 -0.28672823359182181 0 0.077828661691757436 -0.27384009035699258 0 0.095037095286261253 -0.26869244940252501 0 0.095037095286261253 -0.26869244940252501 0 0.11167247095119071 -0.25734254937025702 0 0.1208010538590049 -0.27443547277362718 0 0.095037095286261253 -0.26869244940252501 0 0.1208010538590049 -0.27443547277362718 0 0.1020341984839203 -0.28333427867416672 0 0.08759144736267635 -0.28672823359182181 0 0.095037095286261253 -0.26869244940252501 0 0.1020341984839203 -0.28333427867416672 0 0.08616925301414069 -0.25061159412152162 0 0.11167247095119071 -0.25734254937025702 0 0.08616925301414069 -0.25061159412152162 0 0.095037095286261253 -0.26869244940252501 0 0.11167247095119071 -0.25734254937025702 0 0.1371756888882403 -0.26407350461899343 0 0.11167247095119071 -0.25734254937025702 0 0.1208010538590049 -0.27443547277362718 0 0.1371756888882403 -0.26407350461899343 0 0.11167247095119071 -0.25734254937025702 0 0.1222791924718488 -0.24520246056011449 0 0.1371756888882403 -0.26407350461899343 0 0.11167247095119071 -0.25734254937025702 0 0.1208010538590049 -0.27443547277362718 0 0.12487875632637389 -0.28903586194401371 0 0.1124769581368278 -0.29193428664161108 0 0.12874557099725109 -0.30223187661107892 0 0.12487875632637389 -0.28903586194401371 0 0.1124769581368278 -0.29193428664161108 0 0.1208010538590049 -0.27443547277362718 0 0.1124769581368278 -0.29193428664161108 0 0.1020341984839203 -0.28333427867416672 0 0.1124769581368278 -0.29193428664161108 0 0.1020341984839203 -0.28333427867416672 0 0.09817657319793871 -0.30024059171490208 0 0.08759144736267635 -0.28672823359182181 0 0.1020341984839203 -0.28333427867416672 0 0.09817657319793871 -0.30024059171490208 0 0.1124769581368278 -0.29193428664161108 0 0.09817657319793871 -0.30024059171490208 0 0.111117372080108 -0.30957806439549312 0 0.09817657319793871 -0.30024059171490208 0 0.111117372080108 -0.30957806439549312 0 0.10086866927932241 -0.31680351675054857 0 0.09817657319793871 -0.30024059171490208 0 0.10086866927932241 -0.31680351675054857 0 0.08804891702869351 -0.31292143687087692 0 0.1124769581368278 -0.29193428664161108 0 0.111117372080108 -0.30957806439549312 0 0.12562676990860069 -0.3165724896353066 0 0.12874557099725109 -0.30223187661107892 0 0.111117372080108 -0.30957806439549312 0 0.12874557099725109 -0.30223187661107892 0 0.1124769581368278 -0.29193428664161108 0 0.111117372080108 -0.30957806439549312 0 0.111117372080108 -0.30957806439549312 0 0.1097577860233858 -0.32722184214937478 0 0.111117372080108 -0.30957806439549312 0 0.1097577860233858 -0.32722184214937478 0 0.11660635918062311 -0.32152395575262632 0 0.12562676990860069 -0.3165724896353066 0 0.111117372080108 -0.30957806439549312 0 0.11660635918062311 -0.32152395575262632 0 0.1130678065484355 -0.32741938965343259 0 0.1097577860233858 -0.32722184214937478 0 0.11660635918062311 -0.32152395575262632 0 0.1130678065484355 -0.32741938965343259 0 0.1097577860233858 -0.32722184214937478 0 0.1130678065484355 -0.32741938965343259 0 0.11660635918062311 -0.32152395575262632 0 0.1234620613425854 -0.32682799292952452 0 0.12562676990860069 -0.3165724896353066 0 0.11660635918062311 -0.32152395575262632 0 0.1234620613425854 -0.32682799292952452 0 0.1130678065484355 -0.32741938965343259 0 0.1234620613425854 -0.32682799292952452 0 0.1196613621052303 -0.33783189020661342 0 0.1097577860233858 -0.32722184214937478 0 0.1196613621052303 -0.33783189020661342 0 0.10831246138016171 -0.34597827662534769 0 0.1130678065484355 -0.32741938965343259 0 0.1097577860233858 -0.32722184214937478 0 0.1196613621052303 -0.33783189020661342 0 0.1097577860233858 -0.32722184214937478 0 0.10831246138016171 -0.34597827662534769 0 0.097191124004804508 -0.3428956229600939 0 0.092088951982975203 -0.32616733688637778 0 0.1097577860233858 -0.32722184214937478 0 0.097191124004804508 -0.3428956229600939 0 0.092088951982975203 -0.32616733688637778 0 0.1097577860233858 -0.32722184214937478 0 0.097191124004804508 -0.3428956229600939 0 0.10831246138016171 -0.34597827662534769 0 0.111117372080108 -0.30957806439549312 0 0.1097577860233858 -0.32722184214937478 0 0.10086866927932241 -0.31680351675054857 0 0.1097577860233858 -0.32722184214937478 0 0.092088951982975203 -0.32616733688637778 0 0.1097577860233858 -0.32722184214937478 0 0.10086866927932241 -0.31680351675054857 0 0.092088951982975203 -0.32616733688637778 0 0.1249056612176947 -0.37849896452705611 0 0.1191542631655355 -0.36253308089675412 0 0.10625903633091401 -0.37262622217030528 0 0.1191542631655355 -0.36253308089675412 0 0.10831246138016171 -0.34597827662534769 0 0.10625903633091401 -0.37262622217030528 0 0.13345616166613189 -0.35294770100557987 0 0.1191542631655355 -0.36253308089675412 0 0.10831246138016171 -0.34597827662534769 0 0.13345616166613189 -0.35294770100557987 0 0.1196613621052303 -0.33783189020661342 0 0.10831246138016171 -0.34597827662534769 0 0.13345616166613189 -0.35294770100557987 0 0.10831246138016171 -0.34597827662534769 0 0.10831246138016171 -0.34597827662534769 0 0.10625903633091401 -0.37262622217030528 0 0.10831246138016171 -0.34597827662534769 0 0.1017250801678584 -0.35776092256519992 0 0.10625903633091401 -0.37262622217030528 0 0.097191124004804508 -0.3428956229600939 0 0.10831246138016171 -0.34597827662534769 0 0.097191124004804508 -0.3428956229600939 0 0.10831246138016171 -0.34597827662534769 0 0.1017250801678584 -0.35776092256519992 0 0.097191124004804508 -0.3428956229600939 0 0.1017250801678584 -0.35776092256519992 0 0.097191124004804508 -0.3428956229600939 0 0.1017250801678584 -0.35776092256519992 0 0.090715041981836039 -0.35299492949327349 0 0.1017250801678584 -0.35776092256519992 0 0.092036011312286434 -0.36884019868113072 0 0.090715041981836039 -0.35299492949327349 0 0.1017250801678584 -0.35776092256519992 0 0.10625903633091401 -0.37262622217030528 0 0.1017250801678584 -0.35776092256519992 0 0.10625903633091401 -0.37262622217030528 0 0.092036011312286434 -0.36884019868113072 0 0.092036011312286434 -0.36884019868113072 0 0.080410880531562659 -0.35880828952662758 0 0.090715041981836039 -0.35299492949327349 0 0.092036011312286434 -0.36884019868113072 0 0.080410880531562659 -0.35880828952662758 0 0.066154228321051251 -0.37492577673624028 0 0.097191124004804508 -0.3428956229600939 0 0.090715041981836039 -0.35299492949327349 0 0.08085377288534118 -0.33836717520159298 0 0.080410880531562659 -0.35880828952662758 0 0.090715041981836039 -0.35299492949327349 0 0.08085377288534118 -0.33836717520159298 0 0.080410880531562659 -0.35880828952662758 0 0.068952583277440319 -0.34882688684318858 0 0.08085377288534118 -0.33836717520159298 0 0.068952583277440319 -0.34882688684318858 0 0.066154228321051251 -0.37492577673624028 0 0.05396032465097006 -0.35395290508209032 0 0.080410880531562659 -0.35880828952662758 0 0.068952583277440319 -0.34882688684318858 0 0.066154228321051251 -0.37492577673624028 0 0.07448490158610134 -0.312148897206322 0 0.08804891702869351 -0.31292143687087692 0 0.092088951982975203 -0.32616733688637778 0 0.08804891702869351 -0.31292143687087692 0 0.092088951982975203 -0.32616733688637778 0 0.10086866927932241 -0.31680351675054857 0 0.08804891702869351 -0.31292143687087692 0 0.092088951982975203 -0.32616733688637778 0 0.097191124004804508 -0.3428956229600939 0 0.092088951982975203 -0.32616733688637778 0 0.08085377288534118 -0.33836717520159298 0 0.097191124004804508 -0.3428956229600939 0 0.08085377288534118 -0.33836717520159298 0 0.092088951982975203 -0.32616733688637778 0 0.08085377288534118 -0.33836717520159298 0 0.062084124250697079 -0.32437659909990613 0 0.068952583277440319 -0.34882688684318858 0 0.08085377288534118 -0.33836717520159298 0 0.062084124250697079 -0.32437659909990613 0 0.092088951982975203 -0.32616733688637778 0 0.062084124250697079 -0.32437659909990613 0 0.07448490158610134 -0.312148897206322 0 0.092088951982975203 -0.32616733688637778 0 0.062084124250697079 -0.32437659909990613 0 0.07448490158610134 -0.312148897206322 0 0.062084124250697079 -0.32437659909990613 0 0.052774601415521268 -0.30304865802822167 0 0.062084124250697079 -0.32437659909990613 0 0.032079296518418933 -0.32258586131343558 0 0.052774601415521268 -0.30304865802822167 0 0.062084124250697079 -0.32437659909990613 0 0.032079296518418933 -0.32258586131343558 0 0.062084124250697079 -0.32437659909990613 0 0.049947794482175609 -0.338213016238611 0 0.032079296518418933 -0.32258586131343558 0 0.068952583277440319 -0.34882688684318858 0 0.062084124250697079 -0.32437659909990613 0 0.049947794482175609 -0.338213016238611 0 0.049947794482175609 -0.338213016238611 0 0.032079296518418933 -0.32258586131343558 0 0.036988178279189043 -0.34858815917953689 0 0.066154228321051251 -0.37492577673624028 0 0.05396032465097006 -0.35395290508209032 0 0.043390155204824442 -0.37014291377492892 0 0.066154228321051251 -0.37492577673624028 0 0.05396032465097006 -0.35395290508209032 0 0.068952583277440319 -0.34882688684318858 0 0.049947794482175609 -0.338213016238611 0 0.05396032465097006 -0.35395290508209032 0 0.049947794482175609 -0.338213016238611 0 0.05396032465097006 -0.35395290508209032 0 0.036988178279189043 -0.34858815917953689 0 0.05396032465097006 -0.35395290508209032 0 0.036988178279189043 -0.34858815917953689 0 0.043390155204824442 -0.37014291377492892 0 0.036988178279189043 -0.34858815917953689 0 0.043390155204824442 -0.37014291377492892 0 0.025173889842343439 -0.36140731294376632 0 0.0225339083566647 -0.37985502371645868 0 0.025173889842343439 -0.36140731294376632 0 0.0096316048538357055 -0.36452474009812491 0 0.0225339083566647 -0.37985502371645868 0 0.043390155204824442 -0.37014291377492892 0 0.025173889842343439 -0.36140731294376632 0 0.036988178279189043 -0.34858815917953689 0 0.025173889842343439 -0.36140731294376632 0 0.01827876201095124 -0.34674055620878602 0 0.025173889842343439 -0.36140731294376632 0 0.01827876201095124 -0.34674055620878602 0 0.0096316048538357055 -0.36452474009812491 0 0.01827876201095124 -0.34674055620878602 0 0.0031906702821807619 -0.35001527304150343 0 0.0096316048538357055 -0.36452474009812491 0 -0.0061825426954895584 -0.36168837893979949 0 0.0031906702821807619 -0.35001527304150343 0 0.0096316048538357055 -0.36452474009812491 0 0.01827876201095124 -0.34674055620878602 0 0.0031906702821807619 -0.35001527304150343 0 0.006585875498222476 -0.33529718492815092 0 -0.0061825426954895584 -0.36168837893979949 0 0.0014485558108012571 -0.37909866288597172 0 0.0096316048538357055 -0.36452474009812491 0 0.0225339083566647 -0.37985502371645868 0 0.0014485558108012571 -0.37909866288597172 0 0.0096316048538357055 -0.36452474009812491 0 0.032079296518418933 -0.32258586131343558 0 0.0020744687861405792 -0.32079512352696521 0 0.032079296518418933 -0.32258586131343558 0 0.0020744687861405792 -0.32079512352696521 0 0.016258805050974521 -0.30989990277198193 0 0.032079296518418933 -0.32258586131343558 0 0.036988178279189043 -0.34858815917953689 0 0.01827876201095124 -0.34674055620878602 0 0.032079296518418933 -0.32258586131343558 0 0.01827876201095124 -0.34674055620878602 0 0.006585875498222476 -0.33529718492815092 0 -0.0061703810492957896 -0.32981534346981001 0 0.006585875498222476 -0.33529718492815092 0 0.0020744687861405792 -0.32079512352696521 0 0.032079296518418933 -0.32258586131343558 0 0.006585875498222476 -0.33529718492815092 0 0.0020744687861405792 -0.32079512352696521 0 -0.0078124033176774649 -0.30757296452054123 0 0.0020744687861405792 -0.32079512352696521 0 0.016258805050974521 -0.30989990277198193 0 -0.0078124033176774649 -0.30757296452054123 0 0.01520804455417521 -0.29362049433475979 0 0.016258805050974521 -0.30989990277198193 0 -0.0078124033176774649 -0.30757296452054123 0 0.01520804455417521 -0.29362049433475979 0 -0.0078124033176774649 -0.30757296452054123 0 0.00036434157870466298 -0.29075930243988252 0 0.01520804455417521 -0.29362049433475979 0 0.00036434157870466298 -0.29075930243988252 0 0.01520804455417521 -0.29362049433475979 0 0.0085410864750847994 -0.27394564035922259 0 0.00036434157870466298 -0.29075930243988252 0 0.0085410864750847994 -0.27394564035922259 0 0.01520804455417521 -0.29362049433475979 0 0.038228492426028507 -0.27966802414897951 0 0.01520804455417521 -0.29362049433475979 0 0.038228492426028507 -0.27966802414897951 0 0.0085410864750847994 -0.27394564035922259 0 0.01520804455417521 -0.29362049433475979 0 0.032397089891350338 -0.29814957016032928 0 0.038228492426028507 -0.27966802414897951 0 0.01520804455417521 -0.29362049433475979 0 0.016258805050974521 -0.30989990277198193 0 0.032397089891350338 -0.29814957016032928 0 0.032079296518418933 -0.32258586131343558 0 0.016258805050974521 -0.30989990277198193 0 0.032397089891350338 -0.29814957016032928 0 0.032079296518418933 -0.32258586131343558 0 0.032397089891350338 -0.29814957016032928 0 0.052774601415521268 -0.30304865802822167 0 0.032397089891350338 -0.29814957016032928 0 0.052774601415521268 -0.30304865802822167 0 0.038228492426028507 -0.27966802414897951 0 0.061729873038780643 -0.28419802315520809 0 0.038228492426028507 -0.27966802414897951 0 0.061729873038780643 -0.28419802315520809 0 0.052774601415521268 -0.30304865802822167 0 0.038228492426028507 -0.27966802414897951 0 0.068826970190508235 -0.29841634353228552 0 0.061729873038780643 -0.28419802315520809 0 0.052774601415521268 -0.30304865802822167 0 0.062198872720085001 -0.26513980913525098 0 0.041868897971490682 -0.25770694732091382 0 0.060040770716370179 -0.24371561552392551 0 0.061729873038780643 -0.28419802315520809 0 0.062198872720085001 -0.26513980913525098 0 0.038228492426028507 -0.27966802414897951 0 0.062198872720085001 -0.26513980913525098 0 0.038228492426028507 -0.27966802414897951 0 0.062198872720085001 -0.26513980913525098 0 0.038228492426028507 -0.27966802414897951 0 0.041868897971490682 -0.25770694732091382 0 0.038228492426028507 -0.27966802414897951 0 0.041868897971490682 -0.25770694732091382 0 0.02700278511401601 -0.26574837914234278 0 0.041868897971490682 -0.25770694732091382 0 0.019372663583459761 -0.25167290474025489 0 0.02700278511401601 -0.26574837914234278 0 0.019372663583459761 -0.25167290474025489 0 0.02700278511401601 -0.26574837914234278 0 0.0085410864750847994 -0.27394564035922259 0 0.038228492426028507 -0.27966802414897951 0 0.02700278511401601 -0.26574837914234278 0 0.0085410864750847994 -0.27394564035922259 0 0.038228492426028507 -0.27966802414897951 0 0.0085410864750847994 -0.27394564035922259 0 -0.00065164570226031214 -0.25758910579233463 0 0.019372663583459761 -0.25167290474025489 0 0.0085410864750847994 -0.27394564035922259 0 0.019372663583459761 -0.25167290474025489 0 0.0085410864750847994 -0.27394564035922259 0 -0.00065164570226031214 -0.25758910579233463 0 0.019372663583459761 -0.25167290474025489 0 0.0086785074496121897 -0.2380249792104335 0 -0.0099150700101830989 -0.24127250326565719 0 0.0086785074496121897 -0.2380249792104335 0 0.0062627933820406994 -0.21773358435895249 0 0.0086785074496121897 -0.2380249792104335 0 0.030204240691834541 -0.22940016912128719 0 0.0062627933820406994 -0.21773358435895249 0 0.030204240691834541 -0.22940016912128719 0 0.0062627933820406994 -0.21773358435895249 0 0.02498587716208724 -0.21211396310870179 0 0.019372663583459761 -0.25167290474025489 0 0.030204240691834541 -0.22940016912128719 0 0.019372663583459761 -0.25167290474025489 0 0.0086785074496121897 -0.2380249792104335 0 0.030204240691834541 -0.22940016912128719 0 0.019372663583459761 -0.25167290474025489 0 0.030204240691834541 -0.22940016912128719 0 0.042547171860120213 -0.24042117085504311 0 -0.0033510377911821739 -0.1932613130575494 0 0.02244065677426442 -0.19419466545224789 0 0.0064997238694450071 -0.18338024842821099 0 -0.0033510377911821739 -0.1932613130575494 0 0.00019707031352935689 -0.20549084954644581 0 0.02244065677426442 -0.19419466545224789 0 0.0062627933820406994 -0.21773358435895249 0 0.02244065677426442 -0.19419466545224789 0 0.00019707031352935689 -0.20549084954644581 0 0.0062627933820406994 -0.21773358435895249 0 0.02244065677426442 -0.19419466545224789 0 0.0062627933820406994 -0.21773358435895249 0 0.02498587716208724 -0.21211396310870179 0 0.02244065677426442 -0.19419466545224789 0 0.02498587716208724 -0.21211396310870179 0 0.02244065677426442 -0.19419466545224789 0 0.04103581780020929 -0.20712743350231949 0 0.02244065677426442 -0.19419466545224789 0 0.039939387791862561 -0.191878373359539 0 0.04103581780020929 -0.20712743350231949 0 0.02244065677426442 -0.19419466545224789 0 0.039939387791862561 -0.191878373359539 0 0.039749825151653352 -0.18357060529614089 0 0.039939387791862561 -0.191878373359539 0 0.04103581780020929 -0.20712743350231949 0 0.053090479748608498 -0.188887488339675 0 0.039939387791862561 -0.191878373359539 0 0.053090479748608498 -0.188887488339675 0 0.039749825151653352 -0.18357060529614089 0 0.030204240691834541 -0.22940016912128719 0 0.04103581780020929 -0.20712743350231949 0 0.030204240691834541 -0.22940016912128719 0 0.02498587716208724 -0.21211396310870179 0 0.04103581780020929 -0.20712743350231949 0 0.04103581780020929 -0.20712743350231949 0 0.056030159769168357 -0.22326746826808211 0 0.063736210271651161 -0.20412876107989791 0 0.053090479748608498 -0.188887488339675 0 0.063736210271651161 -0.20412876107989791 0 0.070651570313371159 -0.19166770628576979 0 0.04103581780020929 -0.20712743350231949 0 0.053090479748608498 -0.188887488339675 0 0.063736210271651161 -0.20412876107989791 0 0.041868897971490682 -0.25770694732091382 0 0.019372663583459761 -0.25167290474025489 0 0.042547171860120213 -0.24042117085504311 0 0.030204240691834541 -0.22940016912128719 0 0.04103581780020929 -0.20712743350231949 0 0.056030159769168357 -0.22326746826808211 0 0.030204240691834541 -0.22940016912128719 0 0.042547171860120213 -0.24042117085504311 0 0.056030159769168357 -0.22326746826808211 0 0.041868897971490682 -0.25770694732091382 0 0.042547171860120213 -0.24042117085504311 0 0.060040770716370179 -0.24371561552392551 0 0.042547171860120213 -0.24042117085504311 0 0.056030159769168357 -0.22326746826808211 0 0.060040770716370179 -0.24371561552392551 0 0.08616925301414069 -0.25061159412152162 0 0.060040770716370179 -0.24371561552392551 0 0.085406526890327419 -0.2359079777617793 0 0.08616925301414069 -0.25061159412152162 0 0.060040770716370179 -0.24371561552392551 0 0.060040770716370179 -0.24371561552392551 0 0.085406526890327419 -0.2359079777617793 0 0.073996627077752883 -0.2282763099279394 0 0.08616925301414069 -0.25061159412152162 0 0.085406526890327419 -0.2359079777617793 0 0.097805597749804601 -0.23651721049844809 0 0.085406526890327419 -0.2359079777617793 0 0.088195986098820456 -0.2241148328207338 0 0.097805597749804601 -0.23651721049844809 0 0.085406526890327419 -0.2359079777617793 0 0.088195986098820456 -0.2241148328207338 0 0.073996627077752883 -0.2282763099279394 0 0.088195986098820456 -0.2241148328207338 0 0.073996627077752883 -0.2282763099279394 0 0.075582791334131039 -0.2150355578098552 0 0.056030159769168357 -0.22326746826808211 0 0.060040770716370179 -0.24371561552392551 0 0.073996627077752883 -0.2282763099279394 0 0.056030159769168357 -0.22326746826808211 0 0.073996627077752883 -0.2282763099279394 0 0.075582791334131039 -0.2150355578098552 0 0.056030159769168357 -0.22326746826808211 0 0.063736210271651161 -0.20412876107989791 0 0.075582791334131039 -0.2150355578098552 0 0.063736210271651161 -0.20412876107989791 0 0.075582791334131039 -0.2150355578098552 0 0.080019577481601004 -0.19995288373618519 0 0.063736210271651161 -0.20412876107989791 0 0.070651570313371159 -0.19166770628576979 0 0.080019577481601004 -0.19995288373618519 0 0.080019577481601004 -0.19995288373618519 0 0.091241010528140196 -0.20869657402010439 0 0.09524343527277486 -0.19122747487232791 0 0.070651570313371159 -0.19166770628576979 0 0.084057200535858273 -0.18910137663991911 0 0.080019577481601004 -0.19995288373618519 0 0.084057200535858273 -0.18910137663991911 0 0.080019577481601004 -0.19995288373618519 0 0.09524343527277486 -0.19122747487232791 0 0.088195986098820456 -0.2241148328207338 0 0.075582791334131039 -0.2150355578098552 0 0.091241010528140196 -0.20869657402010439 0 0.075582791334131039 -0.2150355578098552 0 0.080019577481601004 -0.19995288373618519 0 0.091241010528140196 -0.20869657402010439 0 0.088195986098820456 -0.2241148328207338 0 0.091241010528140196 -0.20869657402010439 0 0.1025588574623426 -0.2213160952040249 0 0.091241010528140196 -0.20869657402010439 0 0.1060108271673602 -0.2102646397719975 0 0.1025588574623426 -0.2213160952040249 0 0.1060108271673602 -0.2102646397719975 0 0.1020831562000377 -0.1988819939365305 0 0.1188197321347372 -0.20404392804185831 0 0.091241010528140196 -0.20869657402010439 0 0.1060108271673602 -0.2102646397719975 0 0.1020831562000377 -0.1988819939365305 0 0.1060108271673602 -0.2102646397719975 0 0.11535137951154351 -0.21838460765746959 0 0.1025588574623426 -0.2213160952040249 0 0.1020831562000377 -0.1988819939365305 0 0.1188197321347372 -0.20404392804185831 0 0.10103424238339689 -0.18208964363727551 0 0.091241010528140196 -0.20869657402010439 0 0.09524343527277486 -0.19122747487232791 0 0.1020831562000377 -0.1988819939365305 0 0.09524343527277486 -0.19122747487232791 0 0.1020831562000377 -0.1988819939365305 0 0.10103424238339689 -0.18208964363727551 0 0.1188197321347372 -0.20404392804185831 0 0.10103424238339689 -0.18208964363727551 0 0.12774298803332451 -0.18433055933211701 0 0.1188197321347372 -0.20404392804185831 0 0.10103424238339689 -0.18208964363727551 0 0.11535137951154351 -0.21838460765746959 0 0.1188197321347372 -0.20404392804185831 0 0.13660522188607779 -0.22599821244644061 0 0.1060108271673602 -0.2102646397719975 0 0.11535137951154351 -0.21838460765746959 0 0.1188197321347372 -0.20404392804185831 0 0.11535137951154351 -0.21838460765746959 0 0.1172054098179411 -0.23125771147244381 0 0.13660522188607779 -0.22599821244644061 0 0.11535137951154351 -0.21838460765746959 0 0.1172054098179411 -0.23125771147244381 0 0.1025588574623426 -0.2213160952040249 0 0.11167247095119071 -0.25734254937025702 0 0.1222791924718488 -0.24520246056011449 0 0.1091112549148021 -0.23670666927805509 0 0.1172054098179411 -0.23125771147244381 0 0.1222791924718488 -0.24520246056011449 0 0.12824380856155829 -0.23696193385103301 0 0.1172054098179411 -0.23125771147244381 0 0.1222791924718488 -0.24520246056011449 0 0.1091112549148021 -0.23670666927805509 0 0.08616925301414069 -0.25061159412152162 0 0.11167247095119071 -0.25734254937025702 0 0.1091112549148021 -0.23670666927805509 0 0.1172054098179411 -0.23125771147244381 0 0.1091112549148021 -0.23670666927805509 0 0.097805597749804601 -0.23651721049844809 0 0.08616925301414069 -0.25061159412152162 0 0.1091112549148021 -0.23670666927805509 0 0.08616925301414069 -0.25061159412152162 0 0.1091112549148021 -0.23670666927805509 0 0.097805597749804601 -0.23651721049844809 0 0.1172054098179411 -0.23125771147244381 0 0.097805597749804601 -0.23651721049844809 0 0.1172054098179411 -0.23125771147244381 0 0.097805597749804601 -0.23651721049844809 0 0.1025588574623426 -0.2213160952040249 0 0.088195986098820456 -0.2241148328207338 0 0.097805597749804601 -0.23651721049844809 0 0.1025588574623426 -0.2213160952040249 0 0.1088143149119679 -0.1527385508751985 0 0.098576515149456978 -0.14271496308189599 0 0.1182459478764365 -0.14536290518859071 0 0.098576515149456978 -0.14271496308189599 0 0.1182459478764365 -0.14536290518859071 0 0.1088143149119679 -0.1527385508751985 0 0.099841898421359793 -0.1533790752075733 0 0.1055986232477156 -0.16126090451967129 0 0.1088143149119679 -0.1527385508751985 0 0.099841898421359793 -0.1533790752075733 0 0.098576515149456978 -0.14271496308189599 0 0.099841898421359793 -0.1533790752075733 0 0.095189697251375729 -0.16083510927320971 0 0.08847610426566932 -0.15125684086201269 0 0.099841898421359793 -0.1533790752075733 0 0.098576515149456978 -0.14271496308189599 0 0.08847610426566932 -0.15125684086201269 0 0.098576515149456978 -0.14271496308189599 0 0.1009901611548852 -0.12505201846898251 0 0.11706831515076919 -0.1270765205113058 0 0.098576515149456978 -0.14271496308189599 0 0.1009901611548852 -0.12505201846898251 0 0.088791684346271299 -0.13043291859734421 0 0.098576515149456978 -0.14271496308189599 0 0.11706831515076919 -0.1270765205113058 0 0.11706831515076919 -0.1270765205113058 0 0.1182459478764365 -0.14536290518859071 0 0.12620844065102951 -0.13726287372762849 0 0.098576515149456978 -0.14271496308189599 0 0.11706831515076919 -0.1270765205113058 0 0.1182459478764365 -0.14536290518859071 0 0.1182459478764365 -0.14536290518859071 0 0.1183389402628431 -0.16201295399302049 0 0.13087395582771691 -0.14778741810076701 0 0.1088143149119679 -0.1527385508751985 0 0.1182459478764365 -0.14536290518859071 0 0.1183389402628431 -0.16201295399302049 0 0.1183389402628431 -0.16201295399302049 0 0.1170839821476569 -0.1720909454070034 0 0.12704236594833279 -0.17078226211762801 0 0.1183389402628431 -0.16201295399302049 0 0.11043192648924841 -0.1678198860784309 0 0.1170839821476569 -0.1720909454070034 0 0.11043192648924841 -0.1678198860784309 0 0.1170839821476569 -0.1720909454070034 0 0.1092831160133086 -0.1748495369142532 0 0.1183389402628431 -0.16201295399302049 0 0.11043192648924841 -0.1678198860784309 0 0.1055986232477156 -0.16126090451967129 0 0.1088143149119679 -0.1527385508751985 0 0.1183389402628431 -0.16201295399302049 0 0.1055986232477156 -0.16126090451967129 0 0.1170839821476569 -0.1720909454070034 0 0.1092831160133086 -0.1748495369142532 0 0.12774298803332451 -0.18433055933211701 0 0.1092831160133086 -0.1748495369142532 0 0.10004868578123061 -0.18029929048264451 0 0.12774298803332451 -0.18433055933211701 0 0.10004868578123061 -0.18029929048264451 0 0.12774298803332451 -0.18433055933211701 0 0.10004868578123061 -0.18029929048264451 0 0.10103424238339689 -0.18208964363727551 0 0.12774298803332451 -0.18433055933211701 0 0.1170839821476569 -0.1720909454070034 0 0.12774298803332451 -0.18433055933211701 0 0.12704236594833279 -0.17078226211762801 0 0.1092831160133086 -0.1748495369142532 0 0.100893489541587 -0.17369389093705381 0 0.10004868578123061 -0.18029929048264451 0 0.1092831160133086 -0.1748495369142532 0 0.100893489541587 -0.17369389093705381 0 0.1018549707747179 -0.16888508955820611 0 0.100893489541587 -0.17369389093705381 0 0.10004868578123061 -0.18029929048264451 0 0.092387185597090887 -0.17074164679311149 0 0.09524343527277486 -0.19122747487232791 0 0.10004868578123061 -0.18029929048264451 0 0.10103424238339689 -0.18208964363727551 0 0.11043192648924841 -0.1678198860784309 0 0.1055986232477156 -0.16126090451967129 0 0.1018549707747179 -0.16888508955820611 0 0.11043192648924841 -0.1678198860784309 0 0.1092831160133086 -0.1748495369142532 0 0.1018549707747179 -0.16888508955820611 0 0.1018549707747179 -0.16888508955820611 0 0.095189697251375729 -0.16083510927320971 0 0.092387185597090887 -0.17074164679311149 0 0.100893489541587 -0.17369389093705381 0 0.1018549707747179 -0.16888508955820611 0 0.092387185597090887 -0.17074164679311149 0 0.1055986232477156 -0.16126090451967129 0 0.1018549707747179 -0.16888508955820611 0 0.095189697251375729 -0.16083510927320971 0 0.099841898421359793 -0.1533790752075733 0 0.1055986232477156 -0.16126090451967129 0 0.095189697251375729 -0.16083510927320971 0 0.092387185597090887 -0.17074164679311149 0 0.083400293797423614 -0.1616909237222233 0 0.072354383529136826 -0.1762680216331719 0 0.095189697251375729 -0.16083510927320971 0 0.083400293797423614 -0.1616909237222233 0 0.08847610426566932 -0.15125684086201269 0 0.083400293797423614 -0.1616909237222233 0 0.072580972754352741 -0.15659063512242219 0 0.08847610426566932 -0.15125684086201269 0 0.095189697251375729 -0.16083510927320971 0 0.092387185597090887 -0.17074164679311149 0 0.083400293797423614 -0.1616909237222233 0 0.084057200535858273 -0.18910137663991911 0 0.10004868578123061 -0.18029929048264451 0 0.072354383529136826 -0.1762680216331719 0 0.10004868578123061 -0.18029929048264451 0 0.072354383529136826 -0.1762680216331719 0 0.10004868578123061 -0.18029929048264451 0 0.092387185597090887 -0.17074164679311149 0 0.072354383529136826 -0.1762680216331719 0 0.084057200535858273 -0.18910137663991911 0 0.09524343527277486 -0.19122747487232791 0 0.10004868578123061 -0.18029929048264451 0 0.053090479748608498 -0.188887488339675 0 0.070651570313371159 -0.19166770628576979 0 0.072354383529136826 -0.1762680216331719 0 0.070651570313371159 -0.19166770628576979 0 0.084057200535858273 -0.18910137663991911 0 0.072354383529136826 -0.1762680216331719 0 0.072354383529136826 -0.1762680216331719 0 0.072580972754352741 -0.15659063512242219 0 0.056461559464840251 -0.1618026616738038 0 0.083400293797423614 -0.1616909237222233 0 0.072354383529136826 -0.1762680216331719 0 0.072580972754352741 -0.15659063512242219 0 0.076107196566078741 -0.1396900942098962 0 0.053637877982700283 -0.13666522533789799 0 0.060867722099912543 -0.14954927132506421 0 0.072580972754352741 -0.15659063512242219 0 0.076107196566078741 -0.1396900942098962 0 0.060867722099912543 -0.14954927132506421 0 0.072580972754352741 -0.15659063512242219 0 0.060867722099912543 -0.14954927132506421 0 0.056461559464840251 -0.1618026616738038 0 0.098576515149456978 -0.14271496308189599 0 0.076107196566078741 -0.1396900942098962 0 0.072580972754352741 -0.15659063512242219 0 0.08847610426566932 -0.15125684086201269 0 0.076107196566078741 -0.1396900942098962 0 0.098576515149456978 -0.14271496308189599 0 0.08847610426566932 -0.15125684086201269 0 0.076107196566078741 -0.1396900942098962 0 0.098576515149456978 -0.14271496308189599 0 0.08847610426566932 -0.15125684086201269 0 0.098576515149456978 -0.14271496308189599 0 0.088791684346271299 -0.13043291859734421 0 0.076107196566078741 -0.1396900942098962 0 0.076107196566078741 -0.1396900942098962 0 0.053637877982700283 -0.13666522533789799 0 0.067612916689688426 -0.1178215846092215 0 0.088791684346271299 -0.13043291859734421 0 0.076107196566078741 -0.1396900942098962 0 0.067612916689688426 -0.1178215846092215 0 0.076107196566078741 -0.1396900942098962 0 0.053637877982700283 -0.13666522533789799 0 0.053637877982700283 -0.13666522533789799 0 0.060867722099912543 -0.14954927132506421 0 0.045551003731590621 -0.1529977402813007 0 0.060867722099912543 -0.14954927132506421 0 0.045551003731590621 -0.1529977402813007 0 0.056461559464840251 -0.1618026616738038 0 0.039888689394117403 -0.14357941313799741 0 0.045551003731590621 -0.1529977402813007 0 0.02919731646285692 -0.15101433046689131 0 0.053637877982700283 -0.13666522533789799 0 0.039888689394117403 -0.14357941313799741 0 0.045551003731590621 -0.1529977402813007 0 0.045551003731590621 -0.1529977402813007 0 0.033881631173076333 -0.16176222737020579 0 0.02919731646285692 -0.15101433046689131 0 0.039888689394117403 -0.14357941313799741 0 0.031168559399321789 -0.13364035646589981 0 0.02919731646285692 -0.15101433046689131 0 0.053637877982700283 -0.13666522533789799 0 0.031168559399321789 -0.13364035646589981 0 0.053637877982700283 -0.13666522533789799 0 0.039888689394117403 -0.14357941313799741 0 0.031168559399321789 -0.13364035646589981 0 0.053637877982700283 -0.13666522533789799 0 0.031168559399321789 -0.13364035646589981 0 0.032679609103365849 -0.1175036048659872 0 0.072354383529136826 -0.1762680216331719 0 0.044660081277043073 -0.1722367527836994 0 0.053090479748608498 -0.188887488339675 0 0.072354383529136826 -0.1762680216331719 0 0.044660081277043073 -0.1722367527836994 0 0.072354383529136826 -0.1762680216331719 0 0.056461559464840251 -0.1618026616738038 0 0.044660081277043073 -0.1722367527836994 0 0.056461559464840251 -0.1618026616738038 0 0.043708969526556313 -0.16353734313346441 0 0.044660081277043073 -0.1722367527836994 0 0.045551003731590621 -0.1529977402813007 0 0.056461559464840251 -0.1618026616738038 0 0.043708969526556313 -0.16353734313346441 0 0.045551003731590621 -0.1529977402813007 0 0.043708969526556313 -0.16353734313346441 0 0.033881631173076333 -0.16176222737020579 0 0.033881631173076333 -0.16176222737020579 0 0.038618520166488153 -0.1706557465455433 0 0.0259167220577987 -0.17194784149508019 0 0.043708969526556313 -0.16353734313346441 0 0.033881631173076333 -0.16176222737020579 0 0.038618520166488153 -0.1706557465455433 0 0.043708969526556313 -0.16353734313346441 0 0.038618520166488153 -0.1706557465455433 0 0.044660081277043073 -0.1722367527836994 0 0.053090479748608498 -0.188887488339675 0 0.044660081277043073 -0.1722367527836994 0 0.039749825151653352 -0.18357060529614089 0 0.02244065677426442 -0.19419466545224789 0 0.038618520166488153 -0.1706557465455433 0 0.039749825151653352 -0.18357060529614089 0 0.038618520166488153 -0.1706557465455433 0 0.044660081277043073 -0.1722367527836994 0 0.039749825151653352 -0.18357060529614089 0 0.02244065677426442 -0.19419466545224789 0 0.038618520166488153 -0.1706557465455433 0 0.02244065677426442 -0.19419466545224789 0 0.038618520166488153 -0.1706557465455433 0 0.0259167220577987 -0.17194784149508019 0 0.02244065677426442 -0.19419466545224789 0 0.0259167220577987 -0.17194784149508019 0 0.012354946728904571 -0.1713786459569909 0 0.02273102744710364 -0.1621717752409329 0 0.02919731646285692 -0.15101433046689131 0 0.01319086481456885 -0.15560353709653529 0 0.02273102744710364 -0.1621717752409329 0 0.012354946728904571 -0.1713786459569909 0 0.01319086481456885 -0.15560353709653529 0 0.0259167220577987 -0.17194784149508019 0 0.02273102744710364 -0.1621717752409329 0 0.012354946728904571 -0.1713786459569909 0 0.033881631173076333 -0.16176222737020579 0 0.0259167220577987 -0.17194784149508019 0 0.02273102744710364 -0.1621717752409329 0 0.033881631173076333 -0.16176222737020579 0 0.02273102744710364 -0.1621717752409329 0 0.02919731646285692 -0.15101433046689131 0 -0.0054456702342067821 -0.17468636924605579 0 0.0013946097700121591 -0.16079920152731589 0 0.012354946728904571 -0.1713786459569909 0 0.0013946097700121591 -0.16079920152731589 0 0.012354946728904571 -0.1713786459569909 0 0.01319086481456885 -0.15560353709653529 0 0.02244065677426442 -0.19419466545224789 0 0.012354946728904571 -0.1713786459569909 0 0.0064997238694450071 -0.18338024842821099 0 -0.0054456702342067821 -0.17468636924605579 0 0.012354946728904571 -0.1713786459569909 0 0.0064997238694450071 -0.18338024842821099 0 0.031168559399321789 -0.13364035646589981 0 0.0086992408159430878 -0.1306154875939021 0 0.016858896022001881 -0.11398464749163199 0 0.031168559399321789 -0.13364035646589981 0 0.02919731646285692 -0.15101433046689131 0 0.0086992408159430878 -0.1306154875939021 0 0.031168559399321789 -0.13364035646589981 0 0.0086992408159430878 -0.1306154875939021 0 0.02919731646285692 -0.15101433046689131 0 0.011338181923286429 -0.14418248920535831 0 0.01319086481456885 -0.15560353709653529 0 0.02919731646285692 -0.15101433046689131 0 0.0086992408159430878 -0.1306154875939021 0 0.02919731646285692 -0.15101433046689131 0 0.011338181923286429 -0.14418248920535831 0 0.0086992408159430878 -0.1306154875939021 0 0.011338181923286429 -0.14418248920535831 0 0.01319086481456885 -0.15560353709653529 0 0.0008154143862063284 -0.14636078732578861 0 0.0013946097700121591 -0.16079920152731589 0 0.01319086481456885 -0.15560353709653529 0 0.0008154143862063284 -0.14636078732578861 0 0.011338181923286429 -0.14418248920535831 0 0.0008154143862063284 -0.14636078732578861 0 0.0047880731368569029 -0.137318303543675 0 -0.0026238683593527469 -0.1290911458408808 0 0.0008154143862063284 -0.14636078732578861 0 0.0047880731368569029 -0.137318303543675 0 0.011338181923286429 -0.14418248920535831 0 0.0047880731368569029 -0.137318303543675 0 0.0086992408159430878 -0.1306154875939021 0 -0.0026238683593527469 -0.1290911458408808 0 0.0047880731368569029 -0.137318303543675 0 0.0086992408159430878 -0.1306154875939021 0 0.0086992408159430878 -0.1306154875939021 0 0.000267848883412811 -0.1222249126836107 0 -0.0026238683593527469 -0.1290911458408808 0 0.0086992408159430878 -0.1306154875939021 0 0.000267848883412811 -0.1222249126836107 0 -0.0026238683593527469 -0.1290911458408808 0 0.0086992408159430878 -0.1306154875939021 0 0.000267848883412811 -0.1222249126836107 0 0.016858896022001881 -0.11398464749163199 0 0.011161824373436491 -0.096357730852011547 0 0.0086992408159430878 -0.1306154875939021 0 0.000267848883412811 -0.1222249126836107 0 0.016858896022001881 -0.11398464749163199 0 0.031168559399321789 -0.13364035646589981 0 0.016858896022001881 -0.11398464749163199 0 0.032679609103365849 -0.1175036048659872 0 0.016858896022001881 -0.11398464749163199 0 0.032679609103365849 -0.1175036048659872 0 0.033653223777840802 -0.096537575359359515 0 0.016858896022001881 -0.11398464749163199 0 0.011161824373436491 -0.096357730852011547 0 0.033653223777840802 -0.096537575359359515 0 0.000267848883412811 -0.1222249126836107 0 0.011161824373436491 -0.096357730852011547 0 -0.0025279519108222272 -0.085451521842497366 0 0.011161824373436491 -0.096357730852011547 0 0.02205579986346002 -0.070490549020412546 0 -0.0025279519108222272 -0.085451521842497366 0 0.007265348320655206 -0.063846298629635118 0 0.02205579986346002 -0.070490549020412546 0 -0.00071745433018911191 -0.056066980568571907 0 -0.0047718882982147257 -0.071592334602664898 0 0.007265348320655206 -0.063846298629635118 0 0.007265348320655206 -0.063846298629635118 0 0.02205579986346002 -0.070490549020412546 0 0.018458349285159711 -0.05584223804428648 0 0.011161824373436491 -0.096357730852011547 0 0.02205579986346002 -0.070490549020412546 0 0.011161824373436491 -0.096357730852011547 0 0.02205579986346002 -0.070490549020412546 0 0.033653223777840802 -0.096537575359359515 0 0.051302873137037117 -0.073968474803595197 0 0.053911722448049627 -0.095514752507241493 0 0.033653223777840802 -0.096537575359359515 0 0.02205579986346002 -0.070490549020412546 0 0.051302873137037117 -0.073968474803595197 0 0.033653223777840802 -0.096537575359359515 0 0.02205579986346002 -0.070490549020412546 0 0.051302873137037117 -0.073968474803595197 0 0.035435003573024412 -0.056942813595273312 0 0.051302873137037117 -0.073968474803595197 0 0.053911722448049627 -0.095514752507241493 0 0.070979451471300706 -0.092814304713448037 0 0.053911722448049627 -0.095514752507241493 0 0.048020708427311862 -0.11097259558622941 0 0.067612916689688426 -0.1178215846092215 0 0.053637877982700283 -0.13666522533789799 0 0.048020708427311862 -0.11097259558622941 0 0.067612916689688426 -0.1178215846092215 0 0.053637877982700283 -0.13666522533789799 0 0.048020708427311862 -0.11097259558622941 0 0.032679609103365849 -0.1175036048659872 0 0.053911722448049627 -0.095514752507241493 0 0.048020708427311862 -0.11097259558622941 0 0.033653223777840802 -0.096537575359359515 0 0.048020708427311862 -0.11097259558622941 0 0.032679609103365849 -0.1175036048659872 0 0.033653223777840802 -0.096537575359359515 0 0.030189021560322181 0.00051130270597040935 0 0.02458765229089438 -0.0027608227030746632 0 0.0300028442631801 -0.007506955522699043 0 0.02458765229089438 -0.0027608227030746632 0 0.0300028442631801 -0.007506955522699043 0 0.02228228922038596 -0.0092318598536271033 0 0.028076187698705232 -0.014899021972246089 0 0.02228228922038596 -0.0092318598536271033 0 0.020253380433158229 -0.017674512673390132 0 0.0300028442631801 -0.007506955522699043 0 0.028076187698705232 -0.014899021972246089 0 0.02228228922038596 -0.0092318598536271033 0 0.02228228922038596 -0.0092318598536271033 0 0.014529164418776989 -0.0108918057042001 0 0.020253380433158229 -0.017674512673390132 0 0.022173727010914791 0.0027892007423151481 0 0.02458765229089438 -0.0027608227030746632 0 0.016030888457090609 -0.0027252400032683468 0 0.02228228922038596 -0.0092318598536271033 0 0.016030888457090609 -0.0027252400032683468 0 0.014529164418776989 -0.0108918057042001 0 0.02458765229089438 -0.0027608227030746632 0 0.02228228922038596 -0.0092318598536271033 0 0.016030888457090609 -0.0027252400032683468 0 0.016030888457090609 -0.0027252400032683468 0 0.006223188466077249 -0.0001215757219770891 0 0.0075998480503949237 -0.0083895899843201959 0 0.016030888457090609 -0.0027252400032683468 0 0.0075998480503949237 -0.0083895899843201959 0 0.014529164418776989 -0.0108918057042001 0 -0.003589021217499586 -8.108461533938181e-05 0 0.006223188466077249 -0.0001215757219770891 0 7.2577058917493991e-06 -0.0078869693018287501 0 0.006223188466077249 -0.0001215757219770891 0 0.0075998480503949237 -0.0083895899843201959 0 7.2577058917493991e-06 -0.0078869693018287501 0 0.0075998480503949237 -0.0083895899843201959 0 7.2577058917493991e-06 -0.0078869693018287501 0 0.0041450624216893567 -0.01617293028693156 0 0.0075998480503949237 -0.0083895899843201959 0 0.014529164418776989 -0.0108918057042001 0 0.0041450624216893567 -0.01617293028693156 0 0.014529164418776989 -0.0108918057042001 0 0.01282750735685911 -0.019270149519508891 0 0.0041450624216893567 -0.01617293028693156 0 -0.0064067127451799986 -0.020589233330411998 0 0.0041450624216893567 -0.01617293028693156 0 0.0046228348747387538 -0.0262059837982749 0 0.01282750735685911 -0.019270149519508891 0 0.0041450624216893567 -0.01617293028693156 0 0.0046228348747387538 -0.0262059837982749 0 0.0046228348747387538 -0.0262059837982749 0 0.017134007186604291 -0.027034543605671979 0 0.013600985402085611 -0.036072835479350029 0 0.01282750735685911 -0.019270149519508891 0 0.0046228348747387538 -0.0262059837982749 0 0.017134007186604291 -0.027034543605671979 0 0.017134007186604291 -0.027034543605671979 0 0.026671126717617771 -0.024719695385086629 0 0.025901298622405519 -0.034241524798172177 0 0.014529164418776989 -0.0108918057042001 0 0.01282750735685911 -0.019270149519508891 0 0.020253380433158229 -0.017674512673390132 0 0.01282750735685911 -0.019270149519508891 0 0.017134007186604291 -0.027034543605671979 0 0.020253380433158229 -0.017674512673390132 0 0.017134007186604291 -0.027034543605671979 0 0.020253380433158229 -0.017674512673390132 0 0.026671126717617771 -0.024719695385086629 0 0.028076187698705232 -0.014899021972246089 0 0.026671126717617771 -0.024719695385086629 0 0.033997827498014013 -0.020852977948598899 0 0.028076187698705232 -0.014899021972246089 0 0.020253380433158229 -0.017674512673390132 0 0.026671126717617771 -0.024719695385086629 0 0.026671126717617771 -0.024719695385086629 0 0.025901298622405519 -0.034241524798172177 0 0.035562006937007069 -0.030029718047615169 0 0.025901298622405519 -0.034241524798172177 0 0.025155563671262021 -0.045546160110605582 0 0.037284101819856391 -0.042046196160703667 0 0.025901298622405519 -0.034241524798172177 0 0.025155563671262021 -0.045546160110605582 0 0.013600985402085611 -0.036072835479350029 0 0.017134007186604291 -0.027034543605671979 0 0.025901298622405519 -0.034241524798172177 0 0.013600985402085611 -0.036072835479350029 0 0.025155563671262021 -0.045546160110605582 0 0.013600985402085611 -0.036072835479350029 0 0.0074139533817666704 -0.046292904517566201 0 0.0046228348747387538 -0.0262059837982749 0 0.013600985402085611 -0.036072835479350029 0 0.00138259972359069 -0.036225685931006883 0 0.013600985402085611 -0.036072835479350029 0 0.00138259972359069 -0.036225685931006883 0 0.0074139533817666704 -0.046292904517566201 0 -0.0040007165620090553 -0.044984563591612292 0 0.00138259972359069 -0.036225685931006883 0 0.0074139533817666704 -0.046292904517566201 0 -0.00071745433018911191 -0.056066980568571907 0 0.007265348320655206 -0.063846298629635118 0 0.0074139533817666704 -0.046292904517566201 0 0.007265348320655206 -0.063846298629635118 0 0.0074139533817666704 -0.046292904517566201 0 0.018458349285159711 -0.05584223804428648 0 -0.0040007165620090553 -0.044984563591612292 0 -0.00071745433018911191 -0.056066980568571907 0 0.0074139533817666704 -0.046292904517566201 0 0.025155563671262021 -0.045546160110605582 0 0.0074139533817666704 -0.046292904517566201 0 0.018458349285159711 -0.05584223804428648 0 0.02205579986346002 -0.070490549020412546 0 0.018458349285159711 -0.05584223804428648 0 0.035435003573024412 -0.056942813595273312 0 0.025155563671262021 -0.045546160110605582 0 0.018458349285159711 -0.05584223804428648 0 0.035435003573024412 -0.056942813595273312 0 0.035435003573024412 -0.056942813595273312 0 0.053794551639861903 -0.048136574768137229 0 0.037284101819856391 -0.042046196160703667 0 0.051302873137037117 -0.073968474803595197 0 0.035435003573024412 -0.056942813595273312 0 0.053794551639861903 -0.048136574768137229 0 0.025155563671262021 -0.045546160110605582 0 0.035435003573024412 -0.056942813595273312 0 0.037284101819856391 -0.042046196160703667 0 0.051302873137037117 -0.073968474803595197 0 0.053794551639861903 -0.048136574768137229 0 0.069500356623180659 -0.057256155506815412 0 0.053794551639861903 -0.048136574768137229 0 0.061485381742780842 -0.032137057197539003 0 0.047473681214659412 -0.03391851260386089 0 0.053794551639861903 -0.048136574768137229 0 0.047473681214659412 -0.03391851260386089 0 0.037284101819856391 -0.042046196160703667 0 0.047473681214659412 -0.03391851260386089 0 0.037284101819856391 -0.042046196160703667 0 0.035562006937007069 -0.030029718047615169 0 0.025901298622405519 -0.034241524798172177 0 0.037284101819856391 -0.042046196160703667 0 0.035562006937007069 -0.030029718047615169 0 0.035562006937007069 -0.030029718047615169 0 0.033997827498014013 -0.020852977948598899 0 0.042528281451377083 -0.021901303218928601 0 0.026671126717617771 -0.024719695385086629 0 0.035562006937007069 -0.030029718047615169 0 0.033997827498014013 -0.020852977948598899 0 0.028076187698705232 -0.014899021972246089 0 0.033997827498014013 -0.020852977948598899 0 0.037151534685362933 -0.01271515111911802 0 0.033997827498014013 -0.020852977948598899 0 0.042528281451377083 -0.021901303218928601 0 0.037151534685362933 -0.01271515111911802 0 0.042528281451377083 -0.021901303218928601 0 0.048143706338516737 -0.013935862345489989 0 0.037151534685362933 -0.01271515111911802 0 0.047473681214659412 -0.03391851260386089 0 0.035562006937007069 -0.030029718047615169 0 0.042528281451377083 -0.021901303218928601 0 0.061485381742780842 -0.032137057197539003 0 0.047473681214659412 -0.03391851260386089 0 0.053246853108268218 -0.02303771652628946 0 0.047473681214659412 -0.03391851260386089 0 0.042528281451377083 -0.021901303218928601 0 0.053246853108268218 -0.02303771652628946 0 0.061485381742780842 -0.032137057197539003 0 0.053246853108268218 -0.02303771652628946 0 0.066092827536531923 -0.019758739217593541 0 0.053246853108268218 -0.02303771652628946 0 0.057720377121866957 -0.01472656153558626 0 0.066092827536531923 -0.019758739217593541 0 0.042528281451377083 -0.021901303218928601 0 0.053246853108268218 -0.02303771652628946 0 0.048143706338516737 -0.013935862345489989 0 0.053246853108268218 -0.02303771652628946 0 0.048143706338516737 -0.013935862345489989 0 0.057720377121866957 -0.01472656153558626 0 0.048143706338516737 -0.013935862345489989 0 0.055218724246851418 -0.0053312865078767426 0 0.042983244265908493 -0.005596448178390577 0 0.048143706338516737 -0.013935862345489989 0 0.057720377121866957 -0.01472656153558626 0 0.055218724246851418 -0.0053312865078767426 0 0.057720377121866957 -0.01472656153558626 0 0.055218724246851418 -0.0053312865078767426 0 0.069194722145377793 -0.0057685604951461878 0 0.060183249563755953 0.0051122513251101367 0 0.055218724246851418 -0.0053312865078767426 0 0.069194722145377793 -0.0057685604951461878 0 0.046438551404464769 0.0009093752695626808 0 0.055218724246851418 -0.0053312865078767426 0 0.042983244265908493 -0.005596448178390577 0 0.046438551404464769 0.0009093752695626808 0 0.053156896851297389 0.0018253163302822931 0 0.055218724246851418 -0.0053312865078767426 0 0.038968832668091417 0.0024033883174378072 0 0.042983244265908493 -0.005596448178390577 0 0.036001110578562 -0.0046583378299150276 0 0.046438551404464769 0.0009093752695626808 0 0.038968832668091417 0.0024033883174378072 0 0.042983244265908493 -0.005596448178390577 0 0.048143706338516737 -0.013935862345489989 0 0.042983244265908493 -0.005596448178390577 0 0.037151534685362933 -0.01271515111911802 0 0.0300028442631801 -0.007506955522699043 0 0.028076187698705232 -0.014899021972246089 0 0.037151534685362933 -0.01271515111911802 0 0.0300028442631801 -0.007506955522699043 0 0.037151534685362933 -0.01271515111911802 0 0.036001110578562 -0.0046583378299150276 0 0.030189021560322181 0.00051130270597040935 0 0.038968832668091417 0.0024033883174378072 0 0.036001110578562 -0.0046583378299150276 0 0.030189021560322181 0.00051130270597040935 0 0.0300028442631801 -0.007506955522699043 0 0.036001110578562 -0.0046583378299150276 0 0.042983244265908493 -0.005596448178390577 0 0.037151534685362933 -0.01271515111911802 0 0.036001110578562 -0.0046583378299150276 0 0.085029335255968952 -0.0001652245140942706 0 0.079608110996121986 -0.01603053385578658 0 0.098309469274599492 -0.012205739181363759 0 0.085029335255968952 -0.0001652245140942706 0 0.069194722145377793 -0.0057685604951461878 0 0.079608110996121986 -0.01603053385578658 0 0.057720377121866957 -0.01472656153558626 0 0.069194722145377793 -0.0057685604951461878 0 0.066092827536531923 -0.019758739217593541 0 0.069194722145377793 -0.0057685604951461878 0 0.066092827536531923 -0.019758739217593541 0 0.079608110996121986 -0.01603053385578658 0 0.07280067428100187 -0.02299920709903917 0 0.076052010457230701 -0.03017115697475049 0 0.079608110996121986 -0.01603053385578658 0 0.07280067428100187 -0.02299920709903917 0 0.066092827536531923 -0.019758739217593541 0 0.079608110996121986 -0.01603053385578658 0 0.07280067428100187 -0.02299920709903917 0 0.066092827536531923 -0.019758739217593541 0 0.069449748134122885 -0.026036398348026089 0 0.061485381742780842 -0.032137057197539003 0 0.066092827536531923 -0.019758739217593541 0 0.069449748134122885 -0.026036398348026089 0 0.061485381742780842 -0.032137057197539003 0 0.069449748134122885 -0.026036398348026089 0 0.076052010457230701 -0.03017115697475049 0 0.07280067428100187 -0.02299920709903917 0 0.069449748134122885 -0.026036398348026089 0 0.076052010457230701 -0.03017115697475049 0 0.076052010457230701 -0.03017115697475049 0 0.095626937758992225 -0.031652490936983198 0 0.098309469274599492 -0.012205739181363759 0 0.076052010457230701 -0.03017115697475049 0 0.079608110996121986 -0.01603053385578658 0 0.098309469274599492 -0.012205739181363759 0 0.076052010457230701 -0.03017115697475049 0 0.098309469274599492 -0.012205739181363759 0 0.076052010457230701 -0.03017115697475049 0 0.073684365782419811 -0.035756860670913507 0 0.095626937758992225 -0.031652490936983198 0 0.073684365782419811 -0.035756860670913507 0 0.094765415276811371 -0.051264474727248023 0 0.073684365782419811 -0.035756860670913507 0 0.094765415276811371 -0.051264474727248023 0 0.095626937758992225 -0.031652490936983198 0 0.053794551639861903 -0.048136574768137229 0 0.076052010457230701 -0.03017115697475049 0 0.073684365782419811 -0.035756860670913507 0 0.053794551639861903 -0.048136574768137229 0 0.076052010457230701 -0.03017115697475049 0 0.053794551639861903 -0.048136574768137229 0 0.061485381742780842 -0.032137057197539003 0 0.076052010457230701 -0.03017115697475049 0 0.053794551639861903 -0.048136574768137229 0 0.073684365782419811 -0.035756860670913507 0 0.069500356623180659 -0.057256155506815412 0 0.073684365782419811 -0.035756860670913507 0 0.069500356623180659 -0.057256155506815412 0 0.094765415276811371 -0.051264474727248023 0 0.069500356623180659 -0.057256155506815412 0 0.094765415276811371 -0.051264474727248023 0 0.075932285708049704 -0.075623305808308366 0 0.094765415276811371 -0.051264474727248023 0 0.1133796523253624 -0.049947973112579799 0 0.115846464771203 -0.066772088783582526 0 0.094765415276811371 -0.051264474727248023 0 0.115846464771203 -0.066772088783582526 0 0.1133796523253624 -0.049947973112579799 0 0.1225239704667965 -0.035612092341504968 0 0.13302994429319409 -0.055897861114739301 0 0.1133796523253624 -0.049947973112579799 0 0.115846464771203 -0.066772088783582526 0 0.13302994429319409 -0.055897861114739301 0 0.1133796523253624 -0.049947973112579799 0 0.1225239704667965 -0.035612092341504968 0 0.095626937758992225 -0.031652490936983198 0 0.094765415276811371 -0.051264474727248023 0 0.1133796523253624 -0.049947973112579799 0 0.095626937758992225 -0.031652490936983198 0 0.095626937758992225 -0.031652490936983198 0 0.1208193480222253 -0.014960554220340131 0 0.098309469274599492 -0.012205739181363759 0 0.1225239704667965 -0.035612092341504968 0 0.095626937758992225 -0.031652490936983198 0 0.1208193480222253 -0.014960554220340131 0 0.1205669280919696 0.0057596786120213007 0 0.1208193480222253 -0.014960554220340131 0 0.098309469274599492 -0.012205739181363759 0 0.1205669280919696 0.0057596786120213007 0 0.098309469274599492 -0.012205739181363759 0 0.079384098310015333 -0.10623487423752651 0 0.090505794793364347 -0.1148081239919865 0 0.093753441639888829 -0.09851709931858757 0 0.079384098310015333 -0.10623487423752651 0 0.070979451471300706 -0.092814304713448037 0 0.093753441639888829 -0.09851709931858757 0 0.088791684346271299 -0.13043291859734421 0 0.090505794793364347 -0.1148081239919865 0 0.067612916689688426 -0.1178215846092215 0 0.079384098310015333 -0.10623487423752651 0 0.090505794793364347 -0.1148081239919865 0 0.067612916689688426 -0.1178215846092215 0 0.1009901611548852 -0.12505201846898251 0 0.088791684346271299 -0.13043291859734421 0 0.090505794793364347 -0.1148081239919865 0 0.079384098310015333 -0.10623487423752651 0 0.067612916689688426 -0.1178215846092215 0 0.070979451471300706 -0.092814304713448037 0 0.053911722448049627 -0.095514752507241493 0 0.067612916689688426 -0.1178215846092215 0 0.070979451471300706 -0.092814304713448037 0 0.051302873137037117 -0.073968474803595197 0 0.070979451471300706 -0.092814304713448037 0 0.075932285708049704 -0.075623305808308366 0 0.051302873137037117 -0.073968474803595197 0 0.069500356623180659 -0.057256155506815412 0 0.075932285708049704 -0.075623305808308366 0 0.094765415276811371 -0.051264474727248023 0 0.075932285708049704 -0.075623305808308366 0 0.09512985502871954 -0.078677847948794247 0 0.070979451471300706 -0.092814304713448037 0 0.09512985502871954 -0.078677847948794247 0 0.093753441639888829 -0.09851709931858757 0 0.070979451471300706 -0.092814304713448037 0 0.075932285708049704 -0.075623305808308366 0 0.09512985502871954 -0.078677847948794247 0 0.09512985502871954 -0.078677847948794247 0 0.11789712352485369 -0.088085091274873878 0 0.093753441639888829 -0.09851709931858757 0 0.094765415276811371 -0.051264474727248023 0 0.09512985502871954 -0.078677847948794247 0 0.115846464771203 -0.066772088783582526 0 0.09512985502871954 -0.078677847948794247 0 0.115846464771203 -0.066772088783582526 0 0.11789712352485369 -0.088085091274873878 0 0.115846464771203 -0.066772088783582526 0 0.11789712352485369 -0.088085091274873878 0 0.13692751426559449 -0.082279702839917049 0 0.11789712352485369 -0.088085091274873878 0 0.110008496334564 -0.11022756616238009 0 0.13556011515207919 -0.1114380779407128 0 0.090505794793364347 -0.1148081239919865 0 0.093753441639888829 -0.09851709931858757 0 0.110008496334564 -0.11022756616238009 0 0.11789712352485369 -0.088085091274873878 0 0.093753441639888829 -0.09851709931858757 0 0.110008496334564 -0.11022756616238009 0 0.1009901611548852 -0.12505201846898251 0 0.090505794793364347 -0.1148081239919865 0 0.110008496334564 -0.11022756616238009 0 0.1009901611548852 -0.12505201846898251 0 0.11706831515076919 -0.1270765205113058 0 0.110008496334564 -0.11022756616238009 0 0.11706831515076919 -0.1270765205113058 0 0.110008496334564 -0.11022756616238009 0 0.13556011515207919 -0.1114380779407128 0 0.11706831515076919 -0.1270765205113058 0 0.13556011515207919 -0.1114380779407128 0 0.11706831515076919 -0.1270765205113058 0 0.13556011515207919 -0.1114380779407128 0 0.13617644145321209 -0.13073588980244211 0 0.13556011515207919 -0.1114380779407128 0 0.15376915927368051 -0.13551302365455109 0 0.13556011515207919 -0.1114380779407128 0 0.1522762147755653 -0.1177185470925618 0 0.15376915927368051 -0.13551302365455109 0 0.13556011515207919 -0.1114380779407128 0 0.1522762147755653 -0.1177185470925618 0 0.14786659954501641 -0.10929800707031 0 0.1522762147755653 -0.1177185470925618 0 0.14786659954501641 -0.10929800707031 0 0.15805177379180471 -0.1069101231304883 0 0.14885852852379339 -0.1001916620277794 0 0.15805177379180471 -0.1069101231304883 0 0.15800856375998609 -0.097787316896251572 0 0.14885852852379339 -0.1001916620277794 0 0.14786659954501641 -0.10929800707031 0 0.15805177379180471 -0.1069101231304883 0 0.13556011515207919 -0.1114380779407128 0 0.14885852852379339 -0.1001916620277794 0 0.14786659954501641 -0.10929800707031 0 0.13556011515207919 -0.1114380779407128 0 0.14885852852379339 -0.1001916620277794 0 0.11789712352485369 -0.088085091274873878 0 0.13556011515207919 -0.1114380779407128 0 0.13481082036658021 -0.095498633520820761 0 0.11789712352485369 -0.088085091274873878 0 0.13556011515207919 -0.1114380779407128 0 0.13556011515207919 -0.1114380779407128 0 0.14885852852379339 -0.1001916620277794 0 0.13481082036658021 -0.095498633520820761 0 0.11789712352485369 -0.088085091274873878 0 0.13481082036658021 -0.095498633520820761 0 0.13692751426559449 -0.082279702839917049 0 0.14885852852379339 -0.1001916620277794 0 0.13481082036658021 -0.095498633520820761 0 0.13692751426559449 -0.082279702839917049 0 0.13692751426559449 -0.082279702839917049 0 0.1502213504913672 -0.068972652440283805 0 0.13302994429319409 -0.055897861114739301 0 0.115846464771203 -0.066772088783582526 0 0.13692751426559449 -0.082279702839917049 0 0.115846464771203 -0.066772088783582526 0 0.13692751426559449 -0.082279702839917049 0 0.13302994429319409 -0.055897861114739301 0 0.13692751426559449 -0.082279702839917049 0 0.1502213504913672 -0.068972652440283805 0 0.15331892434319841 -0.08290911586278292 0 0.1502213504913672 -0.068972652440283805 0 0.15331892434319841 -0.08290911586278292 0 0.1632422147137797 -0.07746203484515049 0 0.1502213504913672 -0.068972652440283805 0 0.16339919365630459 -0.06535369900086789 0 0.1494059908929051 -0.053535285909919308 0 0.13692751426559449 -0.082279702839917049 0 0.15331892434319841 -0.08290911586278292 0 0.15800856375998609 -0.097787316896251572 0 0.13692751426559449 -0.082279702839917049 0 0.15800856375998609 -0.097787316896251572 0 0.14885852852379339 -0.1001916620277794 0 0.13692751426559449 -0.082279702839917049 0 0.15800856375998609 -0.097787316896251572 0 0.15331892434319841 -0.08290911586278292 0 0.16272236737141671 -0.088242084028831269 0 0.15800856375998609 -0.097787316896251572 0 0.15331892434319841 -0.08290911586278292 0 0.16272236737141671 -0.088242084028831269 0 0.1632422147137797 -0.07746203484515049 0 0.16272236737141671 -0.088242084028831269 0 0.1632422147137797 -0.07746203484515049 0 0.1730335368180185 -0.087223091018314963 0 0.1632422147137797 -0.07746203484515049 0 0.17864816954592219 -0.072361139720332396 0 0.1730335368180185 -0.087223091018314963 0 0.16272236737141671 -0.088242084028831269 0 0.1730335368180185 -0.087223091018314963 0 0.16961555234788689 -0.09891532577730551 0 0.1502213504913672 -0.068972652440283805 0 0.16339919365630459 -0.06535369900086789 0 0.1632422147137797 -0.07746203484515049 0 0.16339919365630459 -0.06535369900086789 0 0.1632422147137797 -0.07746203484515049 0 0.17864816954592219 -0.072361139720332396 0 0.17864816954592219 -0.072361139720332396 0 0.1754782426375486 -0.054437382088653417 0 0.18877081802335591 -0.062686460113583337 0 0.16339919365630459 -0.06535369900086789 0 0.17864816954592219 -0.072361139720332396 0 0.1754782426375486 -0.054437382088653417 0 0.17864816954592219 -0.072361139720332396 0 0.18877081802335591 -0.062686460113583337 0 0.19502825042401861 -0.071315004243766911 0 0.17864816954592219 -0.072361139720332396 0 0.1730335368180185 -0.087223091018314963 0 0.19100713536951111 -0.093707282881136861 0 0.1730335368180185 -0.087223091018314963 0 0.16961555234788689 -0.09891532577730551 0 0.19100713536951111 -0.093707282881136861 0 0.17238814732159571 -0.1146101532678438 0 0.16961555234788689 -0.09891532577730551 0 0.19100713536951111 -0.093707282881136861 0 0.17238814732159571 -0.1146101532678438 0 0.19100713536951111 -0.093707282881136861 0 0.17238814732159571 -0.1146101532678438 0 0.1924057022408979 -0.118018749225026 0 0.19100713536951111 -0.093707282881136861 0 0.17238814732159571 -0.1146101532678438 0 0.1924057022408979 -0.118018749225026 0 0.1729441566620176 -0.13180164087861701 0 0.1522762147755653 -0.1177185470925618 0 0.17238814732159571 -0.1146101532678438 0 0.15805177379180471 -0.1069101231304883 0 0.1522762147755653 -0.1177185470925618 0 0.17238814732159571 -0.1146101532678438 0 0.15376915927368051 -0.13551302365455109 0 0.17238814732159571 -0.1146101532678438 0 0.15805177379180471 -0.1069101231304883 0 0.16961555234788689 -0.09891532577730551 0 0.15805177379180471 -0.1069101231304883 0 0.15800856375998609 -0.097787316896251572 0 0.16961555234788689 -0.09891532577730551 0 0.16272236737141671 -0.088242084028831269 0 0.15800856375998609 -0.097787316896251572 0 0.16961555234788689 -0.09891532577730551 0 0.1205669280919696 0.0057596786120213007 0 0.14081281966452511 -0.0095151106078309455 0 0.1205669280919696 0.0057596786120213007 0 0.1208193480222253 -0.014960554220340131 0 0.14081281966452511 -0.0095151106078309455 0 0.1208193480222253 -0.014960554220340131 0 0.14081281966452511 -0.0095151106078309455 0 0.14290466683913039 -0.034165232375387648 0 0.1225239704667965 -0.035612092341504968 0 0.1208193480222253 -0.014960554220340131 0 0.14290466683913039 -0.034165232375387648 0 0.14081281966452511 -0.0095151106078309455 0 0.16105871123708079 -0.02478989982768277 0 0.14081281966452511 -0.0095151106078309455 0 0.14290466683913039 -0.034165232375387648 0 0.16105871123708079 -0.02478989982768277 0 0.14290466683913039 -0.034165232375387648 0 0.16243097518282271 -0.041815502280650577 0 0.16105871123708079 -0.02478989982768277 0 0.14290466683913039 -0.034165232375387648 0 0.1494059908929051 -0.053535285909919308 0 0.16243097518282271 -0.041815502280650577 0 0.1225239704667965 -0.035612092341504968 0 0.14290466683913039 -0.034165232375387648 0 0.13302994429319409 -0.055897861114739301 0 0.1502213504913672 -0.068972652440283805 0 0.13302994429319409 -0.055897861114739301 0 0.1494059908929051 -0.053535285909919308 0 0.14290466683913039 -0.034165232375387648 0 0.13302994429319409 -0.055897861114739301 0 0.1494059908929051 -0.053535285909919308 0 0.16339919365630459 -0.06535369900086789 0 0.1494059908929051 -0.053535285909919308 0 0.1754782426375486 -0.054437382088653417 0 0.1494059908929051 -0.053535285909919308 0 0.1754782426375486 -0.054437382088653417 0 0.1494059908929051 -0.053535285909919308 0 0.1754782426375486 -0.054437382088653417 0 0.16243097518282271 -0.041815502280650577 0 0.1754782426375486 -0.054437382088653417 0 0.18130460280963659 -0.040064689047534602 0 0.201550494382192 -0.055339478267386971 0 0.1754782426375486 -0.054437382088653417 0 0.18130460280963659 -0.040064689047534602 0 0.16243097518282271 -0.041815502280650577 0 0.18130460280963659 -0.040064689047534602 0 0.16243097518282271 -0.041815502280650577 0 0.16105871123708079 -0.02478989982768277 0 0.18130460280963659 -0.040064689047534602 0 0.16105871123708079 -0.02478989982768277 0 0.18130460280963659 -0.040064689047534602 0 0.16105871123708079 -0.02478989982768277 0 0.18496123277785709 -0.021993053381052629 0 0.16105871123708079 -0.02478989982768277 0 0.18496123277785709 -0.021993053381052629 0 0.17121596801905389 -0.00566959597392655 0 0.18496123277785709 -0.021993053381052629 0 0.17121596801905389 -0.00566959597392655 0 0.19284884512754091 -0.0047895318830809691 0 0.15822165388057211 0.01164813150012021 0 0.14081281966452511 -0.0095151106078309455 0 0.17121596801905389 -0.00566959597392655 0 0.14081281966452511 -0.0095151106078309455 0 0.16105871123708079 -0.02478989982768277 0 0.17121596801905389 -0.00566959597392655 0 0.18496123277785709 -0.021993053381052629 0 0.19284884512754091 -0.0047895318830809691 0 0.20167788418322019 -0.019723994011982979 0 0.2136044149022393 -0.0085729472650377288 0 0.19284884512754091 -0.0047895318830809691 0 0.20167788418322019 -0.019723994011982979 0 0.18496123277785709 -0.021993053381052629 0 0.20167788418322019 -0.019723994011982979 0 0.20067067123874119 -0.035509496201936157 0 0.20167788418322019 -0.019723994011982979 0 0.21630425686972221 -0.0277549413288074 0 0.20067067123874119 -0.035509496201936157 0 0.2136044149022393 -0.0085729472650377288 0 0.20167788418322019 -0.019723994011982979 0 0.21630425686972221 -0.0277549413288074 0 0.21630425686972221 -0.0277549413288074 0 0.21661350521317541 -0.042342160383833698 0 0.20067067123874119 -0.035509496201936157 0 0.21661350521317541 -0.042342160383833698 0 0.20067067123874119 -0.035509496201936157 0 0.201550494382192 -0.055339478267386971 0 0.18130460280963659 -0.040064689047534602 0 0.18496123277785709 -0.021993053381052629 0 0.20067067123874119 -0.035509496201936157 0 0.18130460280963659 -0.040064689047534602 0 0.20067067123874119 -0.035509496201936157 0 0.201550494382192 -0.055339478267386971 0 0.18130460280963659 -0.040064689047534602 0 0.201550494382192 -0.055339478267386971 0 0.1754782426375486 -0.054437382088653417 0 0.201550494382192 -0.055339478267386971 0 0.18877081802335591 -0.062686460113583337 0 0.1754782426375486 -0.054437382088653417 0 0.201550494382192 -0.055339478267386971 0 0.201550494382192 -0.055339478267386971 0 0.18877081802335591 -0.062686460113583337 0 0.19959714255700631 -0.062822304185186639 0 0.201550494382192 -0.055339478267386971 0 0.20625624519819491 -0.058889796196235758 0 0.19959714255700631 -0.062822304185186639 0 0.20625624519819491 -0.058889796196235758 0 0.2301586159456456 -0.056329315178902259 0 0.21559047942884679 -0.06506560741146411 0 0.201550494382192 -0.055339478267386971 0 0.20625624519819491 -0.058889796196235758 0 0.2301586159456456 -0.056329315178902259 0 0.201550494382192 -0.055339478267386971 0 0.2301586159456456 -0.056329315178902259 0 0.21661350521317541 -0.042342160383833698 0 0.201550494382192 -0.055339478267386971 0 0.2301586159456456 -0.056329315178902259 0 0.201550494382192 -0.055339478267386971 0 0.20625624519819491 -0.058889796196235758 0 0.2301586159456456 -0.056329315178902259 0 0.24722214692836389 -0.052453991776951432 0 0.24366526516234441 -0.07318623794081755 0 0.2301586159456456 -0.056329315178902259 0 0.24722214692836389 -0.052453991776951432 0 0.23251116443097411 -0.038553418797890621 0 0.25429323071471782 -0.034848225527427112 0 0.24722214692836389 -0.052453991776951432 0 0.23251116443097411 -0.038553418797890621 0 0.21630425686972221 -0.0277549413288074 0 0.21661350521317541 -0.042342160383833698 0 0.23251116443097411 -0.038553418797890621 0 0.21661350521317541 -0.042342160383833698 0 0.2301586159456456 -0.056329315178902259 0 0.23251116443097411 -0.038553418797890621 0 0.2136044149022393 -0.0085729472650377288 0 0.21630425686972221 -0.0277549413288074 0 0.2356659697309279 -0.01996332242545891 0 0.21630425686972221 -0.0277549413288074 0 0.23251116443097411 -0.038553418797890621 0 0.2356659697309279 -0.01996332242545891 0 0.25429323071471782 -0.034848225527427112 0 0.25497002357771908 -0.020505851178660009 0 0.2356659697309279 -0.01996332242545891 0 0.25429323071471782 -0.034848225527427112 0 0.23251116443097411 -0.038553418797890621 0 0.2356659697309279 -0.01996332242545891 0 0.25497002357771908 -0.020505851178660009 0 0.2356659697309279 -0.01996332242545891 0 0.24579924900532191 -0.010329064769835869 0 0.23217944861580139 0.00082119188944633514 0 0.26197695804951793 0.0048291949868915756 0 0.24579924900532191 -0.010329064769835869 0 0.23217944861580139 0.00082119188944633514 0 0.2356659697309279 -0.01996332242545891 0 0.24579924900532191 -0.010329064769835869 0 0.23217944861580139 0.00082119188944633514 0 0.2136044149022393 -0.0085729472650377288 0 0.2356659697309279 -0.01996332242545891 0 0.21274249902403361 -0.1111881655260066 0 0.19100713536951111 -0.093707282881136861 0 0.20981351000029361 -0.091715083344882112 0 0.21274249902403361 -0.1111881655260066 0 0.20981351000029361 -0.091715083344882112 0 0.2302005850870478 -0.1073799125214924 0 0.21274249902403361 -0.1111881655260066 0 0.1924057022408979 -0.118018749225026 0 0.21437723697816699 -0.13388676224085361 0 0.21274249902403361 -0.1111881655260066 0 0.1924057022408979 -0.118018749225026 0 0.19100713536951111 -0.093707282881136861 0 0.19100713536951111 -0.093707282881136861 0 0.2096261234174267 -0.072804412494429718 0 0.17864816954592219 -0.072361139720332396 0 0.19100713536951111 -0.093707282881136861 0 0.19502825042401861 -0.071315004243766911 0 0.19100713536951111 -0.093707282881136861 0 0.19502825042401861 -0.071315004243766911 0 0.2096261234174267 -0.072804412494429718 0 0.18877081802335591 -0.062686460113583337 0 0.19502825042401861 -0.071315004243766911 0 0.19959714255700631 -0.062822304185186639 0 0.19502825042401861 -0.071315004243766911 0 0.19959714255700631 -0.062822304185186639 0 0.20521964820509861 -0.06617942490621663 0 0.2096261234174267 -0.072804412494429718 0 0.21559047942884679 -0.06506560741146411 0 0.22577863244366511 -0.071019444784451782 0 0.19502825042401861 -0.071315004243766911 0 0.20521964820509861 -0.06617942490621663 0 0.2096261234174267 -0.072804412494429718 0 0.20625624519819491 -0.058889796196235758 0 0.20521964820509861 -0.06617942490621663 0 0.21559047942884679 -0.06506560741146411 0 0.20521964820509861 -0.06617942490621663 0 0.2096261234174267 -0.072804412494429718 0 0.21559047942884679 -0.06506560741146411 0 0.20625624519819491 -0.058889796196235758 0 0.19959714255700631 -0.062822304185186639 0 0.20521964820509861 -0.06617942490621663 0 0.19100713536951111 -0.093707282881136861 0 0.2096261234174267 -0.072804412494429718 0 0.20981351000029361 -0.091715083344882112 0 0.2096261234174267 -0.072804412494429718 0 0.20981351000029361 -0.091715083344882112 0 0.2285433978020488 -0.089099765261118929 0 0.2285433978020488 -0.089099765261118929 0 0.22577863244366511 -0.071019444784451782 0 0.24366526516234441 -0.07318623794081755 0 0.2301586159456456 -0.056329315178902259 0 0.22577863244366511 -0.071019444784451782 0 0.24366526516234441 -0.07318623794081755 0 0.2096261234174267 -0.072804412494429718 0 0.2285433978020488 -0.089099765261118929 0 0.22577863244366511 -0.071019444784451782 0 0.2301586159456456 -0.056329315178902259 0 0.21559047942884679 -0.06506560741146411 0 0.22577863244366511 -0.071019444784451782 0 0.25587087975680178 -0.099394212385965949 0 0.2285433978020488 -0.089099765261118929 0 0.24366526516234441 -0.07318623794081755 0 0.25587087975680178 -0.099394212385965949 0 0.2285433978020488 -0.089099765261118929 0 0.2302005850870478 -0.1073799125214924 0 0.25587087975680178 -0.099394212385965949 0 0.2285433978020488 -0.089099765261118929 0 0.20981351000029361 -0.091715083344882112 0 0.2285433978020488 -0.089099765261118929 0 0.2302005850870478 -0.1073799125214924 0 0.21274249902403361 -0.1111881655260066 0 0.23839223962912931 -0.1238032165628378 0 0.21437723697816699 -0.13388676224085361 0 0.21274249902403361 -0.1111881655260066 0 0.2302005850870478 -0.1073799125214924 0 0.23839223962912931 -0.1238032165628378 0 0.25587087975680178 -0.099394212385965949 0 0.2302005850870478 -0.1073799125214924 0 0.23839223962912931 -0.1238032165628378 0 0.23839223962912931 -0.1238032165628378 0 0.24892328078959031 -0.1491389388364375 0 0.23184784151270829 -0.14159062963311911 0 0.24892328078959031 -0.1491389388364375 0 0.23184784151270829 -0.14159062963311911 0 0.22569860865394681 -0.15953360089234739 0 0.23184784151270829 -0.14159062963311911 0 0.21437723697816699 -0.13388676224085361 0 0.22569860865394681 -0.15953360089234739 0 0.23839223962912931 -0.1238032165628378 0 0.23184784151270829 -0.14159062963311911 0 0.21437723697816699 -0.13388676224085361 0 0.21437723697816699 -0.13388676224085361 0 0.20433887268734149 -0.14943879889521319 0 0.22569860865394681 -0.15953360089234739 0 0.20433887268734149 -0.14943879889521319 0 0.18956497876653 -0.15571739018239439 0 0.18826920633314831 -0.13737988107735841 0 0.21437723697816699 -0.13388676224085361 0 0.20433887268734149 -0.14943879889521319 0 0.18826920633314831 -0.13737988107735841 0 0.1924057022408979 -0.118018749225026 0 0.21437723697816699 -0.13388676224085361 0 0.18826920633314831 -0.13737988107735841 0 0.1988666848005427 -0.18087404794406531 0 0.18313159253751249 -0.19239309703106211 0 0.1819945011248246 -0.1728309393168401 0 0.1988666848005427 -0.18087404794406531 0 0.20545830229359241 -0.16507493448375679 0 0.1819945011248246 -0.1728309393168401 0 0.18956497876653 -0.15571739018239439 0 0.20545830229359241 -0.16507493448375679 0 0.1819945011248246 -0.1728309393168401 0 0.20433887268734149 -0.14943879889521319 0 0.18956497876653 -0.15571739018239439 0 0.20545830229359241 -0.16507493448375679 0 0.20545830229359241 -0.16507493448375679 0 0.2129231332571774 -0.17764690300813241 0 0.22569860865394681 -0.15953360089234739 0 0.20433887268734149 -0.14943879889521319 0 0.20545830229359241 -0.16507493448375679 0 0.22569860865394681 -0.15953360089234739 0 0.1988666848005427 -0.18087404794406531 0 0.20545830229359241 -0.16507493448375679 0 0.2129231332571774 -0.17764690300813241 0 0.1988666848005427 -0.18087404794406531 0 0.2129231332571774 -0.17764690300813241 0 0.21082589478960639 -0.19642436588053469 0 0.2129231332571774 -0.17764690300813241 0 0.2262217578586059 -0.1837964875550625 0 0.21082589478960639 -0.19642436588053469 0 0.2262217578586059 -0.1837964875550625 0 0.22569860865394681 -0.15953360089234739 0 0.24150436295925301 -0.17429161822211159 0 0.2129231332571774 -0.17764690300813241 0 0.2262217578586059 -0.1837964875550625 0 0.22569860865394681 -0.15953360089234739 0 0.24892328078959031 -0.1491389388364375 0 0.22569860865394681 -0.15953360089234739 0 0.24150436295925301 -0.17429161822211159 0 0.2262217578586059 -0.1837964875550625 0 0.2393993768146456 -0.18696305131801011 0 0.24150436295925301 -0.17429161822211159 0 0.25135118939902351 -0.1893084647648583 0 0.2393993768146456 -0.18696305131801011 0 0.24150436295925301 -0.17429161822211159 0 0.25135118939902351 -0.1893084647648583 0 0.2393993768146456 -0.18696305131801011 0 0.2385201970417003 -0.20045563473000791 0 0.2262217578586059 -0.1837964875550625 0 0.2393993768146456 -0.18696305131801011 0 0.2385201970417003 -0.20045563473000791 0 0.25603759837811141 -0.22418425286124399 0 0.2385201970417003 -0.20045563473000791 0 0.25603759837811141 -0.22418425286124399 0 0.2385201970417003 -0.20045563473000791 0 0.23449743703835249 -0.22010076693235689 0 0.2385201970417003 -0.20045563473000791 0 0.22255637486837071 -0.21021548852474761 0 0.23449743703835249 -0.22010076693235689 0 0.22255637486837071 -0.21021548852474761 0 0.23449743703835249 -0.22010076693235689 0 0.2192309414382832 -0.22269102067254831 0 0.2385201970417003 -0.20045563473000791 0 0.22255637486837071 -0.21021548852474761 0 0.21082589478960639 -0.19642436588053469 0 0.2385201970417003 -0.20045563473000791 0 0.21082589478960639 -0.19642436588053469 0 0.2262217578586059 -0.1837964875550625 0 0.2385201970417003 -0.20045563473000791 0 0.2262217578586059 -0.1837964875550625 0 0.2385201970417003 -0.20045563473000791 0 0.21082589478960639 -0.19642436588053469 0 0.25233535094758291 -0.2439050760836787 0 0.23869683847147871 -0.2575448738814074 0 0.23227829435822789 -0.24448125798098391 0 0.25233535094758291 -0.2439050760836787 0 0.2420125409635058 -0.2339491372821742 0 0.23227829435822789 -0.24448125798098391 0 0.25603759837811141 -0.22418425286124399 0 0.2420125409635058 -0.2339491372821742 0 0.23449743703835249 -0.22010076693235689 0 0.2420125409635058 -0.2339491372821742 0 0.23449743703835249 -0.22010076693235689 0 0.22830140799233839 -0.23174568120126091 0 0.23449743703835249 -0.22010076693235689 0 0.2192309414382832 -0.22269102067254831 0 0.22830140799233839 -0.23174568120126091 0 0.2192309414382832 -0.22269102067254831 0 0.22830140799233839 -0.23174568120126091 0 0.2158156589525036 -0.23671024039384089 0 0.21627131317976131 -0.25043794374200129 0 0.23227829435822789 -0.24448125798098391 0 0.2158156589525036 -0.23671024039384089 0 0.22830140799233839 -0.23174568120126091 0 0.23227829435822789 -0.24448125798098391 0 0.2158156589525036 -0.23671024039384089 0 0.2420125409635058 -0.2339491372821742 0 0.22830140799233839 -0.23174568120126091 0 0.23227829435822789 -0.24448125798098391 0 0.2036796567083593 -0.24385769122738171 0 0.2158156589525036 -0.23671024039384089 0 0.2031666055281908 -0.22681727514145289 0 0.21627131317976131 -0.25043794374200129 0 0.2036796567083593 -0.24385769122738171 0 0.2158156589525036 -0.23671024039384089 0 0.2192309414382832 -0.22269102067254831 0 0.2158156589525036 -0.23671024039384089 0 0.2031666055281908 -0.22681727514145289 0 0.2192309414382832 -0.22269102067254831 0 0.2031666055281908 -0.22681727514145289 0 0.2097074040339113 -0.2114056544082904 0 0.2031666055281908 -0.22681727514145289 0 0.18843357613153899 -0.22505139474317881 0 0.19554404599764841 -0.21001925930401219 0 0.2031666055281908 -0.22681727514145289 0 0.18843357613153899 -0.22505139474317881 0 0.19105780481146051 -0.23817469439815969 0 0.2036796567083593 -0.24385769122738171 0 0.2031666055281908 -0.22681727514145289 0 0.19105780481146051 -0.23817469439815969 0 0.19421691027167551 -0.2513876443463911 0 0.19105780481146051 -0.23817469439815969 0 0.1831022713226802 -0.24545629794993579 0 0.19421691027167551 -0.2513876443463911 0 0.2036796567083593 -0.24385769122738171 0 0.19105780481146051 -0.23817469439815969 0 0.22255637486837071 -0.21021548852474761 0 0.21082589478960639 -0.19642436588053469 0 0.2097074040339113 -0.2114056544082904 0 0.22255637486837071 -0.21021548852474761 0 0.2192309414382832 -0.22269102067254831 0 0.2097074040339113 -0.2114056544082904 0 0.21082589478960639 -0.19642436588053469 0 0.2097074040339113 -0.2114056544082904 0 0.19554404599764841 -0.21001925930401219 0 0.2031666055281908 -0.22681727514145289 0 0.2097074040339113 -0.2114056544082904 0 0.19554404599764841 -0.21001925930401219 0 0.21082589478960639 -0.19642436588053469 0 0.19554404599764841 -0.21001925930401219 0 0.18313159253751249 -0.19239309703106211 0 0.21082589478960639 -0.19642436588053469 0 0.18313159253751249 -0.19239309703106211 0 0.1988666848005427 -0.18087404794406531 0 0.21082589478960639 -0.19642436588053469 0 0.18313159253751249 -0.19239309703106211 0 0.18313159253751249 -0.19239309703106211 0 0.17589777129379139 -0.2153455770181546 0 0.16242864125961121 -0.20433052448870909 0 0.19554404599764841 -0.21001925930401219 0 0.18313159253751249 -0.19239309703106211 0 0.17589777129379139 -0.2153455770181546 0 0.19554404599764841 -0.21001925930401219 0 0.17589777129379139 -0.2153455770181546 0 0.18843357613153899 -0.22505139474317881 0 0.19554404599764841 -0.21001925930401219 0 0.17589777129379139 -0.2153455770181546 0 0.17589777129379139 -0.2153455770181546 0 0.16242864125961121 -0.20433052448870909 0 0.1562514965899344 -0.22067189473229701 0 0.17589777129379139 -0.2153455770181546 0 0.1562514965899344 -0.22067189473229701 0 0.18313159253751249 -0.19239309703106211 0 0.1554372902854185 -0.1883618281815895 0 0.18313159253751249 -0.19239309703106211 0 0.16242864125961121 -0.20433052448870909 0 0.1554372902854185 -0.1883618281815895 0 0.17277452781416869 -0.24854617307570531 0 0.1831022713226802 -0.24545629794993579 0 0.17650165302660401 -0.23490016785411499 0 0.1836670555977232 -0.25463318944990798 0 0.17277452781416869 -0.24854617307570531 0 0.1831022713226802 -0.24545629794993579 0 0.19105780481146051 -0.23817469439815969 0 0.1831022713226802 -0.24545629794993579 0 0.17650165302660401 -0.23490016785411499 0 0.18843357613153899 -0.22505139474317881 0 0.17589777129379139 -0.2153455770181546 0 0.17650165302660401 -0.23490016785411499 0 0.17589777129379139 -0.2153455770181546 0 0.17650165302660401 -0.23490016785411499 0 0.16539198252202239 -0.2289665588147986 0 0.18843357613153899 -0.22505139474317881 0 0.19105780481146051 -0.23817469439815969 0 0.17650165302660401 -0.23490016785411499 0 0.17589777129379139 -0.2153455770181546 0 0.1562514965899344 -0.22067189473229701 0 0.16539198252202239 -0.2289665588147986 0 0.1562514965899344 -0.22067189473229701 0 0.16539198252202239 -0.2289665588147986 0 0.15489726364017861 -0.23287727871969821 0 0.16539198252202239 -0.2289665588147986 0 0.16341172805960361 -0.24103787574972799 0 0.15489726364017861 -0.23287727871969821 0 0.17277452781416869 -0.24854617307570531 0 0.17650165302660401 -0.23490016785411499 0 0.16341172805960361 -0.24103787574972799 0 0.17650165302660401 -0.23490016785411499 0 0.16539198252202239 -0.2289665588147986 0 0.16341172805960361 -0.24103787574972799 0 0.16341172805960361 -0.24103787574972799 0 0.153897483263742 -0.2473436591893412 0 0.15489726364017861 -0.23287727871969821 0 0.16089331655485031 -0.25235875079514503 0 0.16341172805960361 -0.24103787574972799 0 0.153897483263742 -0.2473436591893412 0 0.16089331655485031 -0.25235875079514503 0 0.17277452781416869 -0.24854617307570531 0 0.16341172805960361 -0.24103787574972799 0 0.14384928496988331 -0.25353602738541609 0 0.153897483263742 -0.2473436591893412 0 0.1368854100703655 -0.24538935092513289 0 0.153897483263742 -0.2473436591893412 0 0.13660522188607779 -0.22599821244644061 0 0.153897483263742 -0.2473436591893412 0 0.13660522188607779 -0.22599821244644061 0 0.1368854100703655 -0.24538935092513289 0 0.153897483263742 -0.2473436591893412 0 0.15489726364017861 -0.23287727871969821 0 0.13660522188607779 -0.22599821244644061 0 0.1562514965899344 -0.22067189473229701 0 0.13660522188607779 -0.22599821244644061 0 0.1562514965899344 -0.22067189473229701 0 0.15489726364017861 -0.23287727871969821 0 0.13660522188607779 -0.22599821244644061 0 0.1172054098179411 -0.23125771147244381 0 0.13660522188607779 -0.22599821244644061 0 0.1172054098179411 -0.23125771147244381 0 0.13660522188607779 -0.22599821244644061 0 0.12824380856155829 -0.23696193385103301 0 0.13660522188607779 -0.22599821244644061 0 0.12824380856155829 -0.23696193385103301 0 0.1368854100703655 -0.24538935092513289 0 0.1222791924718488 -0.24520246056011449 0 0.12824380856155829 -0.23696193385103301 0 0.1368854100703655 -0.24538935092513289 0 0.16242864125961121 -0.20433052448870909 0 0.1554372902854185 -0.1883618281815895 0 0.14142505559139909 -0.20488022548044241 0 0.1554372902854185 -0.1883618281815895 0 0.14142505559139909 -0.20488022548044241 0 0.12774298803332451 -0.18433055933211701 0 0.1562514965899344 -0.22067189473229701 0 0.13660522188607779 -0.22599821244644061 0 0.14142505559139909 -0.20488022548044241 0 0.16242864125961121 -0.20433052448870909 0 0.1562514965899344 -0.22067189473229701 0 0.14142505559139909 -0.20488022548044241 0 0.1188197321347372 -0.20404392804185831 0 0.13660522188607779 -0.22599821244644061 0 0.1188197321347372 -0.20404392804185831 0 0.13660522188607779 -0.22599821244644061 0 0.14142505559139909 -0.20488022548044241 0 0.1188197321347372 -0.20404392804185831 0 0.14142505559139909 -0.20488022548044241 0 0.12774298803332451 -0.18433055933211701 0 0.12774298803332451 -0.18433055933211701 0 0.13902501101953099 -0.1742917818733018 0 0.12704236594833279 -0.17078226211762801 0 0.1554372902854185 -0.1883618281815895 0 0.12774298803332451 -0.18433055933211701 0 0.1554372902854185 -0.1883618281815895 0 0.13902501101953099 -0.1742917818733018 0 0.1508989193346025 -0.16496057633199149 0 0.1554372902854185 -0.1883618281815895 0 0.12774298803332451 -0.18433055933211701 0 0.13902501101953099 -0.1742917818733018 0 0.1508989193346025 -0.16496057633199149 0 0.13302090827830851 -0.1611850699826973 0 0.14454298872728741 -0.14587091456680659 0 0.13902501101953099 -0.1742917818733018 0 0.1508989193346025 -0.16496057633199149 0 0.13302090827830851 -0.1611850699826973 0 0.13902501101953099 -0.1742917818733018 0 0.13302090827830851 -0.1611850699826973 0 0.12704236594833279 -0.17078226211762801 0 0.1183389402628431 -0.16201295399302049 0 0.13302090827830851 -0.1611850699826973 0 0.12704236594833279 -0.17078226211762801 0 0.1183389402628431 -0.16201295399302049 0 0.13302090827830851 -0.1611850699826973 0 0.13087395582771691 -0.14778741810076701 0 0.13087395582771691 -0.14778741810076701 0 0.13617644145321209 -0.13073588980244211 0 0.14454298872728741 -0.14587091456680659 0 0.1182459478764365 -0.14536290518859071 0 0.13087395582771691 -0.14778741810076701 0 0.12620844065102951 -0.13726287372762849 0 0.13302090827830851 -0.1611850699826973 0 0.13087395582771691 -0.14778741810076701 0 0.14454298872728741 -0.14587091456680659 0 0.13087395582771691 -0.14778741810076701 0 0.13617644145321209 -0.13073588980244211 0 0.12620844065102951 -0.13726287372762849 0 0.11706831515076919 -0.1270765205113058 0 0.13617644145321209 -0.13073588980244211 0 0.12620844065102951 -0.13726287372762849 0 0.13617644145321209 -0.13073588980244211 0 0.15376915927368051 -0.13551302365455109 0 0.14454298872728741 -0.14587091456680659 0 0.13556011515207919 -0.1114380779407128 0 0.13617644145321209 -0.13073588980244211 0 0.15376915927368051 -0.13551302365455109 0 0.1508989193346025 -0.16496057633199149 0 0.14454298872728741 -0.14587091456680659 0 0.1678818301992526 -0.15417198148569561 0 0.15376915927368051 -0.13551302365455109 0 0.14454298872728741 -0.14587091456680659 0 0.1678818301992526 -0.15417198148569561 0 0.15376915927368051 -0.13551302365455109 0 0.14454298872728741 -0.14587091456680659 0 0.15376915927368051 -0.13551302365455109 0 0.1678818301992526 -0.15417198148569561 0 0.15376915927368051 -0.13551302365455109 0 0.1678818301992526 -0.15417198148569561 0 0.1729441566620176 -0.13180164087861701 0 0.17238814732159571 -0.1146101532678438 0 0.15376915927368051 -0.13551302365455109 0 0.1729441566620176 -0.13180164087861701 0 0.17238814732159571 -0.1146101532678438 0 0.15376915927368051 -0.13551302365455109 0 0.1924057022408979 -0.118018749225026 0 0.18826920633314831 -0.13737988107735841 0 0.1729441566620176 -0.13180164087861701 0 0.18956497876653 -0.15571739018239439 0 0.18826920633314831 -0.13737988107735841 0 0.1678818301992526 -0.15417198148569561 0 0.18826920633314831 -0.13737988107735841 0 0.1678818301992526 -0.15417198148569561 0 0.1729441566620176 -0.13180164087861701 0 0.1678818301992526 -0.15417198148569561 0 0.1819945011248246 -0.1728309393168401 0 0.18956497876653 -0.15571739018239439 0 0.1678818301992526 -0.15417198148569561 0 0.1819945011248246 -0.1728309393168401 0 0.1678818301992526 -0.15417198148569561 0 0.1819945011248246 -0.1728309393168401 0 0.16786882669632219 -0.1745436844694358 0 0.18313159253751249 -0.19239309703106211 0 0.1819945011248246 -0.1728309393168401 0 0.16786882669632219 -0.1745436844694358 0 0.1554372902854185 -0.1883618281815895 0 0.1508989193346025 -0.16496057633199149 0 0.16786882669632219 -0.1745436844694358 0 0.18313159253751249 -0.19239309703106211 0 0.1554372902854185 -0.1883618281815895 0 0.16786882669632219 -0.1745436844694358 0 0.1508989193346025 -0.16496057633199149 0 0.1678818301992526 -0.15417198148569561 0 0.16786882669632219 -0.1745436844694358 0 
</DataArray>
</Points>
<Cells>
<DataArray type="UInt32" Name="connectivity" format="ascii">
0 1 2 3 4 5 6 7 8 9 10 11 12 13 14 15 16 17 18 19 20 21 22 23 24 25 26 27 28 29 30 31 32 33 34 35 36 37 38 39 40 41 42 43 44 45 46 47 48 49 50 51 52 53 54 55 56 57 58 59 60 61 62 63 64 65 66 67 68 69 70 71 72 73 74 75 76 77 78 79 80 81 82 83 84 85 86 87 88 89 90 91 92 93 94 95 96 97 98 99 100 101 102 103 104 105 106 107 108 109 110 111 112 113 114 115 116 117 118 119 120 121 122 123 124 125 126 127 128 129 130 131 132 133 134 135 136 137 138 139 140 141 142 143 144 145 146 147 148 149 150 151 152 153 154 155 156 157 158 159 160 161 162 163 164 165 166 167 168 169 170 171 172 173 174 175 176 177 178 179 180 181 182 183 184 185 186 187 188 189 190 191 192 193 194 195 196 197 198 199 200 201 202 203 204 205 206 207 208 209 210 211 212 213 214 215 216 217 218 219 220 221 222 223 224 225 226 227 228 229 230 231 232 233 234 235 236 237 238 239 240 241 242 243 244 245 246 247 248 249 250 251 252 253 254 255 256 257 258 259 260 261 262 263 264 265 266 267 268 269 270 271 272 273 274 275 276 277 278 279 280 281 282 283 284 285 286 287 288 289 290 291 292 293 294 295 296 297 298 299 300 301 302 303 304 305 306 307 308 309 310 311 312 313 314 315 316 317 318 319 320 321 322 323 324 325 326 327 328 329 330 331 332 333 334 335 336 337 338 339 340 341 342 343 344 345 346 347 348 349 350 351 352 353 354 355 356 357 358 359 360 361 362 363 364 365 366 367 368 369 370 371 372 373 374 375 376 377 378 379 380 381 382 383 384 385 386 387 388 389 390 391 392 393 394 395 396 397 398 399 400 401 402 403 404 405 406 407 408 409 410 411 412 413 414 415 416 417 418 419 420 421 422 423 424 425 426 427 428 429 430 431 432 433 434 435 436 437 438 439 440 441 442 443 444 445 446 447 448 449 450 451 452 453 454 455 456 457 458 459 460 461 462 463 464 465 466 467 468 469 470 471 472 473 474 475 476 477 478 479 480 481 482 483 484 485 486 487 488 489 490 491 492 493 494 495 496 497 498 499 500 501 502 503 504 505 506 507 508 509 510 511 512 513 514 515 516 517 518 519 520 521 522 523 524 525 526 527 528 529 530 531 532 533 534 535 536 537 538 539 540 541 542 543 544 545 546 547 548 549 550 551 552 553 554 555 556 557 558 559 560 561 562 563 564 565 566 567 568 569 570 571 572 573 574 575 576 577 578 579 580 581 582 583 584 585 586 587 588 589 590 591 592 593 594 595 596 597 598 599 600 601 602 603 604 605 606 607 608 609 610 611 612 613 614 615 616 617 618 619 620 621 622 623 624 625 626 627 628 629 630 631 632 633 634 635 636 637 638 639 640 641 642 643 644 645 646 647 648 649 650 651 652 653 654 655 656 657 658 659 660 661 662 663 664 665 666 667 668 669 670 671 672 673 674 675 676 677 678 679 680 681 682 683 684 685 686 687 688 689 690 691 692 693 694 695 696 697 698 699 700 701 702 703 704 705 706 707 708 709 710 711 712 713 714 715 716 717 718 719 720 721 722 723 724 725 726 727 728 729 730 731 732 733 734 735 736 737 738 739 740 741 742 743 744 745 746 747 748 749 750 751 752 753 754 755 756 757 758 759 760 761 762 763 764 765 766 767 768 769 770 771 772 773 774 775 776 777 778 779 780 781 782 783 784 785 786 787 788 789 790 791 792 793 794 795 796 797 798 799 800 801 802 803 804 805 806 807 808 809 810 811 812 813 814 815 816 817 818 819 820 821 822 823 824 825 826 827 828 829 830 831 832 833 834 835 836 837 838 839 840 841 842 843 844 845 846 847 848 849 850 851 852 853 854 855 856 857 858 859 860 861 862 863 864 865 866 867 868 869 870 871 872 873 874 875 876 877 878 879 880 881 882 883 884 885 886 887 888 889 890 891 892 893 894 895 896 897 898 899 900 901 902 903 904 905 906 907 908 909 910 911 912 913 914 915 916 917 918 919 920 921 922 923 924 925 926 927 928 929 930 931 932 933 934 935 936 937 938 939 940 941 942 943 944 945 946 947 948 949 950 951 952 953 954 955 956 957 958 959 960 961 962 963 964 965 966 967 968 969 970 971 972 973 974 975 976 977 978 979 980 981 982 983 984 985 986 987 988 989 990 991 992 993 994 995 996 997 998 999 1000 1001 1002 1003 1004 1005 1006 1007 1008 1009 1010 1011 1012 1013 1014 1015 1016 1017 1018 1019 1020 1021 1022 1023 1024 1025 1026 1027 1028 1029 1030 1031 1032 1033 1034 1035 1036 1037 1038 1039 1040 1041 1042 1043 1044 1045 1046 1047 1048 1049 1050 1051 1052 1053 1054 1055 1056 1057 1058 1059 1060 1061 1062 1063 1064 1065 1066 1067 1068 1069 1070 1071 1072 1073 1074 1075 1076 1077 1078 1079 1080 1081 1082 1083 1084 1085 1086 1087 1088 1089 1090 1091 1092 1093 1094 1095 1096 1097 1098 1099 1100 1101 1102 1103 1104 1105 1106 1107 1108 1109 1110 1111 1112 1113 1114 1115 1116 1117 1118 1119 1120 1121 1122 1123 1124 1125 1126 1127 1128 1129 1130 1131 1132 1133 1134 1135 1136 1137 1138 1139 1140 1141 1142 1143 1144 1145 1146 1147 1148 1149 1150 1151 1152 1153 1154 1155 1156 1157 1158 1159 1160 1161 1162 1163 1164 1165 1166 1167 1168 1169 1170 1171 1172 1173 1174 1175 1176 1177 1178 1179 1180 1181 1182 1183 1184 1185 1186 1187 1188 1189 1190 1191 1192 1193 1194 1195 1196 1197 1198 1199 1200 1201 1202 1203 1204 1205 1206 1207 1208 1209 1210 1211 1212 1213 1214 1215 1216 1217 1218 1219 1220 1221 1222 1223 1224 1225 1226 1227 1228 1229 1230 1231 1232 1233 1234 1235 1236 1237 1238 1239 1240 1241 1242 1243 1244 1245 1246 1247 1248 1249 1250 1251 1252 1253 1254 1255 1256 1257 1258 1259 1260 1261 1262 1263 1264 1265 1266 1267 1268 1269 1270 1271 1272 1273 1274 1275 1276 1277 1278 1279 1280 1281 1282 1283 1284 1285 1286 1287 1288 1289 1290 1291 1292 1293 1294 1295 1296 1297 1298 1299 1300 1301 1302 1303 1304 1305 1306 1307 1308 1309 1310 1311 1312 1313 1314 1315 1316 1317 1318 1319 1320 1321 1322 1323 1324 1325 1326 1327 1328 1329 1330 1331 1332 1333 1334 1335 1336 1337 1338 1339 1340 1341 1342 1343 1344 1345 1346 1347 1348 1349 1350 1351 1352 1353 1354 1355 1356 1357 1358 1359 1360 1361 1362 1363 1364 1365 1366 1367 1368 1369 1370 1371 1372 1373 1374 1375 1376 1377 1378 1379 1380 1381 1382 1383 1384 1385 1386 1387 1388 1389 1390 1391 1392 1393 1394 1395 1396 1397 1398 1399 1400 1401 1402 1403 1404 1405 1406 1407 1408 1409 1410 1411 1412 1413 1414 1415 1416 1417 1418 1419 1420 1421 1422 1423 1424 1425 1426 1427 1428 1429 1430 1431 1432 1433 1434 1435 1436 1437 1438 1439 1440 1441 1442 1443 1444 1445 1446 1447 1448 1449 1450 1451 1452 1453 1454 1455 1456 1457 1458 1459 1460 1461 1462 1463 1464 1465 1466 1467 1468 1469 1470 1471 1472 1473 1474 1475 1476 1477 1478 1479 1480 1481 1482 1483 1484 1485 1486 1487 1488 1489 1490 1491 1492 1493 1494 1495 1496 1497 1498 1499 1500 1501 1502 1503 1504 1505 1506 1507 1508 1509 1510 1511 1512 1513 1514 1515 1516 1517 1518 1519 1520 1521 1522 1523 1524 1525 1526 1527 1528 1529 1530 1531 1532 1533 1534 1535 1536 1537 1538 1539 1540 1541 1542 1543 1544 1545 1546 1547 1548 1549 1550 1551 1552 1553 1554 1555 1556 1557 1558 1559 1560 1561 1562 1563 1564 1565 1566 1567 1568 1569 1570 1571 1572 1573 1574 1575 1576 1577 1578 1579 1580 1581 1582 1583 1584 1585 1586 1587 1588 1589 1590 1591 1592 1593 1594 1595 1596 1597 1598 1599 1600 1601 1602 1603 1604 1605 1606 1607 1608 1609 1610 1611 1612 1613 1614 1615 1616 1617 1618 1619 1620 1621 1622 1623 1624 1625 1626 1627 1628 1629 1630 1631 1632 1633 1634 1635 1636 1637 1638 1639 1640 1641 1642 1643 1644 1645 1646 1647 1648 1649 1650 1651 1652 1653 1654 1655 1656 1657 1658 1659 1660 1661 1662 1663 1664 1665 1666 1667 1668 1669 1670 1671 1672 1673 1674 1675 1676 1677 1678 1679 1680 1681 1682 1683 1684 1685 1686 1687 1688 1689 1690 1691 1692 1693 1694 1695 1696 1697 1698 1699 1700 1701 1702 1703 1704 1705 1706 1707 1708 1709 1710 1711 1712 1713 1714 1715 1716 1717 1718 1719 1720 1721 1722 1723 1724 1725 1726 1727 1728 1729 1730 1731 1732 1733 1734 1735 1736 1737 1738 1739 1740 1741 1742 1743 1744 1745 1746 1747 1748 1749 1750 1751 1752 1753 1754 1755 1756 1757 1758 1759 1760 1761 1762 1763 1764 1765 1766 1767 1768 1769 1770 1771 1772 1773 1774 1775 1776 1777 1778 1779 1780 1781 1782 1783 1784 1785 1786 1787 1788 1789 1790 1791 1792 1793 1794 1795 1796 1797 1798 1799 1800 1801 1802 1803 1804 1805 1806 1807 1808 1809 1810 1811 1812 1813 1814 1815 1816 1817 1818 1819 1820 1821 1822 1823 1824 1825 1826 1827 1828 1829 1830 1831 1832 1833 1834 1835 1836 1837 1838 1839 1840 1841 1842 1843 1844 1845 1846 1847 1848 1849 1850 1851 1852 1853 1854 1855 1856 1857 1858 1859 1860 1861 1862 1863 1864 1865 1866 1867 1868 1869 1870 1871 1872 1873 1874 1875 1876 1877 1878 1879 1880 1881 1882 1883 1884 1885 1886 1887 1888 1889 1890 1891 1892 1893 1894 1895 1896 1897 1898 1899 1900 1901 1902 1903 1904 1905 1906 1907 1908 1909 1910 1911 1912 1913 1914 1915 1916 1917 1918 1919 1920 1921 1922 1923 1924 1925 1926 1927 1928 1929 1930 1931 1932 1933 1934 1935 1936 1937 1938 1939 1940 1941 1942 1943 1944 1945 1946 1947 1948 1949 1950 1951 1952 1953 1954 1955 1956 1957 1958 1959 1960 1961 1962 1963 1964 1965 1966 1967 1968 1969 1970 1971 1972 1973 1974 1975 1976 1977 1978 1979 1980 1981 1982 1983 1984 1985 1986 1987 1988 1989 1990 1991 1992 1993 1994 1995 1996 1997 1998 1999 2000 2001 2002 2003 2004 2005 2006 2007 2008 2009 2010 2011 2012 2013 2014 2015 2016 2017 2018 2019 2020 2021 2022 2023 2024 2025 2026 2027 2028 2029 2030 2031 2032 2033 2034 2035 2036 2037 2038 2039 2040 2041 2042 2043 2044 2045 2046 2047 2048 2049 2050 2051 2052 2053 2054 2055 2056 2057 2058 2059 2060 2061 2062 2063 2064 2065 2066 2067 2068 2069 2070 2071 2072 2073 2074 2075 2076 2077 2078 2079 2080 2081 2082 2083 2084 2085 2086 2087 2088 2089 2090 2091 2092 2093 2094 2095 2096 2097 2098 2099 2100 2101 2102 2103 2104 2105 2106 2107 2108 2109 2110 2111 2112 2113 2114 2115 2116 2117 2118 2119 2120 2121 2122 2123 2124 2125 2126 2127 2128 2129 2130 2131 2132 2133 2134 2135 2136 2137 2138 2139 2140 2141 2142 2143 2144 2145 2146 2147 2148 2149 2150 2151 2152 2153 2154 2155 2156 2157 2158 2159 2160 2161 2162 2163 2164 2165 2166 2167 2168 2169 2170 2171 2172 2173 2174 2175 2176 2177 2178 2179 2180 2181 2182 2183 2184 2185 2186 2187 2188 2189 2190 2191 2192 2193 2194 2195 2196 2197 2198 2199 2200 2201 2202 2203 2204 2205 2206 2207 2208 2209 2210 2211 2212 2213 2214 2215 2216 2217 2218 2219 2220 2221 2222 2223 2224 2225 2226 2227 2228 2229 2230 2231 2232 2233 2234 2235 2236 2237 2238 2239 2240 2241 2242 2243 2244 2245 2246 2247 2248 2249 2250 2251 2252 2253 2254 2255 2256 2257 2258 2259 2260 2261 2262 2263 2264 2265 2266 2267 2268 2269 2270 2271 2272 2273 2274 2275 2276 2277 2278 2279 2280 2281 2282 2283 2284 2285 2286 2287 2288 2289 2290 2291 2292 2293 2294 2295 2296 2297 2298 2299 2300 2301 2302 2303 2304 2305 2306 2307 2308 2309 2310 2311 2312 2313 2314 2315 2316 2317 2318 2319 2320 2321 2322 2323 2324 2325 2326 2327 2328 2329 2330 2331 2332 2333 2334 2335 2336 2337 2338 2339 2340 2341 2342 2343 2344 2345 2346 2347 2348 2349 2350 2351 2352 2353 2354 2355 2356 2357 2358 2359 2360 2361 2362 2363 2364 2365 2366 2367 2368 2369 2370 2371 2372 2373 2374 2375 2376 2377 2378 2379 2380 2381 2382 2383 2384 2385 2386 2387 2388 2389 2390 2391 2392 2393 2394 2395 2396 2397 2398 2399 2400 2401 2402 2403 2404 2405 2406 2407 2408 2409 2410 2411 2412 2413 2414 2415 2416 2417 2418 2419 2420 2421 2422 2423 2424 2425 2426 2427 2428 2429 2430 2431 2432 2433 2434 2435 2436 2437 2438 2439 2440 2441 2442 2443 2444 2445 2446 2447 2448 2449 2450 2451 2452 2453 2454 2455 2456 2457 2458 2459 2460 2461 2462 2463 2464 2465 2466 2467 2468 2469 2470 2471 2472 2473 2474 2475 2476 2477 2478 2479 2480 2481 2482 2483 2484 2485 2486 2487 2488 2489 2490 2491 2492 2493 2494 2495 2496 2497 2498 2499 2500 2501 2502 2503 2504 2505 2506 2507 2508 2509 2510 2511 2512 2513 2514 2515 2516 2517 2518 2519 2520 2521 2522 2523 2524 2525 2526 2527 2528 2529 2530 2531 2532 2533 2534 2535 2536 2537 2538 2539 2540 2541 2542 2543 2544 2545 2546 2547 2548 2549 2550 2551 2552 2553 2554 2555 2556 2557 2558 2559 2560 2561 2562 2563 2564 2565 2566 2567 2568 2569 2570 2571 2572 2573 2574 2575 2576 2577 2578 2579 2580 2581 2582 2583 2584 2585 2586 2587 2588 2589 2590 2591 2592 2593 2594 2595 2596 2597 2598 2599 2600 2601 2602 2603 2604 2605 2606 2607 2608 2609 2610 2611 2612 2613 2614 2615 2616 2617 2618 2619 2620 2621 2622 2623 2624 2625 2626 2627 2628 2629 2630 2631 2632 2633 2634 2635 2636 2637 2638 2639 2640 2641 2642 2643 2644 2645 2646 2647 2648 2649 2650 2651 2652 2653 2654 2655 2656 2657 2658 2659 2660 2661 2662 2663 2664 2665 2666 2667 2668 2669 2670 2671 2672 2673 2674 2675 2676 2677 2678 2679 2680 2681 2682 2683 2684 2685 2686 2687 2688 2689 2690 2691 2692 2693 2694 2695 2696 2697 2698 2699 2700 2701 2702 2703 2704 2705 2706 2707 2708 2709 2710 2711 2712 2713 2714 2715 2716 2717 2718 2719 2720 2721 2722 2723 2724 2725 2726 2727 2728 2729 2730 2731 2732 2733 2734 2735 2736 2737 2738 2739 2740 2741 2742 2743 2744 2745 2746 2747 2748 2749 2750 2751 2752 2753 2754 2755 2756 2757 2758 2759 2760 2761 2762 2763 2764 2765 2766 2767 2768 2769 2770 2771 2772 2773 2774 2775 2776 2777 2778 2779 2780 2781 2782 2783 2784 2785 2786 2787 2788 2789 2790 2791 2792 2793 2794 2795 2796 2797 2798 2799 2800 2801 2802 2803 2804 2805 2806 2807 2808 2809 2810 2811 2812 2813 2814 2815 2816 2817 2818 2819 2820 2821 2822 2823 2824 2825 2826 2827 2828 2829 2830 2831 2832 2833 2834 2835 2836 2837 2838 2839 2840 2841 2842 2843 2844 2845 2846 2847 2848 2849 2850 2851 2852 2853 2854 2855 2856 2857 2858 2859 2860 2861 2862 2863 2864 2865 2866 2867 2868 2869 2870 2871 2872 2873 2874 2875 2876 2877 2878 2879 2880 2881 2882 2883 2884 2885 2886 2887 2888 2889 2890 2891 2892 2893 2894 2895 2896 2897 2898 2899 2900 2901 2902 2903 2904 2905 2906 2907 2908 2909 2910 2911 2912 2913 2914 2915 2916 2917 2918 2919 2920 2921 2922 2923 2924 2925 2926 2927 2928 2929 2930 2931 2932 2933 2934 2935 2936 2937 2938 2939 2940 2941 2942 2943 2944 2945 2946 2947 2948 2949 2950 2951 2952 2953 2954 2955 2956 2957 2958 2959 2960 2961 2962 2963 2964 2965 2966 2967 2968 2969 2970 2971 2972 2973 2974 2975 2976 2977 2978 2979 2980 2981 2982 2983 2984 2985 2986 2987 2988 2989 2990 2991 2992 2993 2994 2995 2996 2997 2998 2999 3000 3001 3002 3003 3004 3005 3006 3007 3008 3009 3010 3011 3012 3013 3014 3015 3016 3017 3018 3019 3020 3021 3022 3023 3024 3025 3026 3027 3028 3029 3030 3031 3032 3033 3034 3035 3036 3037 3038 3039 3040 3041 3042 3043 3044 3045 3046 3047 3048 3049 3050 3051 3052 3053 3054 3055 3056 3057 3058 3059 3060 3061 3062 3063 3064 3065 3066 3067 3068 3069 3070 3071 3072 3073 3074 3075 3076 3077 3078 3079 3080 3081 3082 3083 3084 3085 3086 3087 3088 3089 3090 3091 3092 3093 3094 3095 3096 3097 3098 3099 3100 3101 3102 3103 3104 3105 3106 3107 3108 3109 3110 3111 3112 3113 3114 3115 3116 3117 3118 3119 3120 3121 3122 3123 3124 3125 3126 3127 3128 3129 3130 3131 3132 3133 3134 3135 3136 3137 3138 3139 3140 3141 3142 3143 3144 3145 3146 3147 3148 3149 3150 3151 3152 3153 3154 3155 3156 3157 3158 3159 3160 3161 3162 3163 3164 3165 3166 3167 3168 3169 3170 3171 3172 3173 3174 3175 3176 3177 3178 3179 3180 3181 3182 3183 3184 3185 3186 3187 3188 3189 3190 3191 3192 3193 3194 3195 3196 3197 3198 3199 3200 3201 3202 3203 3204 3205 3206 3207 3208 3209 3210 3211 3212 3213 3214 3215 3216 3217 3218 3219 3220 3221 3222 3223 3224 3225 3226 3227 3228 3229 3230 3231 3232 3233 3234 3235 3236 3237 3238 3239 3240 3241 3242 3243 3244 3245 3246 3247 3248 3249 3250 3251 3252 3253 3254 3255 3256 3257 3258 3259 3260 3261 3262 3263 3264 3265 3266 3267 3268 3269 3270 3271 3272 3273 3274 3275 3276 3277 3278 3279 3280 3281 3282 3283 3284 3285 3286 3287 3288 3289 3290 3291 3292 3293 3294 3295 3296 3297 3298 3299 3300 3301 3302 3303 3304 3305 3306 3307 3308 3309 3310 3311 3312 3313 3314 3315 3316 3317 3318 3319 3320 3321 3322 3323 3324 3325 3326 3327 3328 3329 3330 3331 3332 3333 3334 3335 3336 3337 3338 3339 3340 3341 3342 3343 3344 3345 3346 3347 3348 3349 3350 3351 3352 3353 3354 3355 3356 3357 3358 3359 3360 3361 3362 3363 3364 3365 3366 3367 3368 3369 3370 3371 3372 3373 3374 3375 3376 3377 3378 3379 3380 3381 3382 3383 3384 3385 3386 3387 3388 3389 3390 3391 3392 3393 3394 3395 3396 3397 3398 3399 3400 3401 3402 3403 3404 3405 3406 3407 3408 3409 3410 3411 3412 3413 3414 3415 3416 3417 3418 3419 3420 3421 3422 3423 3424 3425 3426 3427 3428 3429 3430 3431 3432 3433 3434 3435 3436 3437 3438 3439 3440 3441 3442 3443 3444 3445 3446 3447 3448 3449 3450 3451 3452 3453 3454 3455 3456 3457 3458 3459 3460 3461 3462 3463 3464 3465 3466 3467 3468 3469 3470 3471 3472 3473 3474 3475 3476 3477 3478 3479 3480 3481 3482 3483 3484 3485 3486 3487 3488 3489 3490 3491 3492 3493 3494 3495 3496 3497 3498 3499 3500 3501 3502 3503 3504 3505 3506 3507 3508 3509 3510 3511 3512 3513 3514 3515 3516 3517 3518 3519 3520 3521 3522 3523 3524 3525 3526 3527 3528 3529 3530 3531 3532 3533 3534 3535 3536 3537 3538 3539 3540 3541 3542 3543 3544 3545 3546 3547 3548 3549 3550 3551 3552 3553 3554 3555 3556 3557 3558 3559 3560 3561 3562 3563 3564 3565 3566 3567 3568 3569 3570 3571 3572 3573 3574 3575 3576 3577 3578 3579 3580 3581 3582 3583 3584 3585 3586 3587 3588 3589 3590 3591 3592 3593 3594 3595 3596 3597 3598 3599 3600 3601 3602 3603 3604 3605 3606 3607 3608 3609 3610 3611 3612 3613 3614 3615 3616 3617 3618 3619 3620 3621 3622 3623 3624 3625 3626 3627 3628 3629 3630 3631 3632 3633 3634 3635 3636 3637 3638 3639 3640 3641 3642 3643 3644 3645 3646 3647 3648 3649 3650 3651 3652 3653 3654 3655 3656 3657 3658 3659 3660 3661 3662 3663 3664 3665 3666 3667 3668 3669 3670 3671 3672 3673 3674 3675 3676 3677 3678 3679 3680 3681 3682 3683 3684 3685 3686 3687 3688 3689 3690 3691 3692 3693 3694 3695 3696 3697 3698 3699 3700 3701 3702 3703 3704 3705 3706 3707 3708 3709 3710 3711 3712 3713 3714 3715 3716 3717 3718 3719 3720 3721 3722 3723 3724 3725 3726 3727 3728 3729 3730 3731 3732 3733 3734 3735 3736 3737 3738 3739 3740 3741 3742 3743 3744 3745 3746 3747 3748 3749 3750 3751 3752 3753 3754 3755 3756 3757 3758 3759 3760 3761 3762 3763 3764 3765 3766 3767 3768 3769 3770 3771 3772 3773 3774 3775 3776 3777 3778 3779 3780 3781 3782 3783 3784 3785 3786 3787 3788 3789 3790 3791 3792 3793 3794 3795 3796 3797 3798 3799 3800 3801 3802 3803 3804 3805 3806 3807 3808 3809 3810 3811 3812 3813 3814 3815 3816 3817 3818 3819 3820 3821 3822 3823 3824 3825 3826 3827 3828 3829 3830 3831 3832 3833 3834 3835 3836 3837 3838 3839 3840 3841 3842 3843 3844 3845 3846 3847 3848 3849 3850 3851 3852 3853 3854 3855 3856 3857 3858 3859 3860 3861 3862 3863 3864 3865 3866 3867 3868 3869 3870 3871 3872 3873 3874 3875 3876 3877 3878 3879 3880 3881 3882 3883 3884 3885 3886 3887 3888 3889 3890 3891 3892 3893 3894 3895 3896 3897 3898 3899 3900 3901 3902 3903 3904 3905 3906 3907 3908 3909 3910 3911 3912 3913 3914 3915 3916 3917 3918 3919 3920 3921 3922 3923 3924 3925 3926 3927 3928 3929 3930 3931 3932 3933 3934 3935 3936 3937 3938 3939 3940 3941 3942 3943 3944 3945 3946 3947 3948 3949 3950 3951 3952 3953 3954 3955 3956 3957 3958 3959 3960 3961 3962 3963 3964 3965 3966 3967 3968 3969 3970 3971 3972 3973 3974 3975 3976 3977 3978 3979 3980 3981 3982 3983 3984 3985 3986 3987 3988 3989 3990 3991 3992 3993 3994 3995 3996 3997 3998 3999 4000 4001 4002 4003 4004 4005 4006 4007 4008 4009 4010 4011 4012 4013 4014 4015 4016 4017 4018 4019 4020 4021 4022 4023 4024 4025 4026 4027 4028 4029 4030 4031 4032 4033 4034 4035 4036 4037 4038 4039 4040 4041 4042 4043 4044 4045 4046 4047 4048 4049 4050 4051 4052 4053 4054 4055 4056 4057 4058 4059 4060 4061 4062 4063 4064 4065 4066 4067 4068 4069 4070 4071 4072 4073 4074 4075 4076 4077 4078 4079 4080 4081 4082 4083 4084 4085 4086 4087 4088 4089 4090 4091 4092 4093 4094 4095 4096 4097 4098 4099 4100 4101 4102 4103 4104 4105 4106 4107 4108 4109 4110 4111 4112 4113 4114 4115 4116 4117 4118 4119 4120 4121 4122 4123 4124 4125 4126 4127 4128 4129 4130 4131 4132 4133 4134 4135 4136 4137 4138 4139 4140 4141 4142 4143 4144 4145 4146 4147 4148 4149 4150 4151 4152 4153 4154 4155 4156 4157 4158 4159 4160 4161 4162 4163 4164 4165 4166 4167 4168 4169 4170 4171 4172 4173 4174 4175 4176 4177 4178 4179 4180 4181 4182 4183 4184 4185 4186 4187 4188 4189 4190 4191 4192 4193 4194 4195 4196 4197 4198 4199 4200 4201 4202 4203 4204 4205 4206 4207 4208 4209 4210 4211 4212 4213 4214 4215 4216 4217 4218 4219 4220 4221 4222 4223 4224 4225 4226 4227 4228 4229 4230 4231 4232 4233 4234 4235 4236 4237 4238 4239 4240 4241 4242 4243 4244 4245 4246 4247 4248 4249 4250 4251 4252 4253 4254 4255 4256 4257 4258 4259 4260 4261 4262 4263 4264 4265 4266 4267 4268 4269 4270 4271 4272 4273 4274 4275 4276 4277 4278 4279 4280 4281 4282 4283 4284 4285 4286 4287 4288 4289 4290 4291 4292 4293 4294 4295 4296 4297 4298 4299 4300 4301 4302 4303 4304 4305 4306 4307 4308 4309 4310 4311 4312 4313 4314 4315 4316 4317 4318 4319 4320 4321 4322 4323 4324 4325 4326 4327 4328 4329 4330 4331 4332 4333 4334 4335 4336 4337 4338 4339 4340 4341 4342 4343 4344 4345 4346 4347 4348 4349 4350 4351 4352 4353 4354 4355 4356 4357 4358 4359 4360 4361 4362 4363 4364 4365 4366 4367 4368 4369 4370 4371 4372 4373 4374 4375 4376 4377 4378 4379 4380 4381 4382 4383 4384 4385 4386 4387 4388 4389 4390 4391 4392 4393 4394 4395 4396 4397 4398 4399 4400 4401 4402 4403 4404 4405 4406 4407 4408 4409 4410 4411 4412 4413 4414 4415 4416 4417 4418 4419 4420 4421 4422 4423 4424 4425 4426 4427 4428 4429 4430 4431 4432 4433 4434 4435 4436 4437 4438 4439 4440 4441 4442 4443 4444 4445 4446 4447 4448 4449 4450 4451 4452 4453 4454 4455 4456 4457 4458 4459 4460 4461 4462 4463 4464 4465 4466 4467 4468 4469 4470 4471 4472 4473 4474 4475 4476 4477 4478 4479 4480 4481 4482 4483 4484 4485 4486 4487 4488 4489 4490 4491 4492 4493 4494 4495 4496 4497 4498 4499 4500 4501 4502 4503 4504 4505 4506 4507 4508 4509 4510 4511 4512 4513 4514 4515 4516 4517 4518 4519 4520 4521 4522 4523 4524 4525 4526 4527 4528 4529 4530 4531 4532 4533 4534 4535 4536 4537 4538 4539 4540 4541 4542 4543 4544 4545 4546 4547 4548 4549 4550 4551 4552 4553 4554 4555 4556 4557 4558 4559 4560 4561 4562 4563 4564 4565 4566 4567 4568 4569 4570 4571 4572 4573 4574 4575 4576 4577 4578 4579 4580 4581 4582 4583 4584 4585 4586 4587 4588 4589 4590 4591 4592 4593 4594 4595 4596 4597 4598 4599 4600 4601 4602 4603 4604 4605 4606 4607 4608 4609 4610 4611 4612 4613 4614 4615 4616 4617 4618 4619 4620 4621 4622 4623 4624 4625 4626 4627 4628 4629 4630 4631 4632 4633 4634 4635 4636 4637 4638 4639 4640 4641 4642 4643 4644 4645 4646 4647 4648 4649 4650 4651 4652 4653 4654 4655 4656 4657 4658 4659 4660 4661 4662 4663 4664 4665 4666 4667 4668 4669 4670 4671 4672 4673 4674 4675 4676 4677 4678 4679 4680 4681 4682 4683 4684 4685 4686 4687 4688 4689 4690 4691 4692 4693 4694 4695 4696 4697 4698 4699 4700 4701 4702 4703 4704 4705 4706 4707 4708 4709 4710 4711 4712 4713 4714 4715 4716 4717 4718 4719 4720 4721 4722 4723 4724 4725 4726 4727 4728 4729 4730 4731 4732 4733 4734 4735 4736 4737 4738 4739 4740 4741 4742 4743 4744 4745 4746 4747 4748 4749 4750 4751 4752 4753 4754 4755 4756 4757 4758 4759 4760 4761 4762 4763 4764 4765 4766 4767 4768 4769 4770 4771 4772 4773 4774 4775 4776 4777 4778 4779 4780 4781 4782 4783 4784 4785 4786 4787 4788 4789 4790 4791 4792 4793 4794 4795 4796 4797 4798 4799 4800 4801 4802 4803 4804 4805 4806 4807 4808 4809 4810 4811 4812 4813 4814 4815 4816 4817 4818 4819 4820 4821 4822 4823 4824 4825 4826 4827 4828 4829 4830 4831 4832 4833 4834 4835 4836 4837 4838 4839 4840 4841 4842 4843 4844 4845 4846 4847 4848 4849 4850 4851 4852 4853 4854 4855 4856 4857 4858 4859 4860 4861 4862 4863 4864 4865 4866 4867 4868 4869 4870 4871 4872 4873 4874 4875 4876 4877 4878 4879 4880 4881 4882 4883 4884 4885 4886 4887 4888 4889 4890 4891 4892 4893 4894 4895 4896 4897 4898 4899 4900 4901 4902 4903 4904 4905 4906 4907 4908 4909 4910 4911 4912 4913 4914 4915 4916 4917 4918 4919 4920 4921 4922 4923 4924 4925 4926 4927 4928 4929 4930 4931 4932 4933 4934 4935 4936 4937 4938 4939 4940 4941 4942 4943 4944 4945 4946 4947 4948 4949 4950 4951 4952 4953 4954 4955 4956 4957 4958 4959 4960 4961 4962 4963 4964 4965 4966 4967 4968 4969 4970 4971 4972 4973 4974 4975 4976 4977 4978 4979 4980 4981 4982 4983 4984 4985 4986 4987 4988 4989 4990 4991 4992 4993 4994 4995 4996 4997 4998 4999 5000 5001 5002 5003 5004 5005 5006 5007 5008 5009 5010 5011 5012 5013 5014 5015 5016 5017 5018 5019 5020 5021 5022 5023 5024 5025 5026 5027 5028 5029 5030 5031 5032 5033 5034 5035 5036 5037 5038 5039 5040 5041 5042 5043 5044 5045 5046 5047 5048 5049 5050 5051 5052 5053 5054 5055 5056 5057 5058 5059 5060 5061 5062 5063 5064 5065 5066 5067 5068 5069 5070 5071 5072 5073 5074 5075 5076 5077 5078 5079 5080 5081 5082 5083 5084 5085 5086 5087 5088 5089 5090 5091 5092 5093 5094 5095 5096 5097 5098 5099 5100 5101 5102 5103 5104 5105 5106 5107 5108 5109 5110 5111 5112 5113 5114 5115 5116 5117 5118 5119 5120 5121 5122 5123 5124 5125 5126 5127 5128 5129 5130 5131 5132 5133 5134 5135 5136 5137 5138 5139 5140 5141 5142 5143 5144 5145 5146 5147 5148 5149 5150 5151 5152 5153 5154 5155 5156 5157 5158 5159 5160 5161 5162 5163 5164 5165 5166 5167 5168 5169 5170 5171 5172 5173 5174 5175 5176 5177 5178 5179 5180 5181 5182 5183 5184 5185 5186 5187 5188 5189 5190 5191 5192 5193 5194 5195 5196 5197 5198 5199 5200 5201 5202 5203 5204 5205 5206 5207 5208 5209 5210 5211 5212 5213 5214 5215 5216 5217 5218 5219 5220 5221 5222 5223 5224 5225 5226 5227 5228 5229 5230 5231 5232 5233 5234 5235 5236 5237 5238 5239 5240 5241 5242 5243 5244 5245 5246 5247 5248 5249 5250 5251 5252 5253 5254 5255 5256 5257 5258 5259 5260 5261 5262 5263 5264 5265 5266 5267 5268 5269 5270 5271 5272 5273 5274 5275 5276 5277 5278 5279 5280 5281 5282 5283 5284 5285 5286 5287 5288 5289 5290 5291 5292 5293 5294 5295 5296 5297 5298 5299 5300 5301 5302 5303 5304 5305 5306 5307 5308 5309 5310 5311 5312 5313 5314 5315 5316 5317 5318 5319 5320 5321 5322 5323 5324 5325 5326 5327 5328 5329 5330 5331 5332 5333 5334 5335 5336 5337 5338 5339 5340 5341 5342 5343 5344 5345 5346 5347 5348 5349 5350 5351 5352 5353 5354 5355 5356 5357 5358 5359 5360 5361 5362 5363 5364 5365 5366 5367 5368 5369 5370 5371 5372 5373 5374 5375 5376 5377 5378 5379 5380 5381 5382 5383 5384 5385 5386 5387 5388 5389 5390 5391 5392 5393 5394 5395 5396 5397 5398 5399 5400 5401 5402 5403 5404 5405 5406 5407 5408 5409 5410 5411 5412 5413 5414 5415 5416 5417 5418 5419 5420 5421 5422 5423 5424 5425 5426 5427 5428 5429 5430 5431 5432 5433 5434 5435 5436 5437 5438 5439 5440 5441 5442 5443 5444 5445 5446 5447 5448 5449 5450 5451 5452 5453 5454 5455 5456 5457 5458 5459 5460 5461 5462 5463 5464 5465 5466 5467 5468 5469 5470 5471 5472 5473 5474 5475 5476 5477 5478 5479 5480 5481 5482 5483 5484 5485 5486 5487 5488 5489 5490 5491 5492 5493 5494 5495 5496 5497 5498 5499 5500 5501 5502 5503 5504 5505 5506 5507 5508 5509 5510 5511 5512 5513 5514 5515 5516 5517 5518 5519 5520 5521 5522 5523 5524 5525 5526 5527 5528 5529 5530 5531 5532 5533 5534 5535 5536 5537 5538 5539 5540 5541 5542 5543 5544 5545 5546 5547 5548 5549 5550 5551 5552 5553 5554 5555 5556 5557 5558 5559 5560 5561 5562 5563 5564 5565 5566 5567 5568 5569 5570 5571 5572 5573 5574 5575 5576 5577 5578 5579 5580 5581 5582 5583 5584 5585 5586 5587 5588 5589 5590 5591 5592 5593 5594 5595 5596 5597 5598 5599 5600 5601 5602 5603 5604 5605 5606 5607 5608 5609 5610 5611 5612 5613 5614 5615 5616 5617 5618 5619 5620 5621 5622 5623 5624 5625 5626 5627 5628 5629 5630 5631 5632 5633 5634 5635 5636 5637 5638 5639 5640 5641 5642 5643 5644 5645 5646 5647 5648 5649 5650 5651 5652 5653 5654 5655 5656 5657 5658 5659 5660 5661 5662 5663 5664 5665 5666 5667 5668 5669 5670 5671 5672 5673 5674 5675 5676 5677 5678 5679 5680 5681 5682 5683 5684 5685 5686 5687 5688 5689 5690 5691 5692 5693 5694 5695 5696 5697 5698 5699 5700 5701 5702 5703 5704 5705 5706 5707 5708 5709 5710 5711 5712 5713 5714 5715 5716 5717 5718 5719 5720 5721 5722 5723 5724 5725 5726 5727 5728 5729 5730 5731 5732 5733 5734 5735 5736 5737 5738 5739 5740 5741 5742 5743 5744 5745 5746 5747 5748 5749 5750 5751 5752 5753 5754 5755 5756 5757 5758 5759 5760 5761 5762 5763 5764 5765 5766 5767 5768 5769 5770 5771 5772 5773 5774 5775 5776 5777 5778 5779 5780 5781 5782 5783 5784 5785 5786 5787 5788 5789 5790 5791 5792 5793 5794 5795 5796 5797 5798 5799 5800 5801 5802 5803 5804 5805 5806 5807 5808 5809 5810 5811 5812 5813 5814 5815 5816 5817 5818 5819 5820 5821 5822 5823 5824 5825 5826 5827 5828 5829 5830 5831 5832 5833 5834 5835 5836 5837 5838 5839 5840 5841 5842 5843 5844 5845 5846 5847 5848 5849 5850 5851 5852 5853 5854 5855 5856 5857 5858 5859 5860 5861 5862 5863 5864 5865 5866 5867 5868 5869 5870 5871 5872 5873 5874 5875 5876 5877 5878 5879 5880 5881 5882 5883 5884 5885 5886 5887 5888 5889 5890 5891 5892 5893 5894 5895 5896 5897 5898 5899 5900 5901 5902 5903 5904 5905 5906 5907 5908 5909 5910 5911 5912 5913 5914 5915 5916 5917 5918 5919 5920 5921 5922 5923 5924 5925 5926 5927 5928 5929 5930 5931 5932 5933 5934 5935 5936 5937 5938 5939 5940 5941 5942 5943 5944 5945 5946 5947 5948 5949 5950 5951 5952 5953 5954 5955 5956 5957 5958 5959 5960 5961 5962 5963 5964 5965 5966 5967 5968 5969 5970 5971 5972 5973 5974 5975 5976 5977 5978 5979 5980 5981 5982 5983 5984 5985 5986 5987 5988 5989 5990 5991 5992 5993 5994 5995 5996 5997 5998 5999 6000 6001 6002 6003 6004 6005 6006 6007 6008 6009 6010 6011 6012 6013 6014 6015 6016 6017 6018 6019 6020 6021 6022 6023 6024 6025 6026 6027 6028 6029 6030 6031 6032 6033 6034 6035 6036 6037 6038 6039 6040 6041 6042 6043 6044 6045 6046 6047 6048 6049 6050 6051 6052 6053 6054 6055 6056 6057 6058 6059 6060 6061 6062 6063 6064 6065 6066 6067 6068 6069 6070 6071 6072 6073 6074 6075 6076 6077 6078 6079 6080 6081 6082 6083 6084 6085 6086 6087 6088 6089 6090 6091 6092 6093 6094 6095 6096 6097 6098 6099 6100 6101 6102 6103 6104 6105 6106 6107 6108 6109 6110 6111 6112 6113 6114 6115 6116 6117 6118 6119 6120 6121 6122 6123 6124 6125 6126 6127 6128 6129 6130 6131 6132 6133 6134 6135 6136 6137 6138 6139 6140 6141 6142 6143 6144 6145 6146 6147 6148 6149 6150 6151 6152 6153 6154 6155 6156 6157 6158 6159 6160 6161 6162 6163 6164 6165 6166 6167 6168 6169 6170 6171 6172 6173 6174 6175 6176 6177 6178 6179 6180 6181 6182 6183 6184 6185 6186 6187 6188 6189 6190 6191 6192 6193 6194 6195 6196 6197 6198 6199 6200 6201 6202 6203 6204 6205 6206 6207 6208 6209 6210 6211 6212 6213 6214 6215 6216 6217 6218 6219 6220 6221 6222 6223 6224 6225 6226 6227 6228 6229 6230 6231 6232 6233 6234 6235 6236 6237 6238 6239 6240 6241 6242 6243 6244 6245 6246 6247 6248 6249 6250 6251 6252 6253 6254 6255 6256 6257 6258 6259 6260 6261 6262 6263 6264 6265 6266 6267 6268 6269 6270 6271 6272 6273 6274 6275 6276 6277 6278 6279 6280 6281 6282 6283 6284 6285 6286 6287 6288 6289 6290 6291 6292 6293 6294 6295 6296 6297 6298 6299 6300 6301 6302 6303 6304 6305 6306 6307 6308 6309 6310 6311 6312 6313 6314 6315 6316 6317 6318 6319 6320 6321 6322 6323 6324 6325 6326 6327 6328 6329 6330 6331 6332 6333 6334 6335 6336 6337 6338 6339 6340 6341 6342 6343 6344 6345 6346 6347 6348 6349 6350 6351 6352 6353 6354 6355 6356 6357 6358 6359 6360 6361 6362 6363 6364 6365 6366 6367 6368 6369 6370 6371 6372 6373 6374 6375 6376 6377 6378 6379 6380 6381 6382 6383 6384 6385 6386 6387 6388 6389 6390 6391 6392 6393 6394 6395 6396 6397 6398 6399 6400 6401 6402 6403 6404 6405 6406 6407 6408 6409 6410 6411 6412 6413 6414 6415 6416 6417 6418 6419 6420 6421 6422 6423 6424 6425 6426 6427 6428 6429 6430 6431 6432 6433 6434 6435 6436 6437 6438 6439 6440 6441 6442 6443 6444 6445 6446 6447 6448 6449 6450 6451 6452 6453 6454 6455 6456 6457 6458 6459 6460 6461 6462 6463 6464 6465 6466 6467 6468 6469 6470 6471 6472 6473 6474 6475 6476 6477 6478 6479 6480 6481 6482 6483 6484 6485 6486 6487 6488 6489 6490 6491 6492 6493 6494 6495 6496 6497 6498 6499 6500 6501 6502 6503 6504 6505 6506 6507 6508 6509 6510 6511 6512 6513 6514 6515 6516 6517 6518 6519 6520 6521 6522 6523 6524 6525 6526 6527 6528 6529 6530 6531 6532 6533 6534 6535 6536 6537 6538 6539 6540 6541 6542 6543 6544 6545 6546 6547 6548 6549 6550 6551 6552 6553 6554 6555 6556 6557 6558 6559 6560 6561 6562 6563 6564 6565 6566 6567 6568 6569 6570 6571 6572 6573 6574 6575 6576 6577 6578 6579 6580 6581 6582 6583 6584 6585 6586 6587 6588 6589 6590 6591 6592 6593 6594 6595 6596 6597 6598 6599 6600 6601 6602 6603 6604 6605 6606 6607 6608 6609 6610 6611 6612 6613 6614 6615 6616 6617 6618 6619 6620 6621 6622 6623 6624 6625 6626 6627 6628 6629 6630 6631 6632 6633 6634 6635 6636 6637 6638 6639 6640 6641 6642 6643 6644 6645 6646 6647 6648 6649 6650 6651 6652 6653 6654 6655 6656 6657 6658 6659 6660 6661 6662 6663 6664 6665 6666 6667 6668 6669 6670 6671 6672 6673 6674 6675 6676 6677 6678 6679 6680 6681 6682 6683 6684 6685 6686 6687 6688 6689 6690 6691 6692 6693 6694 6695 6696 6697 6698 6699 6700 6701 6702 6703 6704 6705 6706 6707 6708 6709 6710 6711 6712 6713 6714 6715 6716 6717 6718 6719 6720 6721 6722 6723 6724 6725 6726 6727 6728 6729 6730 6731 6732 6733 6734 6735 6736 6737 6738 6739 6740 6741 6742 6743 6744 6745 6746 6747 6748 6749 6750 6751 6752 6753 6754 6755 6756 6757 6758 6759 6760 6761 6762 6763 6764 6765 6766 6767 6768 6769 6770 6771 6772 6773 6774 6775 6776 6777 6778 6779 6780 6781 6782 6783 6784 6785 6786 6787 6788 6789 6790 6791 6792 6793 6794 6795 6796 6797 6798 6799 6800 6801 6802 6803 6804 6805 6806 6807 6808 6809 6810 6811 6812 6813 6814 6815 6816 6817 6818 6819 6820 6821 6822 6823 6824 6825 6826 6827 6828 6829 6830 6831 6832 6833 6834 6835 6836 6837 6838 6839 6840 6841 6842 6843 6844 6845 6846 6847 6848 6849 6850 6851 6852 6853 6854 6855 6856 6857 6858 6859 6860 6861 6862 6863 6864 6865 6866 6867 6868 6869 6870 6871 6872 6873 6874 6875 6876 6877 6878 6879 6880 6881 6882 6883 6884 6885 6886 6887 6888 6889 6890 6891 6892 6893 6894 6895 6896 6897 6898 6899 6900 6901 6902 6903 6904 6905 6906 6907 6908 6909 6910 6911 6912 6913 6914 6915 6916 6917 6918 6919 6920 6921 6922 6923 6924 6925 6926 6927 6928 6929 6930 6931 6932 6933 6934 6935 6936 6937 6938 6939 6940 6941 6942 6943 6944 6945 6946 6947 6948 6949 6950 6951 6952 6953 6954 6955 6956 6957 6958 6959 6960 6961 6962 6963 6964 6965 6966 6967 6968 6969 6970 6971 6972 6973 6974 6975 6976 6977 6978 6979 6980 6981 6982 6983 6984 6985 6986 6987 6988 6989 6990 6991 6992 6993 6994 6995 6996 6997 6998 6999 7000 7001 7002 7003 7004 7005 7006 7007 7008 7009 7010 7011 7012 7013 7014 7015 7016 7017 7018 7019 7020 7021 7022 7023 7024 7025 7026 7027 7028 7029 7030 7031 7032 7033 7034 7035 7036 7037 7038 7039 7040 7041 7042 7043 7044 7045 7046 7047 7048 7049 7050 7051 7052 7053 7054 7055 7056 7057 7058 7059 7060 7061 7062 7063 7064 7065 7066 7067 7068 7069 7070 7071 7072 7073 7074 7075 7076 7077 7078 7079 7080 7081 7082 7083 7084 7085 7086 7087 7088 7089 7090 7091 7092 7093 7094 7095 7096 7097 7098 7099 7100 7101 7102 7103 7104 7105 7106 7107 7108 7109 7110 7111 7112 7113 7114 7115 7116 7117 7118 7119 7120 7121 7122 7123 7124 7125 7126 7127 7128 7129 7130 7131 7132 7133 7134 7135 7136 7137 7138 7139 7140 7141 7142 7143 7144 7145 7146 7147 7148 7149 7150 7151 7152 7153 7154 7155 7156 7157 7158 7159 7160 7161 7162 7163 7164 7165 7166 7167 7168 7169 7170 7171 7172 7173 7174 7175 7176 7177 7178 7179 7180 7181 7182 7183 7184 7185 7186 7187 7188 7189 7190 7191 7192 7193 7194 7195 7196 7197 7198 7199 7200 7201 7202 7203 7204 7205 7206 7207 7208 7209 7210 7211 7212 7213 7214 7215 7216 7217 7218 7219 7220 7221 7222 7223 7224 7225 7226 7227 7228 7229 7230 7231 7232 7233 7234 7235 7236 7237 7238 7239 7240 7241 7242 7243 7244 7245 7246 7247 7248 7249 7250 7251 7252 7253 7254 7255 7256 7257 7258 7259 7260 7261 7262 7263 7264 7265 7266 7267 7268 7269 7270 7271 7272 7273 7274 7275 7276 7277 7278 7279 7280 7281 7282 7283 7284 7285 7286 7287 7288 7289 7290 7291 7292 7293 7294 7295 7296 7297 7298 7299 7300 7301 7302 7303 7304 7305 7306 7307 7308 7309 7310 7311 7312 7313 7314 7315 7316 7317 7318 7319 7320 7321 7322 7323 7324 7325 7326 7327 7328 7329 7330 7331 7332 7333 7334 7335 7336 7337 7338 7339 7340 7341 7342 7343 7344 7345 7346 7347 7348 7349 7350 7351 7352 7353 7354 7355 7356 7357 7358 7359 7360 7361 7362 7363 7364 7365 7366 7367 7368 7369 7370 7371 7372 7373 7374 7375 7376 7377 7378 7379 7380 7381 7382 7383 7384 7385 7386 7387 7388 7389 7390 7391 7392 7393 7394 7395 7396 7397 7398 7399 7400 7401 7402 7403 7404 7405 7406 7407 7408 7409 7410 7411 7412 7413 7414 7415 7416 7417 7418 7419 7420 7421 7422 7423 7424 7425 7426 7427 7428 7429 7430 7431 7432 7433 7434 7435 7436 7437 7438 7439 7440 7441 7442 7443 7444 7445 7446 7447 7448 7449 7450 7451 7452 7453 7454 7455 7456 7457 7458 7459 7460 7461 7462 7463 7464 7465 7466 7467 7468 7469 7470 7471 7472 7473 7474 7475 7476 7477 7478 7479 7480 7481 7482 7483 7484 7485 7486 7487 7488 7489 7490 7491 7492 7493 7494 7495 7496 7497 7498 7499 7500 7501 7502 7503 7504 7505 7506 7507 7508 7509 7510 7511 7512 7513 7514 7515 7516 7517 7518 7519 7520 7521 7522 7523 7524 7525 7526 7527 7528 7529 7530 7531 7532 7533 7534 7535 7536 7537 7538 7539 7540 7541 7542 7543 7544 7545 7546 7547 7548 7549 7550 7551 7552 7553 7554 7555 7556 7557 7558 7559 7560 7561 7562 7563 7564 7565 7566 7567 7568 7569 7570 7571 7572 7573 7574 7575 7576 7577 7578 7579 7580 7581 7582 7583 7584 7585 7586 7587 7588 7589 7590 7591 7592 7593 7594 7595 7596 7597 7598 7599 7600 7601 7602 7603 7604 7605 7606 7607 7608 7609 7610 7611 7612 7613 7614 7615 7616 7617 7618 7619 7620 7621 7622 7623 7624 7625 7626 7627 7628 7629 7630 7631 7632 7633 7634 7635 7636 7637 7638 7639 7640 7641 7642 7643 7644 7645 7646 7647 7648 7649 7650 7651 7652 7653 7654 7655 7656 7657 7658 7659 7660 7661 7662 7663 7664 7665 7666 7667 7668 7669 7670 7671 7672 7673 7674 7675 7676 7677 7678 7679 7680 7681 7682 7683 7684 7685 7686 7687 7688 7689 7690 7691 7692 7693 7694 7695 7696 7697 7698 7699 7700 7701 7702 7703 7704 7705 7706 7707 7708 7709 7710 7711 7712 7713 7714 7715 7716 7717 7718 7719 7720 7721 7722 7723 7724 7725 7726 7727 7728 7729 7730 7731 7732 7733 7734 7735 7736 7737 7738 7739 7740 7741 7742 7743 7744 7745 7746 7747 7748 7749 7750 7751 7752 7753 7754 7755 7756 7757 7758 7759 7760 7761 7762 7763 7764 7765 7766 7767 7768 7769 7770 7771 7772 7773 7774 7775 7776 7777 7778 7779 7780 7781 7782 7783 7784 7785 7786 7787 7788 7789 7790 7791 7792 7793 7794 7795 7796 7797 7798 7799 7800 7801 7802 7803 7804 7805 7806 7807 7808 7809 7810 7811 7812 7813 7814 7815 7816 7817 7818 7819 7820 7821 7822 7823 7824 7825 7826 7827 7828 7829 7830 7831 7832 7833 7834 7835 7836 7837 7838 7839 7840 7841 7842 7843 7844 7845 7846 7847 7848 7849 7850 7851 7852 7853 7854 7855 7856 7857 7858 7859 7860 7861 7862 7863 7864 7865 7866 7867 7868 7869 7870 7871 7872 7873 7874 7875 7876 7877 7878 7879 7880 7881 7882 7883 7884 7885 7886 7887 7888 7889 7890 7891 7892 7893 7894 7895 7896 7897 7898 7899 7900 7901 7902 7903 7904 7905 7906 7907 7908 7909 7910 7911 7912 7913 7914 7915 7916 7917 7918 7919 7920 7921 7922 7923 7924 7925 7926 7927 7928 7929 7930 7931 7932 7933 7934 7935 7936 7937 7938 7939 7940 7941 7942 7943 7944 7945 7946 7947 7948 7949 7950 7951 7952 7953 7954 7955 7956 7957 7958 7959 7960 7961 7962 7963 7964 7965 7966 7967 7968 7969 7970 7971 7972 7973 7974 7975 7976 7977 7978 7979 7980 7981 7982 7983 7984 7985 7986 7987 7988 7989 7990 7991 7992 7993 7994 7995 7996 7997 7998 7999 8000 8001 8002 8003 8004 8005 8006 8007 8008 8009 8010 8011 8012 8013 8014 8015 8016 8017 8018 8019 8020 8021 8022 8023 8024 8025 8026 8027 8028 8029 8030 8031 8032 8033 8034 8035 8036 8037 8038 8039 8040 8041 8042 8043 8044 8045 8046 8047 8048 8049 8050 8051 8052 8053 8054 8055 8056 8057 8058 8059 8060 8061 8062 8063 8064 8065 8066 8067 8068 8069 8070 8071 8072 8073 8074 8075 8076 8077 8078 8079 8080 8081 8082 8083 8084 8085 8086 8087 8088 8089 8090 8091 8092 8093 8094 8095 8096 8097 8098 8099 8100 8101 8102 8103 8104 8105 8106 8107 8108 8109 8110 8111 8112 8113 8114 8115 8116 8117 8118 8119 8120 8121 8122 8123 8124 8125 8126 8127 8128 8129 8130 8131 8132 8133 8134 8135 8136 8137 8138 8139 8140 8141 8142 8143 8144 8145 8146 8147 8148 8149 8150 8151 8152 8153 8154 8155 8156 8157 8158 8159 8160 8161 8162 8163 8164 8165 8166 8167 8168 8169 8170 8171 8172 8173 8174 8175 8176 8177 8178 8179 8180 8181 8182 8183 8184 8185 8186 8187 8188 8189 8190 8191 8192 8193 8194 8195 8196 8197 8198 8199 8200 8201 8202 8203 8204 8205 8206 8207 8208 8209 8210 8211 8212 8213 8214 8215 8216 8217 8218 8219 8220 8221 8222 8223 8224 8225 8226 8227 8228 8229 8230 8231 8232 8233 8234 8235 8236 8237 8238 8239 8240 8241 8242 8243 8244 8245 8246 8247 8248 8249 8250 8251 8252 8253 8254 8255 8256 8257 8258 8259 8260 8261 8262 8263 8264 8265 8266 8267 8268 8269 8270 8271 8272 8273 8274 8275 8276 8277 8278 8279 8280 8281 8282 8283 8284 8285 8286 8287 8288 8289 8290 8291 8292 8293 8294 8295 8296 8297 8298 8299 8300 8301 8302 8303 8304 8305 8306 8307 8308 8309 8310 8311 8312 8313 8314 8315 8316 8317 8318 8319 8320 8321 8322 8323 8324 8325 8326 8327 8328 8329 8330 8331 8332 8333 8334 8335 8336 8337 8338 8339 8340 8341 8342 8343 8344 8345 8346 8347 8348 8349 8350 8351 8352 8353 8354 8355 8356 8357 8358 8359 8360 8361 8362 8363 8364 8365 8366 8367 8368 8369 8370 8371 8372 8373 8374 8375 8376 8377 8378 8379 8380 8381 8382 8383 8384 8385 8386 8387 8388 8389 8390 8391 8392 8393 8394 8395 8396 8397 8398 8399 8400 8401 8402 8403 8404 8405 8406 8407 8408 8409 8410 8411 8412 8413 8414 8415 8416 8417 8418 8419 8420 8421 8422 8423 8424 8425 8426 8427 8428 8429 8430 8431 8432 8433 8434 8435 8436 8437 8438 8439 8440 8441 8442 8443 8444 8445 8446 8447 8448 8449 8450 8451 8452 8453 8454 8455 8456 8457 8458 8459 8460 8461 8462 8463 8464 8465 8466 8467 8468 8469 8470 8471 8472 8473 8474 8475 8476 8477 8478 8479 8480 8481 8482 8483 8484 8485 8486 8487 8488 8489 8490 8491 8492 8493 8494 8495 8496 8497 8498 8499 8500 8501 8502 8503 8504 8505 8506 8507 8508 8509 8510 8511 8512 8513 8514 8515 8516 8517 8518 8519 8520 8521 8522 8523 8524 8525 8526 8527 8528 8529 8530 8531 8532 8533 8534 8535 8536 8537 8538 8539 8540 8541 8542 8543 8544 8545 8546 8547 8548 8549 8550 8551 8552 8553 8554 8555 8556 8557 8558 8559 8560 8561 8562 8563 8564 8565 8566 8567 8568 8569 8570 8571 8572 8573 8574 8575 8576 8577 8578 8579 8580 8581 8582 8583 8584 8585 8586 8587 8588 8589 8590 8591 8592 8593 8594 8595 8596 8597 8598 8599 8600 8601 8602 8603 8604 8605 8606 8607 8608 8609 8610 8611 8612 8613 8614 8615 8616 8617 8618 8619 8620 8621 8622 8623 8624 8625 8626 8627 8628 8629 8630 8631 8632 8633 8634 8635 8636 8637 8638 8639 8640 8641 8642 8643 8644 8645 8646 8647 8648 8649 8650 8651 8652 8653 8654 8655 8656 8657 8658 8659 8660 8661 8662 8663 8664 8665 8666 8667 8668 8669 8670 8671 8672 8673 8674 8675 8676 8677 8678 8679 8680 8681 8682 8683 8684 8685 8686 8687 8688 8689 8690 8691 8692 8693 8694 8695 8696 8697 8698 8699 8700 8701 8702 8703 8704 8705 8706 8707 8708 8709 8710 8711 8712 8713 8714 8715 8716 8717 8718 8719 8720 8721 8722 8723 8724 8725 8726 8727 8728 8729 8730 8731 8732 8733 8734 8735 8736 8737 8738 8739 8740 8741 8742 8743 8744 8745 8746 8747 8748 8749 8750 8751 8752 8753 8754 8755 8756 8757 8758 8759 8760 8761 8762 8763 8764 8765 8766 8767 8768 8769 8770 8771 8772 8773 8774 8775 8776 8777 8778 8779 8780 8781 8782 8783 8784 8785 8786 8787 8788 8789 8790 8791 8792 8793 8794 8795 8796 8797 8798 8799 8800 8801 8802 8803 8804 8805 8806 8807 8808 8809 8810 8811 8812 8813 8814 8815 8816 8817 8818 8819 8820 8821 8822 8823 8824 8825 8826 8827 8828 8829 8830 8831 8832 8833 8834 8835 8836 8837 8838 8839 8840 8841 8842 8843 8844 8845 8846 8847 8848 8849 8850 8851 8852 8853 8854 8855 8856 8857 8858 8859 8860 8861 8862 8863 8864 8865 8866 8867 8868 8869 8870 8871 8872 8873 8874 8875 8876 8877 8878 8879 8880 8881 8882 8883 8884 8885 8886 8887 8888 8889 8890 8891 8892 8893 8894 8895 8896 8897 8898 8899 8900 8901 8902 8903 8904 8905 8906 8907 8908 8909 8910 8911 8912 8913 8914 8915 8916 8917 8918 8919 8920 8921 8922 8923 8924 8925 8926 8927 8928 8929 8930 8931 8932 8933 8934 8935 8936 8937 8938 8939 8940 8941 8942 8943 8944 8945 8946 8947 8948 8949 8950 8951 8952 8953 8954 8955 8956 8957 8958 8959 8960 8961 8962 8963 8964 8965 8966 8967 8968 8969 8970 8971 8972 8973 8974 8975 8976 8977 8978 8979 8980 8981 8982 8983 8984 8985 8986 8987 8988 8989 8990 8991 8992 8993 8994 8995 8996 8997 8998 8999 9000 9001 9002 9003 9004 9005 9006 9007 9008 9009 9010 9011 9012 9013 9014 9015 9016 9017 9018 9019 9020 9021 9022 9023 9024 9025 9026 9027 9028 9029 9030 9031 9032 9033 9034 9035 9036 9037 9038 9039 9040 9041 9042 9043 9044 9045 9046 9047 9048 9049 9050 9051 9052 9053 9054 9055 9056 9057 9058 9059 9060 9061 9062 9063 9064 9065 9066 9067 9068 9069 9070 9071 9072 9073 9074 9075 9076 9077 9078 9079 9080 9081 9082 9083 9084 9085 9086 9087 9088 9089 9090 9091 9092 9093 9094 9095 9096 9097 9098 9099 9100 9101 9102 9103 9104 9105 9106 9107 9108 9109 9110 9111 9112 9113 9114 9115 9116 9117 9118 9119 9120 9121 9122 9123 9124 9125 9126 9127 9128 9129 9130 9131 9132 9133 9134 9135 9136 9137 9138 9139 9140 9141 9142 9143 9144 9145 9146 9147 9148 9149 9150 9151 9152 9153 9154 9155 9156 9157 9158 9159 9160 9161 9162 9163 9164 9165 9166 9167 9168 9169 9170 9171 9172 9173 9174 9175 9176 9177 9178 9179 9180 9181 9182 9183 9184 9185 9186 9187 9188 9189 9190 9191 9192 9193 9194 9195 9196 9197 9198 9199 9200 9201 9202 9203 9204 9205 9206 9207 9208 9209 9210 9211 9212 9213 9214 9215 9216 9217 9218 9219 9220 9221 9222 9223 9224 9225 9226 9227 9228 9229 9230 9231 9232 9233 9234 9235 9236 9237 9238 9239 9240 9241 9242 9243 9244 9245 9246 9247 9248 9249 9250 9251 9252 9253 9254 9255 9256 9257 9258 9259 9260 9261 9262 9263 9264 9265 9266 9267 9268 9269 9270 9271 9272 9273 9274 9275 9276 9277 9278 9279 9280 9281 9282 9283 9284 9285 9286 9287 9288 9289 9290 9291 9292 9293 9294 9295 9296 9297 9298 9299 9300 9301 9302 9303 9304 9305 9306 9307 9308 9309 9310 9311 9312 9313 9314 9315 9316 9317 9318 9319 9320 9321 9322 9323 9324 9325 9326 9327 9328 9329 9330 9331 9332 9333 9334 9335 9336 9337 9338 9339 9340 9341 9342 9343 9344 9345 9346 9347 9348 9349 9350 9351 9352 9353 9354 9355 9356 9357 9358 9359 9360 9361 9362 9363 9364 9365 9366 9367 9368 9369 9370 9371 9372 9373 9374 9375 9376 9377 9378 9379 9380 9381 9382 9383 9384 9385 9386 9387 9388 9389 9390 9391 9392 9393 9394 9395 9396 9397 9398 9399 9400 9401 9402 9403 9404 9405 9406 9407 9408 9409 9410 9411 9412 9413 9414 9415 9416 9417 9418 9419 9420 9421 9422 9423 9424 9425 9426 9427 9428 9429 9430 9431 9432 9433 9434 9435 9436 9437 9438 9439 9440 9441 9442 9443 9444 9445 9446 9447 9448 9449 9450 9451 9452 9453 9454 9455 9456 9457 9458 9459 9460 9461 9462 9463 9464 9465 9466 9467 9468 9469 9470 9471 9472 9473 9474 9475 9476 9477 9478 9479 9480 9481 9482 9483 9484 9485 9486 9487 9488 9489 9490 9491 9492 9493 9494 9495 9496 9497 9498 9499 9500 9501 9502 9503 9504 9505 9506 9507 9508 9509 9510 9511 9512 9513 9514 9515 9516 9517 9518 9519 9520 9521 9522 9523 9524 9525 9526 9527 9528 9529 9530 9531 9532 9533 9534 9535 9536 9537 9538 9539 9540 9541 9542 9543 9544 9545 9546 9547 9548 9549 9550 9551 9552 9553 9554 9555 9556 9557 9558 9559 9560 9561 9562 9563 9564 9565 9566 9567 9568 9569 9570 9571 9572 9573 9574 9575 9576 9577 9578 9579 9580 9581 9582 9583 9584 9585 9586 9587 9588 9589 9590 9591 9592 9593 9594 9595 9596 9597 9598 9599 9600 9601 9602 9603 9604 9605 9606 9607 9608 9609 9610 9611 9612 9613 9614 9615 9616 9617 9618 9619 9620 9621 9622 9623 9624 9625 9626 9627 9628 9629 9630 9631 9632 9633 9634 9635 9636 9637 9638 9639 9640 9641 9642 9643 9644 9645 9646 9647 9648 9649 9650 9651 9652 9653 9654 9655 9656 9657 9658 9659 9660 9661 9662 9663 9664 9665 9666 9667 9668 9669 9670 9671 9672 9673 9674 9675 9676 9677 9678 9679 9680 9681 9682 9683 9684 9685 9686 9687 9688 9689 9690 9691 9692 9693 9694 9695 9696 9697 9698 9699 9700 9701 9702 9703 9704 9705 9706 9707 9708 9709 9710 9711 9712 9713 9714 9715 9716 9717 9718 9719 9720 9721 9722 9723 9724 9725 9726 9727 9728 9729 9730 9731 9732 9733 9734 9735 9736 9737 9738 9739 9740 9741 9742 9743 9744 9745 9746 9747 9748 9749 9750 9751 9752 9753 9754 9755 9756 9757 9758 9759 9760 9761 9762 9763 9764 9765 9766 9767 9768 9769 9770 9771 9772 9773 9774 9775 9776 9777 9778 9779 9780 9781 9782 9783 9784 9785 9786 9787 9788 9789 9790 9791 9792 9793 9794 9795 9796 9797 9798 9799 9800 9801 9802 9803 9804 9805 9806 9807 9808 9809 9810 9811 9812 9813 9814 9815 9816 9817 9818 9819 9820 9821 9822 9823 9824 9825 9826 9827 9828 9829 9830 9831 9832 9833 9834 9835 9836 9837 9838 9839 9840 9841 9842 9843 9844 9845 9846 9847 9848 9849 9850 9851 9852 9853 9854 9855 9856 9857 9858 9859 9860 9861 9862 9863 9864 9865 9866 9867 9868 9869 9870 9871 9872 9873 9874 9875 9876 9877 9878 9879 9880 9881 9882 9883 9884 9885 9886 9887 9888 9889 9890 9891 9892 9893 9894 9895 9896 9897 9898 9899 9900 9901 9902 9903 9904 9905 9906 9907 9908 9909 9910 9911 9912 9913 9914 9915 9916 9917 9918 9919 9920 9921 9922 9923 9924 9925 9926 9927 9928 9929 9930 9931 9932 9933 9934 9935 9936 9937 9938 9939 9940 9941 9942 9943 9944 9945 9946 9947 9948 9949 9950 9951 9952 9953 9954 9955 9956 9957 9958 9959 9960 9961 9962 9963 9964 9965 9966 9967 9968 9969 9970 9971 9972 9973 9974 9975 9976 9977 9978 9979 9980 9981 9982 9983 9984 9985 9986 9987 9988 9989 9990 9991 9992 9993 9994 9995 9996 9997 9998 9999 10000 10001 10002 10003 10004 10005 10006 10007 10008 10009 10010 10011 10012 10013 10014 10015 10016 10017 10018 10019 10020 10021 10022 10023 10024 10025 10026 10027 10028 10029 10030 10031 10032 10033 10034 10035 10036 10037 10038 10039 10040 10041 10042 10043 10044 10045 10046 10047 10048 10049 10050 10051 10052 10053 10054 10055 10056 10057 10058 10059 10060 10061 10062 10063 10064 10065 10066 10067 10068 10069 10070 10071 10072 10073 10074 10075 10076 10077 10078 10079 10080 10081 10082 10083 10084 10085 10086 10087 10088 10089 10090 10091 10092 10093 10094 10095 10096 10097 10098 10099 10100 10101 10102 10103 10104 10105 10106 10107 10108 10109 10110 10111 10112 10113 10114 10115 10116 10117 10118 10119 10120 10121 10122 10123 10124 10125 10126 10127 10128 10129 10130 10131 10132 10133 10134 10135 10136 10137 10138 10139 10140 10141 10142 10143 10144 10145 10146 10147 10148 10149 10150 10151 10152 10153 10154 10155 10156 10157 10158 10159 10160 10161 10162 10163 10164 10165 10166 10167 10168 10169 10170 10171 10172 10173 10174 10175 10176 10177 10178 10179 10180 10181 10182 10183 10184 10185 10186 10187 10188 10189 10190 10191 10192 10193 10194 10195 10196 10197 10198 10199 10200 10201 10202 10203 10204 10205 10206 10207 10208 10209 10210 10211 10212 10213 10214 10215 10216 10217 10218 10219 10220 10221 10222 10223 10224 10225 10226 10227 10228 10229 10230 10231 10232 10233 10234 10235 10236 10237 10238 10239 10240 10241 10242 10243 10244 10245 10246 10247 10248 10249 10250 10251 10252 10253 10254 10255 10256 10257 10258 10259 10260 10261 10262 10263 10264 10265 10266 10267 10268 10269 10270 10271 10272 10273 10274 10275 10276 10277 10278 10279 10280 10281 10282 10283 10284 10285 10286 10287 10288 10289 10290 10291 10292 10293 10294 10295 10296 10297 10298 10299 10300 10301 10302 10303 10304 10305 10306 10307 10308 10309 10310 10311 10312 10313 10314 10315 10316 10317 10318 10319 10320 10321 10322 10323 10324 10325 10326 10327 10328 10329 10330 10331 10332 10333 10334 10335 10336 10337 10338 10339 10340 10341 10342 10343 10344 10345 10346 10347 10348 10349 10350 10351 10352 10353 10354 10355 10356 10357 10358 10359 10360 10361 10362 10363 10364 10365 10366 10367 10368 10369 10370 10371 10372 10373 10374 10375 10376 10377 10378 10379 10380 10381 10382 10383 10384 10385 10386 10387 10388 10389 10390 10391 10392 10393 10394 10395 10396 10397 10398 10399 10400 10401 10402 10403 10404 10405 10406 10407 10408 10409 10410 10411 10412 10413 10414 10415 10416 10417 10418 10419 10420 10421 10422 10423 10424 10425 10426 10427 10428 10429 10430 10431 10432 10433 10434 10435 10436 10437 10438 10439 10440 10441 10442 10443 10444 10445 10446 10447 10448 10449 10450 10451 10452 10453 10454 10455 10456 10457 10458 10459 10460 10461 10462 10463 10464 10465 10466 10467 10468 10469 10470 10471 10472 10473 10474 10475 10476 10477 10478 10479 10480 10481 10482 10483 10484 10485 10486 10487 10488 10489 10490 10491 10492 10493 10494 10495 10496 10497 10498 10499 10500 10501 10502 10503 10504 10505 10506 10507 10508 10509 10510 10511 10512 10513 10514 10515 10516 10517 10518 10519 10520 10521 10522 10523 10524 10525 10526 10527 10528 10529 10530 10531 10532 10533 10534 10535 10536 10537 10538 10539 10540 10541 10542 10543 10544 10545 10546 10547 10548 10549 10550 10551 10552 10553 10554 10555 10556 10557 10558 10559 10560 10561 10562 10563 10564 10565 10566 10567 10568 10569 10570 10571 10572 10573 10574 10575 10576 10577 10578 10579 10580 10581 10582 10583 10584 10585 10586 10587 10588 10589 10590 10591 10592 10593 10594 10595 10596 10597 10598 10599 10600 10601 10602 10603 10604 10605 10606 10607 10608 10609 10610 10611 10612 10613 10614 10615 10616 10617 10618 10619 10620 10621 10622 10623 10624 10625 10626 10627 10628 10629 10630 10631 10632 10633 10634 10635 10636 10637 10638 10639 10640 10641 10642 10643 10644 10645 10646 10647 10648 10649 10650 10651 10652 10653 10654 10655 10656 10657 10658 10659 10660 10661 10662 10663 10664 10665 10666 10667 10668 10669 10670 10671 10672 10673 10674 10675 10676 10677 10678 10679 10680 10681 10682 10683 10684 10685 10686 10687 10688 10689 10690 10691 10692 10693 10694 10695 10696 10697 10698 10699 10700 10701 10702 10703 10704 10705 10706 10707 10708 10709 10710 10711 10712 10713 10714 10715 10716 10717 10718 10719 10720 10721 10722 10723 10724 10725 10726 10727 10728 10729 10730 10731 10732 10733 10734 10735 10736 10737 10738 10739 10740 10741 10742 10743 10744 10745 10746 10747 10748 10749 10750 10751 10752 10753 10754 10755 10756 10757 10758 10759 10760 10761 10762 10763 10764 10765 10766 10767 10768 10769 10770 10771 10772 10773 10774 10775 10776 10777 10778 10779 10780 10781 10782 10783 10784 10785 10786 10787 10788 10789 10790 10791 10792 10793 10794 10795 10796 10797 10798 10799 10800 10801 10802 10803 10804 10805 10806 10807 10808 10809 10810 10811 10812 10813 10814 10815 10816 10817 10818 10819 10820 10821 10822 10823 10824 10825 10826 10827 10828 10829 10830 10831 10832 10833 10834 10835 10836 10837 10838 10839 10840 10841 10842 10843 10844 10845 10846 10847 10848 10849 10850 10851 10852 10853 10854 10855 10856 10857 10858 10859 10860 10861 10862 10863 10864 10865 10866 10867 10868 10869 10870 10871 10872 10873 10874 10875 10876 10877 10878 10879 10880 10881 10882 10883 10884 10885 10886 10887 10888 10889 10890 10891 10892 10893 10894 10895 10896 10897 10898 10899 10900 10901 10902 10903 10904 10905 10906 10907 10908 10909 10910 10911 10912 10913 10914 10915 10916 10917 10918 10919 10920 10921 10922 10923 10924 10925 10926 10927 10928 10929 10930 10931 10932 10933 10934 10935 10936 10937 10938 10939 10940 10941 10942 10943 10944 10945 10946 10947 10948 10949 10950 10951 10952 10953 10954 10955 10956 10957 10958 10959 10960 10961 10962 10963 10964 10965 10966 10967 10968 10969 10970 10971 10972 10973 10974 10975 10976 10977 10978 10979 10980 10981 10982 10983 10984 10985 10986 10987 10988 10989 10990 10991 10992 10993 10994 10995 10996 10997 10998 10999 11000 11001 11002 11003 11004 11005 11006 11007 11008 11009 11010 11011 11012 11013 11014 11015 11016 11017 11018 11019 11020 11021 11022 11023 11024 11025 11026 11027 11028 11029 11030 11031 11032 11033 11034 11035 11036 11037 11038 11039 11040 11041 11042 11043 11044 11045 11046 11047 11048 11049 11050 11051 11052 11053 11054 11055 11056 11057 11058 11059 11060 11061 11062 11063 11064 11065 11066 11067 11068 11069 11070 11071 11072 11073 11074 11075 11076 11077 11078 11079 11080 11081 11082 11083 11084 11085 11086 11087 11088 11089 11090 11091 11092 11093 11094 11095 11096 11097 11098 11099 11100 11101 11102 11103 11104 11105 11106 11107 11108 11109 11110 11111 11112 11113 11114 11115 11116 11117 11118 11119 11120 11121 11122 11123 11124 11125 11126 11127 11128 11129 11130 11131 11132 11133 11134 11135 11136 11137 11138 11139 11140 11141 11142 11143 11144 11145 11146 11147 11148 11149 11150 11151 11152 11153 11154 11155 11156 11157 11158 11159 11160 11161 11162 11163 11164 11165 11166 11167 11168 11169 11170 11171 11172 11173 11174 11175 11176 11177 11178 11179 11180 11181 11182 11183 11184 11185 11186 11187 11188 11189 11190 11191 11192 11193 11194 11195 11196 11197 11198 11199 11200 11201 11202 11203 11204 11205 11206 11207 11208 11209 11210 11211 11212 11213 11214 11215 11216 11217 11218 11219 11220 11221 11222 11223 11224 11225 11226 11227 11228 11229 11230 11231 11232 11233 11234 11235 11236 11237 11238 11239 11240 11241 11242 11243 11244 11245 11246 11247 11248 11249 11250 11251 11252 11253 11254 11255 11256 11257 11258 11259 11260 11261 11262 11263 11264 11265 11266 11267 11268 11269 11270 11271 11272 11273 11274 11275 11276 11277 11278 11279 11280 11281 11282 11283 11284 11285 11286 11287 11288 11289 11290 11291 11292 11293 11294 11295 11296 11297 11298 11299 11300 11301 11302 11303 11304 11305 11306 11307 11308 11309 11310 11311 11312 11313 11314 11315 11316 11317 11318 11319 11320 11321 11322 11323 11324 11325 11326 11327 11328 11329 11330 11331 11332 11333 11334 11335 11336 11337 11338 11339 11340 11341 11342 11343 11344 11345 11346 11347 11348 11349 11350 11351 11352 11353 11354 11355 11356 11357 11358 11359 11360 11361 11362 11363 11364 11365 11366 11367 11368 11369 11370 11371 11372 11373 11374 11375 11376 11377 11378 11379 11380 11381 11382 11383 11384 11385 11386 11387 11388 11389 11390 11391 11392 11393 11394 11395 11396 11397 11398 11399 11400 11401 11402 11403 11404 11405 11406 11407 11408 11409 11410 11411 11412 11413 11414 11415 11416 11417 11418 11419 11420 11421 11422 11423 11424 11425 11426 11427 11428 11429 11430 11431 11432 11433 11434 11435 11436 11437 11438 11439 11440 11441 11442 11443 11444 11445 11446 11447 11448 11449 11450 11451 11452 11453 11454 11455 11456 11457 11458 11459 11460 11461 11462 11463 11464 11465 11466 11467 11468 11469 11470 11471 11472 11473 11474 11475 11476 11477 11478 11479 11480 11481 11482 11483 11484 11485 11486 11487 11488 11489 11490 11491 11492 11493 11494 11495 11496 11497 11498 11499 11500 11501 11502 11503 11504 11505 11506 11507 11508 11509 11510 11511 11512 11513 11514 11515 11516 11517 11518 11519 11520 11521 11522 11523 11524 11525 11526 11527 11528 11529 11530 11531 11532 11533 11534 11535 11536 11537 11538 11539 11540 11541 11542 11543 11544 11545 11546 11547 11548 11549 11550 11551 11552 11553 11554 11555 11556 11557 11558 11559 11560 11561 11562 11563 11564 11565 11566 11567 11568 11569 11570 11571 11572 11573 11574 11575 11576 11577 11578 11579 11580 11581 11582 11583 11584 11585 11586 11587 11588 11589 11590 11591 11592 11593 11594 11595 11596 11597 11598 11599 11600 11601 11602 11603 11604 11605 11606 11607 11608 11609 11610 11611 11612 11613 11614 11615 11616 11617 11618 11619 11620 11621 11622 11623 11624 11625 11626 11627 11628 11629 11630 11631 11632 11633 11634 11635 11636 11637 11638 11639 11640 11641 11642 11643 11644 11645 11646 11647 11648 11649 11650 11651 11652 11653 11654 11655 11656 11657 11658 11659 11660 11661 11662 11663 11664 11665 11666 11667 11668 11669 11670 11671 11672 11673 11674 11675 11676 11677 11678 11679 11680 11681 11682 11683 11684 11685 11686 11687 11688 11689 11690 11691 11692 11693 11694 11695 11696 11697 11698 11699 11700 11701 11702 11703 11704 11705 11706 11707 11708 11709 11710 11711 11712 11713 11714 11715 11716 11717 11718 11719 11720 11721 11722 11723 11724 11725 11726 11727 11728 11729 11730 11731 11732 11733 11734 11735 11736 11737 11738 11739 11740 11741 11742 11743 11744 11745 11746 11747 11748 11749 11750 11751 11752 11753 11754 11755 11756 11757 11758 11759 11760 11761 11762 11763 11764 11765 11766 11767 11768 11769 11770 11771 11772 11773 11774 11775 11776 11777 11778 11779 11780 11781 11782 11783 11784 11785 11786 11787 11788 11789 11790 11791 11792 11793 11794 11795 11796 11797 11798 11799 11800 11801 11802 11803 11804 11805 11806 11807 11808 11809 11810 11811 11812 11813 11814 11815 11816 11817 11818 11819 11820 11821 11822 11823 11824 11825 11826 11827 11828 11829 11830 11831 11832 11833 11834 11835 11836 11837 11838 11839 11840 11841 11842 11843 11844 11845 11846 11847 11848 11849 11850 11851 11852 11853 11854 11855 11856 11857 11858 11859 11860 11861 11862 11863 11864 11865 11866 11867 11868 11869 11870 11871 11872 11873 11874 11875 11876 11877 11878 11879 11880 11881 11882 11883 11884 11885 11886 11887 11888 11889 11890 11891 11892 11893 11894 11895 11896 11897 11898 11899 11900 11901 11902 11903 11904 11905 11906 11907 11908 11909 11910 11911 11912 11913 11914 11915 11916 11917 11918 11919 11920 11921 11922 11923 11924 11925 11926 11927 11928 11929 11930 11931 11932 11933 11934 11935 11936 11937 11938 11939 11940 11941 11942 11943 11944 11945 11946 11947 11948 11949 11950 11951 11952 11953 11954 11955 11956 11957 11958 11959 11960 11961 11962 11963 11964 11965 11966 11967 11968 11969 11970 11971 11972 11973 11974 11975 11976 11977 11978 11979 11980 11981 11982 11983 11984 11985 11986 11987 11988 11989 11990 11991 11992 11993 11994 11995 11996 11997 11998 11999 12000 12001 12002 12003 12004 12005 12006 12007 12008 12009 12010 12011 12012 12013 12014 12015 12016 12017 12018 12019 12020 12021 12022 12023 12024 12025 12026 12027 12028 12029 12030 12031 12032 12033 12034 12035 12036 12037 12038 12039 12040 12041 12042 12043 12044 12045 12046 12047 12048 12049 12050 12051 12052 12053 12054 12055 12056 12057 12058 12059 12060 12061 12062 12063 12064 12065 12066 12067 12068 12069 12070 12071 12072 12073 12074 12075 12076 12077 12078 12079 12080 12081 12082 12083 12084 12085 12086 12087 12088 12089 12090 12091 12092 12093 12094 12095 12096 12097 12098 12099 12100 12101 12102 12103 12104 12105 12106 12107 12108 12109 12110 12111 12112 12113 12114 12115 12116 12117 12118 12119 12120 12121 12122 12123 12124 12125 12126 12127 12128 12129 12130 12131 12132 12133 12134 12135 12136 12137 12138 12139 12140 12141 12142 12143 12144 12145 12146 12147 12148 12149 12150 12151 12152 12153 12154 12155 12156 12157 12158 12159 12160 12161 12162 12163 12164 12165 12166 12167 12168 12169 12170 12171 12172 12173 12174 12175 12176 12177 12178 12179 12180 12181 12182 12183 12184 12185 12186 12187 12188 12189 12190 12191 12192 12193 12194 12195 12196 12197 12198 12199 12200 12201 12202 12203 12204 12205 12206 12207 12208 12209 12210 12211 12212 12213 12214 12215 12216 12217 12218 12219 12220 12221 12222 12223 12224 12225 12226 12227 12228 12229 12230 12231 12232 12233 12234 12235 12236 12237 12238 12239 12240 12241 12242 12243 12244 12245 12246 12247 12248 12249 12250 12251 12252 12253 12254 12255 12256 12257 12258 12259 12260 12261 12262 12263 12264 12265 12266 12267 12268 12269 12270 12271 12272 12273 12274 12275 12276 12277 12278 12279 12280 12281 12282 12283 12284 12285 12286 12287 12288 12289 12290 12291 12292 12293 12294 12295 12296 12297 12298 12299 12300 12301 12302 12303 12304 12305 12306 12307 12308 12309 12310 12311 12312 12313 12314 12315 12316 12317 12318 12319 12320 12321 12322 12323 12324 12325 12326 12327 12328 12329 12330 12331 12332 12333 12334 12335 12336 12337 12338 12339 12340 12341 12342 12343 12344 12345 12346 12347 12348 12349 12350 12351 12352 12353 12354 12355 12356 12357 12358 12359 12360 12361 12362 12363 12364 12365 12366 12367 12368 12369 12370 12371 12372 12373 12374 12375 12376 12377 12378 12379 12380 12381 12382 12383 12384 12385 12386 12387 12388 12389 12390 12391 12392 12393 12394 12395 12396 12397 12398 12399 12400 12401 12402 12403 12404 12405 12406 12407 12408 12409 12410 12411 12412 12413 12414 12415 12416 12417 12418 12419 12420 12421 12422 12423 12424 12425 12426 12427 12428 12429 12430 12431 12432 12433 12434 12435 12436 12437 12438 12439 12440 12441 12442 12443 12444 12445 12446 12447 12448 12449 12450 12451 12452 12453 12454 12455 12456 12457 12458 12459 12460 12461 12462 12463 12464 12465 12466 12467 12468 12469 12470 12471 12472 12473 12474 12475 12476 12477 12478 12479 12480 12481 12482 12483 12484 12485 12486 12487 12488 12489 12490 12491 12492 12493 12494 12495 12496 12497 12498 12499 12500 12501 12502 12503 12504 12505 12506 12507 12508 12509 12510 12511 12512 12513 12514 12515 12516 12517 12518 12519 12520 12521 12522 12523 12524 12525 12526 12527 12528 12529 12530 12531 12532 12533 12534 12535 12536 12537 12538 12539 12540 12541 12542 12543 12544 12545 12546 12547 12548 12549 12550 12551 12552 12553 12554 12555 12556 12557 12558 12559 12560 12561 12562 12563 12564 12565 12566 12567 12568 12569 12570 12571 12572 12573 12574 12575 12576 12577 12578 12579 12580 12581 12582 12583 12584 12585 12586 12587 12588 12589 12590 12591 12592 12593 12594 12595 12596 12597 12598 12599 12600 12601 12602 12603 12604 12605 12606 12607 12608 12609 12610 12611 12612 12613 12614 12615 12616 12617 12618 12619 12620 12621 12622 12623 12624 12625 12626 12627 12628 12629 12630 12631 12632 12633 12634 12635 12636 12637 12638 12639 12640 12641 12642 12643 12644 12645 12646 12647 12648 12649 12650 12651 12652 12653 12654 12655 12656 12657 12658 12659 12660 12661 12662 12663 12664 12665 12666 12667 12668 12669 12670 12671 12672 12673 12674 12675 12676 12677 12678 12679 12680 12681 12682 12683 12684 12685 12686 12687 12688 12689 12690 12691 12692 12693 12694 12695 12696 12697 12698 12699 12700 12701 12702 12703 12704 12705 12706 12707 12708 12709 12710 12711 12712 12713 12714 12715 12716 12717 12718 12719 12720 12721 12722 12723 12724 12725 12726 12727 12728 12729 12730 12731 12732 12733 12734 12735 12736 12737 12738 12739 12740 12741 12742 12743 12744 12745 12746 12747 12748 12749 12750 12751 12752 12753 12754 12755 12756 12757 12758 12759 12760 12761 12762 12763 12764 12765 12766 12767 12768 12769 12770 12771 12772 12773 12774 12775 12776 12777 12778 12779 12780 12781 12782 12783 12784 12785 12786 12787 12788 12789 12790 12791 12792 12793 12794 12795 12796 12797 12798 12799 12800 12801 12802 12803 12804 12805 12806 12807 12808 12809 12810 12811 12812 12813 12814 12815 12816 12817 12818 12819 12820 12821 12822 12823 12824 12825 12826 12827 12828 12829 12830 12831 12832 12833 12834 12835 12836 12837 12838 12839 12840 12841 12842 12843 12844 12845 12846 12847 12848 12849 12850 12851 12852 12853 12854 12855 12856 12857 12858 12859 12860 12861 12862 12863 12864 12865 12866 12867 12868 12869 12870 12871 12872 12873 12874 12875 12876 12877 12878 12879 12880 12881 12882 12883 12884 12885 12886 12887 12888 12889 12890 12891 12892 12893 12894 12895 12896 12897 12898 12899 12900 12901 12902 12903 12904 12905 12906 12907 12908 12909 12910 12911 12912 12913 12914 12915 12916 12917 12918 12919 12920 12921 12922 12923 12924 12925 12926 12927 12928 12929 12930 12931 12932 12933 12934 12935 12936 12937 12938 12939 12940 12941 12942 12943 12944 12945 12946 12947 12948 12949 12950 12951 12952 12953 12954 12955 12956 12957 12958 12959 12960 12961 12962 12963 12964 12965 12966 12967 12968 12969 12970 12971 12972 12973 12974 12975 12976 12977 12978 12979 12980 12981 12982 12983 12984 12985 12986 12987 12988 12989 12990 12991 12992 12993 12994 12995 12996 12997 12998 12999 13000 13001 13002 13003 13004 13005 13006 13007 13008 13009 13010 13011 13012 13013 13014 13015 13016 13017 13018 13019 13020 13021 13022 13023 13024 13025 13026 13027 13028 13029 13030 13031 13032 13033 13034 13035 13036 13037 13038 13039 13040 13041 13042 13043 13044 13045 13046 13047 13048 13049 13050 13051 13052 13053 13054 13055 13056 13057 13058 13059 13060 13061 13062 13063 13064 13065 13066 13067 13068 13069 13070 13071 13072 13073 13074 13075 13076 13077 13078 13079 13080 13081 13082 13083 13084 13085 13086 13087 13088 13089 13090 13091 13092 13093 13094 13095 13096 13097 13098 13099 13100 13101 13102 13103 13104 13105 13106 13107 13108 13109 13110 13111 13112 13113 13114 13115 13116 13117 13118 13119 13120 13121 13122 13123 13124 13125 13126 13127 13128 13129 13130 13131 13132 13133 13134 13135 13136 13137 13138 13139 13140 13141 13142 13143 13144 13145 13146 13147 13148 13149 13150 13151 13152 13153 13154 13155 13156 13157 13158 13159 13160 13161 13162 13163 13164 13165 13166 13167 13168 13169 13170 13171 13172 13173 13174 13175 13176 13177 13178 13179 13180 13181 13182 13183 13184 13185 13186 13187 13188 13189 13190 13191 13192 13193 13194 13195 13196 13197 13198 13199 13200 13201 13202 13203 13204 13205 13206 13207 13208 13209 13210 13211 13212 13213 13214 13215 13216 13217 13218 13219 13220 13221 13222 13223 13224 13225 13226 13227 13228 13229 13230 13231 13232 13233 13234 13235 13236 13237 13238 13239 13240 13241 13242 13243 13244 13245 13246 13247 13248 13249 13250 13251 13252 13253 13254 13255 13256 13257 13258 13259 13260 13261 13262 13263 13264 13265 13266 13267 13268 13269 13270 13271 13272 13273 13274 13275 13276 13277 13278 13279 13280 13281 13282 13283 13284 13285 13286 13287 13288 13289 13290 13291 13292 13293 13294 13295 13296 13297 13298 13299 13300 13301 13302 13303 13304 13305 13306 13307 13308 13309 13310 13311 13312 13313 13314 13315 13316 13317 13318 13319 13320 13321 13322 13323 13324 13325 13326 13327 13328 13329 13330 13331 13332 13333 13334 13335 13336 13337 13338 13339 13340 13341 13342 13343 13344 13345 13346 13347 13348 13349 13350 13351 13352 13353 13354 13355 13356 13357 13358 13359 13360 13361 13362 13363 13364 13365 13366 13367 13368 13369 13370 13371 13372 13373 13374 13375 13376 13377 13378 13379 13380 13381 13382 13383 13384 13385 13386 13387 13388 13389 13390 13391 13392 13393 13394 13395 13396 13397 13398 13399 13400 13401 13402 13403 13404 13405 13406 13407 13408 13409 13410 13411 13412 13413 13414 13415 13416 13417 13418 13419 13420 13421 13422 13423 13424 13425 13426 13427 13428 13429 13430 13431 13432 13433 13434 13435 13436 13437 13438 13439 13440 13441 13442 13443 13444 13445 13446 13447 13448 13449 13450 13451 13452 13453 13454 13455 13456 13457 13458 13459 13460 13461 13462 13463 13464 13465 13466 13467 13468 13469 13470 13471 13472 13473 13474 13475 13476 13477 13478 13479 13480 13481 13482 13483 13484 13485 13486 13487 13488 13489 13490 13491 13492 13493 13494 13495 13496 13497 13498 13499 13500 13501 13502 13503 13504 13505 13506 13507 13508 13509 13510 13511 13512 13513 13514 13515 13516 13517 13518 13519 13520 13521 13522 13523 13524 13525 13526 13527 13528 13529 13530 13531 13532 13533 13534 13535 13536 13537 13538 13539 13540 13541 13542 13543 13544 13545 13546 13547 13548 13549 13550 13551 13552 13553 13554 13555 13556 13557 13558 13559 13560 13561 13562 13563 13564 13565 13566 13567 13568 13569 13570 13571 13572 13573 13574 13575 13576 13577 13578 13579 13580 13581 13582 13583 13584 13585 13586 13587 13588 13589 13590 13591 13592 13593 13594 13595 13596 13597 13598 13599 13600 13601 13602 13603 13604 13605 13606 13607 13608 13609 13610 13611 13612 13613 13614 13615 13616 13617 13618 13619 13620 13621 13622 13623 13624 13625 13626 13627 13628 13629 13630 13631 13632 13633 13634 13635 13636 13637 13638 13639 13640 13641 13642 13643 13644 13645 13646 13647 13648 13649 13650 13651 13652 13653 13654 13655 13656 13657 13658 13659 13660 13661 13662 13663 13664 13665 13666 13667 13668 13669 13670 13671 13672 13673 13674 13675 13676 13677 13678 13679 13680 13681 13682 13683 13684 13685 13686 13687 13688 13689 13690 13691 13692 13693 13694 13695 13696 13697 13698 13699 13700 13701 13702 13703 13704 13705 13706 13707 13708 13709 13710 13711 13712 13713 13714 13715 13716 13717 13718 13719 13720 13721 13722 13723 13724 13725 13726 13727 13728 13729 13730 13731 13732 13733 13734 13735 13736 13737 13738 13739 13740 13741 13742 13743 13744 13745 13746 13747 13748 13749 13750 13751 13752 13753 13754 13755 13756 13757 13758 13759 13760 13761 13762 13763 13764 13765 13766 13767 13768 13769 13770 13771 13772 13773 13774 13775 13776 13777 13778 13779 13780 13781 13782 13783 13784 13785 13786 13787 13788 13789 13790 13791 13792 13793 13794 13795 13796 13797 13798 13799 13800 13801 13802 13803 13804 13805 13806 13807 13808 13809 13810 13811 13812 13813 13814 13815 13816 13817 13818 13819 13820 13821 13822 13823 13824 13825 13826 13827 13828 13829 13830 13831 13832 13833 13834 13835 13836 13837 13838 13839 13840 13841 13842 13843 13844 13845 13846 13847 13848 13849 13850 13851 13852 13853 13854 13855 13856 13857 13858 13859 13860 13861 13862 13863 13864 13865 13866 13867 13868 13869 13870 13871 13872 13873 13874 13875 13876 13877 13878 13879 13880 13881 13882 13883 13884 13885 13886 13887 13888 13889 13890 13891 13892 13893 13894 13895 13896 13897 13898 13899 13900 13901 13902 13903 13904 13905 13906 13907 13908 13909 13910 13911 13912 13913 13914 13915 13916 13917 13918 13919 13920 13921 13922 13923 13924 13925 13926 13927 13928 13929 13930 13931 13932 13933 13934 13935 13936 13937 13938 13939 13940 13941 13942 13943 13944 13945 13946 13947 13948 13949 13950 13951 13952 13953 13954 13955 13956 13957 13958 13959 13960 13961 13962 13963 13964 13965 13966 13967 13968 13969 13970 13971 13972 13973 13974 13975 13976 13977 13978 13979 13980 13981 13982 13983 13984 13985 13986 13987 13988 13989 13990 13991 13992 13993 13994 13995 13996 13997 13998 13999 14000 14001 14002 14003 14004 14005 14006 14007 14008 14009 14010 14011 14012 14013 14014 14015 14016 14017 14018 14019 14020 14021 14022 14023 14024 14025 14026 14027 14028 14029 14030 14031 14032 14033 14034 14035 14036 14037 14038 14039 14040 14041 14042 14043 14044 14045 14046 14047 14048 14049 14050 14051 14052 14053 14054 14055 14056 14057 14058 14059 14060 14061 14062 14063 14064 14065 14066 14067 14068 14069 14070 14071 14072 14073 14074 14075 14076 14077 14078 14079 14080 14081 14082 14083 14084 14085 14086 14087 14088 14089 14090 14091 14092 14093 14094 14095 14096 14097 14098 14099 14100 14101 14102 14103 14104 14105 14106 14107 14108 14109 14110 14111 14112 14113 14114 14115 14116 14117 14118 14119 14120 14121 14122 14123 14124 14125 14126 14127 14128 14129 14130 14131 14132 14133 14134 14135 14136 14137 14138 14139 14140 14141 14142 14143 14144 14145 14146 14147 14148 14149 14150 14151 14152 14153 14154 14155 14156 14157 14158 14159 14160 14161 14162 14163 14164 14165 14166 14167 14168 14169 14170 14171 14172 14173 14174 14175 14176 14177 14178 14179 14180 14181 14182 14183 14184 14185 14186 14187 14188 14189 14190 14191 14192 14193 14194 14195 14196 14197 14198 14199 14200 14201 14202 14203 14204 14205 14206 14207 14208 14209 14210 14211 14212 14213 14214 14215 14216 14217 14218 14219 14220 14221 14222 14223 14224 14225 14226 14227 14228 14229 14230 14231 14232 14233 14234 14235 14236 14237 14238 14239 14240 14241 14242 14243 14244 14245 14246 14247 14248 14249 14250 14251 14252 14253 14254 14255 14256 14257 14258 14259 14260 14261 14262 14263 14264 14265 14266 14267 14268 14269 14270 14271 14272 14273 14274 14275 14276 14277 14278 14279 14280 14281 14282 14283 14284 14285 14286 14287 14288 14289 14290 14291 14292 14293 14294 14295 14296 14297 14298 14299 14300 14301 14302 14303 14304 14305 14306 14307 14308 14309 14310 14311 14312 14313 14314 14315 14316 14317 14318 14319 14320 14321 14322 14323 14324 14325 14326 14327 14328 14329 14330 14331 14332 14333 14334 14335 14336 14337 14338 14339 14340 14341 14342 14343 14344 14345 14346 14347 14348 14349 14350 14351 14352 14353 14354 14355 14356 14357 14358 14359 14360 14361 14362 14363 14364 14365 14366 14367 14368 14369 14370 14371 14372 14373 14374 14375 14376 14377 14378 14379 14380 14381 14382 14383 14384 14385 14386 14387 14388 14389 14390 14391 14392 14393 14394 14395 14396 14397 14398 14399 14400 14401 14402 14403 14404 14405 14406 14407 14408 14409 14410 14411 14412 14413 14414 14415 14416 14417 14418 14419 14420 14421 14422 14423 14424 14425 14426 14427 14428 14429 14430 14431 14432 14433 14434 14435 14436 14437 14438 14439 14440 14441 14442 14443 14444 14445 14446 14447 14448 14449 14450 14451 14452 14453 14454 14455 14456 14457 14458 14459 14460 14461 14462 14463 14464 14465 14466 14467 14468 14469 14470 14471 14472 14473 14474 14475 14476 14477 14478 14479 14480 14481 14482 14483 14484 14485 14486 14487 14488 14489 14490 14491 14492 14493 14494 14495 14496 14497 14498 14499 14500 14501 14502 14503 14504 14505 14506 14507 14508 14509 14510 14511 14512 14513 14514 14515 14516 14517 14518 14519 14520 14521 14522 14523 14524 14525 14526 14527 14528 14529 14530 14531 14532 14533 14534 14535 14536 14537 14538 14539 14540 14541 14542 14543 14544 14545 14546 14547 14548 14549 14550 14551 14552 14553 14554 14555 14556 14557 14558 14559 14560 14561 14562 14563 14564 14565 14566 14567 14568 14569 14570 14571 14572 14573 14574 14575 14576 14577 14578 14579 14580 14581 14582 14583 14584 14585 14586 14587 14588 14589 14590 14591 14592 14593 14594 14595 14596 14597 14598 14599 14600 14601 14602 14603 14604 14605 14606 14607 14608 14609 14610 14611 14612 14613 14614 14615 14616 14617 14618 14619 14620 14621 14622 14623 14624 14625 14626 14627 14628 14629 14630 14631 14632 14633 14634 14635 14636 14637 14638 14639 14640 14641 14642 14643 14644 14645 14646 14647 14648 14649 14650 14651 14652 14653 14654 14655 14656 14657 14658 14659 14660 14661 14662 14663 14664 14665 14666 14667 14668 14669 14670 14671 14672 14673 14674 14675 14676 14677 14678 14679 14680 14681 14682 14683 14684 14685 14686 14687 14688 14689 14690 14691 14692 14693 14694 14695 14696 14697 14698 14699 14700 14701 14702 14703 14704 14705 14706 14707 14708 14709 14710 14711 14712 14713 14714 14715 14716 14717 14718 14719 14720 14721 14722 14723 14724 14725 14726 14727 14728 14729 14730 14731 14732 14733 14734 14735 14736 14737 14738 14739 14740 14741 14742 14743 14744 14745 14746 14747 14748 14749 14750 14751 14752 14753 14754 14755 14756 14757 14758 14759 14760 14761 14762 14763 14764 14765 14766 14767 14768 14769 14770 14771 14772 14773 14774 14775 14776 14777 14778 14779 14780 14781 14782 14783 14784 14785 14786 14787 14788 14789 14790 14791 14792 14793 14794 14795 14796 14797 14798 14799 14800 14801 14802 14803 14804 14805 14806 14807 14808 14809 14810 14811 14812 14813 14814 14815 14816 14817 14818 14819 14820 14821 14822 14823 14824 14825 14826 14827 14828 14829 14830 14831 14832 14833 14834 14835 14836 14837 14838 14839 14840 14841 14842 14843 14844 14845 14846 14847 14848 14849 14850 14851 14852 14853 14854 14855 14856 14857 14858 14859 14860 14861 14862 14863 14864 14865 14866 14867 14868 14869 14870 14871 14872 14873 14874 14875 14876 14877 14878 14879 14880 14881 14882 14883 14884 14885 14886 14887 14888 14889 14890 14891 14892 14893 14894 14895 14896 14897 14898 14899 14900 14901 14902 14903 14904 14905 14906 14907 14908 14909 14910 14911 14912 14913 14914 14915 14916 14917 14918 14919 14920 14921 14922 14923 14924 14925 14926 14927 14928 14929 14930 14931 14932 14933 14934 14935 14936 14937 14938 14939 14940 14941 14942 14943 14944 14945 14946 14947 14948 14949 14950 14951 14952 14953 14954 14955 14956 14957 14958 14959 14960 14961 14962 14963 14964 14965 14966 14967 14968 14969 14970 14971 14972 14973 14974 14975 14976 14977 14978 14979 14980 14981 14982 14983 14984 14985 14986 14987 14988 14989 14990 14991 14992 14993 14994 14995 14996 14997 14998 14999 15000 15001 15002 15003 15004 15005 15006 15007 15008 15009 15010 15011 15012 15013 15014 15015 15016 15017 15018 15019 15020 15021 15022 15023 15024 15025 15026 15027 15028 15029 15030 15031 15032 15033 15034 15035 15036 15037 15038 15039 15040 15041 15042 15043 15044 15045 15046 15047 15048 15049 15050 15051 15052 15053 15054 15055 15056 15057 15058 15059 15060 15061 15062 15063 15064 15065 15066 15067 15068 15069 15070 15071 15072 15073 15074 15075 15076 15077 15078 15079 15080 15081 15082 15083 15084 15085 15086 15087 15088 15089 15090 15091 15092 15093 15094 15095 15096 15097 15098 15099 15100 15101 15102 15103 15104 15105 15106 15107 15108 15109 15110 15111 15112 15113 15114 15115 15116 15117 15118 15119 15120 15121 15122 15123 15124 15125 15126 15127 15128 15129 15130 15131 15132 15133 15134 15135 15136 15137 15138 15139 15140 15141 15142 15143 15144 15145 15146 15147 15148 15149 15150 15151 15152 15153 15154 15155 15156 15157 15158 15159 15160 15161 15162 15163 15164 15165 15166 15167 15168 15169 15170 15171 15172 15173 15174 15175 15176 15177 15178 15179 15180 15181 15182 15183 15184 15185 15186 15187 15188 15189 15190 15191 15192 15193 15194 15195 15196 15197 15198 15199 15200 15201 15202 15203 15204 15205 15206 15207 15208 15209 15210 15211 15212 15213 15214 15215 15216 15217 15218 15219 15220 15221 15222 15223 15224 15225 15226 15227 15228 15229 15230 15231 15232 15233 15234 15235 15236 15237 15238 15239 15240 15241 15242 15243 15244 15245 15246 15247 15248 15249 15250 15251 15252 15253 15254 15255 15256 15257 15258 15259 15260 15261 15262 15263 15264 15265 15266 15267 15268 15269 15270 15271 15272 15273 15274 15275 15276 15277 15278 15279 15280 15281 15282 15283 15284 15285 15286 15287 15288 15289 15290 15291 15292 15293 15294 15295 15296 15297 15298 15299 15300 15301 15302 15303 15304 15305 15306 15307 15308 15309 15310 15311 15312 15313 15314 15315 15316 15317 15318 15319 15320 15321 15322 15323 15324 15325 15326 15327 15328 15329 15330 15331 15332 15333 15334 15335 15336 15337 15338 15339 15340 15341 15342 15343 15344 15345 15346 15347 15348 15349 15350 15351 15352 15353 15354 15355 15356 15357 15358 15359 15360 15361 15362 15363 15364 15365 15366 15367 15368 15369 15370 15371 15372 15373 15374 15375 15376 15377 15378 15379 15380 15381 15382 15383 15384 15385 15386 15387 15388 15389 15390 15391 15392 15393 15394 15395 15396 15397 15398 15399 15400 15401 15402 15403 15404 15405 15406 15407 15408 15409 15410 15411 15412 15413 15414 15415 15416 15417 15418 15419 15420 15421 15422 15423 15424 15425 15426 15427 15428 15429 15430 15431 15432 15433 15434 15435 15436 15437 15438 15439 15440 15441 15442 15443 15444 15445 15446 15447 15448 15449 15450 15451 15452 15453 15454 15455 15456 15457 15458 15459 15460 15461 15462 15463 15464 15465 15466 15467 15468 15469 15470 15471 15472 15473 15474 15475 15476 15477 15478 15479 15480 15481 15482 15483 15484 15485 15486 15487 15488 15489 15490 15491 15492 15493 15494 15495 15496 15497 15498 15499 15500 15501 15502 15503 15504 15505 15506 15507 15508 15509 15510 15511 15512 15513 15514 15515 15516 15517 15518 15519 15520 15521 15522 15523 15524 15525 15526 15527 15528 15529 15530 15531 15532 15533 15534 15535 15536 15537 15538 15539 15540 15541 15542 15543 15544 15545 15546 15547 15548 15549 15550 15551 15552 15553 15554 15555 15556 15557 15558 15559 15560 15561 15562 15563 15564 15565 15566 15567 15568 15569 15570 15571 15572 15573 15574 15575 15576 15577 15578 15579 15580 15581 15582 15583 15584 15585 15586 15587 15588 15589 15590 15591 15592 15593 15594 15595 15596 15597 15598 15599 15600 15601 15602 15603 15604 15605 15606 15607 15608 15609 15610 15611 15612 15613 15614 15615 15616 15617 15618 15619 15620 15621 15622 15623 15624 15625 15626 15627 15628 15629 15630 15631 15632 15633 15634 15635 15636 15637 15638 15639 15640 15641 15642 15643 15644 15645 15646 15647 15648 15649 15650 15651 15652 15653 15654 15655 15656 15657 15658 15659 15660 15661 15662 15663 15664 15665 15666 15667 15668 15669 15670 15671 15672 15673 15674 15675 15676 15677 15678 15679 15680 15681 15682 15683 15684 15685 15686 15687 15688 15689 15690 15691 15692 15693 15694 15695 15696 15697 15698 15699 15700 15701 15702 15703 15704 15705 15706 15707 15708 15709 15710 15711 15712 15713 15714 15715 15716 15717 15718 15719 15720 15721 15722 15723 15724 15725 15726 15727 15728 15729 15730 15731 15732 15733 15734 15735 15736 15737 15738 15739 15740 15741 15742 15743 15744 15745 15746 15747 15748 15749 15750 15751 15752 15753 15754 15755 15756 15757 15758 15759 15760 15761 15762 15763 15764 15765 15766 15767 15768 15769 15770 15771 15772 15773 15774 15775 15776 15777 15778 15779 15780 15781 15782 15783 15784 15785 15786 15787 15788 15789 15790 15791 15792 15793 15794 15795 15796 15797 15798 15799 15800 15801 15802 15803 15804 15805 15806 15807 15808 15809 15810 15811 15812 15813 15814 15815 15816 15817 15818 15819 15820 15821 15822 15823 15824 15825 15826 15827 15828 15829 15830 15831 15832 15833 15834 15835 15836 15837 15838 15839 15840 15841 15842 15843 15844 15845 15846 15847 15848 15849 15850 15851 15852 15853 15854 15855 15856 15857 15858 15859 15860 15861 15862 15863 15864 15865 15866 15867 15868 15869 15870 15871 15872 15873 15874 15875 15876 15877 15878 15879 15880 15881 15882 15883 15884 15885 15886 15887 15888 15889 15890 15891 15892 15893 15894 15895 15896 15897 15898 15899 15900 15901 15902 15903 15904 15905 15906 15907 15908 15909 15910 15911 15912 15913 15914 15915 15916 15917 15918 15919 15920 15921 15922 15923 15924 15925 15926 15927 15928 15929 15930 15931 15932 15933 15934 15935 15936 15937 15938 15939 15940 15941 15942 15943 15944 15945 15946 15947 15948 15949 15950 15951 15952 15953 15954 15955 15956 15957 15958 15959 15960 15961 15962 15963 15964 15965 15966 15967 15968 15969 15970 15971 15972 15973 15974 15975 15976 15977 15978 15979 15980 15981 15982 15983 15984 15985 15986 15987 15988 15989 15990 15991 15992 15993 15994 15995 15996 15997 15998 15999 16000 16001 16002 16003 16004 16005 16006 16007 16008 16009 16010 16011 16012 16013 16014 16015 16016 16017 16018 16019 16020 16021 16022 16023 16024 16025 16026 16027 16028 16029 16030 16031 16032 16033 16034 16035 16036 16037 16038 16039 16040 16041 16042 16043 16044 16045 16046 16047 16048 16049 16050 16051 16052 16053 16054 16055 16056 16057 16058 16059 16060 16061 16062 16063 16064 16065 16066 16067 16068 16069 16070 16071 16072 16073 16074 16075 16076 16077 16078 16079 16080 16081 16082 16083 16084 16085 16086 16087 16088 16089 16090 16091 16092 16093 16094 16095 16096 16097 16098 16099 16100 16101 16102 16103 16104 16105 16106 16107 16108 16109 16110 16111 16112 16113 16114 16115 16116 16117 16118 16119 16120 16121 16122 16123 16124 16125 16126 16127 16128 16129 16130 16131 16132 16133 16134 16135 16136 16137 16138 16139 16140 16141 16142 16143 16144 16145 16146 16147 16148 16149 16150 16151 16152 16153 16154 16155 16156 16157 16158 16159 16160 16161 16162 16163 16164 16165 16166 16167 16168 16169 16170 16171 16172 16173 16174 16175 16176 16177 16178 16179 16180 16181 16182 16183 16184 16185 16186 16187 16188 16189 16190 16191 16192 16193 16194 16195 16196 16197 16198 16199 16200 16201 16202 16203 16204 16205 16206 16207 16208 16209 16210 16211 16212 16213 16214 16215 16216 16217 16218 16219 16220 16221 16222 16223 16224 16225 16226 16227 16228 16229 16230 16231 16232 16233 16234 16235 16236 16237 16238 16239 16240 16241 16242 16243 16244 16245 16246 16247 16248 16249 16250 16251 16252 16253 16254 16255 16256 16257 16258 16259 16260 16261 16262 16263 16264 16265 16266 16267 16268 16269 16270 16271 16272 16273 16274 16275 16276 16277 16278 16279 16280 16281 16282 16283 16284 16285 16286 16287 16288 16289 16290 16291 16292 16293 16294 16295 16296 16297 16298 16299 16300 16301 16302 16303 16304 16305 16306 16307 16308 16309 16310 16311 16312 16313 16314 16315 16316 16317 16318 16319 16320 16321 16322 16323 16324 16325 16326 16327 16328 16329 16330 16331 16332 16333 16334 16335 16336 16337 16338 16339 16340 16341 16342 16343 16344 16345 16346 16347 16348 16349 16350 16351 16352 16353 16354 16355 16356 16357 16358 16359 16360 16361 16362 16363 16364 16365 16366 16367 16368 16369 16370 16371 16372 16373 16374 16375 16376 16377 16378 16379 16380 16381 16382 16383 16384 16385 16386 16387 16388 16389 16390 16391 16392 16393 16394 16395 16396 16397 16398 16399 16400 16401 16402 16403 16404 16405 16406 16407 16408 16409 16410 16411 16412 16413 16414 16415 16416 16417 16418 16419 16420 16421 16422 16423 16424 16425 16426 16427 16428 16429 16430 16431 16432 16433 16434 16435 16436 16437 16438 16439 16440 16441 16442 16443 16444 16445 16446 16447 16448 16449 16450 16451 16452 16453 16454 16455 16456 16457 16458 16459 16460 16461 16462 16463 16464 16465 16466 16467 16468 16469 16470 16471 16472 16473 16474 16475 16476 16477 16478 16479 16480 16481 16482 16483 16484 16485 16486 16487 16488 16489 16490 16491 16492 16493 16494 16495 16496 16497 16498 16499 16500 16501 16502 16503 16504 16505 16506 16507 16508 16509 16510 16511 16512 16513 16514 16515 16516 16517 16518 16519 16520 16521 16522 16523 16524 16525 16526 16527 16528 16529 16530 16531 16532 16533 16534 16535 16536 16537 16538 16539 16540 16541 16542 16543 16544 16545 16546 16547 16548 16549 16550 16551 16552 16553 16554 16555 16556 16557 16558 16559 16560 16561 16562 16563 16564 16565 16566 16567 16568 16569 16570 16571 16572 16573 16574 16575 16576 16577 16578 16579 16580 16581 16582 16583 16584 16585 16586 16587 16588 16589 16590 16591 16592 16593 16594 16595 16596 16597 16598 16599 16600 16601 16602 16603 16604 16605 16606 16607 16608 16609 16610 16611 16612 16613 16614 16615 16616 16617 16618 16619 16620 16621 16622 16623 16624 16625 16626 16627 16628 16629 16630 16631 16632 16633 16634 16635 16636 16637 16638 16639 16640 16641 16642 16643 16644 16645 16646 16647 16648 16649 16650 16651 16652 16653 16654 16655 16656 16657 16658 16659 16660 16661 16662 16663 16664 16665 16666 16667 16668 16669 16670 16671 16672 16673 16674 16675 16676 16677 16678 16679 16680 16681 16682 16683 16684 16685 16686 16687 16688 16689 16690 16691 16692 16693 16694 16695 16696 16697 16698 16699 16700 16701 16702 16703 16704 16705 16706 16707 16708 16709 16710 16711 16712 16713 16714 16715 16716 16717 16718 16719 16720 16721 16722 16723 16724 16725 16726 16727 16728 16729 16730 16731 16732 16733 16734 16735 16736 16737 16738 16739 16740 16741 16742 16743 16744 16745 16746 16747 16748 16749 16750 16751 16752 16753 16754 16755 16756 16757 16758 16759 16760 16761 16762 16763 16764 16765 16766 16767 16768 16769 16770 16771 16772 16773 16774 16775 16776 16777 16778 16779 16780 16781 16782 16783 16784 16785 16786 16787 16788 16789 16790 16791 16792 16793 16794 16795 16796 16797 16798 16799 16800 16801 16802 16803 16804 16805 16806 16807 16808 16809 16810 16811 16812 16813 16814 16815 16816 16817 16818 16819 16820 16821 16822 16823 16824 16825 16826 16827 16828 16829 16830 16831 16832 16833 16834 16835 16836 16837 16838 16839 16840 16841 16842 16843 16844 16845 16846 16847 16848 16849 16850 16851 16852 16853 16854 16855 16856 16857 16858 16859 16860 16861 16862 16863 16864 16865 16866 16867 16868 16869 16870 16871 16872 16873 16874 16875 16876 16877 16878 16879 16880 16881 16882 16883 16884 16885 16886 16887 16888 16889 16890 16891 16892 16893 16894 16895 16896 16897 16898 16899 16900 16901 16902 16903 16904 16905 16906 16907 16908 16909 16910 16911 16912 16913 16914 16915 16916 16917 16918 16919 16920 16921 16922 16923 16924 16925 16926 16927 16928 16929 16930 16931 16932 16933 16934 16935 16936 16937 16938 16939 16940 16941 16942 16943 16944 16945 16946 16947 16948 16949 16950 16951 16952 16953 16954 16955 16956 16957 16958 16959 16960 16961 16962 16963 16964 16965 16966 16967 16968 16969 16970 16971 16972 16973 16974 16975 16976 16977 16978 16979 16980 16981 16982 16983 16984 16985 16986 16987 16988 16989 16990 16991 16992 16993 16994 16995 16996 16997 16998 16999 17000 17001 17002 17003 17004 17005 17006 17007 17008 17009 17010 17011 17012 17013 17014 17015 17016 17017 17018 17019 17020 17021 17022 17023 17024 17025 17026 17027 17028 17029 17030 17031 17032 17033 17034 17035 17036 17037 17038 17039 17040 17041 17042 17043 17044 17045 17046 17047 17048 17049 17050 17051 17052 17053 17054 17055 17056 17057 17058 17059 17060 17061 17062 17063 17064 17065 17066 17067 17068 17069 17070 17071 17072 17073 17074 17075 17076 17077 17078 17079 17080 17081 17082 17083 17084 17085 17086 17087 17088 17089 17090 17091 17092 17093 17094 17095 17096 17097 17098 17099 17100 17101 17102 17103 17104 17105 17106 17107 17108 17109 17110 17111 17112 17113 17114 17115 17116 17117 17118 17119 17120 17121 17122 17123 17124 17125 17126 17127 17128 17129 17130 17131 17132 17133 17134 17135 17136 17137 17138 17139 17140 17141 17142 17143 17144 17145 17146 17147 17148 17149 17150 17151 17152 17153 17154 17155 17156 17157 17158 17159 17160 17161 17162 17163 17164 17165 17166 17167 17168 17169 17170 17171 17172 17173 17174 17175 17176 17177 17178 17179 17180 17181 17182 17183 17184 17185 17186 17187 17188 17189 17190 17191 17192 17193 17194 17195 17196 17197 17198 17199 17200 17201 17202 17203 17204 17205 17206 17207 17208 17209 17210 17211 17212 17213 17214 17215 17216 17217 17218 17219 17220 17221 17222 17223 17224 17225 17226 17227 17228 17229 17230 17231 17232 17233 17234 17235 17236 17237 17238 17239 17240 17241 17242 17243 17244 17245 17246 17247 17248 17249 17250 17251 17252 17253 17254 17255 17256 17257 17258 17259 17260 17261 17262 17263 17264 17265 17266 17267 17268 17269 17270 17271 17272 17273 17274 17275 17276 17277 17278 17279 17280 17281 17282 17283 17284 17285 17286 17287 17288 17289 17290 17291 17292 17293 17294 17295 17296 17297 17298 17299 17300 17301 17302 17303 17304 17305 17306 17307 17308 17309 17310 17311 17312 17313 17314 17315 17316 17317 17318 17319 17320 17321 17322 17323 17324 17325 17326 17327 17328 17329 17330 17331 17332 17333 17334 17335 17336 17337 17338 17339 17340 17341 17342 17343 17344 17345 17346 17347 17348 17349 17350 17351 17352 17353 17354 17355 17356 17357 17358 17359 17360 17361 17362 17363 17364 17365 17366 17367 17368 17369 17370 17371 17372 17373 17374 17375 17376 17377 17378 17379 17380 17381 17382 17383 17384 17385 17386 17387 17388 17389 17390 17391 17392 17393 17394 17395 17396 17397 17398 17399 17400 17401 17402 17403 17404 17405 17406 17407 17408 17409 17410 17411 17412 17413 17414 17415 17416 17417 17418 17419 17420 17421 17422 17423 17424 17425 17426 17427 17428 17429 17430 17431 17432 17433 17434 17435 17436 17437 17438 17439 17440 17441 17442 17443 17444 17445 17446 17447 17448 17449 17450 17451 17452 17453 17454 17455 17456 17457 17458 17459 17460 17461 17462 17463 17464 17465 17466 17467 17468 17469 17470 17471 17472 17473 17474 17475 17476 17477 17478 17479 17480 17481 17482 17483 17484 17485 17486 17487 17488 17489 17490 17491 17492 17493 17494 17495 17496 17497 17498 17499 17500 17501 17502 17503 17504 17505 17506 17507 17508 17509 17510 17511 17512 17513 17514 17515 17516 17517 17518 17519 17520 17521 17522 17523 17524 17525 17526 17527 17528 17529 17530 17531 17532 17533 17534 17535 17536 17537 17538 17539 17540 17541 17542 17543 17544 17545 17546 17547 17548 17549 17550 17551 17552 17553 17554 17555 17556 17557 17558 17559 17560 17561 17562 17563 17564 17565 17566 17567 17568 17569 17570 17571 17572 17573 17574 17575 17576 17577 17578 17579 17580 17581 17582 17583 17584 17585 17586 17587 17588 17589 17590 17591 17592 17593 17594 17595 17596 17597 17598 17599 17600 17601 17602 17603 17604 17605 17606 17607 17608 17609 17610 17611 17612 17613 17614 17615 17616 17617 17618 17619 17620 17621 17622 17623 17624 17625 17626 17627 17628 17629 17630 17631 17632 17633 17634 17635 17636 17637 17638 17639 17640 17641 17642 17643 17644 17645 17646 17647 17648 17649 17650 17651 17652 17653 17654 17655 17656 17657 17658 17659 17660 17661 17662 17663 17664 17665 17666 17667 17668 17669 17670 17671 17672 17673 17674 17675 17676 17677 17678 17679 17680 17681 17682 17683 17684 17685 17686 17687 17688 17689 17690 17691 17692 17693 17694 17695 17696 17697 17698 17699 17700 17701 17702 17703 17704 17705 17706 17707 17708 17709 17710 17711 17712 17713 17714 17715 17716 17717 17718 17719 17720 17721 17722 17723 17724 17725 17726 17727 17728 17729 17730 17731 17732 17733 17734 17735 17736 17737 17738 17739 17740 17741 17742 17743 17744 17745 17746 17747 17748 17749 17750 17751 17752 17753 17754 17755 17756 17757 17758 17759 17760 17761 17762 17763 17764 17765 17766 17767 17768 17769 17770 17771 17772 17773 17774 17775 17776 17777 17778 17779 17780 17781 17782 17783 17784 17785 17786 17787 17788 17789 17790 17791 17792 17793 17794 17795 17796 17797 17798 17799 17800 17801 17802 17803 17804 17805 17806 17807 17808 17809 17810 17811 17812 17813 17814 17815 17816 17817 17818 17819 17820 17821 17822 17823 17824 17825 17826 17827 17828 17829 17830 17831 17832 17833 17834 17835 17836 17837 17838 17839 17840 17841 17842 17843 17844 17845 17846 17847 17848 17849 17850 17851 17852 17853 17854 17855 17856 17857 17858 17859 17860 17861 17862 17863 17864 17865 17866 17867 17868 17869 17870 17871 17872 17873 17874 17875 17876 17877 17878 17879 17880 17881 17882 17883 17884 17885 17886 17887 17888 17889 17890 17891 17892 17893 17894 17895 17896 17897 17898 17899 17900 17901 17902 17903 17904 17905 17906 17907 17908 17909 17910 17911 17912 17913 17914 17915 17916 17917 17918 17919 17920 17921 17922 17923 17924 17925 17926 17927 17928 17929 17930 17931 17932 17933 17934 17935 17936 17937 17938 17939 17940 17941 17942 17943 17944 17945 17946 17947 17948 17949 17950 17951 17952 17953 17954 17955 17956 17957 17958 17959 17960 17961 17962 17963 17964 17965 17966 17967 17968 17969 17970 17971 17972 17973 17974 17975 17976 17977 17978 17979 17980 17981 17982 17983 17984 17985 17986 17987 17988 17989 17990 17991 17992 17993 17994 17995 17996 17997 17998 17999 18000 18001 18002 18003 18004 18005 18006 18007 18008 18009 18010 18011 18012 18013 18014 18015 18016 18017 18018 18019 18020 18021 18022 18023 18024 18025 18026 18027 18028 18029 18030 18031 18032 18033 18034 18035 18036 18037 18038 18039 18040 18041 18042 18043 18044 18045 18046 18047 18048 18049 18050 18051 18052 18053 18054 18055 18056 18057 18058 18059 18060 18061 18062 18063 18064 18065 18066 18067 18068 18069 18070 18071 18072 18073 18074 18075 18076 18077 18078 18079 18080 18081 18082 18083 18084 18085 18086 18087 18088 18089 18090 18091 18092 18093 18094 18095 18096 18097 18098 18099 18100 18101 18102 18103 18104 18105 18106 18107 18108 18109 18110 18111 18112 18113 18114 18115 18116 18117 18118 18119 18120 18121 18122 18123 18124 18125 18126 18127 18128 18129 18130 18131 18132 18133 18134 18135 18136 18137 18138 18139 18140 18141 18142 18143 18144 18145 18146 18147 18148 18149 18150 18151 18152 18153 18154 18155 18156 18157 18158 18159 18160 18161 18162 18163 18164 18165 18166 18167 18168 18169 18170 18171 18172 18173 18174 18175 18176 18177 18178 18179 18180 18181 18182 18183 18184 18185 18186 18187 18188 18189 18190 18191 18192 18193 18194 18195 18196 18197 18198 18199 18200 18201 18202 18203 18204 18205 18206 18207 18208 18209 18210 18211 18212 18213 18214 18215 18216 18217 18218 18219 18220 18221 18222 18223 18224 18225 18226 18227 18228 18229 18230 18231 18232 18233 18234 18235 18236 18237 18238 18239 18240 18241 18242 18243 18244 18245 18246 18247 18248 18249 18250 18251 18252 18253 18254 18255 18256 18257 18258 18259 18260 18261 18262 18263 18264 18265 18266 18267 18268 18269 18270 18271 18272 18273 18274 18275 18276 18277 18278 18279 18280 18281 18282 18283 18284 18285 18286 18287 18288 18289 18290 18291 18292 18293 18294 18295 18296 18297 18298 18299 18300 18301 18302 18303 18304 18305 18306 18307 18308 18309 18310 18311 18312 18313 18314 18315 18316 18317 18318 18319 18320 18321 18322 18323 18324 18325 18326 18327 18328 18329 18330 18331 18332 18333 18334 18335 18336 18337 18338 18339 18340 18341 18342 18343 18344 18345 18346 18347 18348 18349 18350 18351 18352 18353 18354 18355 18356 18357 18358 18359 18360 18361 18362 18363 18364 18365 18366 18367 18368 18369 18370 18371 18372 18373 18374 18375 18376 18377 18378 18379 18380 18381 18382 18383 18384 18385 18386 18387 18388 18389 18390 18391 18392 18393 18394 18395 18396 18397 18398 18399 18400 18401 18402 18403 18404 18405 18406 18407 18408 18409 18410 18411 18412 18413 18414 18415 18416 18417 18418 18419 18420 18421 18422 18423 18424 18425 18426 18427 18428 18429 18430 18431 18432 18433 18434 18435 18436 18437 18438 18439 18440 18441 18442 18443 18444 18445 18446 18447 18448 18449 18450 18451 18452 18453 18454 18455 18456 18457 18458 18459 18460 18461 18462 18463 18464 18465 18466 18467 18468 18469 18470 18471 18472 18473 18474 18475 18476 18477 18478 18479 18480 18481 18482 18483 18484 18485 18486 18487 18488 18489 18490 18491 18492 18493 18494 18495 18496 18497 18498 18499 18500 18501 18502 18503 18504 18505 18506 18507 18508 18509 18510 18511 18512 18513 18514 18515 18516 18517 18518 18519 18520 18521 18522 18523 18524 18525 18526 18527 18528 18529 18530 18531 18532 18533 18534 18535 18536 18537 18538 18539 18540 18541 18542 18543 18544 18545 18546 18547 18548 18549 18550 18551 18552 18553 18554 18555 18556 18557 18558 18559 18560 18561 18562 18563 18564 18565 18566 18567 18568 18569 18570 18571 18572 18573 18574 18575 18576 18577 18578 18579 18580 18581 18582 18583 18584 18585 18586 18587 18588 18589 18590 18591 18592 18593 18594 18595 18596 18597 18598 18599 18600 18601 18602 18603 18604 18605 18606 18607 18608 18609 18610 18611 18612 18613 18614 18615 18616 18617 18618 18619 18620 18621 18622 18623 18624 18625 18626 18627 18628 18629 18630 18631 18632 18633 18634 18635 18636 18637 18638 18639 18640 18641 18642 18643 18644 18645 18646 18647 18648 18649 18650 18651 18652 18653 18654 18655 18656 18657 18658 18659 18660 18661 18662 18663 18664 18665 18666 18667 18668 18669 18670 18671 18672 18673 18674 18675 18676 18677 18678 18679 18680 18681 18682 18683 18684 18685 18686 18687 18688 18689 18690 18691 18692 18693 18694 18695 18696 18697 18698 18699 18700 18701 18702 18703 18704 18705 18706 18707 18708 18709 18710 18711 18712 18713 18714 18715 18716 18717 18718 18719 18720 18721 18722 18723 18724 18725 18726 18727 18728 18729 18730 18731 18732 18733 18734 18735 18736 18737 18738 18739 18740 18741 18742 18743 18744 18745 18746 18747 18748 18749 18750 18751 18752 18753 18754 18755 18756 18757 18758 18759 18760 18761 18762 18763 18764 18765 18766 18767 18768 18769 18770 18771 18772 18773 18774 18775 18776 18777 18778 18779 18780 18781 18782 18783 18784 18785 18786 18787 18788 18789 18790 18791 18792 18793 18794 18795 18796 18797 18798 18799 18800 18801 18802 18803 18804 18805 18806 18807 18808 18809 18810 18811 18812 18813 18814 18815 18816 18817 18818 18819 18820 18821 18822 18823 18824 18825 18826 18827 18828 18829 18830 18831 18832 18833 18834 18835 18836 18837 18838 18839 18840 18841 18842 18843 18844 18845 18846 18847 18848 18849 18850 18851 18852 18853 18854 18855 18856 18857 18858 18859 18860 18861 18862 18863 18864 18865 18866 18867 18868 18869 18870 18871 18872 18873 18874 18875 18876 18877 18878 18879 18880 18881 18882 18883 18884 18885 18886 18887 18888 18889 18890 18891 18892 18893 18894 18895 18896 18897 18898 18899 18900 18901 18902 18903 18904 18905 18906 18907 18908 18909 18910 18911 18912 18913 18914 18915 18916 18917 18918 18919 18920 18921 18922 18923 18924 18925 18926 18927 18928 18929 18930 18931 18932 18933 18934 18935 18936 18937 18938 18939 18940 18941 18942 18943 18944 18945 18946 18947 18948 18949 18950 18951 18952 18953 18954 18955 18956 18957 18958 18959 18960 18961 18962 18963 18964 18965 18966 18967 18968 18969 18970 18971 18972 18973 18974 18975 18976 18977 18978 18979 18980 18981 18982 18983 18984 18985 18986 18987 18988 18989 18990 18991 18992 18993 18994 18995 18996 18997 18998 18999 19000 19001 19002 19003 19004 19005 19006 19007 19008 19009 19010 19011 19012 19013 19014 19015 19016 19017 19018 19019 19020 19021 19022 19023 19024 19025 19026 19027 19028 19029 19030 19031 19032 19033 19034 19035 19036 19037 19038 19039 19040 19041 19042 19043 19044 19045 19046 19047 19048 19049 19050 19051 19052 19053 19054 19055 19056 19057 19058 19059 19060 19061 19062 19063 19064 19065 19066 19067 19068 19069 19070 19071 19072 19073 19074 19075 19076 19077 19078 19079 19080 19081 19082 19083 19084 19085 19086 19087 19088 19089 19090 19091 19092 19093 19094 19095 19096 19097 19098 19099 19100 19101 19102 19103 19104 19105 19106 19107 19108 19109 19110 19111 19112 19113 19114 19115 19116 19117 19118 19119 19120 19121 19122 19123 19124 19125 19126 19127 19128 19129 19130 19131 19132 19133 19134 19135 19136 19137 19138 19139 19140 19141 19142 19143 19144 19145 19146 19147 19148 19149 19150 19151 19152 19153 19154 19155 19156 19157 19158 19159 19160 19161 19162 19163 19164 19165 19166 19167 19168 19169 19170 19171 19172 19173 19174 19175 19176 19177 19178 19179 19180 19181 19182 19183 19184 19185 19186 19187 19188 19189 19190 19191 19192 19193 19194 19195 19196 19197 19198 19199 19200 19201 19202 19203 19204 19205 19206 19207 19208 19209 19210 19211 19212 19213 19214 19215 19216 19217 19218 19219 19220 19221 19222 19223 19224 19225 19226 19227 19228 19229 19230 19231 19232 19233 19234 19235 19236 19237 19238 19239 19240 19241 19242 19243 19244 19245 19246 19247 19248 19249 19250 19251 19252 19253 19254 19255 19256 19257 19258 19259 19260 19261 19262 19263 19264 19265 19266 19267 19268 19269 19270 19271 19272 19273 19274 19275 19276 19277 19278 19279 19280 19281 19282 19283 19284 19285 19286 19287 19288 19289 19290 19291 19292 19293 19294 19295 19296 19297 19298 19299 19300 19301 19302 19303 19304 19305 19306 19307 19308 19309 19310 19311 19312 19313 19314 19315 19316 19317 19318 19319 19320 19321 19322 19323 19324 19325 19326 19327 19328 19329 19330 19331 19332 19333 19334 19335 19336 19337 19338 19339 19340 19341 19342 19343 19344 19345 19346 19347 19348 19349 19350 19351 19352 19353 19354 19355 19356 19357 19358 19359 19360 19361 19362 19363 19364 19365 19366 19367 19368 19369 19370 19371 19372 19373 19374 19375 19376 19377 19378 19379 19380 19381 19382 19383 19384 19385 19386 19387 19388 19389 19390 19391 19392 19393 19394 19395 19396 19397 19398 19399 19400 19401 19402 19403 19404 19405 19406 19407 19408 19409 19410 19411 19412 19413 19414 19415 19416 19417 19418 19419 19420 19421 19422 19423 19424 19425 19426 19427 19428 19429 19430 19431 19432 19433 19434 19435 19436 19437 19438 19439 19440 19441 19442 19443 19444 19445 19446 19447 19448 19449 19450 19451 19452 19453 19454 19455 19456 19457 19458 19459 19460 19461 19462 19463 19464 19465 19466 19467 19468 19469 19470 19471 19472 19473 19474 19475 19476 19477 19478 19479 19480 19481 19482 19483 19484 19485 19486 19487 19488 19489 19490 19491 19492 19493 19494 19495 19496 19497 19498 19499 19500 19501 19502 19503 19504 19505 19506 19507 19508 19509 19510 19511 19512 19513 19514 19515 19516 19517 19518 19519 19520 19521 19522 19523 19524 19525 19526 19527 19528 19529 19530 19531 19532 19533 19534 19535 19536 19537 19538 19539 19540 19541 19542 19543 19544 19545 19546 19547 19548 19549 19550 19551 19552 19553 19554 19555 19556 19557 19558 19559 19560 19561 19562 19563 19564 19565 19566 19567 19568 19569 19570 19571 19572 19573 19574 19575 19576 19577 19578 19579 19580 19581 19582 19583 19584 19585 19586 19587 19588 19589 19590 19591 19592 19593 19594 19595 19596 19597 19598 19599 19600 19601 19602 19603 19604 19605 19606 19607 19608 19609 19610 19611 19612 19613 19614 19615 19616 19617 19618 19619 19620 19621 19622 19623 19624 19625 19626 19627 19628 19629 19630 19631 19632 19633 19634 19635 19636 19637 19638 19639 19640 19641 19642 19643 19644 19645 19646 19647 19648 19649 19650 19651 19652 19653 19654 19655 19656 19657 19658 19659 19660 19661 19662 19663 19664 19665 19666 19667 19668 19669 19670 19671 19672 19673 19674 19675 19676 19677 19678 19679 19680 19681 19682 19683 19684 19685 19686 19687 19688 19689 19690 19691 19692 19693 19694 19695 19696 19697 19698 19699 19700 19701 19702 19703 19704 19705 19706 19707 19708 19709 19710 19711 19712 19713 19714 19715 19716 19717 19718 19719 19720 19721 19722 19723 19724 19725 19726 19727 19728 19729 19730 19731 19732 19733 19734 19735 19736 19737 19738 19739 19740 19741 19742 19743 19744 19745 19746 19747 19748 19749 19750 19751 19752 19753 19754 19755 19756 19757 19758 19759 19760 19761 19762 19763 19764 19765 19766 19767 19768 19769 19770 19771 19772 19773 19774 19775 19776 19777 19778 19779 19780 19781 19782 19783 19784 19785 19786 19787 19788 19789 19790 19791 19792 19793 19794 19795 19796 19797 19798 19799 19800 19801 19802 19803 19804 19805 19806 19807 19808 19809 19810 19811 19812 19813 19814 19815 19816 19817 19818 19819 19820 19821 19822 19823 19824 19825 19826 19827 19828 19829 19830 19831 19832 19833 19834 19835 19836 19837 19838 19839 19840 19841 19842 19843 19844 19845 19846 19847 19848 19849 19850 19851 19852 19853 19854 19855 19856 19857 19858 19859 19860 19861 19862 19863 19864 19865 19866 19867 19868 19869 19870 19871 19872 19873 19874 19875 19876 19877 19878 19879 19880 19881 19882 19883 19884 19885 19886 19887 19888 19889 19890 19891 19892 19893 19894 19895 19896 19897 19898 19899 19900 19901 19902 19903 19904 19905 19906 19907 19908 19909 19910 19911 19912 19913 19914 19915 19916 19917 19918 19919 19920 19921 19922 19923 19924 19925 19926 19927 19928 19929 19930 19931 19932 19933 19934 19935 19936 19937 19938 19939 19940 19941 19942 19943 19944 19945 19946 19947 19948 19949 19950 19951 19952 19953 19954 19955 19956 19957 19958 19959 19960 19961 19962 19963 19964 19965 19966 19967 19968 19969 19970 19971 19972 19973 19974 19975 19976 19977 19978 19979 19980 19981 19982 19983 19984 19985 19986 19987 19988 19989 19990 19991 19992 19993 19994 19995 19996 19997 19998 19999 20000 20001 20002 20003 20004 20005 20006 20007 20008 20009 20010 20011 20012 20013 20014 20015 20016 20017 20018 20019 20020 20021 20022 20023 20024 20025 20026 20027 20028 20029 20030 20031 20032 20033 20034 20035 20036 20037 20038 20039 20040 20041 20042 20043 20044 20045 20046 20047 20048 20049 20050 20051 20052 20053 20054 20055 20056 20057 20058 20059 20060 20061 20062 20063 20064 20065 20066 20067 20068 20069 20070 20071 20072 20073 20074 20075 20076 20077 20078 20079 20080 20081 20082 20083 20084 20085 20086 20087 20088 20089 20090 20091 20092 20093 20094 20095 20096 20097 20098 20099 20100 20101 20102 20103 20104 20105 20106 20107 20108 20109 20110 20111 20112 20113 20114 20115 20116 20117 20118 20119 20120 20121 20122 20123 20124 20125 20126 20127 20128 20129 20130 20131 20132 20133 20134 20135 20136 20137 20138 20139 20140 20141 20142 20143 20144 20145 20146 20147 20148 20149 20150 20151 20152 20153 20154 20155 20156 20157 20158 20159 20160 20161 20162 20163 20164 20165 20166 20167 20168 20169 20170 20171 20172 20173 20174 20175 20176 20177 20178 20179 20180 20181 20182 20183 20184 20185 20186 20187 20188 20189 20190 20191 20192 20193 20194 20195 20196 20197 20198 20199 20200 20201 20202 20203 20204 20205 20206 20207 20208 20209 20210 20211 20212 20213 20214 20215 20216 20217 20218 20219 20220 20221 20222 20223 20224 20225 20226 20227 20228 20229 20230 20231 20232 20233 20234 20235 20236 20237 20238 20239 20240 20241 20242 20243 20244 20245 20246 20247 20248 20249 20250 20251 20252 20253 20254 20255 20256 20257 20258 20259 20260 20261 20262 20263 20264 20265 20266 20267 20268 20269 20270 20271 20272 20273 20274 20275 20276 20277 20278 20279 20280 20281 20282 20283 20284 20285 20286 20287 20288 20289 20290 20291 20292 20293 20294 20295 20296 20297 20298 20299 20300 20301 20302 20303 20304 20305 20306 20307 20308 20309 20310 20311 20312 20313 20314 20315 20316 20317 20318 20319 20320 20321 20322 20323 20324 20325 20326 20327 20328 20329 20330 20331 20332 20333 20334 20335 20336 20337 20338 20339 20340 20341 20342 20343 20344 20345 20346 20347 20348 20349 20350 20351 20352 20353 20354 20355 20356 20357 20358 20359 20360 20361 20362 20363 20364 20365 20366 20367 20368 20369 20370 20371 20372 20373 20374 20375 20376 20377 20378 20379 20380 20381 20382 20383 20384 20385 20386 20387 20388 20389 20390 20391 20392 20393 20394 20395 20396 20397 20398 20399 20400 20401 20402 20403 20404 20405 20406 20407 20408 20409 20410 20411 20412 20413 20414 20415 20416 20417 20418 20419 20420 20421 20422 20423 20424 20425 20426 20427 20428 20429 20430 20431 20432 20433 20434 20435 20436 20437 20438 20439 20440 20441 20442 20443 20444 20445 20446 20447 20448 20449 20450 20451 20452 20453 20454 20455 20456 20457 20458 20459 20460 20461 20462 20463 20464 20465 20466 20467 20468 20469 20470 20471 20472 20473 20474 20475 20476 20477 20478 20479 20480 20481 20482 20483 20484 20485 20486 20487 20488 20489 20490 20491 20492 20493 20494 20495 20496 20497 20498 20499 20500 20501 20502 20503 20504 20505 20506 20507 20508 20509 20510 20511 20512 20513 20514 20515 20516 20517 20518 20519 20520 20521 20522 20523 20524 20525 20526 20527 20528 20529 20530 20531 20532 20533 20534 20535 20536 20537 20538 20539 20540 20541 20542 20543 20544 20545 20546 20547 20548 20549 20550 20551 20552 20553 20554 20555 20556 20557 20558 20559 20560 20561 20562 20563 20564 20565 20566 20567 20568 20569 20570 20571 20572 20573 20574 20575 20576 20577 20578 20579 20580 20581 20582 20583 20584 20585 20586 20587 20588 20589 20590 20591 20592 20593 20594 20595 20596 20597 20598 20599 20600 20601 20602 20603 20604 20605 20606 20607 20608 20609 20610 20611 20612 20613 20614 20615 20616 20617 20618 20619 20620 20621 20622 20623 20624 20625 20626 20627 20628 20629 20630 20631 20632 20633 20634 20635 20636 20637 20638 20639 20640 20641 20642 20643 20644 20645 20646 20647 20648 20649 20650 20651 20652 20653 20654 20655 20656 20657 20658 20659 20660 20661 20662 20663 20664 20665 20666 20667 20668 20669 20670 20671 20672 20673 20674 20675 20676 20677 20678 20679 20680 20681 20682 20683 20684 20685 20686 20687 20688 20689 20690 20691 20692 20693 20694 20695 20696 20697 20698 20699 20700 20701 20702 20703 20704 20705 20706 20707 20708 20709 20710 20711 20712 20713 20714 20715 20716 20717 20718 20719 20720 20721 20722 20723 20724 20725 20726 20727 20728 20729 20730 20731 20732 20733 20734 20735 20736 20737 20738 20739 20740 20741 20742 20743 20744 20745 20746 20747 20748 20749 20750 20751 20752 20753 20754 20755 20756 20757 20758 20759 20760 20761 20762 20763 20764 20765 20766 20767 20768 20769 20770 20771 20772 20773 20774 20775 20776 20777 20778 20779 20780 20781 20782 20783 20784 20785 20786 20787 20788 20789 20790 20791 20792 20793 20794 20795 20796 20797 20798 20799 20800 20801 20802 20803 20804 20805 20806 20807 20808 20809 20810 20811 20812 20813 20814 20815 20816 20817 20818 20819 20820 20821 20822 20823 20824 20825 20826 20827 20828 20829 20830 20831 20832 20833 20834 20835 20836 20837 20838 20839 20840 20841 20842 20843 20844 20845 20846 20847 20848 20849 20850 20851 20852 20853 20854 20855 20856 20857 20858 20859 20860 20861 20862 20863 20864 20865 20866 20867 20868 20869 20870 20871 20872 20873 20874 20875 20876 20877 20878 20879 20880 20881 20882 20883 20884 20885 20886 20887 20888 20889 20890 20891 20892 20893 20894 20895 20896 20897 20898 20899 20900 20901 20902 20903 20904 20905 20906 20907 20908 20909 20910 20911 20912 20913 20914 20915 20916 20917 20918 20919 20920 20921 20922 20923 20924 20925 20926 20927 20928 20929 20930 20931 20932 20933 20934 20935 20936 20937 20938 20939 20940 20941 20942 20943 20944 20945 20946 20947 20948 20949 20950 20951 20952 20953 20954 20955 20956 20957 20958 20959 20960 20961 20962 20963 20964 20965 20966 20967 20968 20969 20970 20971 20972 20973 20974 20975 20976 20977 20978 20979 20980 20981 20982 20983 20984 20985 20986 20987 20988 20989 20990 20991 20992 20993 20994 20995 20996 20997 20998 20999 21000 21001 21002 21003 21004 21005 21006 21007 21008 21009 21010 21011 21012 21013 21014 21015 21016 21017 21018 21019 21020 21021 21022 21023 21024 21025 21026 21027 21028 21029 21030 21031 21032 21033 21034 21035 21036 21037 21038 21039 21040 21041 21042 21043 21044 21045 21046 21047 21048 21049 21050 21051 21052 21053 21054 21055 21056 21057 21058 21059 21060 21061 21062 21063 21064 21065 21066 21067 21068 21069 21070 21071 21072 21073 21074 21075 21076 21077 21078 21079 21080 21081 21082 21083 21084 21085 21086 21087 21088 21089 21090 21091 21092 21093 21094 21095 21096 21097 21098 21099 21100 21101 21102 21103 21104 21105 21106 21107 21108 21109 21110 21111 21112 21113 21114 21115 21116 21117 21118 21119 21120 21121 21122 21123 21124 21125 21126 21127 21128 21129 21130 21131 21132 21133 21134 21135 21136 21137 21138 21139 21140 21141 21142 21143 21144 21145 21146 21147 21148 21149 21150 21151 21152 21153 21154 21155 21156 21157 21158 21159 21160 21161 21162 21163 21164 21165 21166 21167 21168 21169 21170 21171 21172 21173 21174 21175 21176 21177 21178 21179 21180 21181 21182 21183 21184 21185 21186 21187 21188 21189 21190 21191 21192 21193 21194 21195 21196 21197 21198 21199 21200 21201 21202 21203 21204 21205 21206 21207 21208 21209 21210 21211 21212 21213 21214 21215 21216 21217 21218 21219 21220 21221 21222 21223 21224 21225 21226 21227 21228 21229 21230 21231 21232 21233 21234 21235 21236 21237 21238 21239 21240 21241 21242 21243 21244 21245 21246 21247 21248 21249 21250 21251 21252 21253 21254 21255 21256 21257 21258 21259 21260 21261 21262 21263 21264 21265 21266 21267 21268 21269 21270 21271 21272 21273 21274 21275 21276 21277 21278 21279 21280 21281 21282 21283 21284 21285 21286 21287 21288 21289 21290 21291 21292 21293 21294 21295 21296 21297 21298 21299 21300 21301 21302 21303 21304 21305 21306 21307 21308 21309 21310 21311 21312 21313 21314 21315 21316 21317 21318 21319 21320 21321 21322 21323 21324 21325 21326 21327 21328 21329 21330 21331 21332 21333 21334 21335 21336 21337 21338 21339 21340 21341 21342 21343 21344 21345 21346 21347 21348 21349 21350 21351 21352 21353 21354 21355 21356 21357 21358 21359 21360 21361 21362 21363 21364 21365 21366 21367 21368 21369 21370 21371 21372 21373 21374 21375 21376 21377 21378 21379 21380 21381 21382 21383 21384 21385 21386 21387 21388 21389 21390 21391 21392 21393 21394 21395 21396 21397 21398 21399 21400 21401 21402 21403 21404 21405 21406 21407 21408 21409 21410 21411 21412 21413 21414 21415 21416 21417 21418 21419 21420 21421 21422 21423 21424 21425 21426 21427 21428 21429 21430 21431 21432 21433 21434 21435 21436 21437 21438 21439 21440 21441 21442 21443 21444 21445 21446 21447 21448 21449 21450 21451 21452 21453 21454 21455 21456 21457 21458 21459 21460 21461 21462 21463 21464 21465 21466 21467 21468 21469 21470 21471 21472 21473 21474 21475 21476 21477 21478 21479 21480 21481 21482 21483 21484 21485 21486 21487 21488 21489 21490 21491 21492 21493 21494 21495 21496 21497 21498 21499 21500 21501 21502 21503 21504 21505 21506 21507 21508 21509 21510 21511 21512 21513 21514 21515 21516 21517 21518 21519 21520 21521 21522 21523 21524 21525 21526 21527 21528 21529 21530 21531 21532 21533 21534 21535 21536 21537 21538 21539 21540 21541 21542 21543 21544 21545 21546 21547 21548 21549 21550 21551 21552 21553 21554 21555 21556 21557 21558 21559 21560 21561 21562 21563 21564 21565 21566 21567 21568 21569 21570 21571 21572 21573 21574 21575 21576 21577 21578 21579 21580 21581 21582 21583 21584 21585 21586 21587 21588 21589 21590 21591 21592 21593 21594 21595 21596 21597 21598 21599 21600 21601 21602 21603 21604 21605 21606 21607 21608 21609 21610 21611 21612 21613 21614 21615 21616 21617 21618 21619 21620 21621 21622 21623 21624 21625 21626 21627 21628 21629 21630 21631 21632 21633 21634 21635 21636 21637 21638 21639 21640 21641 21642 21643 21644 21645 21646 21647 21648 21649 21650 21651 21652 21653 21654 21655 21656 21657 21658 21659 21660 21661 21662 21663 21664 21665 21666 21667 21668 21669 21670 21671 21672 21673 21674 21675 21676 21677 21678 21679 21680 21681 21682 21683 21684 21685 21686 21687 21688 21689 21690 21691 21692 21693 21694 21695 21696 21697 21698 21699 21700 21701 21702 21703 21704 21705 21706 21707 21708 21709 21710 21711 21712 21713 21714 21715 21716 21717 21718 21719 21720 21721 21722 21723 21724 21725 21726 21727 21728 21729 21730 21731 21732 21733 21734 21735 21736 21737 21738 21739 21740 21741 21742 21743 21744 21745 21746 21747 21748 21749 21750 21751 21752 21753 21754 21755 21756 21757 21758 21759 21760 21761 21762 21763 21764 21765 21766 21767 21768 21769 21770 21771 21772 21773 21774 21775 21776 21777 21778 21779 21780 21781 21782 21783 21784 21785 21786 21787 21788 21789 21790 21791 21792 21793 21794 21795 21796 21797 21798 21799 21800 21801 21802 21803 21804 21805 21806 21807 21808 21809 21810 21811 21812 21813 21814 21815 21816 21817 21818 21819 21820 21821 21822 21823 21824 21825 21826 21827 21828 21829 21830 21831 21832 21833 21834 21835 21836 21837 21838 21839 21840 21841 21842 21843 21844 21845 21846 21847 21848 21849 21850 21851 21852 21853 21854 21855 21856 21857 21858 21859 21860 21861 21862 21863 21864 21865 21866 21867 21868 21869 21870 21871 21872 21873 21874 21875 21876 21877 21878 21879 21880 21881 21882 21883 21884 21885 21886 21887 21888 21889 21890 21891 21892 21893 21894 21895 21896 21897 21898 21899 21900 21901 21902 21903 21904 21905 21906 21907 21908 21909 21910 21911 21912 21913 21914 21915 21916 21917 21918 21919 21920 21921 21922 21923 21924 21925 21926 21927 21928 21929 21930 21931 21932 21933 21934 21935 21936 21937 21938 21939 21940 21941 21942 21943 21944 21945 21946 21947 21948 21949 21950 21951 21952 21953 21954 21955 21956 21957 21958 21959 21960 21961 21962 21963 21964 21965 21966 21967 21968 21969 21970 21971 21972 21973 21974 21975 21976 21977 21978 21979 21980 21981 21982 21983 21984 21985 21986 21987 21988 21989 21990 21991 21992 21993 21994 21995 21996 21997 21998 21999 22000 22001 22002 22003 22004 22005 22006 22007 22008 22009 22010 22011 22012 22013 22014 22015 22016 22017 22018 22019 22020 22021 22022 22023 22024 22025 22026 22027 22028 22029 22030 22031 22032 22033 22034 22035 22036 22037 22038 22039 22040 22041 22042 22043 22044 22045 22046 22047 22048 22049 22050 22051 22052 22053 22054 22055 22056 22057 22058 22059 22060 22061 22062 22063 22064 22065 22066 22067 22068 22069 22070 22071 22072 22073 22074 22075 22076 22077 22078 22079 22080 22081 22082 22083 22084 22085 22086 22087 22088 22089 22090 22091 22092 22093 22094 22095 22096 22097 22098 22099 22100 22101 22102 22103 22104 22105 22106 22107 22108 22109 22110 22111 22112 22113 22114 22115 22116 22117 22118 22119 22120 22121 22122 22123 22124 22125 22126 22127 22128 22129 22130 22131 22132 22133 22134 22135 22136 22137 22138 22139 22140 22141 22142 22143 22144 22145 22146 22147 22148 22149 22150 22151 22152 22153 22154 22155 22156 22157 22158 22159 22160 22161 22162 22163 22164 22165 22166 22167 22168 22169 22170 22171 22172 22173 22174 22175 22176 22177 22178 22179 22180 22181 22182 22183 22184 22185 22186 22187 22188 22189 22190 22191 22192 22193 22194 22195 22196 22197 22198 22199 22200 22201 22202 22203 22204 22205 22206 22207 22208 22209 22210 22211 22212 22213 22214 22215 22216 22217 22218 22219 22220 22221 22222 22223 22224 22225 22226 22227 22228 22229 22230 22231 22232 22233 22234 22235 22236 22237 22238 22239 22240 22241 22242 22243 22244 22245 22246 22247 22248 22249 22250 22251 22252 22253 22254 22255 22256 22257 22258 22259 22260 22261 22262 22263 22264 22265 22266 22267 22268 22269 22270 22271 22272 22273 22274 22275 22276 22277 22278 22279 22280 22281 22282 22283 22284 22285 22286 22287 22288 22289 22290 22291 22292 22293 22294 22295 22296 22297 22298 22299 22300 22301 22302 22303 22304 22305 22306 22307 22308 22309 22310 22311 22312 22313 22314 22315 22316 22317 22318 22319 22320 22321 22322 22323 22324 22325 22326 22327 22328 22329 22330 22331 22332 22333 22334 22335 22336 22337 22338 22339 22340 22341 22342 22343 22344 22345 22346 22347 22348 22349 22350 22351 22352 22353 22354 22355 22356 22357 22358 22359 22360 22361 22362 22363 22364 22365 22366 22367 22368 22369 22370 22371 22372 22373 22374 22375 22376 22377 22378 22379 22380 22381 22382 22383 22384 22385 22386 22387 22388 22389 22390 22391 22392 22393 22394 22395 22396 22397 22398 22399 22400 22401 22402 22403 22404 22405 22406 22407 22408 22409 22410 22411 22412 22413 22414 22415 22416 22417 22418 22419 22420 22421 22422 22423 22424 22425 22426 22427 22428 22429 22430 22431 22432 22433 22434 22435 22436 22437 22438 22439 22440 22441 22442 22443 22444 22445 22446 22447 22448 22449 22450 22451 22452 22453 22454 22455 22456 22457 22458 22459 22460 22461 22462 22463 22464 22465 22466 22467 22468 22469 22470 22471 22472 22473 22474 22475 22476 22477 22478 22479 22480 22481 22482 22483 22484 22485 22486 22487 22488 22489 22490 22491 22492 22493 22494 22495 22496 22497 22498 22499 22500 22501 22502 22503 22504 22505 22506 22507 22508 22509 22510 22511 22512 22513 22514 22515 22516 22517 22518 22519 22520 22521 22522 22523 22524 22525 22526 22527 22528 22529 22530 22531 22532 22533 22534 22535 22536 22537 22538 22539 22540 22541 22542 22543 22544 22545 22546 22547 22548 22549 22550 22551 22552 22553 22554 22555 22556 22557 22558 22559 22560 22561 22562 22563 22564 22565 22566 22567 22568 22569 22570 22571 22572 22573 22574 22575 22576 22577 22578 22579 22580 22581 22582 22583 22584 22585 22586 22587 22588 22589 22590 22591 22592 22593 22594 22595 22596 22597 22598 22599 22600 22601 22602 22603 22604 22605 22606 22607 22608 22609 22610 22611 22612 22613 22614 22615 22616 22617 22618 22619 22620 22621 22622 22623 22624 22625 22626 22627 22628 22629 22630 22631 22632 22633 22634 22635 22636 22637 22638 22639 22640 22641 22642 22643 22644 22645 22646 22647 22648 22649 22650 22651 22652 22653 22654 22655 22656 22657 22658 22659 22660 22661 22662 22663 22664 22665 22666 22667 22668 22669 22670 22671 22672 22673 22674 22675 22676 22677 22678 22679 22680 22681 22682 22683 22684 22685 22686 22687 22688 22689 22690 22691 22692 22693 22694 22695 22696 22697 22698 22699 22700 22701 22702 22703 22704 22705 22706 22707 22708 22709 22710 22711 22712 22713 22714 22715 22716 22717 22718 22719 22720 22721 22722 22723 22724 22725 22726 22727 22728 22729 22730 22731 22732 22733 22734 22735 22736 22737 22738 22739 22740 22741 22742 22743 22744 22745 22746 22747 22748 22749 22750 22751 22752 22753 22754 22755 22756 22757 22758 22759 22760 22761 22762 22763 22764 22765 22766 22767 22768 22769 22770 22771 22772 22773 22774 22775 22776 22777 22778 22779 22780 22781 22782 22783 22784 22785 22786 22787 22788 22789 22790 22791 22792 22793 22794 22795 22796 22797 22798 22799 22800 22801 22802 22803 22804 22805 22806 22807 22808 22809 22810 22811 22812 22813 22814 22815 22816 22817 22818 22819 22820 22821 22822 22823 22824 22825 22826 22827 22828 22829 22830 22831 22832 22833 22834 22835 22836 22837 22838 22839 22840 22841 22842 22843 22844 22845 22846 22847 22848 22849 22850 22851 22852 22853 22854 22855 22856 22857 22858 22859 22860 22861 22862 22863 22864 22865 22866 22867 22868 22869 22870 22871 22872 22873 22874 22875 22876 22877 22878 22879 22880 22881 22882 22883 22884 22885 22886 22887 22888 22889 22890 22891 22892 22893 22894 22895 22896 22897 22898 22899 22900 22901 22902 22903 22904 22905 22906 22907 22908 22909 22910 22911 22912 22913 22914 22915 22916 22917 22918 22919 22920 22921 22922 22923 22924 22925 22926 22927 22928 22929 22930 22931 22932 22933 22934 22935 22936 22937 22938 22939 22940 22941 22942 22943 22944 22945 22946 22947 22948 22949 22950 22951 22952 22953 22954 22955 22956 22957 22958 22959 22960 22961 22962 22963 22964 22965 22966 22967 22968 22969 22970 22971 22972 22973 22974 22975 22976 22977 22978 22979 22980 22981 22982 22983 22984 22985 22986 22987 22988 22989 22990 22991 22992 22993 22994 22995 22996 22997 22998 22999 23000 23001 23002 23003 23004 23005 23006 23007 23008 23009 23010 23011 23012 23013 23014 23015 23016 23017 23018 23019 23020 23021 23022 23023 23024 23025 23026 23027 23028 23029 23030 23031 23032 23033 23034 23035 23036 23037 23038 23039 23040 23041 23042 23043 23044 23045 23046 23047 23048 23049 23050 23051 23052 23053 23054 23055 23056 23057 23058 23059 23060 23061 23062 23063 23064 23065 23066 23067 23068 23069 23070 23071 23072 23073 23074 23075 23076 23077 23078 23079 23080 23081 23082 23083 23084 23085 23086 23087 23088 23089 23090 23091 23092 23093 23094 23095 23096 23097 23098 23099 23100 23101 23102 23103 23104 23105 23106 23107 23108 23109 23110 23111 23112 23113 23114 23115 23116 23117 23118 23119 23120 23121 23122 23123 23124 23125 23126 23127 23128 23129 23130 23131 23132 23133 23134 23135 23136 23137 23138 23139 23140 23141 23142 23143 23144 23145 23146 23147 23148 23149 23150 23151 23152 23153 23154 23155 23156 23157 23158 23159 23160 23161 23162 23163 23164 23165 23166 23167 23168 23169 23170 23171 23172 23173 23174 23175 23176 23177 23178 23179 23180 23181 23182 23183 23184 23185 23186 23187 23188 23189 23190 23191 23192 23193 23194 23195 23196 23197 23198 23199 23200 23201 23202 23203 23204 23205 23206 23207 23208 23209 23210 23211 23212 23213 23214 23215 23216 23217 23218 23219 23220 23221 23222 23223 23224 23225 23226 23227 23228 23229 23230 23231 23232 23233 23234 23235 23236 23237 23238 23239 23240 23241 23242 23243 23244 23245 23246 23247 23248 23249 23250 23251 23252 23253 23254 23255 23256 23257 23258 23259 23260 23261 23262 23263 23264 23265 23266 23267 23268 23269 23270 23271 23272 23273 23274 23275 23276 23277 23278 23279 23280 23281 23282 23283 23284 23285 23286 23287 23288 23289 23290 23291 23292 23293 23294 23295 23296 23297 23298 23299 23300 23301 23302 23303 23304 23305 23306 23307 23308 23309 23310 23311 23312 23313 23314 23315 23316 23317 23318 23319 23320 23321 23322 23323 23324 23325 23326 23327 23328 23329 23330 23331 23332 23333 23334 23335 23336 23337 23338 23339 23340 23341 23342 23343 23344 23345 23346 23347 23348 23349 23350 23351 23352 23353 23354 23355 23356 23357 23358 23359 23360 23361 23362 23363 23364 23365 23366 23367 23368 23369 23370 23371 23372 23373 23374 23375 23376 23377 23378 23379 23380 23381 23382 23383 23384 23385 23386 23387 23388 23389 23390 23391 23392 23393 23394 23395 23396 23397 23398 23399 23400 23401 23402 23403 23404 23405 23406 23407 23408 23409 23410 23411 23412 23413 23414 23415 23416 23417 23418 23419 23420 23421 23422 23423 23424 23425 23426 23427 23428 23429 23430 23431 23432 23433 23434 23435 23436 23437 23438 23439 23440 23441 23442 23443 23444 23445 23446 23447 23448 23449 23450 23451 23452 23453 23454 23455 23456 23457 23458 23459 23460 23461 23462 23463 23464 23465 23466 23467 23468 23469 23470 23471 23472 23473 23474 23475 23476 23477 23478 23479 23480 23481 23482 23483 23484 23485 23486 23487 23488 23489 23490 23491 23492 23493 23494 23495 23496 23497 23498 23499 23500 23501 23502 23503 23504 23505 23506 23507 23508 23509 23510 23511 23512 23513 23514 23515 23516 23517 23518 23519 23520 23521 23522 23523 23524 23525 23526 23527 23528 23529 23530 23531 23532 23533 23534 23535 23536 23537 23538 23539 23540 23541 23542 23543 23544 23545 23546 23547 23548 23549 23550 23551 23552 23553 23554 23555 23556 23557 23558 23559 23560 23561 23562 23563 23564 23565 23566 23567 23568 23569 23570 23571 23572 23573 23574 23575 23576 23577 23578 23579 23580 23581 23582 23583 23584 23585 23586 23587 23588 23589 23590 23591 23592 23593 23594 23595 23596 23597 23598 23599 23600 23601 23602 23603 23604 23605 23606 23607 23608 23609 23610 23611 23612 23613 23614 23615 23616 23617 23618 23619 23620 23621 23622 23623 23624 23625 23626 23627 23628 23629 23630 23631 23632 23633 23634 23635 23636 23637 23638 23639 23640 23641 23642 23643 23644 23645 23646 23647 23648 23649 23650 23651 23652 23653 23654 23655 23656 23657 23658 23659 23660 23661 23662 23663 23664 23665 23666 23667 23668 23669 23670 23671 23672 23673 23674 23675 23676 23677 23678 23679 23680 23681 23682 23683 23684 23685 23686 23687 23688 23689 23690 23691 23692 23693 23694 23695 23696 23697 23698 23699 23700 23701 23702 23703 23704 23705 23706 23707 23708 23709 23710 23711 23712 23713 23714 23715 23716 23717 23718 23719 23720 23721 23722 23723 23724 23725 23726 23727 23728 23729 23730 23731 23732 23733 23734 23735 23736 23737 23738 23739 23740 23741 23742 23743 23744 23745 23746 23747 23748 23749 23750 23751 23752 23753 23754 23755 23756 23757 23758 23759 23760 23761 23762 23763 23764 23765 23766 23767 23768 23769 23770 23771 23772 23773 23774 23775 23776 23777 23778 23779 23780 23781 23782 23783 23784 23785 23786 23787 23788 23789 23790 23791 23792 23793 23794 23795 23796 23797 23798 23799 23800 23801 23802 23803 23804 23805 23806 23807 23808 23809 23810 23811 23812 23813 23814 23815 23816 23817 23818 23819 23820 23821 23822 23823 23824 23825 23826 23827 23828 23829 23830 23831 23832 23833 23834 23835 23836 23837 23838 23839 23840 23841 23842 23843 23844 23845 23846 23847 23848 23849 23850 23851 23852 23853 23854 23855 23856 23857 23858 23859 23860 23861 23862 23863 23864 23865 23866 23867 23868 23869 23870 23871 23872 23873 23874 23875 23876 23877 23878 23879 23880 23881 23882 23883 23884 23885 23886 23887 23888 23889 23890 23891 23892 23893 23894 23895 23896 23897 23898 23899 23900 23901 23902 23903 23904 23905 23906 23907 23908 23909 23910 23911 23912 23913 23914 23915 23916 23917 23918 23919 23920 23921 23922 23923 23924 23925 23926 23927 23928 23929 23930 23931 23932 23933 23934 23935 23936 23937 23938 23939 23940 23941 23942 23943 23944 23945 23946 23947 23948 23949 23950 23951 23952 23953 23954 23955 23956 23957 23958 23959 23960 23961 23962 23963 23964 23965 23966 23967 23968 23969 23970 23971 23972 23973 23974 23975 23976 23977 23978 23979 23980 23981 23982 23983 23984 23985 23986 23987 23988 23989 23990 23991 23992 23993 23994 23995 23996 23997 23998 23999 24000 24001 24002 24003 24004 24005 24006 24007 24008 24009 24010 24011 24012 24013 24014 24015 24016 24017 24018 24019 24020 24021 24022 24023 24024 24025 24026 24027 24028 24029 24030 24031 24032 24033 24034 24035 24036 24037 24038 24039 24040 24041 24042 24043 24044 24045 24046 24047 24048 24049 24050 24051 24052 24053 24054 24055 24056 24057 24058 24059 24060 24061 24062 24063 24064 24065 24066 24067 24068 24069 24070 24071 24072 24073 24074 24075 24076 24077 24078 24079 24080 24081 24082 24083 24084 24085 24086 24087 24088 24089 24090 24091 24092 24093 24094 24095 24096 24097 24098 24099 24100 24101 24102 24103 24104 24105 24106 24107 24108 24109 24110 24111 24112 24113 24114 24115 24116 24117 24118 24119 24120 24121 24122 24123 24124 24125 24126 24127 24128 24129 24130 24131 24132 24133 24134 24135 24136 24137 24138 24139 24140 24141 24142 24143 24144 24145 24146 24147 24148 24149 24150 24151 24152 24153 24154 24155 24156 24157 24158 24159 24160 24161 24162 24163 24164 24165 24166 24167 24168 24169 24170 24171 24172 24173 24174 24175 24176 24177 24178 24179 24180 24181 24182 24183 24184 24185 24186 24187 24188 24189 24190 24191 24192 24193 24194 24195 24196 24197 24198 24199 24200 24201 24202 24203 24204 24205 24206 24207 24208 24209 24210 24211 24212 24213 24214 24215 24216 24217 24218 24219 24220 24221 24222 24223 24224 24225 24226 24227 24228 24229 24230 24231 24232 24233 24234 24235 24236 24237 24238 24239 24240 24241 24242 24243 24244 24245 24246 24247 24248 24249 24250 24251 24252 24253 24254 24255 24256 24257 24258 24259 24260 24261 24262 24263 24264 24265 24266 24267 24268 24269 24270 24271 24272 24273 24274 24275 24276 24277 24278 24279 24280 24281 24282 24283 24284 24285 24286 24287 24288 24289 24290 24291 24292 24293 24294 24295 24296 24297 24298 24299 24300 24301 24302 24303 24304 24305 24306 24307 24308 24309 24310 24311 24312 24313 24314 24315 24316 24317 24318 24319 24320 24321 24322 24323 24324 24325 24326 24327 24328 24329 24330 24331 24332 24333 24334 24335 24336 24337 24338 24339 24340 24341 24342 24343 24344 24345 24346 24347 24348 24349 24350 24351 24352 24353 24354 24355 24356 24357 24358 24359 24360 24361 24362 24363 24364 24365 24366 24367 24368 24369 24370 24371 24372 24373 24374 24375 24376 24377 24378 24379 24380 24381 24382 24383 24384 24385 24386 24387 24388 24389 24390 24391 24392 24393 24394 24395 24396 24397 24398 24399 24400 24401 24402 24403 24404 24405 24406 24407 24408 24409 24410 24411 24412 24413 24414 24415 24416 24417 24418 24419 24420 24421 24422 24423 24424 24425 24426 24427 24428 24429 24430 24431 24432 24433 24434 24435 24436 24437 24438 24439 24440 24441 24442 24443 24444 24445 24446 24447 24448 24449 24450 24451 24452 24453 24454 24455 24456 24457 24458 24459 24460 24461 24462 24463 24464 24465 24466 24467 24468 24469 24470 24471 24472 24473 24474 24475 24476 24477 24478 24479 24480 24481 24482 24483 24484 24485 24486 24487 24488 24489 24490 24491 24492 24493 24494 24495 24496 24497 24498 24499 24500 24501 24502 24503 24504 24505 24506 24507 24508 24509 24510 24511 24512 24513 24514 24515 24516 24517 24518 24519 24520 24521 24522 24523 24524 24525 24526 24527 24528 24529 24530 24531 24532 24533 24534 24535 24536 24537 24538 24539 24540 24541 24542 24543 24544 24545 24546 24547 24548 24549 24550 24551 24552 24553 24554 24555 24556 24557 24558 24559 24560 24561 24562 24563 24564 24565 24566 24567 24568 24569 24570 24571 24572 24573 24574 24575 24576 24577 24578 24579 24580 24581 24582 24583 24584 24585 24586 24587 24588 24589 24590 24591 24592 24593 24594 24595 24596 24597 24598 24599 24600 24601 24602 24603 24604 24605 24606 24607 24608 24609 24610 24611 24612 24613 24614 24615 24616 24617 24618 24619 24620 24621 24622 24623 24624 24625 24626 24627 24628 24629 24630 24631 24632 24633 24634 24635 24636 24637 24638 24639 24640 24641 24642 24643 24644 24645 24646 24647 24648 24649 24650 24651 24652 24653 24654 24655 24656 24657 24658 24659 24660 24661 24662 24663 24664 24665 24666 24667 24668 24669 24670 24671 24672 24673 24674 24675 24676 24677 24678 24679 24680 24681 24682 24683 24684 24685 24686 24687 24688 24689 24690 24691 24692 24693 24694 24695 24696 24697 24698 24699 24700 24701 24702 24703 24704 24705 24706 24707 24708 24709 24710 24711 24712 24713 24714 24715 24716 24717 24718 24719 24720 24721 24722 24723 24724 24725 24726 24727 24728 24729 24730 24731 24732 24733 24734 24735 24736 24737 24738 24739 24740 24741 24742 24743 24744 24745 24746 24747 24748 24749 24750 24751 24752 24753 24754 24755 24756 24757 24758 24759 24760 24761 24762 24763 24764 24765 24766 24767 24768 24769 24770 24771 24772 24773 24774 24775 24776 24777 24778 24779 24780 24781 24782 24783 24784 24785 24786 24787 24788 24789 24790 24791 24792 24793 24794 24795 24796 24797 24798 24799 24800 24801 24802 24803 24804 24805 24806 24807 24808 24809 24810 24811 24812 24813 24814 24815 24816 24817 24818 24819 24820 24821 24822 24823 24824 24825 24826 24827 24828 24829 24830 24831 24832 24833 24834 24835 24836 24837 24838 24839 24840 24841 24842 24843 24844 24845 24846 24847 24848 24849 24850 24851 24852 24853 24854 24855 24856 24857 24858 24859 24860 24861 24862 24863 24864 24865 24866 24867 24868 24869 24870 24871 24872 24873 24874 24875 24876 24877 24878 24879 24880 24881 24882 24883 24884 24885 24886 24887 24888 24889 24890 24891 24892 24893 24894 24895 24896 24897 24898 24899 24900 24901 24902 24903 24904 24905 24906 24907 24908 24909 24910 24911 24912 24913 24914 24915 24916 24917 24918 24919 24920 24921 24922 24923 24924 24925 24926 24927 24928 24929 24930 24931 24932 24933 24934 24935 24936 24937 24938 24939 24940 24941 24942 24943 24944 24945 24946 24947 24948 24949 24950 24951 24952 24953 24954 24955 24956 24957 24958 24959 24960 24961 24962 24963 24964 24965 24966 24967 24968 24969 24970 24971 24972 24973 24974 24975 24976 24977 24978 24979 24980 24981 24982 24983 24984 24985 24986 24987 24988 24989 24990 24991 24992 24993 24994 24995 24996 24997 24998 24999 25000 25001 25002 25003 25004 25005 25006 25007 25008 25009 25010 25011 25012 25013 25014 25015 25016 25017 25018 25019 25020 25021 25022 25023 25024 25025 25026 25027 25028 25029 25030 25031 25032 25033 25034 25035 25036 25037 25038 25039 25040 25041 25042 25043 25044 25045 25046 25047 25048 25049 25050 25051 25052 25053 25054 25055 25056 25057 25058 25059 25060 25061 25062 25063 25064 25065 25066 25067 25068 25069 25070 25071 25072 25073 25074 25075 25076 25077 25078 25079 25080 25081 25082 25083 25084 25085 25086 25087 25088 25089 25090 25091 25092 25093 25094 25095 25096 25097 25098 25099 25100 25101 25102 25103 25104 25105 25106 25107 25108 25109 25110 25111 25112 25113 25114 25115 25116 25117 25118 25119 25120 25121 25122 25123 25124 25125 25126 25127 25128 25129 25130 25131 25132 25133 25134 25135 25136 25137 25138 25139 25140 25141 25142 25143 25144 25145 25146 25147 25148 25149 25150 25151 25152 25153 25154 25155 25156 25157 25158 25159 25160 25161 25162 25163 25164 25165 25166 25167 25168 25169 25170 25171 25172 25173 25174 25175 25176 25177 25178 25179 25180 25181 25182 25183 25184 25185 25186 25187 25188 25189 25190 25191 25192 25193 25194 25195 25196 25197 25198 25199 25200 25201 25202 25203 25204 25205 25206 25207 25208 25209 25210 25211 25212 25213 25214 25215 25216 25217 25218 25219 25220 25221 25222 25223 25224 25225 25226 25227 25228 25229 25230 25231 25232 25233 25234 25235 25236 25237 25238 25239 25240 25241 25242 25243 25244 25245 25246 25247 25248 25249 25250 25251 25252 25253 25254 25255 25256 25257 25258 25259 25260 25261 25262 25263 25264 25265 25266 25267 25268 25269 25270 25271 25272 25273 25274 25275 25276 25277 25278 25279 25280 25281 25282 25283 25284 25285 25286 25287 25288 25289 25290 25291 25292 25293 25294 25295 25296 25297 25298 25299 25300 25301 25302 25303 25304 25305 25306 25307 25308 25309 25310 25311 25312 25313 25314 25315 25316 25317 25318 25319 25320 25321 25322 25323 25324 25325 25326 25327 25328 25329 25330 25331 25332 25333 25334 25335 25336 25337 25338 25339 25340 25341 25342 25343 25344 25345 25346 25347 25348 25349 25350 25351 25352 25353 25354 25355 25356 25357 25358 25359 25360 25361 25362 25363 25364 25365 25366 25367 25368 25369 25370 25371 25372 25373 25374 25375 25376 25377 25378 25379 25380 25381 25382 25383 25384 25385 25386 25387 25388 25389 25390 25391 25392 25393 25394 25395 25396 25397 25398 25399 25400 25401 25402 25403 25404 25405 25406 25407 25408 25409 25410 25411 25412 25413 25414 25415 25416 25417 25418 25419 25420 25421 25422 25423 25424 25425 25426 25427 25428 25429 25430 25431 25432 25433 25434 25435 25436 25437 25438 25439 25440 25441 25442 25443 25444 25445 25446 25447 25448 25449 25450 25451 25452 25453 25454 25455 25456 25457 25458 25459 25460 25461 25462 25463 25464 25465 25466 25467 25468 25469 25470 25471 25472 25473 25474 25475 25476 25477 25478 25479 25480 25481 25482 25483 25484 25485 25486 25487 25488 25489 25490 25491 25492 25493 25494 25495 25496 25497 25498 25499 25500 25501 25502 25503 25504 25505 25506 25507 25508 25509 25510 25511 25512 25513 25514 25515 25516 25517 25518 25519 25520 25521 25522 25523 25524 25525 25526 25527 25528 25529 25530 25531 25532 25533 25534 25535 25536 25537 25538 25539 25540 25541 25542 25543 25544 25545 25546 25547 25548 25549 25550 25551 25552 25553 25554 25555 25556 25557 25558 25559 25560 25561 25562 25563 25564 25565 25566 25567 25568 25569 25570 25571 25572 25573 25574 25575 25576 25577 25578 25579 25580 25581 25582 25583 25584 25585 25586 25587 25588 25589 25590 25591 25592 25593 25594 25595 25596 25597 25598 25599 25600 25601 25602 25603 25604 25605 25606 25607 25608 25609 25610 25611 25612 25613 25614 25615 25616 25617 25618 25619 25620 25621 25622 25623 25624 25625 25626 25627 25628 25629 25630 25631 25632 25633 25634 25635 25636 25637 25638 25639 25640 25641 25642 25643 25644 25645 25646 25647 25648 25649 25650 25651 25652 25653 25654 25655 25656 25657 25658 25659 25660 25661 25662 25663 25664 25665 25666 25667 25668 25669 25670 25671 25672 25673 25674 25675 25676 25677 25678 25679 25680 25681 25682 25683 25684 25685 25686 25687 25688 25689 25690 25691 25692 25693 25694 25695 25696 25697 25698 25699 25700 25701 25702 25703 25704 25705 25706 25707 25708 25709 25710 25711 25712 25713 25714 25715 25716 25717 25718 25719 25720 25721 25722 25723 25724 25725 25726 25727 25728 25729 25730 25731 25732 25733 25734 25735 25736 25737 25738 25739 25740 25741 25742 25743 25744 25745 25746 25747 25748 25749 25750 25751 25752 25753 25754 25755 25756 25757 25758 25759 25760 25761 25762 25763 25764 25765 25766 25767 25768 25769 25770 25771 25772 25773 25774 25775 25776 25777 25778 25779 25780 25781 25782 25783 25784 25785 25786 25787 25788 25789 25790 25791 25792 25793 25794 25795 25796 25797 25798 25799 25800 25801 25802 25803 25804 25805 25806 25807 25808 25809 25810 25811 25812 25813 25814 25815 25816 25817 25818 25819 25820 25821 25822 25823 25824 25825 25826 25827 25828 25829 25830 25831 25832 25833 25834 25835 25836 25837 25838 25839 25840 25841 25842 25843 25844 25845 25846 25847 25848 25849 25850 25851 25852 25853 25854 25855 25856 25857 25858 25859 25860 25861 25862 25863 25864 25865 25866 25867 25868 25869 25870 25871 25872 25873 25874 25875 25876 25877 25878 25879 25880 25881 25882 25883 25884 25885 25886 25887 25888 25889 25890 25891 25892 25893 25894 25895 25896 25897 25898 25899 25900 25901 25902 25903 25904 25905 25906 25907 25908 25909 25910 25911 25912 25913 25914 25915 25916 25917 25918 25919 25920 25921 25922 25923 25924 25925 25926 25927 25928 25929 25930 25931 25932 25933 25934 25935 25936 25937 25938 25939 25940 25941 25942 25943 25944 25945 25946 25947 25948 25949 25950 25951 25952 25953 25954 25955 25956 25957 25958 25959 25960 25961 25962 25963 25964 25965 25966 25967 25968 25969 25970 25971 25972 25973 25974 25975 25976 25977 25978 25979 25980 25981 25982 25983 25984 25985 25986 25987 25988 25989 25990 25991 25992 25993 25994 25995 25996 25997 25998 25999 26000 26001 26002 26003 26004 26005 26006 26007 26008 26009 26010 26011 26012 26013 26014 26015 26016 26017 26018 26019 26020 26021 26022 26023 26024 26025 26026 26027 26028 26029 26030 26031 26032 26033 26034 26035 26036 26037 26038 26039 26040 26041 26042 26043 26044 26045 26046 26047 26048 26049 26050 26051 26052 26053 26054 26055 26056 26057 26058 26059 26060 26061 26062 26063 26064 26065 26066 26067 26068 26069 26070 26071 26072 26073 26074 26075 26076 26077 26078 26079 26080 26081 26082 26083 26084 26085 26086 26087 26088 26089 26090 26091 26092 26093 26094 26095 26096 26097 26098 26099 26100 26101 26102 26103 26104 26105 26106 26107 26108 26109 26110 26111 26112 26113 26114 26115 26116 26117 26118 26119 26120 26121 26122 26123 26124 26125 26126 26127 26128 26129 26130 26131 26132 26133 26134 26135 26136 26137 26138 26139 26140 26141 26142 26143 26144 26145 26146 26147 26148 26149 26150 26151 26152 26153 26154 26155 26156 26157 26158 26159 26160 26161 26162 26163 26164 26165 26166 26167 26168 26169 26170 26171 26172 26173 26174 26175 26176 26177 26178 26179 26180 26181 26182 26183 26184 26185 26186 26187 26188 26189 26190 26191 26192 26193 26194 26195 26196 26197 26198 26199 26200 26201 26202 26203 26204 26205 26206 26207 26208 26209 26210 26211 26212 26213 26214 26215 26216 26217 26218 26219 26220 26221 26222 26223 26224 26225 26226 26227 26228 26229 26230 26231 26232 26233 26234 26235 26236 26237 26238 26239 26240 26241 26242 26243 26244 26245 26246 26247 26248 26249 26250 26251 26252 26253 26254 26255 26256 26257 26258 26259 26260 26261 26262 26263 26264 26265 26266 26267 26268 26269 26270 26271 26272 26273 26274 26275 26276 26277 26278 26279 26280 26281 26282 26283 26284 26285 26286 26287 26288 26289 26290 26291 26292 26293 26294 26295 26296 26297 26298 26299 26300 26301 26302 26303 26304 26305 26306 26307 26308 26309 26310 26311 26312 26313 26314 26315 26316 26317 26318 26319 26320 26321 26322 26323 26324 26325 26326 26327 26328 26329 26330 26331 26332 26333 26334 26335 26336 26337 26338 26339 26340 26341 26342 26343 26344 26345 26346 26347 26348 26349 26350 26351 26352 26353 26354 26355 26356 26357 26358 26359 26360 26361 26362 26363 26364 26365 26366 26367 26368 26369 26370 26371 26372 26373 26374 26375 26376 26377 26378 26379 26380 26381 26382 26383 26384 26385 26386 26387 26388 26389 26390 26391 26392 26393 26394 26395 26396 26397 26398 26399 26400 26401 26402 26403 26404 26405 26406 26407 26408 26409 26410 26411 26412 26413 26414 26415 26416 26417 26418 26419 26420 26421 26422 26423 26424 26425 26426 26427 26428 26429 26430 26431 26432 26433 26434 26435 26436 26437 26438 26439 26440 26441 26442 26443 26444 26445 26446 26447 26448 26449 26450 26451 26452 26453 26454 26455 26456 26457 26458 26459 26460 26461 26462 26463 26464 26465 26466 26467 26468 26469 26470 26471 26472 26473 26474 26475 26476 26477 26478 26479 26480 26481 26482 26483 26484 26485 26486 26487 26488 26489 26490 26491 26492 26493 26494 26495 26496 26497 26498 26499 26500 26501 26502 26503 26504 26505 26506 26507 26508 26509 26510 26511 26512 26513 26514 26515 26516 26517 26518 26519 26520 26521 26522 26523 26524 26525 26526 26527 26528 26529 26530 26531 26532 26533 26534 26535 26536 26537 26538 26539 26540 26541 26542 26543 26544 26545 26546 26547 26548 26549 26550 26551 26552 26553 26554 26555 26556 26557 26558 26559 26560 26561 26562 26563 26564 26565 26566 26567 26568 26569 26570 26571 26572 26573 26574 26575 26576 26577 26578 26579 26580 26581 26582 26583 26584 26585 26586 26587 26588 26589 26590 26591 26592 26593 26594 26595 26596 26597 26598 26599 26600 26601 26602 26603 26604 26605 26606 26607 26608 26609 26610 26611 26612 26613 26614 26615 26616 26617 26618 26619 26620 26621 26622 26623 26624 26625 26626 26627 26628 26629 26630 26631 26632 26633 26634 26635 26636 26637 26638 26639 26640 26641 26642 26643 26644 26645 26646 26647 26648 26649 26650 26651 26652 26653 26654 26655 26656 26657 26658 26659 26660 26661 26662 26663 26664 26665 26666 26667 26668 26669 26670 26671 26672 26673 26674 26675 26676 26677 26678 26679 26680 26681 26682 26683 26684 26685 26686 26687 26688 26689 26690 26691 26692 26693 26694 26695 26696 26697 26698 26699 26700 26701 26702 26703 26704 26705 26706 26707 26708 26709 26710 26711 26712 26713 26714 26715 26716 26717 26718 26719 26720 26721 26722 26723 26724 26725 26726 26727 26728 26729 26730 26731 26732 26733 26734 26735 26736 26737 26738 26739 26740 26741 26742 26743 26744 26745 26746 26747 26748 26749 26750 26751 26752 26753 26754 26755 26756 26757 26758 26759 26760 26761 26762 26763 26764 26765 26766 26767 26768 26769 26770 26771 26772 26773 26774 26775 26776 26777 26778 26779 26780 26781 26782 26783 26784 26785 26786 26787 26788 26789 26790 26791 26792 26793 26794 26795 26796 26797 26798 26799 26800 26801 26802 26803 26804 26805 26806 26807 26808 26809 26810 26811 26812 26813 26814 26815 26816 26817 26818 26819 26820 26821 26822 26823 26824 26825 26826 26827 26828 26829 26830 26831 26832 26833 26834 26835 26836 26837 26838 26839 26840 26841 26842 26843 26844 26845 26846 26847 26848 26849 26850 26851 26852 26853 26854 26855 26856 26857 26858 26859 26860 26861 26862 26863 26864 26865 26866 26867 26868 26869 26870 26871 26872 26873 26874 26875 26876 26877 26878 26879 26880 26881 26882 26883 26884 26885 26886 26887 26888 26889 26890 26891 26892 26893 26894 26895 26896 26897 26898 26899 26900 26901 26902 26903 26904 26905 26906 26907 26908 26909 26910 26911 26912 26913 26914 26915 26916 26917 26918 26919 26920 26921 26922 26923 26924 26925 26926 26927 26928 26929 26930 26931 26932 26933 26934 26935 26936 26937 26938 26939 26940 26941 26942 26943 26944 26945 26946 26947 26948 26949 26950 26951 26952 26953 26954 26955 26956 26957 26958 26959 26960 26961 26962 26963 26964 26965 26966 26967 26968 26969 26970 26971 26972 26973 26974 26975 26976 26977 26978 26979 26980 26981 26982 26983 26984 26985 26986 26987 26988 26989 26990 26991 26992 26993 26994 26995 26996 26997 26998 26999 27000 27001 27002 27003 27004 27005 27006 27007 27008 27009 27010 27011 27012 27013 27014 27015 27016 27017 27018 27019 27020 27021 27022 27023 27024 27025 27026 27027 27028 27029 27030 27031 27032 27033 27034 27035 27036 27037 27038 27039 27040 27041 27042 27043 27044 27045 27046 27047 27048 27049 27050 27051 27052 27053 27054 27055 27056 27057 27058 27059 27060 27061 27062 27063 27064 27065 27066 27067 27068 27069 27070 27071 27072 27073 27074 27075 27076 27077 27078 27079 27080 27081 27082 27083 27084 27085 27086 27087 27088 27089 27090 27091 27092 27093 27094 27095 27096 27097 27098 27099 27100 27101 27102 27103 27104 27105 27106 27107 27108 27109 27110 27111 27112 27113 27114 27115 27116 27117 27118 27119 27120 27121 27122 27123 27124 27125 27126 27127 27128 27129 27130 27131 27132 27133 27134 27135 27136 27137 27138 27139 27140 27141 27142 27143 27144 27145 27146 27147 27148 27149 27150 27151 27152 27153 27154 27155 27156 27157 27158 27159 27160 27161 27162 27163 27164 27165 27166 27167 27168 27169 27170 27171 27172 27173 27174 27175 27176 27177 27178 27179 27180 27181 27182 27183 27184 27185 27186 27187 27188 27189 27190 27191 27192 27193 27194 27195 27196 27197 27198 27199 27200 27201 27202 27203 27204 27205 27206 27207 27208 27209 27210 27211 27212 27213 27214 27215 27216 27217 27218 27219 27220 27221 27222 27223 27224 27225 27226 27227 27228 27229 27230 27231 27232 27233 27234 27235 27236 27237 27238 27239 27240 27241 27242 27243 27244 27245 27246 27247 27248 27249 27250 27251 27252 27253 27254 27255 27256 27257 27258 27259 27260 27261 27262 27263 27264 27265 27266 27267 27268 27269 27270 27271 27272 27273 27274 27275 27276 27277 27278 27279 27280 27281 27282 27283 27284 27285 27286 27287 27288 27289 27290 27291 27292 27293 27294 27295 27296 27297 27298 27299 27300 27301 27302 27303 27304 27305 27306 27307 27308 27309 27310 27311 27312 27313 27314 27315 27316 27317 27318 27319 27320 27321 27322 27323 27324 27325 27326 27327 27328 27329 27330 27331 27332 27333 27334 27335 27336 27337 27338 27339 27340 27341 27342 27343 27344 27345 27346 27347 27348 27349 27350 27351 27352 27353 27354 27355 27356 27357 27358 27359 27360 27361 27362 27363 27364 27365 27366 27367 27368 27369 27370 27371 27372 27373 27374 27375 27376 27377 27378 27379 27380 27381 27382 27383 27384 27385 27386 27387 27388 27389 27390 27391 27392 27393 27394 27395 27396 27397 27398 27399 27400 27401 27402 27403 27404 27405 27406 27407 27408 27409 27410 27411 27412 27413 27414 27415 27416 27417 27418 27419 27420 27421 27422 27423 27424 27425 27426 27427 27428 27429 27430 27431 27432 27433 27434 27435 27436 27437 27438 27439 27440 27441 27442 27443 27444 27445 27446 27447 27448 27449 27450 27451 27452 27453 27454 27455 27456 27457 27458 27459 27460 27461 27462 27463 27464 27465 27466 27467 27468 27469 27470 27471 27472 27473 27474 27475 27476 27477 27478 27479 27480 27481 27482 27483 27484 27485 27486 27487 27488 27489 27490 27491 27492 27493 27494 27495 27496 27497 27498 27499 27500 27501 27502 27503 27504 27505 27506 27507 27508 27509 27510 27511 27512 27513 27514 27515 27516 27517 27518 27519 27520 27521 27522 27523 27524 27525 27526 27527 27528 27529 27530 27531 27532 27533 27534 27535 27536 27537 27538 27539 27540 27541 27542 27543 27544 27545 27546 27547 27548 27549 27550 27551 27552 27553 27554 27555 27556 27557 27558 27559 27560 27561 27562 27563 27564 27565 27566 27567 27568 27569 27570 27571 27572 27573 27574 27575 27576 27577 27578 27579 27580 27581 27582 27583 27584 27585 27586 27587 27588 27589 27590 27591 27592 27593 27594 27595 27596 27597 27598 27599 27600 27601 27602 27603 27604 27605 27606 27607 27608 27609 27610 27611 27612 27613 27614 27615 27616 27617 27618 27619 27620 27621 27622 27623 27624 27625 27626 27627 27628 27629 27630 27631 27632 27633 27634 27635 27636 27637 27638 27639 27640 27641 27642 27643 27644 27645 27646 27647 27648 27649 27650 27651 27652 27653 27654 27655 27656 27657 27658 27659 27660 27661 27662 27663 27664 27665 27666 27667 27668 27669 27670 27671 27672 27673 27674 27675 27676 27677 27678 27679 27680 27681 27682 27683 27684 27685 27686 27687 27688 27689 27690 27691 27692 27693 27694 27695 27696 27697 27698 27699 27700 27701 27702 27703 27704 27705 27706 27707 27708 27709 27710 27711 27712 27713 27714 27715 27716 27717 27718 27719 27720 27721 27722 27723 27724 27725 27726 27727 27728 27729 27730 27731 27732 27733 27734 27735 27736 27737 27738 27739 27740 27741 27742 27743 27744 27745 27746 27747 27748 27749 27750 27751 27752 27753 27754 27755 27756 27757 27758 27759 27760 27761 27762 27763 27764 27765 27766 27767 27768 27769 27770 27771 27772 27773 27774 27775 27776 27777 27778 27779 27780 27781 27782 27783 27784 27785 27786 27787 27788 27789 27790 27791 27792 27793 27794 27795 27796 27797 27798 27799 27800 27801 27802 27803 27804 27805 27806 27807 27808 27809 27810 27811 27812 27813 27814 27815 27816 27817 27818 27819 27820 27821 27822 27823 27824 27825 27826 27827 27828 27829 27830 27831 27832 27833 27834 27835 27836 27837 27838 27839 27840 27841 27842 27843 27844 27845 27846 27847 27848 27849 27850 27851 27852 27853 27854 27855 27856 27857 27858 27859 27860 27861 27862 27863 27864 27865 27866 27867 27868 27869 27870 27871 27872 27873 27874 27875 27876 27877 27878 27879 27880 27881 27882 27883 27884 27885 27886 27887 27888 27889 27890 27891 27892 27893 27894 27895 27896 27897 27898 27899 27900 27901 27902 27903 27904 27905 27906 27907 27908 27909 27910 27911 27912 27913 27914 27915 27916 27917 27918 27919 27920 27921 27922 27923 27924 27925 27926 27927 27928 27929 27930 27931 27932 27933 27934 27935 27936 27937 27938 27939 27940 27941 27942 27943 27944 27945 27946 27947 27948 27949 27950 27951 27952 27953 27954 27955 27956 27957 27958 27959 27960 27961 27962 27963 27964 27965 27966 27967 27968 27969 27970 27971 27972 27973 27974 27975 27976 27977 27978 27979 27980 27981 27982 27983 27984 27985 27986 27987 27988 27989 27990 27991 27992 27993 27994 27995 27996 27997 27998 27999 28000 28001 28002 28003 28004 28005 28006 28007 28008 28009 28010 28011 28012 28013 28014 28015 28016 28017 28018 28019 28020 28021 28022 28023 28024 28025 28026 28027 28028 28029 28030 28031 28032 28033 28034 28035 28036 28037 28038 28039 28040 28041 28042 28043 28044 28045 28046 28047 28048 28049 28050 28051 28052 28053 28054 28055 28056 28057 28058 28059 28060 28061 28062 28063 28064 28065 28066 28067 28068 28069 28070 28071 28072 28073 28074 28075 28076 28077 28078 28079 28080 28081 28082 28083 28084 28085 28086 28087 28088 28089 28090 28091 28092 28093 28094 28095 28096 28097 28098 28099 28100 28101 28102 28103 28104 28105 28106 28107 28108 28109 28110 28111 28112 28113 28114 28115 28116 28117 28118 28119 28120 28121 28122 28123 28124 28125 28126 28127 28128 28129 28130 28131 28132 28133 28134 28135 28136 28137 28138 28139 28140 28141 28142 28143 28144 28145 28146 28147 28148 28149 28150 28151 28152 28153 28154 28155 28156 28157 28158 28159 28160 28161 28162 28163 28164 28165 28166 28167 28168 28169 28170 28171 28172 28173 28174 28175 28176 28177 28178 28179 28180 28181 28182 28183 28184 28185 28186 28187 28188 28189 28190 28191 28192 28193 28194 28195 28196 28197 28198 28199 28200 28201 28202 28203 28204 28205 28206 28207 28208 28209 28210 28211 28212 28213 28214 28215 28216 28217 28218 28219 28220 28221 28222 28223 28224 28225 28226 28227 28228 28229 28230 28231 28232 28233 28234 28235 28236 28237 28238 28239 28240 28241 28242 28243 28244 28245 28246 28247 28248 28249 28250 28251 28252 28253 28254 28255 28256 28257 28258 28259 28260 28261 28262 28263 28264 28265 28266 28267 28268 28269 28270 28271 28272 28273 28274 28275 28276 28277 28278 28279 28280 28281 28282 28283 28284 28285 28286 28287 28288 28289 28290 28291 28292 28293 28294 28295 28296 28297 28298 28299 28300 28301 28302 28303 28304 28305 28306 28307 28308 28309 28310 28311 28312 28313 28314 28315 28316 28317 28318 28319 28320 28321 28322 28323 28324 28325 28326 28327 28328 28329 28330 28331 28332 28333 28334 28335 28336 28337 28338 28339 28340 28341 28342 28343 28344 28345 28346 28347 28348 28349 28350 28351 28352 28353 28354 28355 28356 28357 28358 28359 28360 28361 28362 28363 28364 28365 28366 28367 28368 28369 28370 28371 28372 28373 28374 28375 28376 28377 28378 28379 28380 28381 28382 28383 28384 28385 28386 28387 28388 28389 28390 28391 28392 28393 28394 28395 28396 28397 28398 28399 28400 28401 28402 28403 28404 28405 28406 28407 28408 28409 28410 28411 28412 28413 28414 28415 28416 28417 28418 28419 28420 28421 28422 28423 28424 28425 28426 28427 28428 28429 28430 28431 28432 28433 28434 28435 28436 28437 28438 28439 28440 28441 28442 28443 28444 28445 28446 28447 28448 28449 28450 28451 28452 28453 28454 28455 28456 28457 28458 28459 28460 28461 28462 28463 28464 28465 28466 28467 28468 28469 28470 28471 28472 28473 28474 28475 28476 28477 28478 28479 28480 28481 28482 28483 28484 28485 28486 28487 28488 28489 28490 28491 28492 28493 28494 28495 28496 28497 28498 28499 28500 28501 28502 28503 28504 28505 28506 28507 28508 28509 28510 28511 28512 28513 28514 28515 28516 28517 28518 28519 28520 28521 28522 28523 28524 28525 28526 28527 28528 28529 28530 28531 28532 28533 28534 28535 28536 28537 28538 28539 28540 28541 28542 28543 28544 28545 28546 28547 28548 28549 28550 28551 28552 28553 28554 28555 28556 28557 28558 28559 28560 28561 28562 28563 28564 28565 28566 28567 28568 28569 28570 28571 28572 28573 28574 28575 28576 28577 28578 28579 28580 28581 28582 28583 28584 28585 28586 28587 28588 28589 28590 28591 28592 28593 28594 28595 28596 28597 28598 28599 28600 28601 28602 28603 28604 28605 28606 28607 28608 28609 28610 28611 28612 28613 28614 28615 28616 28617 28618 28619 28620 28621 28622 28623 28624 28625 28626 28627 28628 28629 28630 28631 28632 28633 28634 28635 28636 28637 28638 28639 28640 28641 28642 28643 28644 28645 28646 28647 28648 28649 28650 28651 28652 28653 28654 28655 28656 28657 28658 28659 28660 28661 28662 28663 28664 28665 28666 28667 28668 28669 28670 28671 28672 28673 28674 28675 28676 28677 28678 28679 28680 28681 28682 28683 28684 28685 28686 28687 28688 28689 28690 28691 28692 28693 28694 28695 28696 28697 28698 28699 28700 28701 28702 28703 28704 28705 28706 28707 28708 28709 28710 28711 28712 28713 28714 28715 28716 28717 28718 28719 28720 28721 28722 28723 28724 28725 28726 28727 28728 28729 28730 28731 28732 28733 28734 28735 28736 28737 28738 28739 28740 28741 28742 28743 28744 28745 28746 28747 28748 28749 28750 28751 28752 28753 28754 28755 28756 28757 28758 28759 28760 28761 28762 28763 28764 28765 28766 28767 28768 28769 28770 28771 28772 28773 28774 28775 28776 28777 28778 28779 28780 28781 28782 28783 28784 28785 28786 28787 28788 28789 28790 28791 28792 28793 28794 28795 28796 28797 28798 28799 28800 28801 28802 28803 28804 28805 28806 28807 28808 28809 28810 28811 28812 28813 28814 28815 28816 28817 28818 28819 28820 28821 28822 28823 28824 28825 28826 28827 28828 28829 28830 28831 28832 28833 28834 28835 28836 28837 28838 28839 28840 28841 28842 28843 28844 28845 28846 28847 28848 28849 28850 28851 28852 28853 28854 28855 28856 28857 28858 28859 28860 28861 28862 28863 28864 28865 28866 28867 28868 28869 28870 28871 28872 28873 28874 28875 28876 28877 28878 28879 28880 28881 28882 28883 28884 28885 28886 28887 28888 28889 28890 28891 28892 28893 28894 28895 28896 28897 28898 28899 28900 28901 28902 28903 28904 28905 28906 28907 28908 28909 28910 28911 28912 28913 28914 28915 28916 28917 28918 28919 28920 28921 28922 28923 28924 28925 28926 28927 28928 28929 28930 28931 28932 28933 28934 28935 28936 28937 28938 28939 28940 28941 28942 28943 28944 28945 28946 28947 28948 28949 28950 28951 28952 28953 28954 28955 28956 28957 28958 28959 28960 28961 28962 28963 28964 28965 28966 28967 28968 28969 28970 28971 28972 28973 28974 28975 28976 28977 28978 28979 28980 28981 28982 28983 28984 28985 28986 28987 28988 28989 28990 28991 28992 28993 28994 28995 28996 28997 28998 28999 29000 29001 29002 29003 29004 29005 29006 29007 29008 29009 29010 29011 29012 29013 29014 29015 29016 29017 29018 29019 29020 29021 29022 29023 29024 29025 29026 29027 29028 29029 29030 29031 29032 29033 29034 29035 29036 29037 29038 29039 29040 29041 29042 29043 29044 29045 29046 29047 29048 29049 29050 29051 29052 29053 29054 29055 29056 29057 29058 29059 29060 29061 29062 29063 29064 29065 29066 29067 29068 29069 29070 29071 29072 29073 29074 29075 29076 29077 29078 29079 29080 29081 29082 29083 29084 29085 29086 29087 29088 29089 29090 29091 29092 29093 29094 29095 29096 29097 29098 29099 29100 29101 29102 29103 29104 29105 29106 29107 29108 29109 29110 29111 29112 29113 29114 29115 29116 29117 29118 29119 29120 29121 29122 29123 29124 29125 29126 29127 29128 29129 29130 29131 29132 29133 29134 29135 29136 29137 29138 29139 29140 29141 29142 29143 29144 29145 29146 29147 29148 29149 29150 29151 29152 29153 29154 29155 29156 29157 29158 29159 29160 29161 29162 29163 29164 29165 29166 29167 29168 29169 29170 29171 29172 29173 29174 29175 29176 29177 29178 29179 29180 29181 29182 29183 29184 29185 29186 29187 29188 29189 29190 29191 29192 29193 29194 29195 29196 29197 29198 29199 29200 29201 29202 29203 29204 29205 29206 29207 29208 29209 29210 29211 29212 29213 29214 29215 29216 29217 29218 29219 29220 29221 29222 29223 29224 29225 29226 29227 29228 29229 29230 29231 29232 29233 29234 29235 29236 29237 29238 29239 29240 29241 29242 29243 29244 29245 29246 29247 29248 29249 29250 29251 29252 29253 29254 29255 29256 29257 29258 29259 29260 29261 29262 29263 29264 29265 29266 29267 29268 29269 29270 29271 29272 29273 29274 29275 29276 29277 29278 29279 29280 29281 29282 29283 29284 29285 29286 29287 29288 29289 29290 29291 29292 29293 29294 29295 29296 29297 29298 29299 29300 29301 29302 29303 29304 29305 29306 29307 29308 29309 29310 29311 29312 29313 29314 29315 29316 29317 29318 29319 29320 29321 29322 29323 29324 29325 29326 29327 29328 29329 29330 29331 29332 29333 29334 29335 29336 29337 29338 29339 29340 29341 29342 29343 29344 29345 29346 29347 29348 29349 29350 29351 29352 29353 29354 29355 29356 29357 29358 29359 29360 29361 29362 29363 29364 29365 29366 29367 29368 29369 29370 29371 29372 29373 29374 29375 29376 29377 29378 29379 29380 29381 29382 29383 29384 29385 29386 29387 29388 29389 29390 29391 29392 29393 29394 29395 29396 29397 29398 29399 29400 29401 29402 29403 29404 29405 29406 29407 29408 29409 29410 29411 29412 29413 29414 29415 29416 29417 29418 29419 29420 29421 29422 29423 29424 29425 29426 29427 29428 29429 29430 29431 29432 29433 29434 29435 29436 29437 29438 29439 29440 29441 29442 29443 29444 29445 29446 29447 29448 29449 29450 29451 29452 29453 29454 29455 29456 29457 29458 29459 29460 29461 29462 29463 29464 29465 29466 
</DataArray>
<DataArray type="UInt32" Name="offsets" format="ascii">
3 6 9 12 15 18 21 24 27 30 33 36 39 42 44 47 50 53 55 57 60 63 66 69 72 75 78 81 84 87 90 93 96 99 102 105 108 111 114 117 120 123 126 129 132 135 138 141 144 147 150 153 156 159 162 165 168 171 174 177 179 182 185 188 191 194 197 200 203 206 209 212 215 218 221 224 227 229 232 235 238 241 244 247 250 253 256 258 260 263 266 269 272 275 278 281 284 287 290 293 296 299 302 305 308 310 313 315 318 320 323 326 328 331 334 336 339 342 345 348 351 354 357 360 363 365 368 371 374 377 380 383 386 389 392 395 398 401 404 407 410 413 416 419 422 425 428 431 434 437 440 442 445 448 451 454 457 459 461 464 466 469 471 474 477 480 483 486 489 492 495 498 500 503 506 509 512 514 517 520 523 525 528 531 534 537 540 543 546 549 551 553 556 558 561 563 566 569 572 575 578 581 583 586 589 591 593 596 599 602 605 608 611 614 617 620 622 625 628 631 634 637 640 643 646 649 652 655 657 660 662 665 668 671 674 677 680 682 685 688 690 693 696 698 701 704 707 710 713 716 718 721 724 726 728 731 734 737 739 742 744 747 750 752 754 756 759 762 765 768 771 774 777 780 783 786 789 792 795 798 801 804 807 810 813 816 819 822 825 828 831 834 837 840 843 846 849 851 854 857 860 862 865 868 871 873 876 879 882 885 888 891 894 897 900 902 905 908 911 914 917 920 923 926 929 932 935 938 940 943 946 949 952 955 958 961 964 967 969 971 974 977 980 983 986 989 992 995 998 1001 1004 1007 1010 1013 1016 1018 1021 1024 1027 1029 1032 1035 1038 1041 1044 1047 1050 1053 1055 1058 1061 1064 1067 1070 1073 1076 1079 1082 1085 1087 1090 1093 1096 1099 1102 1105 1108 1111 1113 1115 1118 1121 1124 1127 1130 1133 1136 1138 1140 1143 1146 1148 1151 1154 1157 1160 1163 1166 1168 1171 1174 1177 1180 1183 1186 1188 1191 1194 1197 1200 1203 1205 1208 1211 1214 1217 1220 1223 1226 1229 1232 1235 1238 1241 1244 1247 1250 1253 1256 1259 1262 1265 1268 1271 1274 1277 1280 1283 1286 1289 1292 1295 1298 1301 1304 1306 1309 1312 1315 1318 1320 1323 1326 1329 1331 1334 1337 1340 1343 1345 1348 1351 1354 1357 1360 1363 1366 1369 1372 1375 1378 1381 1384 1387 1390 1393 1396 1399 1402 1405 1408 1410 1413 1416 1419 1421 1424 1427 1430 1433 1436 1439 1442 1445 1447 1450 1453 1456 1459 1462 1464 1467 1470 1472 1474 1477 1479 1482 1485 1487 1490 1493 1495 1498 1501 1504 1506 1508 1511 1514 1517 1519 1522 1525 1527 1529 1532 1535 1538 1541 1544 1546 1549 1552 1555 1558 1560 1563 1566 1569 1571 1574 1577 1580 1583 1586 1589 1592 1594 1597 1600 1603 1606 1609 1612 1615 1618 1621 1624 1627 1630 1633 1636 1639 1642 1644 1647 1650 1653 1656 1659 1662 1665 1668 1671 1674 1677 1680 1683 1686 1689 1692 1695 1697 1700 1703 1706 1709 1712 1715 1717 1720 1723 1725 1728 1731 1734 1737 1740 1742 1745 1748 1750 1753 1756 1759 1762 1765 1767 1769 1772 1775 1778 1780 1783 1786 1789 1791 1794 1796 1799 1802 1804 1806 1809 1812 1814 1816 1818 1821 1823 1826 1829 1831 1833 1836 1839 1842 1845 1847 1850 1853 1856 1859 1861 1864 1866 1869 1871 1874 1876 1879 1881 1884 1887 1890 1892 1895 1898 1901 1904 1907 1909 1912 1915 1918 1921 1924 1926 1929 1932 1934 1937 1940 1942 1945 1948 1951 1954 1956 1959 1962 1965 1968 1971 1973 1976 1979 1982 1985 1988 1991 1994 1997 2000 2003 2006 2009 2012 2015 2018 2021 2024 2027 2030 2033 2036 2039 2042 2045 2048 2051 2054 2057 2060 2063 2066 2069 2072 2075 2078 2081 2084 2087 2090 2093 2096 2099 2102 2105 2108 2111 2114 2117 2120 2123 2126 2129 2132 2135 2138 2141 2144 2147 2150 2153 2156 2159 2162 2165 2168 2171 2174 2177 2180 2183 2186 2189 2192 2195 2198 2201 2204 2207 2210 2213 2216 2219 2222 2225 2228 2231 2234 2236 2239 2242 2245 2248 2251 2254 2257 2260 2263 2266 2269 2272 2275 2278 2281 2284 2287 2290 2293 2296 2299 2302 2304 2306 2308 2310 2313 2316 2319 2322 2324 2327 2329 2332 2334 2337 2340 2343 2346 2348 2351 2354 2357 2359 2362 2365 2368 2371 2374 2377 2380 2383 2386 2389 2392 2395 2398 2400 2403 2406 2409 2412 2415 2418 2421 2424 2427 2430 2433 2436 2439 2441 2444 2447 2449 2452 2455 2457 2460 2463 2466 2469 2472 2474 2477 2480 2482 2485 2488 2491 2494 2496 2499 2501 2504 2507 2510 2512 2514 2516 2519 2522 2525 2528 2531 2534 2537 2540 2542 2545 2548 2551 2554 2557 2560 2563 2566 2569 2572 2575 2577 2580 2583 2586 2589 2592 2595 2598 2601 2604 2607 2610 2613 2615 2618 2621 2624 2626 2629 2632 2635 2638 2641 2644 2646 2649 2651 2654 2657 2659 2662 2665 2668 2671 2674 2677 2680 2683 2686 2689 2692 2695 2698 2701 2704 2706 2709 2712 2714 2717 2720 2723 2726 2729 2731 2733 2736 2739 2742 2745 2748 2750 2753 2755 2758 2761 2764 2767 2770 2773 2776 2779 2782 2785 2788 2791 2794 2797 2800 2803 2806 2809 2812 2815 2818 2821 2823 2826 2829 2832 2835 2838 2841 2844 2846 2849 2852 2855 2858 2861 2864 2867 2869 2872 2874 2877 2880 2883 2886 2888 2891 2894 2897 2900 2903 2906 2909 2912 2915 2917 2920 2923 2926 2928 2931 2934 2937 2939 2942 2945 2948 2951 2954 2957 2960 2963 2966 2969 2972 2975 2978 2981 2984 2987 2989 2992 2995 2998 3001 3004 3007 3010 3013 3016 3019 3022 3024 3026 3029 3032 3035 3038 3041 3044 3046 3049 3052 3055 3058 3061 3064 3067 3070 3073 3076 3079 3081 3084 3087 3090 3093 3096 3099 3102 3105 3108 3111 3114 3117 3120 3123 3126 3129 3132 3135 3138 3141 3144 3147 3150 3152 3155 3158 3161 3164 3167 3170 3173 3176 3179 3182 3185 3188 3191 3194 3197 3200 3203 3206 3209 3212 3215 3218 3221 3224 3227 3230 3233 3236 3239 3242 3245 3248 3250 3253 3255 3258 3261 3264 3267 3270 3272 3275 3278 3281 3284 3287 3289 3292 3294 3296 3299 3301 3304 3307 3309 3312 3315 3318 3321 3323 3326 3329 3332 3335 3338 3341 3344 3347 3350 3353 3356 3359 3362 3365 3368 3371 3374 3376 3379 3382 3385 3387 3390 3393 3395 3398 3401 3404 3407 3410 3413 3415 3418 3421 3424 3427 3430 3433 3436 3438 3441 3444 3446 3449 3451 3453 3456 3459 3462 3465 3468 3471 3474 3477 3480 3482 3485 3488 3490 3493 3496 3499 3502 3505 3508 3511 3514 3517 3520 3523 3526 3529 3532 3535 3538 3541 3544 3547 3550 3553 3556 3559 3562 3565 3568 3571 3574 3577 3580 3583 3586 3589 3592 3595 3598 3601 3604 3607 3610 3613 3616 3619 3622 3625 3628 3631 3634 3637 3640 3643 3646 3649 3652 3655 3658 3661 3663 3666 3669 3672 3674 3677 3679 3682 3685 3688 3690 3693 3696 3699 3702 3705 3708 3710 3713 3716 3718 3721 3724 3727 3730 3733 3736 3739 3742 3745 3748 3751 3754 3757 3760 3763 3766 3769 3772 3775 3778 3780 3782 3785 3788 3791 3794 3797 3800 3803 3806 3809 3812 3814 3817 3820 3823 3825 3828 3831 3834 3836 3839 3842 3845 3847 3850 3852 3855 3858 3861 3864 3867 3870 3873 3875 3878 3881 3884 3887 3890 3893 3896 3899 3902 3905 3908 3911 3914 3917 3920 3923 3926 3929 3932 3935 3938 3941 3944 3947 3950 3953 3956 3959 3962 3965 3968 3971 3974 3977 3980 3983 3986 3989 3992 3994 3997 4000 4003 4006 4009 4012 4015 4018 4021 4024 4026 4029 4032 4035 4037 4040 4043 4046 4049 4052 4055 4058 4061 4064 4067 4070 4073 4076 4079 4082 4085 4088 4091 4094 4097 4100 4103 4106 4109 4112 4115 4118 4121 4124 4127 4130 4132 4135 4138 4141 4144 4146 4149 4152 4155 4158 4161 4164 4167 4170 4173 4176 4179 4182 4185 4188 4191 4194 4196 4199 4202 4205 4208 4211 4213 4216 4219 4222 4225 4228 4230 4233 4236 4239 4242 4245 4248 4251 4253 4256 4259 4262 4264 4267 4270 4273 4276 4279 4282 4285 4288 4291 4294 4297 4300 4303 4306 4309 4312 4315 4318 4321 4324 4327 4330 4333 4336 4339 4342 4345 4348 4351 4354 4357 4360 4363 4366 4369 4372 4375 4378 4380 4383 4385 4388 4391 4394 4397 4400 4403 4406 4409 4412 4415 4418 4421 4424 4427 4430 4433 4436 4439 4442 4445 4447 4450 4453 4456 4459 4462 4465 4468 4471 4474 4477 4480 4483 4486 4489 4492 4495 4498 4501 4504 4507 4510 4513 4515 4518 4520 4523 4526 4528 4531 4534 4537 4540 4542 4544 4547 4550 4553 4556 4559 4562 4565 4567 4570 4573 4576 4579 4582 4585 4588 4590 4593 4596 4599 4602 4605 4607 4610 4613 4615 4618 4620 4623 4626 4629 4632 4635 4637 4640 4643 4646 4649 4652 4655 4657 4660 4663 4665 4668 4671 4674 4677 4680 4683 4686 4689 4692 4695 4698 4700 4703 4706 4709 4711 4713 4716 4718 4720 4723 4726 4729 4732 4735 4738 4741 4744 4747 4749 4752 4754 4757 4760 4762 4765 4767 4770 4773 4776 4779 4782 4785 4788 4791 4794 4797 4800 4803 4806 4809 4812 4815 4818 4821 4823 4826 4828 4831 4834 4837 4840 4842 4845 4848 4851 4853 4855 4858 4860 4863 4866 4869 4872 4874 4877 4880 4883 4885 4888 4891 4894 4897 4900 4902 4905 4908 4911 4914 4917 4920 4923 4926 4928 4931 4934 4937 4940 4943 4945 4948 4951 4954 4956 4959 4962 4965 4967 4970 4973 4976 4978 4981 4984 4987 4990 4993 4996 4999 5002 5005 5008 5010 5013 5016 5019 5022 5025 5028 5031 5034 5037 5040 5043 5046 5049 5052 5054 5057 5060 5063 5066 5069 5072 5075 5078 5081 5084 5086 5089 5092 5095 5098 5101 5104 5107 5109 5112 5115 5118 5121 5124 5127 5129 5132 5135 5137 5140 5143 5146 5148 5151 5154 5157 5160 5163 5166 5169 5172 5175 5178 5181 5184 5187 5190 5192 5195 5198 5201 5203 5206 5209 5212 5214 5217 5219 5222 5225 5228 5231 5234 5237 5240 5243 5246 5248 5251 5254 5257 5260 5262 5265 5268 5270 5273 5276 5278 5281 5284 5286 5289 5292 5295 5297 5300 5303 5306 5309 5312 5315 5317 5320 5323 5326 5329 5332 5335 5338 5340 5342 5345 5348 5351 5354 5356 5359 5362 5365 5368 5371 5374 5376 5379 5381 5384 5386 5389 5392 5395 5398 5401 5404 5407 5410 5413 5416 5418 5421 5424 5427 5429 5432 5435 5438 5441 5444 5446 5449 5452 5454 5457 5460 5463 5466 5469 5472 5475 5478 5481 5484 5487 5490 5493 5496 5498 5501 5504 5507 5510 5513 5516 5519 5522 5525 5528 5531 5533 5536 5539 5542 5545 5548 5551 5554 5557 5559 5562 5565 5568 5570 5573 5575 5578 5581 5584 5587 5590 5593 5596 5599 5602 5605 5608 5611 5614 5617 5620 5623 5625 5628 5631 5634 5637 5640 5642 5645 5648 5651 5654 5657 5660 5662 5665 5668 5671 5674 5677 5680 5683 5686 5689 5692 5695 5698 5701 5704 5706 5709 5712 5714 5717 5720 5723 5726 5729 5732 5735 5738 5741 5744 5747 5750 5753 5756 5759 5762 5765 5768 5771 5774 5777 5780 5783 5786 5789 5792 5795 5798 5801 5804 5807 5809 5812 5815 5818 5821 5824 5827 5830 5833 5836 5839 5842 5845 5847 5850 5853 5856 5859 5862 5865 5868 5871 5874 5877 5880 5883 5886 5889 5891 5894 5897 5900 5903 5906 5909 5912 5915 5918 5921 5923 5926 5929 5932 5935 5938 5941 5944 5947 5950 5952 5955 5958 5961 5963 5966 5969 5972 5975 5978 5981 5984 5987 5990 5993 5996 5999 6002 6005 6008 6011 6014 6017 6020 6023 6026 6029 6032 6035 6038 6041 6044 6047 6050 6053 6055 6058 6061 6064 6067 6070 6073 6075 6077 6080 6083 6086 6089 6091 6094 6097 6100 6103 6106 6108 6110 6113 6115 6117 6119 6122 6125 6128 6131 6134 6137 6140 6143 6145 6148 6151 6153 6156 6159 6162 6165 6168 6171 6174 6177 6180 6183 6186 6189 6192 6195 6198 6201 6204 6207 6210 6213 6216 6219 6222 6225 6228 6231 6234 6237 6240 6243 6246 6249 6252 6255 6258 6261 6264 6267 6270 6273 6276 6279 6282 6285 6288 6291 6294 6296 6299 6302 6305 6308 6311 6313 6316 6318 6321 6324 6326 6329 6332 6335 6338 6341 6343 6346 6349 6352 6355 6357 6360 6363 6365 6368 6371 6374 6377 6380 6383 6386 6389 6392 6395 6398 6401 6404 6407 6410 6413 6416 6419 6422 6424 6427 6430 6433 6436 6439 6442 6445 6448 6450 6453 6456 6459 6462 6465 6468 6471 6474 6477 6480 6483 6486 6488 6491 6494 6496 6499 6502 6504 6507 6509 6512 6515 6518 6520 6523 6526 6529 6531 6534 6537 6540 6543 6546 6549 6552 6555 6558 6561 6564 6567 6570 6573 6576 6578 6581 6584 6587 6590 6593 6596 6599 6602 6605 6608 6611 6614 6617 6620 6623 6626 6629 6632 6635 6637 6640 6643 6646 6649 6652 6655 6658 6661 6664 6667 6670 6673 6676 6679 6682 6684 6687 6690 6693 6695 6698 6701 6704 6707 6710 6712 6715 6718 6721 6724 6727 6730 6733 6736 6738 6741 6744 6747 6750 6753 6756 6758 6761 6764 6767 6770 6773 6776 6779 6782 6785 6787 6790 6792 6795 6798 6801 6804 6806 6809 6812 6815 6818 6821 6823 6826 6829 6832 6835 6838 6841 6843 6846 6849 6852 6855 6858 6861 6864 6867 6870 6873 6876 6879 6881 6884 6887 6890 6893 6896 6899 6902 6905 6908 6911 6914 6917 6920 6922 6925 6928 6931 6934 6937 6940 6943 6946 6949 6952 6955 6958 6961 6964 6967 6970 6973 6976 6979 6982 6985 6988 6991 6994 6996 6999 7002 7004 7007 7010 7013 7016 7019 7022 7024 7027 7030 7033 7036 7039 7042 7045 7047 7050 7053 7056 7059 7062 7065 7068 7071 7074 7077 7080 7083 7086 7089 7092 7095 7098 7101 7104 7107 7110 7113 7116 7118 7121 7124 7127 7130 7133 7136 7139 7142 7145 7148 7151 7154 7157 7160 7163 7166 7169 7172 7175 7178 7181 7184 7187 7190 7193 7196 7199 7202 7205 7208 7211 7214 7217 7220 7223 7226 7229 7231 7234 7237 7240 7243 7245 7248 7251 7253 7256 7259 7261 7264 7267 7270 7272 7275 7277 7280 7283 7286 7289 7292 7295 7298 7301 7304 7307 7310 7313 7316 7319 7322 7325 7328 7331 7334 7337 7340 7343 7346 7349 7352 7355 7358 7361 7364 7367 7370 7373 7376 7379 7382 7385 7388 7391 7394 7397 7400 7402 7405 7408 7411 7414 7416 7419 7422 7425 7428 7431 7433 7436 7439 7442 7445 7448 7451 7453 7456 7458 7460 7463 7466 7469 7472 7475 7477 7480 7482 7485 7487 7490 7493 7496 7499 7502 7505 7508 7511 7514 7517 7519 7522 7525 7527 7530 7533 7536 7539 7542 7545 7548 7551 7554 7557 7560 7562 7565 7568 7571 7573 7576 7578 7581 7584 7587 7590 7593 7595 7598 7601 7604 7607 7610 7613 7616 7619 7622 7625 7628 7631 7633 7636 7639 7642 7645 7648 7651 7654 7657 7659 7662 7665 7668 7670 7673 7676 7678 7681 7684 7687 7690 7693 7696 7699 7702 7705 7708 7710 7713 7716 7719 7722 7725 7728 7731 7734 7736 7739 7742 7745 7748 7751 7754 7757 7760 7763 7766 7769 7772 7775 7778 7781 7784 7787 7790 7792 7795 7797 7800 7803 7806 7809 7811 7814 7817 7820 7823 7825 7828 7831 7834 7837 7840 7843 7846 7849 7852 7855 7858 7861 7864 7867 7870 7873 7876 7878 7881 7883 7886 7889 7892 7894 7897 7900 7903 7905 7908 7911 7913 7916 7919 7921 7923 7926 7929 7932 7935 7938 7941 7944 7946 7949 7952 7954 7957 7960 7962 7965 7968 7971 7974 7977 7980 7982 7985 7988 7991 7994 7997 8000 8002 8005 8008 8011 8014 8017 8020 8023 8026 8029 8032 8035 8038 8040 8043 8046 8049 8052 8055 8058 8061 8064 8067 8070 8073 8076 8079 8082 8084 8087 8090 8093 8095 8098 8101 8104 8107 8110 8112 8115 8117 8120 8122 8125 8128 8131 8133 8136 8139 8142 8144 8147 8149 8152 8155 8158 8161 8164 8167 8170 8173 8176 8179 8182 8185 8188 8191 8194 8197 8200 8203 8206 8209 8212 8215 8218 8221 8224 8227 8230 8233 8236 8239 8242 8245 8248 8251 8254 8257 8260 8263 8265 8268 8271 8273 8276 8279 8282 8284 8287 8290 8293 8295 8297 8300 8303 8306 8309 8312 8314 8317 8319 8322 8325 8328 8331 8334 8337 8339 8342 8345 8347 8350 8353 8356 8359 8362 8364 8367 8370 8373 8376 8379 8382 8385 8388 8391 8394 8397 8400 8403 8406 8409 8412 8415 8418 8421 8424 8427 8430 8433 8436 8438 8441 8444 8447 8450 8453 8456 8459 8462 8465 8468 8471 8474 8477 8479 8482 8485 8488 8491 8494 8496 8499 8502 8505 8508 8511 8513 8516 8519 8522 8525 8528 8531 8534 8537 8540 8542 8545 8548 8551 8553 8556 8558 8561 8564 8567 8570 8572 8575 8578 8580 8583 8586 8589 8592 8595 8598 8601 8604 8606 8609 8612 8615 8618 8621 8624 8627 8630 8633 8635 8638 8641 8643 8646 8648 8650 8653 8656 8659 8662 8665 8668 8671 8674 8676 8678 8681 8684 8687 8690 8693 8696 8699 8702 8705 8708 8711 8714 8717 8720 8722 8725 8728 8731 8734 8737 8740 8742 8744 8747 8749 8751 8754 8757 8760 8763 8766 8768 8770 8772 8775 8777 8780 8783 8786 8789 8792 8795 8798 8801 8804 8806 8809 8812 8815 8818 8821 8824 8826 8829 8832 8835 8838 8841 8844 8847 8850 8853 8856 8859 8862 8865 8868 8871 8874 8877 8880 8882 8885 8888 8891 8894 8897 8899 8902 8904 8907 8910 8913 8916 8919 8922 8925 8927 8930 8933 8936 8938 8941 8944 8947 8950 8953 8956 8958 8961 8964 8967 8970 8973 8975 8978 8981 8984 8987 8990 8993 8996 8998 9001 9004 9007 9010 9013 9016 9019 9022 9025 9028 9031 9033 9036 9038 9041 9043 9046 9048 9051 9054 9057 9060 9062 9065 9067 9070 9073 9076 9079 9082 9085 9087 9090 9092 9095 9098 9101 9104 9107 9110 9113 9116 9119 9122 9125 9128 9131 9134 9137 9140 9143 9146 9149 9152 9154 9157 9160 9163 9166 9168 9170 9173 9176 9179 9181 9184 9187 9190 9193 9195 9198 9201 9204 9207 9210 9213 9215 9218 9221 9224 9227 9230 9233 9236 9239 9242 9245 9247 9249 9252 9254 9257 9260 9263 9266 9269 9272 9275 9278 9281 9284 9287 9290 9292 9295 9298 9301 9304 9307 9310 9313 9316 9319 9322 9325 9328 9330 9333 9336 9339 9342 9345 9348 9351 9354 9357 9360 9363 9365 9368 9371 9374 9377 9380 9383 9386 9388 9391 9394 9397 9400 9403 9406 9409 9412 9414 9417 9420 9423 9426 9428 9431 9434 9437 9440 9443 9446 9449 9452 9455 9458 9461 9464 9467 9469 9472 9475 9477 9480 9483 9485 9488 9491 9494 9497 9500 9503 9506 9508 9511 9514 9517 9519 9522 9525 9528 9531 9533 9536 9539 9542 9545 9548 9551 9554 9557 9560 9563 9566 9569 9572 9575 9578 9581 9584 9587 9590 9593 9596 9599 9602 9605 9608 9610 9613 9616 9619 9622 9624 9627 9630 9633 9636 9639 9642 9645 9648 9651 9654 9657 9660 9663 9666 9669 9672 9675 9678 9680 9683 9685 9688 9691 9694 9697 9700 9703 9705 9708 9710 9713 9715 9718 9721 9724 9727 9730 9733 9736 9739 9741 9744 9747 9750 9753 9756 9759 9762 9765 9768 9771 9774 9777 9780 9783 9786 9789 9792 9794 9797 9800 9803 9806 9809 9812 9815 9818 9821 9824 9827 9830 9833 9836 9839 9842 9845 9848 9851 9854 9857 9860 9863 9866 9869 9872 9875 9878 9881 9884 9887 9890 9893 9896 9899 9902 9905 9908 9911 9914 9917 9920 9923 9926 9929 9932 9935 9938 9941 9944 9947 9950 9953 9956 9959 9962 9965 9968 9971 9974 9977 9980 9983 9986 9989 9992 9995 9997 10000 10003 10006 10009 10012 10015 10018 10021 10024 10026 10029 10032 10035 10037 10040 10043 10046 10049 10052 10055 10058 10061 10064 10067 10070 10073 10076 10079 10082 10085 10088 10091 10094 10097 10100 10103 10105 10108 10111 10114 10116 10119 10122 10125 10128 10131 10134 10137 10140 10143 10146 10149 10152 10155 10158 10161 10164 10167 10170 10173 10176 10179 10181 10184 10187 10190 10193 10196 10199 10202 10205 10208 10211 10214 10217 10220 10223 10226 10229 10232 10235 10238 10241 10244 10247 10250 10253 10256 10259 10262 10265 10268 10271 10274 10277 10280 10283 10286 10289 10292 10295 10298 10300 10303 10306 10309 10312 10315 10317 10320 10323 10325 10328 10331 10334 10337 10340 10343 10346 10349 10352 10355 10358 10361 10364 10367 10370 10372 10375 10378 10381 10384 10386 10389 10392 10394 10397 10400 10403 10406 10409 10412 10415 10418 10421 10424 10427 10430 10433 10436 10438 10441 10444 10446 10449 10452 10455 10458 10461 10464 10467 10470 10473 10476 10479 10482 10484 10487 10490 10493 10495 10498 10500 10503 10506 10509 10512 10515 10518 10521 10524 10527 10530 10533 10536 10539 10542 10545 10547 10550 10552 10555 10558 10561 10564 10567 10570 10573 10576 10578 10581 10584 10587 10590 10593 10596 10599 10602 10605 10608 10611 10614 10617 10620 10623 10626 10629 10632 10635 10638 10641 10644 10647 10650 10652 10655 10658 10661 10663 10666 10669 10672 10675 10678 10681 10684 10687 10690 10693 10696 10699 10702 10705 10708 10711 10714 10717 10719 10722 10725 10728 10731 10733 10736 10739 10742 10744 10747 10749 10752 10754 10757 10760 10763 10765 10768 10771 10774 10776 10779 10782 10785 10788 10791 10794 10797 10800 10803 10806 10809 10812 10815 10817 10820 10823 10826 10829 10831 10834 10837 10840 10843 10846 10849 10852 10855 10858 10861 10864 10867 10870 10873 10876 10879 10882 10885 10888 10891 10894 10897 10900 10903 10906 10909 10912 10914 10917 10920 10923 10926 10928 10931 10934 10937 10940 10943 10946 10949 10952 10955 10958 10961 10963 10966 10969 10972 10975 10977 10980 10983 10986 10989 10992 10995 10997 11000 11003 11006 11009 11011 11013 11016 11019 11022 11024 11027 11030 11032 11035 11038 11041 11044 11047 11050 11052 11055 11058 11061 11064 11067 11070 11072 11074 11077 11080 11083 11086 11089 11092 11094 11097 11100 11103 11106 11109 11112 11115 11118 11121 11124 11127 11130 11132 11135 11138 11141 11144 11147 11150 11153 11156 11159 11162 11165 11168 11171 11174 11177 11179 11182 11185 11188 11191 11194 11196 11199 11201 11204 11207 11210 11213 11216 11219 11222 11225 11228 11231 11234 11237 11239 11242 11245 11248 11251 11254 11257 11260 11263 11266 11269 11272 11275 11278 11281 11284 11287 11289 11292 11295 11298 11301 11304 11307 11310 11313 11316 11319 11322 11325 11327 11330 11333 11335 11338 11341 11344 11347 11350 11353 11356 11358 11361 11363 11366 11369 11372 11375 11378 11381 11384 11387 11390 11393 11396 11399 11402 11404 11407 11410 11413 11416 11419 11422 11425 11428 11431 11434 11437 11440 11443 11446 11449 11452 11455 11457 11460 11463 11466 11469 11472 11475 11477 11480 11483 11486 11489 11492 11495 11498 11501 11504 11507 11510 11513 11516 11519 11522 11525 11528 11531 11534 11537 11540 11542 11545 11548 11551 11553 11556 11559 11562 11565 11568 11571 11574 11577 11580 11583 11585 11588 11590 11592 11595 11598 11601 11604 11606 11609 11612 11615 11618 11621 11623 11626 11628 11631 11634 11637 11640 11643 11646 11648 11650 11653 11656 11659 11661 11664 11667 11670 11673 11675 11678 11681 11684 11687 11690 11693 11695 11698 11701 11704 11706 11709 11712 11715 11718 11721 11723 11726 11729 11732 11735 11738 11741 11744 11747 11749 11752 11755 11758 11761 11764 11767 11770 11772 11775 11778 11781 11784 11787 11790 11792 11795 11798 11801 11803 11806 11808 11811 11814 11817 11820 11822 11825 11828 11831 11834 11837 11840 11842 11845 11848 11851 11854 11856 11859 11862 11865 11868 11870 11873 11875 11878 11881 11883 11886 11889 11891 11894 11896 11899 11902 11905 11908 11911 11914 11917 11920 11923 11926 11929 11932 11935 11938 11941 11944 11947 11950 11953 11956 11959 11962 11965 11967 11970 11973 11976 11979 11982 11984 11987 11990 11993 11996 11999 12002 12005 12007 12010 12013 12016 12019 12021 12024 12027 12030 12033 12036 12039 12042 12045 12048 12051 12054 12057 12060 12063 12066 12069 12072 12075 12078 12081 12084 12087 12090 12093 12096 12099 12102 12105 12108 12110 12113 12116 12119 12122 12125 12127 12130 12133 12136 12139 12142 12145 12148 12151 12154 12157 12160 12163 12166 12168 12171 12174 12177 12180 12182 12185 12188 12191 12194 12197 12199 12202 12205 12208 12210 12213 12216 12219 12222 12225 12228 12230 12233 12236 12239 12242 12244 12247 12250 12253 12256 12259 12262 12265 12268 12271 12274 12276 12279 12282 12285 12288 12291 12294 12297 12299 12302 12305 12308 12311 12314 12317 12320 12323 12326 12329 12332 12335 12337 12340 12343 12346 12348 12351 12354 12357 12359 12362 12365 12368 12371 12373 12376 12379 12382 12385 12388 12391 12394 12397 12400 12403 12406 12408 12411 12413 12416 12419 12422 12424 12427 12429 12432 12435 12438 12441 12444 12447 12450 12453 12456 12459 12462 12465 12467 12470 12473 12475 12478 12481 12484 12487 12490 12493 12496 12499 12502 12504 12507 12510 12513 12516 12519 12522 12525 12528 12531 12533 12536 12539 12542 12545 12548 12551 12554 12557 12560 12563 12566 12569 12572 12575 12578 12581 12584 12587 12590 12593 12596 12599 12602 12605 12608 12611 12614 12617 12620 12623 12626 12629 12632 12635 12638 12641 12644 12647 12650 12653 12656 12659 12662 12665 12668 12671 12673 12676 12679 12682 12685 12688 12691 12694 12697 12700 12703 12706 12709 12712 12715 12718 12721 12724 12727 12730 12733 12736 12739 12741 12743 12746 12749 12752 12755 12758 12761 12764 12767 12770 12772 12775 12778 12781 12784 12787 12790 12793 12796 12799 12802 12805 12808 12811 12814 12817 12820 12823 12826 12829 12832 12835 12838 12841 12844 12847 12850 12853 12856 12859 12862 12865 12868 12871 12874 12877 12880 12883 12886 12889 12892 12895 12898 12901 12904 12907 12910 12913 12916 12919 12922 12925 12928 12931 12934 12937 12940 12943 12946 12949 12952 12955 12958 12961 12964 12967 12970 12973 12976 12979 12982 12985 12988 12991 12994 12997 13000 13003 13006 13009 13012 13015 13018 13021 13024 13027 13030 13033 13036 13039 13041 13044 13047 13050 13053 13056 13059 13062 13065 13068 13071 13074 13077 13080 13083 13085 13088 13091 13094 13097 13099 13102 13104 13107 13110 13113 13116 13119 13122 13125 13128 13130 13133 13136 13139 13142 13144 13147 13149 13151 13154 13157 13160 13163 13166 13169 13172 13175 13178 13181 13184 13187 13190 13193 13196 13199 13202 13204 13207 13210 13213 13216 13219 13221 13224 13227 13230 13233 13236 13239 13242 13245 13248 13250 13253 13255 13258 13261 13264 13267 13270 13273 13276 13279 13282 13285 13288 13291 13294 13297 13300 13303 13306 13309 13312 13315 13317 13320 13322 13325 13328 13331 13334 13337 13340 13343 13346 13348 13351 13354 13357 13360 13363 13366 13369 13372 13375 13378 13381 13383 13386 13388 13391 13394 13397 13400 13403 13406 13409 13412 13415 13418 13421 13424 13426 13429 13432 13435 13438 13440 13443 13446 13449 13451 13454 13457 13459 13462 13465 13467 13470 13473 13476 13478 13481 13484 13486 13489 13492 13495 13498 13501 13504 13507 13510 13513 13516 13519 13522 13525 13528 13531 13534 13537 13540 13543 13546 13548 13551 13553 13556 13559 13561 13564 13567 13570 13573 13575 13578 13581 13584 13587 13590 13593 13596 13599 13602 13605 13608 13610 13613 13616 13619 13622 13625 13628 13631 13634 13637 13640 13643 13646 13649 13652 13654 13657 13660 13663 13666 13669 13672 13675 13678 13681 13684 13687 13690 13693 13696 13699 13702 13705 13708 13711 13714 13717 13720 13723 13726 13729 13732 13735 13738 13741 13744 13747 13750 13753 13756 13758 13761 13764 13767 13770 13773 13776 13778 13781 13784 13787 13790 13793 13796 13798 13801 13804 13806 13809 13811 13814 13817 13820 13823 13826 13829 13832 13835 13838 13841 13844 13847 13850 13852 13855 13858 13861 13864 13867 13870 13873 13876 13879 13882 13885 13888 13891 13893 13895 13898 13901 13904 13907 13910 13913 13916 13919 13922 13925 13928 13931 13934 13936 13939 13942 13945 13948 13951 13954 13957 13959 13962 13965 13968 13971 13974 13977 13980 13983 13985 13988 13991 13993 13996 13999 14002 14004 14006 14009 14012 14015 14018 14021 14024 14027 14030 14033 14035 14038 14041 14043 14046 14049 14052 14055 14058 14061 14064 14067 14070 14073 14076 14079 14082 14085 14088 14091 14094 14097 14099 14102 14105 14108 14111 14114 14117 14120 14123 14126 14128 14131 14134 14137 14140 14143 14145 14148 14151 14153 14156 14159 14162 14165 14168 14171 14174 14177 14180 14183 14186 14189 14192 14195 14198 14201 14204 14207 14210 14213 14216 14219 14222 14225 14227 14230 14233 14236 14239 14242 14245 14248 14251 14253 14256 14259 14261 14264 14267 14270 14272 14275 14278 14281 14284 14287 14290 14292 14295 14298 14301 14304 14307 14310 14313 14316 14318 14321 14324 14327 14330 14332 14335 14337 14340 14343 14346 14349 14351 14354 14357 14359 14362 14365 14368 14371 14374 14377 14380 14383 14385 14388 14391 14394 14397 14400 14403 14406 14409 14412 14415 14418 14420 14423 14426 14429 14432 14435 14438 14441 14444 14447 14449 14452 14455 14458 14461 14464 14467 14469 14472 14475 14478 14481 14484 14486 14489 14492 14495 14498 14501 14504 14507 14510 14513 14516 14519 14522 14525 14528 14531 14533 14536 14539 14542 14545 14548 14551 14554 14557 14560 14563 14565 14567 14570 14573 14576 14579 14582 14585 14587 14590 14593 14596 14599 14602 14605 14608 14610 14613 14616 14619 14622 14625 14628 14631 14634 14637 14640 14643 14646 14649 14652 14655 14657 14660 14663 14665 14668 14671 14674 14677 14680 14683 14685 14688 14691 14694 14697 14700 14703 14706 14709 14712 14715 14718 14721 14723 14726 14729 14732 14735 14738 14740 14743 14746 14748 14751 14754 14757 14759 14761 14764 14767 14770 14773 14776 14779 14782 14785 14788 14791 14794 14797 14800 14803 14806 14809 14812 14815 14817 14820 14823 14826 14829 14832 14835 14838 14841 14844 14847 14850 14853 14856 14859 14862 14865 14868 14871 14874 14877 14880 14883 14886 14889 14892 14895 14898 14901 14904 14907 14910 14913 14916 14919 14922 14925 14928 14931 14934 14937 14940 14943 14946 14949 14952 14955 14958 14961 14964 14967 14970 14973 14976 14979 14982 14985 14988 14991 14994 14997 15000 15003 15006 15009 15012 15015 15018 15021 15024 15027 15030 15033 15036 15039 15042 15045 15048 15051 15054 15056 15059 15062 15064 15067 15070 15073 15075 15078 15081 15084 15087 15090 15093 15096 15099 15102 15105 15108 15111 15114 15117 15119 15122 15125 15128 15131 15134 15136 15139 15141 15144 15147 15150 15153 15156 15159 15162 15165 15168 15171 15174 15177 15180 15183 15186 15189 15192 15195 15198 15201 15204 15207 15210 15213 15216 15219 15222 15225 15228 15231 15234 15237 15240 15243 15246 15249 15252 15255 15258 15261 15264 15267 15270 15273 15276 15279 15282 15285 15288 15291 15294 15297 15300 15303 15306 15308 15311 15314 15317 15320 15323 15326 15329 15332 15335 15338 15341 15344 15347 15350 15353 15356 15359 15362 15365 15368 15371 15373 15376 15379 15382 15385 15388 15391 15394 15397 15400 15403 15406 15409 15412 15415 15418 15421 15424 15427 15430 15433 15436 15439 15442 15445 15448 15451 15454 15457 15460 15463 15466 15469 15472 15475 15478 15481 15484 15487 15489 15492 15495 15498 15501 15504 15507 15510 15513 15516 15519 15522 15525 15528 15530 15533 15536 15538 15541 15544 15547 15550 15553 15555 15558 15560 15563 15565 15568 15571 15573 15576 15579 15581 15584 15587 15590 15593 15596 15599 15602 15605 15608 15611 15614 15617 15620 15623 15626 15629 15632 15635 15638 15640 15643 15646 15649 15651 15654 15657 15660 15662 15664 15667 15670 15673 15675 15677 15680 15682 15685 15688 15691 15694 15697 15700 15703 15706 15709 15712 15715 15718 15721 15724 15727 15730 15733 15735 15737 15740 15743 15746 15749 15752 15755 15758 15761 15764 15766 15769 15772 15775 15778 15781 15784 15787 15790 15793 15796 15799 15802 15805 15808 15811 15813 15816 15819 15822 15825 15828 15831 15834 15837 15840 15843 15846 15849 15852 15855 15858 15861 15864 15867 15870 15873 15876 15879 15882 15885 15887 15889 15892 15895 15898 15900 15903 15906 15909 15912 15915 15918 15921 15924 15927 15930 15933 15936 15939 15942 15945 15947 15950 15953 15956 15959 15962 15965 15968 15971 15974 15977 15980 15983 15986 15989 15992 15995 15998 16001 16004 16007 16010 16013 16016 16019 16022 16025 16028 16031 16034 16037 16040 16043 16046 16049 16052 16055 16058 16061 16064 16067 16070 16073 16076 16079 16082 16084 16087 16090 16093 16096 16099 16102 16105 16108 16111 16114 16117 16120 16123 16126 16129 16132 16135 16138 16141 16144 16147 16150 16153 16156 16159 16162 16165 16168 16171 16174 16177 16180 16183 16186 16189 16192 16195 16198 16201 16204 16207 16210 16213 16216 16219 16222 16225 16228 16231 16234 16237 16240 16243 16246 16249 16252 16255 16258 16261 16264 16266 16269 16272 16275 16277 16280 16283 16286 16289 16292 16295 16298 16301 16304 16307 16310 16313 16316 16319 16322 16325 16328 16331 16334 16336 16339 16341 16344 16347 16350 16353 16356 16359 16362 16365 16367 16370 16372 16375 16378 16380 16383 16386 16389 16392 16395 16398 16400 16403 16405 16408 16411 16414 16417 16420 16423 16426 16429 16432 16435 16438 16441 16444 16447 16449 16452 16455 16458 16461 16464 16467 16470 16473 16476 16479 16482 16485 16488 16491 16494 16497 16500 16502 16504 16507 16510 16513 16516 16519 16522 16525 16528 16531 16534 16537 16540 16543 16546 16549 16552 16555 16558 16561 16564 16567 16570 16573 16576 16579 16582 16585 16588 16591 16594 16597 16600 16603 16606 16609 16612 16615 16618 16621 16624 16627 16630 16633 16635 16638 16641 16644 16647 16649 16652 16655 16658 16661 16664 16667 16670 16673 16676 16679 16682 16684 16687 16689 16692 16695 16698 16701 16704 16706 16709 16712 16715 16718 16721 16724 16726 16729 16732 16735 16738 16741 16744 16747 16750 16753 16756 16758 16761 16764 16767 16770 16773 16776 16779 16782 16785 16788 16791 16794 16797 16800 16803 16806 16809 16812 16815 16818 16821 16824 16827 16830 16833 16836 16839 16842 16845 16848 16851 16854 16857 16860 16863 16866 16869 16872 16875 16878 16881 16883 16886 16889 16892 16895 16898 16901 16904 16907 16910 16913 16916 16919 16922 16925 16928 16931 16934 16937 16940 16943 16946 16949 16952 16955 16958 16961 16964 16967 16970 16973 16976 16979 16982 16985 16988 16991 16994 16997 17000 17003 17006 17009 17011 17014 17017 17020 17023 17026 17029 17032 17035 17038 17041 17044 17046 17049 17052 17055 17058 17060 17063 17066 17068 17071 17074 17077 17080 17083 17086 17089 17092 17095 17097 17099 17102 17105 17108 17111 17114 17117 17120 17123 17126 17129 17132 17135 17138 17141 17144 17146 17149 17152 17155 17158 17161 17164 17167 17170 17173 17176 17179 17182 17185 17188 17191 17194 17197 17200 17203 17206 17209 17212 17215 17218 17221 17224 17227 17230 17233 17236 17239 17242 17245 17248 17251 17254 17257 17260 17263 17266 17269 17272 17275 17278 17281 17284 17287 17290 17293 17296 17299 17302 17305 17308 17311 17314 17317 17320 17323 17326 17329 17332 17335 17338 17341 17344 17347 17350 17353 17356 17359 17362 17365 17368 17371 17374 17377 17380 17383 17386 17389 17392 17395 17398 17401 17404 17407 17410 17413 17415 17418 17421 17424 17427 17430 17433 17436 17439 17442 17445 17448 17450 17453 17456 17459 17462 17465 17468 17470 17472 17475 17478 17481 17484 17487 17490 17492 17495 17498 17501 17504 17507 17510 17513 17516 17519 17522 17525 17528 17531 17534 17537 17540 17543 17546 17549 17552 17555 17558 17561 17564 17567 17570 17573 17576 17579 17581 17584 17587 17590 17593 17596 17598 17601 17604 17607 17610 17613 17616 17619 17622 17625 17628 17631 17634 17637 17640 17643 17646 17649 17652 17655 17657 17660 17663 17666 17668 17671 17674 17677 17680 17683 17686 17689 17691 17694 17697 17700 17703 17705 17708 17711 17714 17717 17720 17723 17726 17729 17731 17734 17737 17740 17743 17746 17748 17751 17754 17756 17759 17762 17765 17768 17771 17773 17775 17778 17781 17784 17786 17789 17792 17795 17798 17801 17803 17806 17809 17811 17814 17817 17820 17823 17826 17828 17831 17834 17836 17839 17842 17845 17847 17850 17852 17854 17857 17860 17863 17866 17869 17872 17875 17878 17880 17883 17885 17888 17891 17894 17896 17899 17902 17905 17908 17911 17914 17917 17920 17923 17926 17929 17932 17935 17938 17941 17944 17947 17950 17953 17956 17959 17962 17964 17966 17969 17972 17975 17977 17980 17983 17986 17989 17992 17994 17996 17998 18001 18004 18007 18009 18012 18014 18017 18020 18023 18026 18029 18032 18034 18036 18039 18042 18045 18048 18051 18054 18057 18060 18063 18066 18069 18072 18075 18078 18081 18083 18086 18089 18092 18095 18098 18101 18104 18106 18109 18112 18115 18118 18121 18124 18127 18130 18133 18136 18139 18142 18145 18148 18151 18154 18157 18160 18163 18166 18169 18172 18175 18178 18181 18183 18186 18189 18192 18195 18198 18200 18203 18205 18208 18211 18214 18217 18219 18222 18225 18228 18231 18234 18237 18240 18243 18245 18247 18250 18253 18256 18258 18261 18264 18267 18270 18272 18275 18278 18281 18284 18287 18290 18292 18295 18298 18301 18304 18307 18310 18313 18315 18318 18321 18323 18326 18328 18331 18334 18337 18339 18342 18345 18348 18351 18354 18357 18360 18363 18366 18369 18372 18374 18377 18380 18383 18386 18389 18392 18395 18398 18401 18404 18407 18409 18412 18415 18418 18421 18424 18427 18430 18433 18436 18439 18442 18444 18447 18450 18452 18455 18458 18461 18464 18467 18470 18473 18476 18478 18481 18484 18487 18490 18493 18496 18499 18502 18505 18508 18511 18514 18517 18520 18523 18526 18529 18532 18535 18538 18541 18544 18547 18550 18553 18556 18559 18562 18565 18568 18571 18574 18577 18580 18583 18586 18589 18592 18595 18598 18601 18604 18607 18610 18612 18615 18618 18621 18624 18626 18629 18632 18635 18638 18641 18644 18647 18650 18653 18656 18659 18662 18665 18668 18671 18673 18676 18679 18682 18685 18688 18691 18694 18697 18700 18703 18706 18709 18712 18715 18718 18721 18724 18727 18730 18733 18736 18739 18742 18745 18748 18751 18754 18757 18759 18762 18765 18768 18771 18774 18776 18779 18782 18785 18788 18791 18794 18797 18800 18803 18806 18809 18812 18815 18818 18821 18824 18827 18829 18831 18834 18837 18840 18843 18846 18848 18851 18853 18856 18859 18862 18865 18868 18871 18873 18876 18879 18882 18885 18888 18890 18893 18896 18899 18902 18905 18908 18911 18914 18917 18920 18923 18925 18928 18931 18933 18936 18938 18941 18944 18947 18950 18953 18956 18959 18962 18965 18968 18971 18973 18976 18979 18982 18985 18988 18991 18994 18997 19000 19003 19006 19009 19012 19015 19018 19021 19023 19026 19029 19032 19035 19038 19041 19044 19047 19049 19052 19055 19058 19060 19062 19065 19068 19071 19074 19077 19080 19083 19086 19089 19091 19094 19096 19099 19102 19105 19108 19110 19112 19115 19118 19121 19123 19125 19128 19131 19134 19137 19140 19143 19146 19149 19152 19155 19158 19161 19164 19167 19170 19172 19175 19178 19180 19183 19185 19188 19191 19194 19197 19200 19203 19205 19208 19211 19214 19216 19219 19222 19225 19228 19231 19234 19237 19240 19243 19246 19249 19252 19255 19258 19261 19264 19267 19270 19273 19276 19279 19282 19285 19288 19290 19293 19296 19298 19301 19304 19306 19309 19312 19314 19317 19320 19323 19326 19329 19332 19335 19338 19340 19343 19346 19348 19351 19354 19356 19359 19362 19365 19368 19371 19374 19377 19380 19383 19386 19389 19392 19395 19398 19400 19403 19406 19408 19411 19414 19417 19420 19422 19425 19428 19430 19433 19436 19439 19441 19444 19447 19450 19453 19456 19459 19462 19465 19468 19471 19473 19476 19479 19482 19485 19488 19490 19493 19496 19499 19502 19505 19508 19511 19514 19517 19520 19523 19526 19529 19532 19535 19538 19541 19543 19546 19549 19551 19554 19557 19560 19562 19565 19567 19570 19573 19576 19579 19582 19585 19588 19591 19594 19597 19599 19602 19605 19608 19611 19613 19615 19618 19621 19624 19627 19630 19633 19636 19639 19642 19645 19648 19651 19654 19656 19659 19662 19665 19668 19671 19674 19677 19680 19683 19685 19688 19690 19693 19696 19699 19702 19705 19708 19711 19714 19717 19720 19723 19726 19729 19732 19735 19738 19740 19743 19746 19749 19752 19754 19757 19760 19763 19766 19769 19772 19774 19777 19780 19783 19786 19789 19792 19795 19798 19800 19803 19806 19809 19812 19815 19818 19821 19824 19826 19829 19832 19835 19838 19841 19843 19846 19849 19852 19855 19858 19861 19864 19866 19869 19872 19875 19878 19881 19884 19886 19889 19892 19895 19897 19900 19903 19906 19909 19912 19915 19918 19921 19924 19927 19930 19932 19935 19938 19941 19944 19947 19950 19952 19955 19958 19961 19964 19967 19969 19972 19975 19978 19980 19983 19986 19989 19992 19995 19998 20001 20003 20006 20009 20012 20015 20018 20021 20024 20027 20029 20032 20035 20038 20040 20043 20045 20047 20050 20053 20056 20058 20061 20064 20066 20069 20072 20075 20078 20081 20084 20086 20089 20092 20095 20098 20101 20104 20106 20109 20112 20114 20117 20120 20123 20126 20129 20132 20135 20138 20141 20144 20147 20150 20153 20155 20158 20161 20164 20167 20170 20173 20176 20179 20182 20185 20188 20191 20194 20196 20199 20202 20205 20208 20211 20213 20216 20219 20222 20224 20227 20230 20233 20235 20238 20240 20243 20246 20249 20252 20255 20258 20260 20263 20266 20269 20272 20275 20277 20279 20282 20285 20288 20291 20294 20296 20299 20302 20305 20307 20310 20313 20316 20319 20322 20325 20328 20331 20334 20336 20339 20342 20344 20347 20350 20353 20356 20359 20362 20365 20367 20370 20373 20376 20379 20382 20385 20388 20391 20394 20397 20400 20403 20406 20409 20412 20414 20417 20420 20423 20426 20428 20431 20434 20437 20440 20443 20445 20448 20451 20453 20455 20458 20460 20463 20466 20469 20472 20475 20478 20481 20484 20487 20490 20493 20496 20499 20501 20504 20507 20510 20513 20515 20518 20520 20523 20526 20529 20532 20535 20537 20540 20543 20546 20549 20552 20555 20557 20560 20563 20566 20569 20572 20575 20578 20581 20583 20586 20588 20591 20594 20597 20600 20602 20605 20608 20611 20614 20617 20620 20623 20626 20629 20632 20635 20638 20641 20644 20647 20650 20653 20656 20659 20662 20665 20668 20670 20673 20676 20678 20681 20684 20686 20689 20692 20694 20697 20700 20703 20706 20709 20712 20715 20718 20721 20723 20726 20729 20731 20734 20736 20739 20742 20745 20748 20751 20754 20757 20760 20762 20765 20768 20771 20774 20777 20780 20783 20786 20789 20792 20795 20798 20801 20804 20807 20810 20813 20816 20819 20821 20824 20827 20830 20832 20835 20838 20841 20844 20847 20850 20853 20856 20859 20862 20865 20868 20871 20874 20877 20880 20883 20886 20889 20892 20895 20898 20901 20904 20907 20910 20913 20916 20919 20922 20925 20928 20931 20934 20937 20940 20942 20945 20948 20951 20954 20957 20960 20962 20965 20968 20971 20974 20976 20979 20982 20985 20988 20991 20994 20997 21000 21003 21006 21009 21012 21014 21017 21019 21022 21025 21027 21030 21033 21035 21038 21041 21044 21047 21050 21053 21056 21059 21062 21065 21068 21071 21074 21077 21080 21083 21086 21089 21091 21094 21097 21100 21103 21105 21108 21110 21113 21116 21119 21122 21125 21128 21130 21133 21135 21137 21139 21142 21145 21148 21151 21154 21157 21160 21163 21166 21168 21171 21174 21177 21179 21182 21185 21188 21191 21194 21197 21200 21203 21206 21208 21211 21214 21217 21219 21222 21225 21228 21231 21234 21237 21240 21243 21246 21249 21252 21255 21258 21261 21264 21267 21270 21273 21276 21279 21282 21284 21287 21290 21293 21296 21299 21302 21305 21308 21311 21314 21317 21320 21322 21325 21328 21330 21333 21336 21339 21342 21345 21348 21351 21354 21357 21360 21362 21365 21367 21370 21373 21376 21378 21381 21383 21386 21389 21392 21394 21397 21400 21403 21406 21409 21412 21415 21418 21421 21424 21427 21430 21432 21435 21438 21441 21444 21447 21450 21453 21456 21459 21462 21465 21468 21471 21474 21477 21480 21483 21485 21488 21491 21494 21497 21500 21502 21505 21508 21511 21514 21517 21520 21523 21526 21529 21532 21535 21538 21541 21544 21547 21550 21553 21556 21559 21562 21565 21567 21570 21573 21576 21579 21582 21585 21587 21590 21593 21596 21599 21602 21605 21608 21611 21614 21617 21620 21623 21626 21629 21632 21635 21638 21641 21644 21646 21649 21652 21655 21658 21661 21664 21667 21670 21672 21675 21678 21681 21684 21687 21690 21693 21696 21698 21701 21704 21707 21710 21713 21716 21719 21722 21724 21727 21730 21733 21736 21738 21741 21744 21747 21750 21753 21756 21759 21762 21764 21767 21770 21773 21775 21778 21781 21784 21787 21790 21793 21796 21799 21802 21805 21808 21811 21814 21817 21820 21823 21826 21829 21832 21834 21837 21840 21843 21845 21847 21850 21853 21856 21858 21861 21864 21867 21870 21873 21876 21879 21881 21884 21887 21890 21893 21896 21899 21902 21905 21908 21911 21914 21917 21920 21923 21926 21929 21932 21935 21938 21941 21944 21947 21950 21953 21956 21959 21962 21964 21967 21969 21972 21974 21977 21980 21983 21985 21988 21991 21993 21996 21999 22002 22005 22007 22010 22013 22016 22019 22022 22025 22028 22031 22034 22037 22040 22042 22045 22048 22051 22053 22056 22059 22062 22065 22068 22071 22073 22076 22079 22082 22085 22088 22091 22094 22097 22100 22103 22106 22109 22112 22115 22118 22121 22123 22126 22129 22132 22135 22138 22141 22144 22147 22150 22153 22156 22159 22162 22165 22167 22170 22173 22176 22179 22182 22185 22188 22191 22194 22197 22200 22203 22206 22209 22212 22215 22218 22221 22224 22227 22230 22233 22236 22238 22241 22244 22247 22249 22252 22255 22258 22261 22264 22267 22270 22273 22276 22279 22282 22285 22288 22291 22294 22297 22300 22303 22306 22309 22312 22315 22318 22321 22324 22327 22330 22333 22336 22339 22342 22345 22348 22350 22353 22356 22359 22361 22364 22367 22370 22373 22376 22379 22382 22384 22387 22390 22392 22394 22397 22400 22403 22406 22409 22412 22414 22417 22420 22423 22426 22429 22432 22435 22437 22440 22443 22446 22449 22451 22454 22457 22460 22463 22466 22469 22472 22475 22478 22481 22484 22487 22490 22492 22495 22498 22501 22504 22507 22510 22513 22516 22519 22522 22525 22528 22531 22534 22536 22539 22542 22544 22547 22550 22553 22556 22559 22562 22565 22568 22571 22574 22577 22580 22583 22586 22589 22591 22594 22597 22600 22603 22606 22608 22611 22614 22617 22620 22622 22625 22628 22630 22633 22636 22639 22642 22645 22648 22650 22653 22656 22659 22662 22665 22667 22670 22672 22675 22678 22681 22684 22687 22690 22692 22695 22698 22701 22704 22706 22709 22712 22715 22718 22720 22723 22726 22729 22732 22735 22738 22741 22744 22747 22750 22753 22756 22759 22762 22765 22768 22771 22774 22777 22779 22782 22785 22788 22791 22794 22797 22800 22802 22805 22808 22811 22814 22817 22820 22822 22825 22827 22830 22833 22836 22839 22842 22845 22848 22851 22854 22857 22860 22863 22866 22869 22872 22875 22878 22881 22884 22886 22889 22892 22895 22898 22901 22904 22907 22910 22912 22915 22918 22921 22924 22927 22930 22933 22935 22938 22941 22944 22947 22950 22953 22956 22958 22961 22964 22967 22969 22972 22975 22978 22981 22984 22987 22990 22993 22996 22999 23002 23004 23007 23009 23012 23014 23016 23019 23021 23024 23027 23030 23033 23036 23039 23042 23044 23046 23048 23051 23054 23057 23060 23063 23066 23068 23071 23074 23077 23080 23083 23086 23089 23092 23095 23098 23101 23104 23106 23109 23112 23115 23118 23121 23124 23127 23130 23133 23136 23139 23142 23145 23148 23151 23154 23157 23160 23162 23165 23168 23171 23173 23176 23179 23182 23185 23188 23191 23194 23197 23200 23203 23206 23209 23212 23215 23218 23221 23224 23227 23230 23233 23236 23239 23242 23245 23248 23251 23253 23256 23258 23261 23263 23266 23269 23272 23275 23278 23281 23284 23287 23290 23293 23295 23297 23300 23303 23306 23309 23311 23314 23317 23319 23322 23325 23328 23331 23333 23336 23339 23342 23344 23346 23349 23352 23355 23357 23360 23363 23366 23368 23371 23374 23377 23380 23383 23386 23389 23392 23394 23397 23399 23402 23404 23407 23410 23412 23415 23418 23420 23423 23426 23429 23432 23435 23438 23441 23444 23447 23450 23452 23455 23458 23461 23464 23467 23470 23473 23476 23479 23482 23485 23488 23491 23494 23497 23500 23502 23505 23508 23511 23514 23516 23519 23522 23525 23528 23530 23532 23535 23538 23541 23544 23547 23550 23552 23555 23558 23561 23564 23567 23570 23573 23576 23579 23582 23585 23588 23591 23594 23597 23600 23603 23606 23608 23611 23614 23617 23620 23623 23626 23628 23631 23634 23637 23639 23642 23644 23647 23650 23653 23656 23659 23661 23664 23666 23669 23672 23675 23677 23680 23683 23686 23689 23692 23695 23698 23701 23703 23705 23708 23711 23714 23717 23719 23722 23724 23727 23730 23733 23736 23739 23742 23744 23747 23750 23753 23755 23758 23761 23764 23767 23770 23773 23776 23779 23782 23785 23788 23790 23793 23796 23799 23802 23804 23807 23810 23813 23816 23819 23822 23825 23828 23831 23834 23837 23840 23843 23845 23848 23851 23853 23856 23859 23862 23865 23868 23871 23874 23877 23880 23883 23886 23888 23891 23894 23897 23900 23903 23906 23909 23912 23915 23918 23920 23922 23924 23927 23930 23933 23936 23939 23942 23945 23948 23951 23954 23957 23960 23963 23965 23968 23971 23974 23977 23980 23983 23986 23989 23992 23995 23997 24000 24003 24006 24009 24012 24015 24018 24021 24024 24027 24030 24033 24036 24039 24042 24045 24048 24051 24053 24056 24059 24062 24065 24068 24071 24073 24076 24079 24082 24085 24088 24091 24094 24097 24100 24103 24106 24109 24111 24113 24116 24118 24121 24124 24127 24130 24132 24135 24138 24140 24143 24146 24149 24152 24155 24158 24160 24163 24166 24168 24171 24174 24177 24180 24183 24186 24189 24192 24195 24198 24201 24204 24207 24210 24213 24216 24218 24221 24224 24227 24230 24233 24236 24239 24241 24244 24246 24249 24252 24255 24258 24261 24264 24267 24270 24273 24276 24278 24281 24284 24286 24289 24292 24295 24297 24300 24303 24306 24309 24312 24314 24317 24320 24323 24326 24328 24331 24334 24337 24340 24343 24345 24348 24351 24354 24357 24360 24363 24366 24369 24372 24375 24378 24381 24383 24386 24389 24392 24395 24397 24400 24403 24406 24409 24412 24415 24418 24421 24424 24427 24429 24431 24434 24437 24440 24443 24446 24449 24452 24455 24458 24461 24464 24466 24468 24471 24474 24477 24479 24482 24485 24488 24491 24494 24497 24500 24502 24505 24508 24511 24514 24516 24519 24521 24524 24527 24530 24533 24536 24539 24542 24544 24547 24550 24553 24556 24559 24562 24565 24568 24571 24574 24577 24580 24582 24585 24588 24591 24594 24597 24600 24603 24606 24609 24612 24615 24618 24621 24624 24627 24630 24633 24636 24639 24642 24645 24648 24651 24654 24657 24660 24663 24666 24669 24672 24675 24677 24680 24683 24686 24688 24691 24694 24697 24700 24703 24706 24709 24712 24715 24718 24721 24724 24727 24730 24733 24735 24738 24741 24744 24747 24750 24753 24756 24758 24761 24764 24766 24769 24772 24775 24778 24781 24784 24787 24790 24793 24796 24799 24802 24805 24807 24810 24813 24815 24818 24821 24823 24826 24829 24832 24835 24838 24841 24843 24846 24849 24852 24855 24858 24861 24864 24867 24870 24873 24876 24879 24882 24885 24888 24891 24894 24897 24900 24903 24906 24909 24912 24915 24918 24921 24924 24927 24929 24932 24934 24937 24940 24943 24946 24949 24952 24955 24958 24961 24964 24967 24970 24973 24976 24979 24982 24985 24988 24991 24994 24996 24999 25002 25005 25007 25010 25013 25016 25019 25022 25025 25028 25031 25034 25037 25040 25043 25045 25048 25051 25053 25056 25059 25062 25065 25068 25071 25074 25076 25079 25082 25084 25087 25090 25093 25096 25098 25101 25104 25107 25110 25113 25116 25119 25122 25125 25128 25131 25134 25137 25140 25143 25146 25149 25152 25155 25158 25161 25164 25167 25170 25173 25176 25179 25182 25185 25188 25191 25194 25197 25200 25203 25206 25209 25212 25215 25218 25221 25224 25227 25230 25233 25236 25239 25242 25245 25248 25251 25254 25256 25259 25261 25264 25267 25270 25273 25276 25279 25282 25285 25288 25291 25294 25297 25300 25303 25306 25308 25311 25314 25317 25320 25323 25326 25329 25332 25335 25337 25340 25343 25346 25349 25351 25354 25357 25360 25363 25366 25369 25372 25374 25377 25380 25382 25385 25388 25391 25394 25397 25400 25403 25406 25408 25411 25414 25417 25420 25423 25425 25428 25430 25432 25435 25438 25441 25444 25447 25449 25452 25455 25457 25460 25463 25466 25469 25472 25475 25478 25480 25483 25486 25489 25492 25495 25498 25501 25504 25507 25510 25513 25516 25518 25521 25524 25527 25530 25533 25536 25539 25542 25545 25547 25549 25552 25555 25558 25561 25564 25567 25570 25573 25576 25579 25581 25583 25586 25589 25592 25595 25598 25601 25603 25606 25609 25612 25614 25616 25619 25622 25624 25626 25629 25632 25635 25638 25641 25643 25645 25648 25651 25654 25657 25660 25663 25666 25669 25672 25675 25678 25681 25684 25687 25690 25692 25694 25697 25700 25703 25706 25708 25711 25714 25717 25720 25723 25726 25728 25730 25733 25735 25738 25741 25744 25746 25749 25751 25754 25757 25760 25763 25766 25769 25772 25775 25778 25781 25784 25787 25790 25793 25796 25798 25800 25803 25806 25809 25812 25815 25818 25821 25824 25827 25830 25833 25836 25839 25842 25845 25848 25851 25854 25857 25860 25863 25866 25869 25872 25875 25878 25881 25884 25887 25890 25892 25895 25898 25901 25904 25907 25910 25913 25916 25919 25922 25925 25928 25931 25934 25936 25939 25942 25945 25947 25949 25952 25955 25957 25960 25963 25966 25968 25971 25974 25977 25980 25983 25986 25989 25992 25995 25998 26001 26003 26006 26009 26012 26015 26018 26021 26024 26026 26029 26032 26035 26038 26041 26044 26047 26050 26052 26055 26058 26061 26064 26067 26069 26072 26075 26078 26080 26083 26086 26089 26091 26094 26097 26100 26103 26106 26109 26111 26114 26117 26120 26123 26126 26129 26131 26134 26137 26140 26143 26145 26148 26151 26154 26157 26160 26162 26164 26167 26170 26173 26176 26179 26182 26185 26188 26190 26193 26196 26198 26201 26203 26206 26209 26212 26215 26218 26221 26224 26227 26230 26233 26236 26239 26242 26245 26248 26251 26254 26257 26260 26263 26266 26269 26272 26275 26278 26281 26284 26287 26290 26293 26296 26299 26302 26305 26308 26311 26314 26316 26319 26322 26324 26327 26330 26333 26336 26339 26342 26345 26348 26351 26354 26356 26359 26362 26365 26368 26371 26374 26377 26380 26383 26386 26389 26391 26394 26397 26400 26402 26405 26408 26410 26413 26416 26419 26422 26424 26427 26430 26433 26436 26438 26441 26444 26447 26450 26453 26456 26459 26462 26464 26467 26470 26473 26476 26479 26481 26484 26487 26490 26492 26494 26497 26500 26503 26505 26507 26509 26512 26515 26518 26521 26524 26527 26530 26533 26536 26539 26542 26545 26548 26551 26553 26556 26558 26560 26563 26565 26567 26570 26573 26576 26578 26581 26583 26586 26589 26592 26595 26597 26600 26603 26606 26609 26611 26614 26617 26619 26621 26624 26626 26628 26631 26634 26637 26640 26643 26646 26648 26651 26654 26657 26660 26663 26666 26669 26671 26674 26676 26679 26682 26685 26688 26691 26694 26697 26700 26703 26706 26708 26711 26714 26717 26719 26722 26724 26727 26730 26732 26735 26737 26740 26743 26746 26749 26752 26755 26758 26761 26764 26766 26769 26772 26775 26778 26780 26782 26785 26788 26790 26793 26796 26799 26802 26804 26807 26810 26812 26815 26817 26820 26823 26825 26828 26831 26833 26836 26839 26841 26843 26846 26849 26852 26855 26858 26861 26864 26866 26869 26872 26875 26877 26880 26883 26886 26888 26890 26892 26895 26898 26900 26903 26906 26909 26912 26915 26917 26919 26922 26924 26927 26930 26933 26935 26938 26941 26944 26947 26950 26953 26956 26958 26961 26964 26967 26970 26972 26975 26977 26980 26983 26986 26989 26992 26994 26996 26999 27002 27005 27007 27010 27013 27015 27018 27021 27024 27026 27029 27031 27034 27037 27040 27043 27046 27049 27052 27055 27058 27061 27063 27066 27069 27072 27075 27078 27081 27084 27086 27089 27092 27094 27096 27099 27101 27104 27107 27110 27113 27116 27118 27121 27124 27127 27129 27132 27134 27137 27140 27143 27146 27149 27152 27155 27158 27160 27163 27166 27169 27172 27175 27178 27181 27184 27187 27190 27193 27196 27199 27202 27205 27208 27211 27214 27217 27220 27223 27226 27229 27232 27235 27238 27240 27243 27246 27249 27252 27254 27257 27260 27263 27266 27269 27272 27275 27278 27281 27284 27287 27290 27293 27296 27299 27302 27305 27308 27310 27313 27316 27319 27322 27325 27328 27330 27332 27335 27338 27341 27344 27347 27350 27352 27355 27358 27360 27363 27366 27369 27372 27375 27378 27380 27383 27386 27389 27392 27395 27398 27401 27404 27407 27410 27413 27416 27419 27422 27425 27428 27431 27434 27437 27440 27443 27446 27449 27452 27455 27458 27460 27463 27466 27469 27472 27475 27477 27480 27483 27486 27488 27491 27494 27497 27500 27503 27506 27509 27512 27514 27517 27520 27522 27525 27528 27531 27533 27536 27539 27542 27545 27548 27550 27552 27555 27558 27561 27563 27566 27569 27572 27575 27578 27580 27582 27585 27587 27590 27592 27595 27598 27600 27603 27606 27609 27612 27615 27618 27621 27624 27627 27629 27632 27635 27637 27640 27643 27645 27648 27651 27654 27656 27659 27662 27665 27668 27670 27673 27676 27679 27682 27685 27688 27691 27694 27697 27700 27703 27706 27709 27711 27714 27717 27720 27723 27726 27729 27732 27734 27737 27740 27742 27744 27747 27750 27753 27756 27759 27762 27764 27767 27770 27773 27776 27778 27781 27784 27787 27790 27793 27795 27798 27800 27803 27806 27809 27812 27814 27817 27820 27823 27826 27828 27831 27834 27837 27840 27843 27846 27849 27851 27854 27857 27860 27863 27866 27869 27872 27875 27878 27881 27883 27886 27889 27892 27895 27898 27901 27904 27907 27910 27913 27916 27919 27922 27925 27928 27931 27934 27937 27940 27943 27946 27949 27952 27955 27957 27960 27963 27966 27969 27972 27975 27978 27981 27984 27986 27989 27991 27994 27997 28000 28002 28005 28008 28011 28014 28017 28020 28022 28025 28028 28031 28034 28037 28040 28043 28046 28049 28052 28055 28057 28060 28063 28066 28069 28072 28075 28078 28081 28084 28087 28090 28093 28096 28099 28102 28105 28108 28110 28113 28116 28119 28122 28125 28128 28131 28134 28137 28139 28142 28145 28147 28150 28153 28156 28158 28161 28164 28167 28170 28173 28176 28178 28181 28184 28186 28189 28192 28195 28198 28201 28204 28207 28210 28213 28216 28219 28221 28224 28227 28230 28233 28236 28239 28242 28245 28248 28251 28254 28257 28260 28262 28265 28267 28270 28273 28276 28279 28282 28285 28288 28290 28293 28295 28298 28301 28304 28307 28310 28312 28315 28318 28321 28324 28326 28329 28332 28335 28338 28341 28344 28347 28350 28353 28356 28359 28362 28365 28368 28371 28374 28377 28380 28383 28386 28389 28392 28395 28398 28401 28404 28407 28410 28413 28416 28419 28422 28425 28428 28431 28434 28437 28440 28443 28446 28449 28452 28455 28458 28461 28464 28467 28470 28473 28476 28479 28482 28485 28488 28491 28494 28497 28500 28503 28506 28509 28512 28515 28518 28521 28524 28527 28530 28533 28536 28539 28542 28545 28548 28551 28554 28557 28560 28563 28566 28569 28572 28575 28578 28581 28584 28587 28590 28593 28596 28599 28602 28605 28608 28611 28613 28616 28618 28621 28624 28626 28629 28632 28635 28638 28641 28643 28646 28649 28652 28655 28658 28661 28664 28666 28669 28672 28675 28678 28681 28684 28687 28690 28693 28696 28699 28702 28705 28708 28711 28714 28717 28720 28723 28726 28729 28732 28734 28737 28739 28742 28745 28748 28751 28754 28757 28759 28762 28764 28767 28770 28773 28776 28778 28781 28784 28787 28790 28793 28795 28798 28801 28804 28807 28810 28813 28816 28819 28822 28825 28828 28831 28834 28837 28839 28842 28845 28848 28851 28854 28857 28860 28862 28865 28868 28871 28873 28876 28879 28882 28885 28888 28891 28894 28896 28899 28902 28905 28908 28910 28913 28916 28919 28922 28925 28928 28931 28934 28937 28940 28943 28946 28949 28952 28954 28957 28959 28962 28965 28968 28971 28973 28976 28978 28981 28984 28987 28990 28993 28996 28999 29002 29005 29008 29011 29014 29017 29020 29023 29026 29029 29031 29034 29037 29040 29043 29046 29049 29052 29055 29058 29061 29064 29067 29070 29073 29076 29079 29082 29084 29087 29090 29093 29096 29099 29102 29105 29108 29111 29114 29117 29120 29123 29126 29129 29132 29135 29138 29141 29144 29147 29150 29153 29156 29159 29162 29165 29168 29170 29173 29176 29179 29182 29184 29186 29189 29192 29195 29198 29201 29204 29207 29210 29213 29216 29219 29222 29225 29228 29231 29234 29237 29240 29243 29246 29249 29252 29255 29258 29260 29263 29266 29269 29271 29274 29277 29279 29281 29284 29287 29290 29293 29296 29299 29302 29305 29308 29311 29314 29317 29320 29323 29326 29329 29331 29334 29337 29339 29342 29344 29347 29350 29353 29356 29359 29362 29365 29367 29370 29373 29376 29378 29381 29384 29387 29390 29393 29396 29399 29402 29405 29408 29411 29414 29417 29420 29423 29426 29428 29430 29433 29436 29438 29441 29444 29447 29449 29452 29455 29458 29461 29464 29467 
</DataArray>
<DataArray type="UInt32" Name="types" format="ascii">
5 5 5 5 5 5 5 5 5 5 5 5 5 5 3 5 5 5 3 3 5 5 5 5 5 5 5 5 5 5 5 5 5 5 5 5 5 5 5 5 5 5 5 5 5 5 5 5 5 5 5 5 5 5 5 5 5 5 5 5 3 5 5 5 5 5 5 5 5 5 5 5 5 5 5 5 5 3 5 5 5 5 5 5 5 5 5 3 3 5 5 5 5 5 5 5 5 5 5 5 5 5 5 5 5 3 5 3 5 3 5 5 3 5 5 3 5 5 5 5 5 5 5 5 5 3 5 5 5 5 5 5 5 5 5 5 5 5 5 5 5 5 5 5 5 5 5 5 5 5 5 3 5 5 5 5 5 3 3 5 3 5 3 5 5 5 5 5 5 5 5 5 3 5 5 5 5 3 5 5 5 3 5 5 5 5 5 5 5 5 3 3 5 3 5 3 5 5 5 5 5 5 3 5 5 3 3 5 5 5 5 5 5 5 5 5 3 5 5 5 5 5 5 5 5 5 5 5 3 5 3 5 5 5 5 5 5 3 5 5 3 5 5 3 5 5 5 5 5 5 3 5 5 3 3 5 5 5 3 5 3 5 5 3 3 3 5 5 5 5 5 5 5 5 5 5 5 5 5 5 5 5 5 5 5 5 5 5 5 5 5 5 5 5 5 5 5 3 5 5 5 3 5 5 5 3 5 5 5 5 5 5 5 5 5 3 5 5 5 5 5 5 5 5 5 5 5 5 3 5 5 5 5 5 5 5 5 5 3 3 5 5 5 5 5 5 5 5 5 5 5 5 5 5 5 3 5 5 5 3 5 5 5 5 5 5 5 5 3 5 5 5 5 5 5 5 5 5 5 3 5 5 5 5 5 5 5 5 3 3 5 5 5 5 5 5 5 3 3 5 5 3 5 5 5 5 5 5 3 5 5 5 5 5 5 3 5 5 5 5 5 3 5 5 5 5 5 5 5 5 5 5 5 5 5 5 5 5 5 5 5 5 5 5 5 5 5 5 5 5 5 5 5 5 5 3 5 5 5 5 3 5 5 5 3 5 5 5 5 3 5 5 5 5 5 5 5 5 5 5 5 5 5 5 5 5 5 5 5 5 5 3 5 5 5 3 5 5 5 5 5 5 5 5 3 5 5 5 5 5 3 5 5 3 3 5 3 5 5 3 5 5 3 5 5 5 3 3 5 5 5 3 5 5 3 3 5 5 5 5 5 3 5 5 5 5 3 5 5 5 3 5 5 5 5 5 5 5 3 5 5 5 5 5 5 5 5 5 5 5 5 5 5 5 5 3 5 5 5 5 5 5 5 5 5 5 5 5 5 5 5 5 5 3 5 5 5 5 5 5 3 5 5 3 5 5 5 5 5 3 5 5 3 5 5 5 5 5 3 3 5 5 5 3 5 5 5 3 5 3 5 5 3 3 5 5 3 3 3 5 3 5 5 3 3 5 5 5 5 3 5 5 5 5 3 5 3 5 3 5 3 5 3 5 5 5 3 5 5 5 5 5 3 5 5 5 5 5 3 5 5 3 5 5 3 5 5 5 5 3 5 5 5 5 5 3 5 5 5 5 5 5 5 5 5 5 5 5 5 5 5 5 5 5 5 5 5 5 5 5 5 5 5 5 5 5 5 5 5 5 5 5 5 5 5 5 5 5 5 5 5 5 5 5 5 5 5 5 5 5 5 5 5 5 5 5 5 5 5 5 5 5 5 5 5 5 5 5 5 5 5 5 5 5 5 5 5 5 5 5 5 5 5 3 5 5 5 5 5 5 5 5 5 5 5 5 5 5 5 5 5 5 5 5 5 5 3 3 3 3 5 5 5 5 3 5 3 5 3 5 5 5 5 3 5 5 5 3 5 5 5 5 5 5 5 5 5 5 5 5 5 3 5 5 5 5 5 5 5 5 5 5 5 5 5 3 5 5 3 5 5 3 5 5 5 5 5 3 5 5 3 5 5 5 5 3 5 3 5 5 5 3 3 3 5 5 5 5 5 5 5 5 3 5 5 5 5 5 5 5 5 5 5 5 3 5 5 5 5 5 5 5 5 5 5 5 5 3 5 5 5 3 5 5 5 5 5 5 3 5 3 5 5 3 5 5 5 5 5 5 5 5 5 5 5 5 5 5 5 3 5 5 3 5 5 5 5 5 3 3 5 5 5 5 5 3 5 3 5 5 5 5 5 5 5 5 5 5 5 5 5 5 5 5 5 5 5 5 5 5 3 5 5 5 5 5 5 5 3 5 5 5 5 5 5 5 3 5 3 5 5 5 5 3 5 5 5 5 5 5 5 5 5 3 5 5 5 3 5 5 5 3 5 5 5 5 5 5 5 5 5 5 5 5 5 5 5 5 3 5 5 5 5 5 5 5 5 5 5 5 3 3 5 5 5 5 5 5 3 5 5 5 5 5 5 5 5 5 5 5 3 5 5 5 5 5 5 5 5 5 5 5 5 5 5 5 5 5 5 5 5 5 5 5 3 5 5 5 5 5 5 5 5 5 5 5 5 5 5 5 5 5 5 5 5 5 5 5 5 5 5 5 5 5 5 5 5 3 5 3 5 5 5 5 5 3 5 5 5 5 5 3 5 3 3 5 3 5 5 3 5 5 5 5 3 5 5 5 5 5 5 5 5 5 5 5 5 5 5 5 5 5 3 5 5 5 3 5 5 3 5 5 5 5 5 5 3 5 5 5 5 5 5 5 3 5 5 3 5 3 3 5 5 5 5 5 5 5 5 5 3 5 5 3 5 5 5 5 5 5 5 5 5 5 5 5 5 5 5 5 5 5 5 5 5 5 5 5 5 5 5 5 5 5 5 5 5 5 5 5 5 5 5 5 5 5 5 5 5 5 5 5 5 5 5 5 5 5 5 5 5 3 5 5 5 3 5 3 5 5 5 3 5 5 5 5 5 5 3 5 5 3 5 5 5 5 5 5 5 5 5 5 5 5 5 5 5 5 5 5 5 5 3 3 5 5 5 5 5 5 5 5 5 5 3 5 5 5 3 5 5 5 3 5 5 5 3 5 3 5 5 5 5 5 5 5 3 5 5 5 5 5 5 5 5 5 5 5 5 5 5 5 5 5 5 5 5 5 5 5 5 5 5 5 5 5 5 5 5 5 5 5 5 5 5 5 3 5 5 5 5 5 5 5 5 5 5 3 5 5 5 3 5 5 5 5 5 5 5 5 5 5 5 5 5 5 5 5 5 5 5 5 5 5 5 5 5 5 5 5 5 5 5 3 5 5 5 5 3 5 5 5 5 5 5 5 5 5 5 5 5 5 5 5 5 3 5 5 5 5 5 3 5 5 5 5 5 3 5 5 5 5 5 5 5 3 5 5 5 3 5 5 5 5 5 5 5 5 5 5 5 5 5 5 5 5 5 5 5 5 5 5 5 5 5 5 5 5 5 5 5 5 5 5 5 5 5 5 3 5 3 5 5 5 5 5 5 5 5 5 5 5 5 5 5 5 5 5 5 5 5 3 5 5 5 5 5 5 5 5 5 5 5 5 5 5 5 5 5 5 5 5 5 5 3 5 3 5 5 3 5 5 5 5 3 3 5 5 5 5 5 5 5 3 5 5 5 5 5 5 5 3 5 5 5 5 5 3 5 5 3 5 3 5 5 5 5 5 3 5 5 5 5 5 5 3 5 5 3 5 5 5 5 5 5 5 5 5 5 5 3 5 5 5 3 3 5 3 3 5 5 5 5 5 5 5 5 5 3 5 3 5 5 3 5 3 5 5 5 5 5 5 5 5 5 5 5 5 5 5 5 5 5 5 3 5 3 5 5 5 5 3 5 5 5 3 3 5 3 5 5 5 5 3 5 5 5 3 5 5 5 5 5 3 5 5 5 5 5 5 5 5 3 5 5 5 5 5 3 5 5 5 3 5 5 5 3 5 5 5 3 5 5 5 5 5 5 5 5 5 5 3 5 5 5 5 5 5 5 5 5 5 5 5 5 5 3 5 5 5 5 5 5 5 5 5 5 3 5 5 5 5 5 5 5 3 5 5 5 5 5 5 3 5 5 3 5 5 5 3 5 5 5 5 5 5 5 5 5 5 5 5 5 5 3 5 5 5 3 5 5 5 3 5 3 5 5 5 5 5 5 5 5 5 3 5 5 5 5 3 5 5 3 5 5 3 5 5 3 5 5 5 3 5 5 5 5 5 5 3 5 5 5 5 5 5 5 3 3 5 5 5 5 3 5 5 5 5 5 5 3 5 3 5 3 5 5 5 5 5 5 5 5 5 5 3 5 5 5 3 5 5 5 5 5 3 5 5 3 5 5 5 5 5 5 5 5 5 5 5 5 5 5 3 5 5 5 5 5 5 5 5 5 5 5 3 5 5 5 5 5 5 5 5 3 5 5 5 3 5 3 5 5 5 5 5 5 5 5 5 5 5 5 5 5 5 5 3 5 5 5 5 5 3 5 5 5 5 5 5 3 5 5 5 5 5 5 5 5 5 5 5 5 5 5 3 5 5 3 5 5 5 5 5 5 5 5 5 5 5 5 5 5 5 5 5 5 5 5 5 5 5 5 5 5 5 5 5 5 5 3 5 5 5 5 5 5 5 5 5 5 5 5 3 5 5 5 5 5 5 5 5 5 5 5 5 5 5 3 5 5 5 5 5 5 5 5 5 5 3 5 5 5 5 5 5 5 5 5 3 5 5 5 3 5 5 5 5 5 5 5 5 5 5 5 5 5 5 5 5 5 5 5 5 5 5 5 5 5 5 5 5 5 5 3 5 5 5 5 5 5 3 3 5 5 5 5 3 5 5 5 5 5 3 3 5 3 3 3 5 5 5 5 5 5 5 5 3 5 5 3 5 5 5 5 5 5 5 5 5 5 5 5 5 5 5 5 5 5 5 5 5 5 5 5 5 5 5 5 5 5 5 5 5 5 5 5 5 5 5 5 5 5 5 5 5 5 5 3 5 5 5 5 5 3 5 3 5 5 3 5 5 5 5 5 3 5 5 5 5 3 5 5 3 5 5 5 5 5 5 5 5 5 5 5 5 5 5 5 5 5 5 5 3 5 5 5 5 5 5 5 5 3 5 5 5 5 5 5 5 5 5 5 5 5 3 5 5 3 5 5 3 5 3 5 5 5 3 5 5 5 3 5 5 5 5 5 5 5 5 5 5 5 5 5 5 5 3 5 5 5 5 5 5 5 5 5 5 5 5 5 5 5 5 5 5 5 3 5 5 5 5 5 5 5 5 5 5 5 5 5 5 5 3 5 5 5 3 5 5 5 5 5 3 5 5 5 5 5 5 5 5 3 5 5 5 5 5 5 3 5 5 5 5 5 5 5 5 5 3 5 3 5 5 5 5 3 5 5 5 5 5 3 5 5 5 5 5 5 3 5 5 5 5 5 5 5 5 5 5 5 5 3 5 5 5 5 5 5 5 5 5 5 5 5 5 3 5 5 5 5 5 5 5 5 5 5 5 5 5 5 5 5 5 5 5 5 5 5 5 5 3 5 5 3 5 5 5 5 5 5 3 5 5 5 5 5 5 5 3 5 5 5 5 5 5 5 5 5 5 5 5 5 5 5 5 5 5 5 5 5 5 5 3 5 5 5 5 5 5 5 5 5 5 5 5 5 5 5 5 5 5 5 5 5 5 5 5 5 5 5 5 5 5 5 5 5 5 5 5 5 3 5 5 5 5 3 5 5 3 5 5 3 5 5 5 3 5 3 5 5 5 5 5 5 5 5 5 5 5 5 5 5 5 5 5 5 5 5 5 5 5 5 5 5 5 5 5 5 5 5 5 5 5 5 5 5 5 5 5 3 5 5 5 5 3 5 5 5 5 5 3 5 5 5 5 5 5 3 5 3 3 5 5 5 5 5 3 5 3 5 3 5 5 5 5 5 5 5 5 5 5 3 5 5 3 5 5 5 5 5 5 5 5 5 5 5 3 5 5 5 3 5 3 5 5 5 5 5 3 5 5 5 5 5 5 5 5 5 5 5 5 3 5 5 5 5 5 5 5 5 3 5 5 5 3 5 5 3 5 5 5 5 5 5 5 5 5 5 3 5 5 5 5 5 5 5 5 3 5 5 5 5 5 5 5 5 5 5 5 5 5 5 5 5 5 5 3 5 3 5 5 5 5 3 5 5 5 5 3 5 5 5 5 5 5 5 5 5 5 5 5 5 5 5 5 5 3 5 3 5 5 5 3 5 5 5 3 5 5 3 5 5 3 3 5 5 5 5 5 5 5 3 5 5 3 5 5 3 5 5 5 5 5 5 3 5 5 5 5 5 5 3 5 5 5 5 5 5 5 5 5 5 5 5 3 5 5 5 5 5 5 5 5 5 5 5 5 5 5 3 5 5 5 3 5 5 5 5 5 3 5 3 5 3 5 5 5 3 5 5 5 3 5 3 5 5 5 5 5 5 5 5 5 5 5 5 5 5 5 5 5 5 5 5 5 5 5 5 5 5 5 5 5 5 5 5 5 5 5 5 5 5 3 5 5 3 5 5 5 3 5 5 5 3 3 5 5 5 5 5 3 5 3 5 5 5 5 5 5 3 5 5 3 5 5 5 5 5 3 5 5 5 5 5 5 5 5 5 5 5 5 5 5 5 5 5 5 5 5 5 5 5 5 3 5 5 5 5 5 5 5 5 5 5 5 5 5 3 5 5 5 5 5 3 5 5 5 5 5 3 5 5 5 5 5 5 5 5 5 3 5 5 5 3 5 3 5 5 5 5 3 5 5 3 5 5 5 5 5 5 5 5 3 5 5 5 5 5 5 5 5 5 3 5 5 3 5 3 3 5 5 5 5 5 5 5 5 3 3 5 5 5 5 5 5 5 5 5 5 5 5 5 5 3 5 5 5 5 5 5 3 3 5 3 3 5 5 5 5 5 3 3 3 5 3 5 5 5 5 5 5 5 5 5 3 5 5 5 5 5 5 3 5 5 5 5 5 5 5 5 5 5 5 5 5 5 5 5 5 5 3 5 5 5 5 5 3 5 3 5 5 5 5 5 5 5 3 5 5 5 3 5 5 5 5 5 5 3 5 5 5 5 5 3 5 5 5 5 5 5 5 3 5 5 5 5 5 5 5 5 5 5 5 3 5 3 5 3 5 3 5 5 5 5 3 5 3 5 5 5 5 5 5 3 5 3 5 5 5 5 5 5 5 5 5 5 5 5 5 5 5 5 5 5 5 5 3 5 5 5 5 3 3 5 5 5 3 5 5 5 5 3 5 5 5 5 5 5 3 5 5 5 5 5 5 5 5 5 5 3 3 5 3 5 5 5 5 5 5 5 5 5 5 5 5 3 5 5 5 5 5 5 5 5 5 5 5 5 3 5 5 5 5 5 5 5 5 5 5 5 3 5 5 5 5 5 5 5 3 5 5 5 5 5 5 5 5 3 5 5 5 5 3 5 5 5 5 5 5 5 5 5 5 5 5 5 3 5 5 3 5 5 3 5 5 5 5 5 5 5 3 5 5 5 3 5 5 5 5 3 5 5 5 5 5 5 5 5 5 5 5 5 5 5 5 5 5 5 5 5 5 5 5 5 5 3 5 5 5 5 3 5 5 5 5 5 5 5 5 5 5 5 5 5 5 5 5 5 5 3 5 3 5 5 5 5 5 5 3 5 3 5 3 5 5 5 5 5 5 5 5 3 5 5 5 5 5 5 5 5 5 5 5 5 5 5 5 5 5 3 5 5 5 5 5 5 5 5 5 5 5 5 5 5 5 5 5 5 5 5 5 5 5 5 5 5 5 5 5 5 5 5 5 5 5 5 5 5 5 5 5 5 5 5 5 5 5 5 5 5 5 5 5 5 5 5 5 5 5 5 5 5 5 5 5 5 5 3 5 5 5 5 5 5 5 5 5 3 5 5 5 3 5 5 5 5 5 5 5 5 5 5 5 5 5 5 5 5 5 5 5 5 5 5 3 5 5 5 3 5 5 5 5 5 5 5 5 5 5 5 5 5 5 5 5 5 5 5 5 5 3 5 5 5 5 5 5 5 5 5 5 5 5 5 5 5 5 5 5 5 5 5 5 5 5 5 5 5 5 5 5 5 5 5 5 5 5 5 5 5 3 5 5 5 5 5 3 5 5 3 5 5 5 5 5 5 5 5 5 5 5 5 5 5 5 3 5 5 5 5 3 5 5 3 5 5 5 5 5 5 5 5 5 5 5 5 5 5 3 5 5 3 5 5 5 5 5 5 5 5 5 5 5 5 3 5 5 5 3 5 3 5 5 5 5 5 5 5 5 5 5 5 5 5 5 5 3 5 3 5 5 5 5 5 5 5 5 3 5 5 5 5 5 5 5 5 5 5 5 5 5 5 5 5 5 5 5 5 5 5 5 5 3 5 5 5 3 5 5 5 5 5 5 5 5 5 5 5 5 5 5 5 5 5 5 3 5 5 5 5 3 5 5 5 3 5 3 5 3 5 5 5 3 5 5 5 3 5 5 5 5 5 5 5 5 5 5 5 5 5 3 5 5 5 5 3 5 5 5 5 5 5 5 5 5 5 5 5 5 5 5 5 5 5 5 5 5 5 5 5 5 5 5 3 5 5 5 5 3 5 5 5 5 5 5 5 5 5 5 5 3 5 5 5 5 3 5 5 5 5 5 5 3 5 5 5 5 3 3 5 5 5 3 5 5 3 5 5 5 5 5 5 3 5 5 5 5 5 5 3 3 5 5 5 5 5 5 3 5 5 5 5 5 5 5 5 5 5 5 5 3 5 5 5 5 5 5 5 5 5 5 5 5 5 5 5 3 5 5 5 5 5 3 5 3 5 5 5 5 5 5 5 5 5 5 5 5 3 5 5 5 5 5 5 5 5 5 5 5 5 5 5 5 5 3 5 5 5 5 5 5 5 5 5 5 5 5 3 5 5 3 5 5 5 5 5 5 5 3 5 3 5 5 5 5 5 5 5 5 5 5 5 5 5 3 5 5 5 5 5 5 5 5 5 5 5 5 5 5 5 5 5 3 5 5 5 5 5 5 3 5 5 5 5 5 5 5 5 5 5 5 5 5 5 5 5 5 5 5 5 5 3 5 5 5 3 5 5 5 5 5 5 5 5 5 5 3 5 3 3 5 5 5 5 3 5 5 5 5 5 3 5 3 5 5 5 5 5 5 3 3 5 5 5 3 5 5 5 5 3 5 5 5 5 5 5 3 5 5 5 3 5 5 5 5 5 3 5 5 5 5 5 5 5 5 3 5 5 5 5 5 5 5 3 5 5 5 5 5 5 3 5 5 5 3 5 3 5 5 5 5 3 5 5 5 5 5 5 3 5 5 5 5 3 5 5 5 5 3 5 3 5 5 3 5 5 3 5 3 5 5 5 5 5 5 5 5 5 5 5 5 5 5 5 5 5 5 5 5 5 5 5 3 5 5 5 5 5 3 5 5 5 5 5 5 5 3 5 5 5 5 3 5 5 5 5 5 5 5 5 5 5 5 5 5 5 5 5 5 5 5 5 5 5 5 5 5 5 5 5 5 3 5 5 5 5 5 3 5 5 5 5 5 5 5 5 5 5 5 5 5 3 5 5 5 5 3 5 5 5 5 5 3 5 5 5 3 5 5 5 5 5 5 3 5 5 5 5 3 5 5 5 5 5 5 5 5 5 5 3 5 5 5 5 5 5 5 3 5 5 5 5 5 5 5 5 5 5 5 5 3 5 5 5 3 5 5 5 3 5 5 5 5 3 5 5 5 5 5 5 5 5 5 5 5 3 5 3 5 5 5 3 5 3 5 5 5 5 5 5 5 5 5 5 5 5 3 5 5 3 5 5 5 5 5 5 5 5 5 3 5 5 5 5 5 5 5 5 5 3 5 5 5 5 5 5 5 5 5 5 5 5 5 5 5 5 5 5 5 5 5 5 5 5 5 5 5 5 5 5 5 5 5 5 5 5 5 5 5 5 5 5 5 5 5 5 3 5 5 5 5 5 5 5 5 5 5 5 5 5 5 5 5 5 5 5 5 5 5 3 3 5 5 5 5 5 5 5 5 5 3 5 5 5 5 5 5 5 5 5 5 5 5 5 5 5 5 5 5 5 5 5 5 5 5 5 5 5 5 5 5 5 5 5 5 5 5 5 5 5 5 5 5 5 5 5 5 5 5 5 5 5 5 5 5 5 5 5 5 5 5 5 5 5 5 5 5 5 5 5 5 5 5 5 5 5 5 5 5 5 5 5 5 5 5 5 5 5 5 5 3 5 5 5 5 5 5 5 5 5 5 5 5 5 5 3 5 5 5 5 3 5 3 5 5 5 5 5 5 5 5 3 5 5 5 5 3 5 3 3 5 5 5 5 5 5 5 5 5 5 5 5 5 5 5 5 5 3 5 5 5 5 5 3 5 5 5 5 5 5 5 5 5 3 5 3 5 5 5 5 5 5 5 5 5 5 5 5 5 5 5 5 5 5 5 5 3 5 3 5 5 5 5 5 5 5 5 3 5 5 5 5 5 5 5 5 5 5 5 3 5 3 5 5 5 5 5 5 5 5 5 5 5 5 3 5 5 5 5 3 5 5 5 3 5 5 3 5 5 3 5 5 5 3 5 5 3 5 5 5 5 5 5 5 5 5 5 5 5 5 5 5 5 5 5 5 5 3 5 3 5 5 3 5 5 5 5 3 5 5 5 5 5 5 5 5 5 5 5 3 5 5 5 5 5 5 5 5 5 5 5 5 5 5 3 5 5 5 5 5 5 5 5 5 5 5 5 5 5 5 5 5 5 5 5 5 5 5 5 5 5 5 5 5 5 5 5 5 5 3 5 5 5 5 5 5 3 5 5 5 5 5 5 3 5 5 3 5 3 5 5 5 5 5 5 5 5 5 5 5 5 5 3 5 5 5 5 5 5 5 5 5 5 5 5 5 3 3 5 5 5 5 5 5 5 5 5 5 5 5 5 3 5 5 5 5 5 5 5 3 5 5 5 5 5 5 5 5 3 5 5 3 5 5 5 3 3 5 5 5 5 5 5 5 5 5 3 5 5 3 5 5 5 5 5 5 5 5 5 5 5 5 5 5 5 5 5 5 3 5 5 5 5 5 5 5 5 5 3 5 5 5 5 5 3 5 5 3 5 5 5 5 5 5 5 5 5 5 5 5 5 5 5 5 5 5 5 5 5 5 5 5 3 5 5 5 5 5 5 5 5 3 5 5 3 5 5 5 3 5 5 5 5 5 5 3 5 5 5 5 5 5 5 5 3 5 5 5 5 3 5 3 5 5 5 5 3 5 5 3 5 5 5 5 5 5 5 5 3 5 5 5 5 5 5 5 5 5 5 5 3 5 5 5 5 5 5 5 5 5 3 5 5 5 5 5 5 3 5 5 5 5 5 3 5 5 5 5 5 5 5 5 5 5 5 5 5 5 5 3 5 5 5 5 5 5 5 5 5 5 3 3 5 5 5 5 5 5 3 5 5 5 5 5 5 5 3 5 5 5 5 5 5 5 5 5 5 5 5 5 5 5 3 5 5 3 5 5 5 5 5 5 3 5 5 5 5 5 5 5 5 5 5 5 5 3 5 5 5 5 5 3 5 5 3 5 5 5 3 3 5 5 5 5 5 5 5 5 5 5 5 5 5 5 5 5 5 5 3 5 5 5 5 5 5 5 5 5 5 5 5 5 5 5 5 5 5 5 5 5 5 5 5 5 5 5 5 5 5 5 5 5 5 5 5 5 5 5 5 5 5 5 5 5 5 5 5 5 5 5 5 5 5 5 5 5 5 5 5 5 5 5 5 5 5 5 5 5 5 5 5 5 5 5 5 5 5 5 3 5 5 3 5 5 5 3 5 5 5 5 5 5 5 5 5 5 5 5 5 5 3 5 5 5 5 5 3 5 3 5 5 5 5 5 5 5 5 5 5 5 5 5 5 5 5 5 5 5 5 5 5 5 5 5 5 5 5 5 5 5 5 5 5 5 5 5 5 5 5 5 5 5 5 5 5 5 5 5 5 5 5 5 5 5 3 5 5 5 5 5 5 5 5 5 5 5 5 5 5 5 5 5 5 5 5 5 3 5 5 5 5 5 5 5 5 5 5 5 5 5 5 5 5 5 5 5 5 5 5 5 5 5 5 5 5 5 5 5 5 5 5 5 5 5 5 3 5 5 5 5 5 5 5 5 5 5 5 5 5 3 5 5 3 5 5 5 5 5 3 5 3 5 3 5 5 3 5 5 3 5 5 5 5 5 5 5 5 5 5 5 5 5 5 5 5 5 5 5 3 5 5 5 3 5 5 5 3 3 5 5 5 3 3 5 3 5 5 5 5 5 5 5 5 5 5 5 5 5 5 5 5 5 3 3 5 5 5 5 5 5 5 5 5 3 5 5 5 5 5 5 5 5 5 5 5 5 5 5 5 3 5 5 5 5 5 5 5 5 5 5 5 5 5 5 5 5 5 5 5 5 5 5 5 5 3 3 5 5 5 3 5 5 5 5 5 5 5 5 5 5 5 5 5 5 5 3 5 5 5 5 5 5 5 5 5 5 5 5 5 5 5 5 5 5 5 5 5 5 5 5 5 5 5 5 5 5 5 5 5 5 5 5 5 5 5 5 5 5 5 5 5 3 5 5 5 5 5 5 5 5 5 5 5 5 5 5 5 5 5 5 5 5 5 5 5 5 5 5 5 5 5 5 5 5 5 5 5 5 5 5 5 5 5 5 5 5 5 5 5 5 5 5 5 5 5 5 5 5 5 5 5 5 3 5 5 5 3 5 5 5 5 5 5 5 5 5 5 5 5 5 5 5 5 5 5 5 3 5 3 5 5 5 5 5 5 5 5 3 5 3 5 5 3 5 5 5 5 5 5 3 5 3 5 5 5 5 5 5 5 5 5 5 5 5 5 5 3 5 5 5 5 5 5 5 5 5 5 5 5 5 5 5 5 5 3 3 5 5 5 5 5 5 5 5 5 5 5 5 5 5 5 5 5 5 5 5 5 5 5 5 5 5 5 5 5 5 5 5 5 5 5 5 5 5 5 5 5 5 5 3 5 5 5 5 3 5 5 5 5 5 5 5 5 5 5 5 3 5 3 5 5 5 5 5 3 5 5 5 5 5 5 3 5 5 5 5 5 5 5 5 5 5 3 5 5 5 5 5 5 5 5 5 5 5 5 5 5 5 5 5 5 5 5 5 5 5 5 5 5 5 5 5 5 5 5 5 5 5 5 5 5 5 5 5 3 5 5 5 5 5 5 5 5 5 5 5 5 5 5 5 5 5 5 5 5 5 5 5 5 5 5 5 5 5 5 5 5 5 5 5 5 5 5 5 5 5 5 3 5 5 5 5 5 5 5 5 5 5 5 3 5 5 5 5 3 5 5 3 5 5 5 5 5 5 5 5 5 3 3 5 5 5 5 5 5 5 5 5 5 5 5 5 5 5 3 5 5 5 5 5 5 5 5 5 5 5 5 5 5 5 5 5 5 5 5 5 5 5 5 5 5 5 5 5 5 5 5 5 5 5 5 5 5 5 5 5 5 5 5 5 5 5 5 5 5 5 5 5 5 5 5 5 5 5 5 5 5 5 5 5 5 5 5 5 5 5 5 5 5 5 5 5 5 5 5 5 5 5 5 5 5 5 5 5 3 5 5 5 5 5 5 5 5 5 5 5 3 5 5 5 5 5 5 3 3 5 5 5 5 5 5 3 5 5 5 5 5 5 5 5 5 5 5 5 5 5 5 5 5 5 5 5 5 5 5 5 5 5 5 5 5 3 5 5 5 5 5 3 5 5 5 5 5 5 5 5 5 5 5 5 5 5 5 5 5 5 5 3 5 5 5 3 5 5 5 5 5 5 5 3 5 5 5 5 3 5 5 5 5 5 5 5 5 3 5 5 5 5 5 3 5 5 3 5 5 5 5 5 3 3 5 5 5 3 5 5 5 5 5 3 5 5 3 5 5 5 5 5 3 5 5 3 5 5 5 3 5 3 3 5 5 5 5 5 5 5 5 3 5 3 5 5 5 3 5 5 5 5 5 5 5 5 5 5 5 5 5 5 5 5 5 5 5 5 5 5 3 3 5 5 5 3 5 5 5 5 5 3 3 3 5 5 5 3 5 3 5 5 5 5 5 5 3 3 5 5 5 5 5 5 5 5 5 5 5 5 5 5 5 3 5 5 5 5 5 5 5 3 5 5 5 5 5 5 5 5 5 5 5 5 5 5 5 5 5 5 5 5 5 5 5 5 5 3 5 5 5 5 5 3 5 3 5 5 5 5 3 5 5 5 5 5 5 5 5 3 3 5 5 5 3 5 5 5 5 3 5 5 5 5 5 5 3 5 5 5 5 5 5 5 3 5 5 3 5 3 5 5 5 3 5 5 5 5 5 5 5 5 5 5 5 3 5 5 5 5 5 5 5 5 5 5 5 3 5 5 5 5 5 5 5 5 5 5 5 3 5 5 3 5 5 5 5 5 5 5 5 3 5 5 5 5 5 5 5 5 5 5 5 5 5 5 5 5 5 5 5 5 5 5 5 5 5 5 5 5 5 5 5 5 5 5 5 5 5 5 5 5 5 5 5 5 3 5 5 5 5 3 5 5 5 5 5 5 5 5 5 5 5 5 5 5 5 3 5 5 5 5 5 5 5 5 5 5 5 5 5 5 5 5 5 5 5 5 5 5 5 5 5 5 5 5 3 5 5 5 5 5 3 5 5 5 5 5 5 5 5 5 5 5 5 5 5 5 5 5 3 3 5 5 5 5 5 3 5 3 5 5 5 5 5 5 3 5 5 5 5 5 3 5 5 5 5 5 5 5 5 5 5 5 3 5 5 3 5 3 5 5 5 5 5 5 5 5 5 5 5 3 5 5 5 5 5 5 5 5 5 5 5 5 5 5 5 5 3 5 5 5 5 5 5 5 5 3 5 5 5 3 3 5 5 5 5 5 5 5 5 5 3 5 3 5 5 5 5 3 3 5 5 5 3 3 5 5 5 5 5 5 5 5 5 5 5 5 5 5 5 3 5 5 3 5 3 5 5 5 5 5 5 3 5 5 5 3 5 5 5 5 5 5 5 5 5 5 5 5 5 5 5 5 5 5 5 5 5 5 5 5 3 5 5 3 5 5 3 5 5 3 5 5 5 5 5 5 5 5 3 5 5 3 5 5 3 5 5 5 5 5 5 5 5 5 5 5 5 5 5 3 5 5 3 5 5 5 5 3 5 5 3 5 5 5 3 5 5 5 5 5 5 5 5 5 5 3 5 5 5 5 5 3 5 5 5 5 5 5 5 5 5 5 5 5 5 5 5 5 5 3 5 5 3 5 5 5 3 5 3 5 5 5 5 5 5 5 5 5 5 3 5 5 5 5 3 3 5 5 5 5 5 5 5 5 5 5 5 5 5 3 5 5 5 5 5 5 5 5 5 3 5 3 5 5 5 5 5 5 5 5 5 5 5 5 5 5 5 5 3 5 5 5 5 3 5 5 5 5 5 5 3 5 5 5 5 5 5 5 5 3 5 5 5 5 5 5 5 5 3 5 5 5 5 5 3 5 5 5 5 5 5 5 3 5 5 5 5 5 5 3 5 5 5 3 5 5 5 5 5 5 5 5 5 5 5 3 5 5 5 5 5 5 3 5 5 5 5 5 3 5 5 5 3 5 5 5 5 5 5 5 3 5 5 5 5 5 5 5 5 3 5 5 5 3 5 3 3 5 5 5 3 5 5 3 5 5 5 5 5 5 3 5 5 5 5 5 5 3 5 5 3 5 5 5 5 5 5 5 5 5 5 5 5 5 3 5 5 5 5 5 5 5 5 5 5 5 5 5 3 5 5 5 5 5 3 5 5 5 3 5 5 5 3 5 3 5 5 5 5 5 5 3 5 5 5 5 5 3 3 5 5 5 5 5 3 5 5 5 3 5 5 5 5 5 5 5 5 5 3 5 5 3 5 5 5 5 5 5 5 3 5 5 5 5 5 5 5 5 5 5 5 5 5 5 5 3 5 5 5 5 3 5 5 5 5 5 3 5 5 3 3 5 3 5 5 5 5 5 5 5 5 5 5 5 5 5 3 5 5 5 5 3 5 3 5 5 5 5 5 3 5 5 5 5 5 5 3 5 5 5 5 5 5 5 5 3 5 3 5 5 5 5 3 5 5 5 5 5 5 5 5 5 5 5 5 5 5 5 5 5 5 5 5 5 5 3 5 5 3 5 5 3 5 5 3 5 5 5 5 5 5 5 5 5 3 5 5 3 5 3 5 5 5 5 5 5 5 5 3 5 5 5 5 5 5 5 5 5 5 5 5 5 5 5 5 5 5 5 3 5 5 5 3 5 5 5 5 5 5 5 5 5 5 5 5 5 5 5 5 5 5 5 5 5 5 5 5 5 5 5 5 5 5 5 5 5 5 5 5 3 5 5 5 5 5 5 3 5 5 5 5 3 5 5 5 5 5 5 5 5 5 5 5 5 3 5 3 5 5 3 5 5 3 5 5 5 5 5 5 5 5 5 5 5 5 5 5 5 5 5 5 3 5 5 5 5 3 5 3 5 5 5 5 5 5 3 5 3 3 3 5 5 5 5 5 5 5 5 5 3 5 5 5 3 5 5 5 5 5 5 5 5 5 3 5 5 5 3 5 5 5 5 5 5 5 5 5 5 5 5 5 5 5 5 5 5 5 5 5 3 5 5 5 5 5 5 5 5 5 5 5 5 3 5 5 3 5 5 5 5 5 5 5 5 5 5 3 5 3 5 5 5 3 5 3 5 5 5 3 5 5 5 5 5 5 5 5 5 5 5 5 3 5 5 5 5 5 5 5 5 5 5 5 5 5 5 5 5 5 3 5 5 5 5 5 3 5 5 5 5 5 5 5 5 5 5 5 5 5 5 5 5 5 5 5 5 5 3 5 5 5 5 5 5 3 5 5 5 5 5 5 5 5 5 5 5 5 5 5 5 5 5 5 5 3 5 5 5 5 5 5 5 5 3 5 5 5 5 5 5 5 5 3 5 5 5 5 5 5 5 5 3 5 5 5 5 3 5 5 5 5 5 5 5 5 3 5 5 5 3 5 5 5 5 5 5 5 5 5 5 5 5 5 5 5 5 5 5 5 3 5 5 5 3 3 5 5 5 3 5 5 5 5 5 5 5 3 5 5 5 5 5 5 5 5 5 5 5 5 5 5 5 5 5 5 5 5 5 5 5 5 5 5 5 3 5 3 5 3 5 5 5 3 5 5 3 5 5 5 5 3 5 5 5 5 5 5 5 5 5 5 5 3 5 5 5 3 5 5 5 5 5 5 3 5 5 5 5 5 5 5 5 5 5 5 5 5 5 5 5 3 5 5 5 5 5 5 5 5 5 5 5 5 5 5 3 5 5 5 5 5 5 5 5 5 5 5 5 5 5 5 5 5 5 5 5 5 5 5 3 5 5 5 3 5 5 5 5 5 5 5 5 5 5 5 5 5 5 5 5 5 5 5 5 5 5 5 5 5 5 5 5 5 5 5 5 5 3 5 5 5 3 5 5 5 5 5 5 5 3 5 5 3 3 5 5 5 5 5 5 3 5 5 5 5 5 5 5 3 5 5 5 5 3 5 5 5 5 5 5 5 5 5 5 5 5 5 3 5 5 5 5 5 5 5 5 5 5 5 5 5 5 3 5 5 3 5 5 5 5 5 5 5 5 5 5 5 5 5 5 5 3 5 5 5 5 5 3 5 5 5 5 3 5 5 3 5 5 5 5 5 5 3 5 5 5 5 5 3 5 3 5 5 5 5 5 5 3 5 5 5 5 3 5 5 5 5 3 5 5 5 5 5 5 5 5 5 5 5 5 5 5 5 5 5 5 5 3 5 5 5 5 5 5 5 3 5 5 5 5 5 5 3 5 3 5 5 5 5 5 5 5 5 5 5 5 5 5 5 5 5 5 5 5 3 5 5 5 5 5 5 5 5 3 5 5 5 5 5 5 5 3 5 5 5 5 5 5 5 3 5 5 5 3 5 5 5 5 5 5 5 5 5 5 5 3 5 3 5 3 3 5 3 5 5 5 5 5 5 5 3 3 3 5 5 5 5 5 5 3 5 5 5 5 5 5 5 5 5 5 5 5 3 5 5 5 5 5 5 5 5 5 5 5 5 5 5 5 5 5 5 3 5 5 5 3 5 5 5 5 5 5 5 5 5 5 5 5 5 5 5 5 5 5 5 5 5 5 5 5 5 5 3 5 3 5 3 5 5 5 5 5 5 5 5 5 5 3 3 5 5 5 5 3 5 5 3 5 5 5 5 3 5 5 5 3 3 5 5 5 3 5 5 5 3 5 5 5 5 5 5 5 5 3 5 3 5 3 5 5 3 5 5 3 5 5 5 5 5 5 5 5 5 5 3 5 5 5 5 5 5 5 5 5 5 5 5 5 5 5 5 3 5 5 5 5 3 5 5 5 5 3 3 5 5 5 5 5 5 3 5 5 5 5 5 5 5 5 5 5 5 5 5 5 5 5 5 5 3 5 5 5 5 5 5 3 5 5 5 3 5 3 5 5 5 5 5 3 5 3 5 5 5 3 5 5 5 5 5 5 5 5 3 3 5 5 5 5 3 5 3 5 5 5 5 5 5 3 5 5 5 3 5 5 5 5 5 5 5 5 5 5 5 3 5 5 5 5 3 5 5 5 5 5 5 5 5 5 5 5 5 5 3 5 5 3 5 5 5 5 5 5 5 5 5 5 5 3 5 5 5 5 5 5 5 5 5 5 3 3 3 5 5 5 5 5 5 5 5 5 5 5 5 5 3 5 5 5 5 5 5 5 5 5 5 3 5 5 5 5 5 5 5 5 5 5 5 5 5 5 5 5 5 5 3 5 5 5 5 5 5 3 5 5 5 5 5 5 5 5 5 5 5 5 3 3 5 3 5 5 5 5 3 5 5 3 5 5 5 5 5 5 3 5 5 3 5 5 5 5 5 5 5 5 5 5 5 5 5 5 5 5 3 5 5 5 5 5 5 5 3 5 3 5 5 5 5 5 5 5 5 5 5 3 5 5 3 5 5 5 3 5 5 5 5 5 3 5 5 5 5 3 5 5 5 5 5 3 5 5 5 5 5 5 5 5 5 5 5 5 3 5 5 5 5 3 5 5 5 5 5 5 5 5 5 5 3 3 5 5 5 5 5 5 5 5 5 5 5 3 3 5 5 5 3 5 5 5 5 5 5 5 3 5 5 5 5 3 5 3 5 5 5 5 5 5 5 3 5 5 5 5 5 5 5 5 5 5 5 5 3 5 5 5 5 5 5 5 5 5 5 5 5 5 5 5 5 5 5 5 5 5 5 5 5 5 5 5 5 5 5 5 3 5 5 5 3 5 5 5 5 5 5 5 5 5 5 5 5 5 5 5 3 5 5 5 5 5 5 5 3 5 5 3 5 5 5 5 5 5 5 5 5 5 5 5 5 3 5 5 3 5 5 3 5 5 5 5 5 5 3 5 5 5 5 5 5 5 5 5 5 5 5 5 5 5 5 5 5 5 5 5 5 5 5 5 5 5 5 3 5 3 5 5 5 5 5 5 5 5 5 5 5 5 5 5 5 5 5 5 5 5 3 5 5 5 3 5 5 5 5 5 5 5 5 5 5 5 5 3 5 5 3 5 5 5 5 5 5 5 3 5 5 3 5 5 5 5 3 5 5 5 5 5 5 5 5 5 5 5 5 5 5 5 5 5 5 5 5 5 5 5 5 5 5 5 5 5 5 5 5 5 5 5 5 5 5 5 5 5 5 5 5 5 5 5 5 5 5 5 5 3 5 3 5 5 5 5 5 5 5 5 5 5 5 5 5 5 5 3 5 5 5 5 5 5 5 5 5 3 5 5 5 5 3 5 5 5 5 5 5 5 3 5 5 3 5 5 5 5 5 5 5 5 3 5 5 5 5 5 3 5 3 3 5 5 5 5 5 3 5 5 3 5 5 5 5 5 5 5 3 5 5 5 5 5 5 5 5 5 5 5 5 3 5 5 5 5 5 5 5 5 5 3 3 5 5 5 5 5 5 5 5 5 5 3 3 5 5 5 5 5 5 3 5 5 5 3 3 5 5 3 3 5 5 5 5 5 3 3 5 5 5 5 5 5 5 5 5 5 5 5 5 5 5 3 3 5 5 5 5 3 5 5 5 5 5 5 3 3 5 3 5 5 5 3 5 3 5 5 5 5 5 5 5 5 5 5 5 5 5 5 5 3 3 5 5 5 5 5 5 5 5 5 5 5 5 5 5 5 5 5 5 5 5 5 5 5 5 5 5 5 5 5 5 3 5 5 5 5 5 5 5 5 5 5 5 5 5 5 3 5 5 5 3 3 5 5 3 5 5 5 3 5 5 5 5 5 5 5 5 5 5 5 3 5 5 5 5 5 5 5 3 5 5 5 5 5 5 5 5 3 5 5 5 5 5 3 5 5 5 3 5 5 5 3 5 5 5 5 5 5 3 5 5 5 5 5 5 3 5 5 5 5 3 5 5 5 5 5 3 3 5 5 5 5 5 5 5 5 3 5 5 3 5 3 5 5 5 5 5 5 5 5 5 5 5 5 5 5 5 5 5 5 5 5 5 5 5 5 5 5 5 5 5 5 5 5 5 5 5 5 5 3 5 5 3 5 5 5 5 5 5 5 5 5 5 3 5 5 5 5 5 5 5 5 5 5 5 3 5 5 5 3 5 5 3 5 5 5 5 3 5 5 5 5 3 5 5 5 5 5 5 5 5 3 5 5 5 5 5 3 5 5 5 3 3 5 5 5 3 3 3 5 5 5 5 5 5 5 5 5 5 5 5 5 5 3 5 3 3 5 3 3 5 5 5 3 5 3 5 5 5 5 3 5 5 5 5 3 5 5 3 3 5 3 3 5 5 5 5 5 5 3 5 5 5 5 5 5 5 3 5 3 5 5 5 5 5 5 5 5 5 5 3 5 5 5 3 5 3 5 5 3 5 3 5 5 5 5 5 5 5 5 5 3 5 5 5 5 3 3 5 5 3 5 5 5 5 3 5 5 3 5 3 5 5 3 5 5 3 5 5 3 3 5 5 5 5 5 5 5 3 5 5 5 3 5 5 5 3 3 3 5 5 3 5 5 5 5 5 3 3 5 3 5 5 5 3 5 5 5 5 5 5 5 3 5 5 5 5 3 5 3 5 5 5 5 5 3 3 5 5 5 3 5 5 3 5 5 5 3 5 3 5 5 5 5 5 5 5 5 5 5 3 5 5 5 5 5 5 5 3 5 5 3 3 5 3 5 5 5 5 5 3 5 5 5 3 5 3 5 5 5 5 5 5 5 5 3 5 5 5 5 5 5 5 5 5 5 5 5 5 5 5 5 5 5 5 5 5 5 5 5 5 5 3 5 5 5 5 3 5 5 5 5 5 5 5 5 5 5 5 5 5 5 5 5 5 5 3 5 5 5 5 5 5 3 3 5 5 5 5 5 5 3 5 5 3 5 5 5 5 5 5 3 5 5 5 5 5 5 5 5 5 5 5 5 5 5 5 5 5 5 5 5 5 5 5 5 5 5 3 5 5 5 5 5 3 5 5 5 3 5 5 5 5 5 5 5 5 3 5 5 3 5 5 5 3 5 5 5 5 5 3 3 5 5 5 3 5 5 5 5 5 3 3 5 3 5 3 5 5 3 5 5 5 5 5 5 5 5 5 3 5 5 3 5 5 3 5 5 5 3 5 5 5 5 3 5 5 5 5 5 5 5 5 5 5 5 5 5 3 5 5 5 5 5 5 5 3 5 5 3 3 5 5 5 5 5 5 3 5 5 5 5 3 5 5 5 5 5 3 5 3 5 5 5 5 3 5 5 5 5 3 5 5 5 5 5 5 5 3 5 5 5 5 5 5 5 5 5 5 3 5 5 5 5 5 5 5 5 5 5 5 5 5 5 5 5 5 5 5 5 5 5 5 5 3 5 5 5 5 5 5 5 5 5 3 5 3 5 5 5 3 5 5 5 5 5 5 3 5 5 5 5 5 5 5 5 5 5 5 3 5 5 5 5 5 5 5 5 5 5 5 5 5 5 5 5 5 3 5 5 5 5 5 5 5 5 5 3 5 5 3 5 5 5 3 5 5 5 5 5 5 3 5 5 3 5 5 5 5 5 5 5 5 5 5 5 3 5 5 5 5 5 5 5 5 5 5 5 5 5 3 5 3 5 5 5 5 5 5 5 3 5 3 5 5 5 5 5 3 5 5 5 5 3 5 5 5 5 5 5 5 5 5 5 5 5 5 5 5 5 5 5 5 5 5 5 5 5 5 5 5 5 5 5 5 5 5 5 5 5 5 5 5 5 5 5 5 5 5 5 5 5 5 5 5 5 5 5 5 5 5 5 5 5 5 5 5 5 5 5 5 5 5 5 5 5 5 5 5 5 5 5 5 5 5 5 5 5 5 5 5 5 5 5 5 5 5 5 5 3 5 3 5 5 3 5 5 5 5 5 3 5 5 5 5 5 5 5 3 5 5 5 5 5 5 5 5 5 5 5 5 5 5 5 5 5 5 5 5 5 5 3 5 3 5 5 5 5 5 5 3 5 3 5 5 5 5 3 5 5 5 5 5 3 5 5 5 5 5 5 5 5 5 5 5 5 5 5 3 5 5 5 5 5 5 5 3 5 5 5 3 5 5 5 5 5 5 5 3 5 5 5 5 3 5 5 5 5 5 5 5 5 5 5 5 5 5 5 3 5 3 5 5 5 5 3 5 3 5 5 5 5 5 5 5 5 5 5 5 5 5 5 5 5 5 3 5 5 5 5 5 5 5 5 5 5 5 5 5 5 5 5 5 3 5 5 5 5 5 5 5 5 5 5 5 5 5 5 5 5 5 5 5 5 5 5 5 5 5 5 5 5 3 5 5 5 5 3 3 5 5 5 5 5 5 5 5 5 5 5 5 5 5 5 5 5 5 5 5 5 5 5 5 3 5 5 5 3 5 5 3 3 5 5 5 5 5 5 5 5 5 5 5 5 5 5 5 5 3 5 5 3 5 3 5 5 5 5 5 5 5 3 5 5 5 3 5 5 5 5 5 5 5 5 5 5 5 5 5 5 5 5 3 3 5 5 3 5 5 5 3 5 5 5 5 5 5 
</DataArray>
</Cells>
<PointData Scalars="" Vectors="displacement," Tensors="">
<DataArray type="Float64" Name="displacement" NumberOfComponents="3" format="ascii">
-0.01499807588840763 -0.014999291141487498 0 -0.014664913444166766 -0.014064366519547773 0 -0.013965123334727611 -0.014654977450675321 0 -0.01499807588840763 -0.014999291141487498 0 -0.014664913444166766 -0.014064366519547773 0 -0.014998361672941912 -0.011319831212011277 0 -0.01499807588840763 -0.014999291141487498 0 -0.013965123334727611 -0.014654977450675321 0 -0.012816843477997421 -0.014998535248140075 0 -0.014664913444166766 -0.014064366519547773 0 -0.014426710672217754 -0.013990970809672421 0 -0.014824108634203314 -0.012993513215494383 0 -0.014664913444166766 -0.014064366519547773 0 -0.014426710672217754 -0.013990970809672421 0 -0.013965123334727611 -0.014654977450675321 0 -0.014426710672217754 -0.013990970809672421 0 -0.013965123334727611 -0.014654977450675321 0 -0.014062437471965589 -0.014547779712184589 0 -0.013965123334727611 -0.014654977450675321 0 -0.012816843477997421 -0.014998535248140075 0 -0.013271799847792393 -0.014841599600089777 0 -0.012816843477997421 -0.014998535248140075 0 -0.013271799847792393 -0.014841599600089777 0 -0.012359490004786974 -0.015044020391346351 0 -0.013271799847792393 -0.014841599600089777 0 -0.012676541979103886 -0.015018744141570919 0 -0.014062437471965589 -0.014547779712184589 0 -0.013271799847792393 -0.014841599600089777 0 -0.012359490004786974 -0.015044020391346351 0 -0.012676541979103886 -0.015018744141570919 0 -0.013965123334727611 -0.014654977450675321 0 -0.013271799847792393 -0.014841599600089777 0 -0.014062437471965589 -0.014547779712184589 0 -0.012816843477997421 -0.014998535248140075 0 -0.012359490004786974 -0.015044020391346351 0 -0.011185340316695104 -0.01500007701722106 0 -0.011660781142563904 -0.015417919228456594 0 -0.011185340316695104 -0.01500007701722106 0 -0.011050147227119864 -0.015632152216690863 0 -0.011660781142563904 -0.015417919228456594 0 -0.012359490004786974 -0.015044020391346351 0 -0.011185340316695104 -0.01500007701722106 0 -0.011980395009827864 -0.015274376669416756 0 -0.012408215067205935 -0.015062549181563712 0 -0.012648299144273841 -0.015055499983868733 0 -0.012359490004786974 -0.015044020391346351 0 -0.012676541979103886 -0.015018744141570919 0 -0.015225318103603711 -0.01442845919486865 0 -0.015394905387839003 -0.0142217150037981 0 -0.015449792453861055 -0.014253072837258206 0 -0.012648299144273841 -0.015055499983868733 0 -0.012676541979103886 -0.015018744141570919 0 -0.012664822718587576 -0.015052657891686102 0 -0.014211253334150659 -0.014640201353973302 0 -0.012783424841738595 -0.015195636146988415 0 -0.011980395009827864 -0.015274376669416756 0 -0.012783424841738595 -0.015195636146988415 0 -0.015225318103603711 -0.01442845919486865 0 -0.015394905387839003 -0.0142217150037981 0 -0.015334890521426137 -0.014145718738154695 0 -0.015334890521426137 -0.014145718738154695 0 -0.01537141962214931 -0.014013053906836589 0 -0.015420088135999354 -0.014116484328165211 0 -0.01537141962214931 -0.014013053906836589 0 -0.015413311800076126 -0.014034409793480609 0 -0.015420088135999354 -0.014116484328165211 0 -0.015394905387839003 -0.0142217150037981 0 -0.015334890521426137 -0.014145718738154695 0 -0.015420088135999354 -0.014116484328165211 0 -0.015334890521426137 -0.014145718738154695 0 -0.015310655484130882 -0.013979082684692458 0 -0.01537141962214931 -0.014013053906836589 0 -0.015225318103603711 -0.01442845919486865 0 -0.015334890521426137 -0.014145718738154695 0 -0.0151192648910805 -0.014039551715835069 0 -0.015334890521426137 -0.014145718738154695 0 -0.0151192648910805 -0.014039551715835069 0 -0.015310655484130882 -0.013979082684692458 0 -0.0151192648910805 -0.014039551715835069 0 -0.015058429933539133 -0.013835285309760364 0 -0.015153450771573177 -0.013855547408251054 0 -0.0151192648910805 -0.014039551715835069 0 -0.015058429933539133 -0.013835285309760364 0 -0.014837560457677002 -0.013913643581472374 0 -0.0151192648910805 -0.014039551715835069 0 -0.015153450771573177 -0.013855547408251054 0 -0.015217512922903466 -0.013902994975614641 0 -0.015058429933539133 -0.013835285309760364 0 -0.015154109759398628 -0.013722503436543696 0 -0.015153450771573177 -0.013855547408251054 0 -0.015154109759398628 -0.013722503436543696 0 -0.015068824176287429 -0.013670164387263886 0 -0.015186630582229486 -0.013564382582254441 0 -0.015058429933539133 -0.013835285309760364 0 -0.015154109759398628 -0.013722503436543696 0 -0.015068824176287429 -0.013670164387263886 0 -0.015154109759398628 -0.013722503436543696 0 -0.015222591762332897 -0.013789438604202989 0 -0.015225519560170779 -0.013686934399537231 0 -0.015154109759398628 -0.013722503436543696 0 -0.015153450771573177 -0.013855547408251054 0 -0.015222591762332897 -0.013789438604202989 0 -0.015153450771573177 -0.013855547408251054 0 -0.015222591762332897 -0.013789438604202989 0 -0.015217512922903466 -0.013902994975614641 0 -0.015222591762332897 -0.013789438604202989 0 -0.015269675938822749 -0.013738293567431129 0 -0.015225519560170779 -0.013686934399537231 0 -0.015276008381499095 -0.013844375712825853 0 -0.01530457183481369 -0.013792607215273121 0 -0.015269675938822749 -0.013738293567431129 0 -0.015222591762332897 -0.013789438604202989 0 -0.015276008381499095 -0.013844375712825853 0 -0.015269675938822749 -0.013738293567431129 0 -0.015222591762332897 -0.013789438604202989 0 -0.015276008381499095 -0.013844375712825853 0 -0.015217512922903466 -0.013902994975614641 0 -0.015276008381499095 -0.013844375712825853 0 -0.015217512922903466 -0.013902994975614641 0 -0.015310655484130882 -0.013979082684692458 0 -0.0151192648910805 -0.014039551715835069 0 -0.015217512922903466 -0.013902994975614641 0 -0.015310655484130882 -0.013979082684692458 0 -0.015310655484130882 -0.013979082684692458 0 -0.015364151948757773 -0.013918696375270649 0 -0.01537141962214931 -0.014013053906836589 0 -0.015310655484130882 -0.013979082684692458 0 -0.015325906918895318 -0.013858766044954699 0 -0.015364151948757773 -0.013918696375270649 0 -0.015276008381499095 -0.013844375712825853 0 -0.015310655484130882 -0.013979082684692458 0 -0.015325906918895318 -0.013858766044954699 0 -0.015276008381499095 -0.013844375712825853 0 -0.01530457183481369 -0.013792607215273121 0 -0.015325906918895318 -0.013858766044954699 0 -0.015331855069432746 -0.013792813941172702 0 -0.015325906918895318 -0.013858766044954699 0 -0.015364805973571349 -0.01384053092929325 0 -0.015331855069432746 -0.013792813941172702 0 -0.015364805973571349 -0.01384053092929325 0 -0.015350365776456367 -0.013779929663873269 0 -0.01530457183481369 -0.013792607215273121 0 -0.015331855069432746 -0.013792813941172702 0 -0.015325906918895318 -0.013858766044954699 0 -0.015325906918895318 -0.013858766044954699 0 -0.015364805973571349 -0.01384053092929325 0 -0.015364151948757773 -0.013918696375270649 0 -0.015364805973571349 -0.01384053092929325 0 -0.015396233282440393 -0.01388734975718788 0 -0.015364151948757773 -0.013918696375270649 0 -0.015364805973571349 -0.01384053092929325 0 -0.015404093330075787 -0.013830823676579816 0 -0.015350365776456367 -0.013779929663873269 0 -0.015364805973571349 -0.01384053092929325 0 -0.015404093330075787 -0.013830823676579816 0 -0.015396233282440393 -0.01388734975718788 0 -0.015404093330075787 -0.013830823676579816 0 -0.015396233282440393 -0.01388734975718788 0 -0.015429109762544262 -0.013907077116453823 0 -0.015396233282440393 -0.01388734975718788 0 -0.015401891894552896 -0.013953576410543555 0 -0.015429109762544262 -0.013907077116453823 0 -0.015396233282440393 -0.01388734975718788 0 -0.015401891894552896 -0.013953576410543555 0 -0.015364151948757773 -0.013918696375270649 0 -0.015401891894552896 -0.013953576410543555 0 -0.015364151948757773 -0.013918696375270649 0 -0.01537141962214931 -0.014013053906836589 0 -0.015401891894552896 -0.013953576410543555 0 -0.01537141962214931 -0.014013053906836589 0 -0.015413311800076126 -0.014034409793480609 0 -0.015225318103603711 -0.01442845919486865 0 -0.0151192648910805 -0.014039551715835069 0 -0.014062437471965589 -0.014547779712184589 0 -0.0151192648910805 -0.014039551715835069 0 -0.014062437471965589 -0.014547779712184589 0 -0.014837560457677002 -0.013913643581472374 0 -0.014211253334150659 -0.014640201353973302 0 -0.013866981126258877 -0.014562551276062465 0 -0.014062437471965589 -0.014547779712184589 0 -0.014837560457677002 -0.013913643581472374 0 -0.014901018834983125 -0.013555872659802353 0 -0.014837560457677002 -0.013913643581472374 0 -0.015068824176287429 -0.013670164387263886 0 -0.014901018834983125 -0.013555872659802353 0 -0.015058429933539133 -0.013835285309760364 0 -0.014837560457677002 -0.013913643581472374 0 -0.015068824176287429 -0.013670164387263886 0 -0.014426710672217754 -0.013990970809672421 0 -0.014062437471965589 -0.014547779712184589 0 -0.014694784206947156 -0.013473114740027955 0 -0.014062437471965589 -0.014547779712184589 0 -0.014694784206947156 -0.013473114740027955 0 -0.014901018834983125 -0.013555872659802353 0 -0.014694784206947156 -0.013473114740027955 0 -0.014901018834983125 -0.013555872659802353 0 -0.015042424836945453 -0.013084021740129176 0 -0.014694784206947156 -0.013473114740027955 0 -0.015042424836945453 -0.013084021740129176 0 -0.014970285847524712 -0.012748316710611983 0 -0.014901018834983125 -0.013555872659802353 0 -0.015213079859477115 -0.01352607440427946 0 -0.015117029463565303 -0.01327609909984113 0 -0.015068824176287429 -0.013670164387263886 0 -0.014901018834983125 -0.013555872659802353 0 -0.015213079859477115 -0.01352607440427946 0 -0.015068824176287429 -0.013670164387263886 0 -0.015213079859477115 -0.01352607440427946 0 -0.015186630582229486 -0.013564382582254441 0 -0.015213079859477115 -0.01352607440427946 0 -0.015117029463565303 -0.01327609909984113 0 -0.015347057748491565 -0.012918167657904558 0 -0.015117029463565303 -0.01327609909984113 0 -0.015042424836945453 -0.013084021740129176 0 -0.015347057748491565 -0.012918167657904558 0 -0.014901018834983125 -0.013555872659802353 0 -0.015117029463565303 -0.01327609909984113 0 -0.015042424836945453 -0.013084021740129176 0 -0.015042424836945453 -0.013084021740129176 0 -0.015347057748491565 -0.012918167657904558 0 -0.015246783196374195 -0.012578497012388506 0 -0.015347057748491565 -0.012918167657904558 0 -0.015246783196374195 -0.012578497012388506 0 -0.015553424700974995 -0.012498350572248972 0 -0.015042424836945453 -0.013084021740129176 0 -0.015246783196374195 -0.012578497012388506 0 -0.014970285847524712 -0.012748316710611983 0 -0.014612242453434005 -0.013595147073144397 0 -0.010946534022589162 -0.014140968178239647 0 -0.015335823391856131 -0.013702609694285731 0 -0.015316518095506732 -0.0136199443084139 0 -0.015475920122367664 -0.013860821412298184 0 -0.015404093330075787 -0.013830823676579816 0 -0.015335823391856131 -0.013702609694285731 0 -0.015475920122367664 -0.013860821412298184 0 -0.015404093330075787 -0.013830823676579816 0 -0.015350365776456367 -0.013779929663873269 0 -0.015335823391856131 -0.013702609694285731 0 -0.015312408267361759 -0.013738990483482951 0 -0.015335823391856131 -0.013702609694285731 0 -0.015270487296795312 -0.013657200851812478 0 -0.015350365776456367 -0.013779929663873269 0 -0.015312408267361759 -0.013738990483482951 0 -0.015335823391856131 -0.013702609694285731 0 -0.015331855069432746 -0.013792813941172702 0 -0.015350365776456367 -0.013779929663873269 0 -0.015312408267361759 -0.013738990483482951 0 -0.01530457183481369 -0.013792607215273121 0 -0.015331855069432746 -0.013792813941172702 0 -0.015312408267361759 -0.013738990483482951 0 -0.01530457183481369 -0.013792607215273121 0 -0.015312408267361759 -0.013738990483482951 0 -0.015269675938822749 -0.013738293567431129 0 -0.015335823391856131 -0.013702609694285731 0 -0.015270487296795312 -0.013657200851812478 0 -0.015316518095506732 -0.0136199443084139 0 -0.015214657167909752 -0.013507652278535726 0 -0.015603357665879253 -0.013224237469236537 0 -0.015356073954852927 -0.013517749521443691 0 -0.014612242453434005 -0.013595147073144397 0 -0.015186630582229486 -0.013564382582254441 0 -0.015099398635879557 -0.013626017077336688 0 -0.015056324414751699 -0.013595945192391358 0 -0.015270487296795312 -0.013657200851812478 0 -0.015186630582229486 -0.013564382582254441 0 -0.015316518095506732 -0.0136199443084139 0 -0.015213079859477115 -0.01352607440427946 0 -0.015186630582229486 -0.013564382582254441 0 -0.015099398635879557 -0.013626017077336688 0 -0.015270487296795312 -0.013657200851812478 0 -0.015225519560170779 -0.013686934399537231 0 -0.015186630582229486 -0.013564382582254441 0 -0.015270487296795312 -0.013657200851812478 0 -0.015269675938822749 -0.013738293567431129 0 -0.015225519560170779 -0.013686934399537231 0 -0.015312408267361759 -0.013738990483482951 0 -0.015270487296795312 -0.013657200851812478 0 -0.015269675938822749 -0.013738293567431129 0 -0.015154109759398628 -0.013722503436543696 0 -0.015225519560170779 -0.013686934399537231 0 -0.015186630582229486 -0.013564382582254441 0 -0.015213079859477115 -0.01352607440427946 0 -0.015602929685375562 -0.012768242243370405 0 -0.015884278438092713 -0.012788139113742077 0 -0.015213079859477115 -0.01352607440427946 0 -0.015347057748491565 -0.012918167657904558 0 -0.015602929685375562 -0.012768242243370405 0 -0.015347057748491565 -0.012918167657904558 0 -0.015602929685375562 -0.012768242243370405 0 -0.015553424700974995 -0.012498350572248972 0 -0.015602929685375562 -0.012768242243370405 0 -0.015818400488069893 -0.012493918559075562 0 -0.015553424700974995 -0.012498350572248972 0 -0.015602929685375562 -0.012768242243370405 0 -0.015884278438092713 -0.012788139113742077 0 -0.015818400488069893 -0.012493918559075562 0 -0.015099398635879557 -0.013626017077336688 0 -0.0150376897662721 -0.013634656125515031 0 -0.01500500124335836 -0.013721071881942654 0 -0.012147960813083385 -0.013822141800715037 0 -0.010690761513050543 -0.012874437413909324 0 -0.011286674197105417 -0.014485625140400922 0 -0.015099398635879557 -0.013626017077336688 0 -0.015056324414751699 -0.013595945192391358 0 -0.0150376897662721 -0.013634656125515031 0 -0.015056324414751699 -0.013595945192391358 0 -0.0150376897662721 -0.013634656125515031 0 -0.014973438731386797 -0.013639427998726035 0 -0.014612242453434005 -0.013595147073144397 0 -0.011994501988976208 -0.013788771768512351 0 -0.012186590460528982 -0.013865625931243131 0 -0.011619182654323851 -0.012259461142676615 0 -0.011293077905730493 -0.013467843123335477 0 -0.014441381658891295 -0.012436085487529405 0 -0.011994501988976208 -0.013788771768512351 0 -0.015884278438092713 -0.012788139113742077 0 -0.016222731147183728 -0.012165044631235753 0 -0.015818400488069893 -0.012493918559075562 0 -0.015603357665879253 -0.013224237469236537 0 -0.014441381658891295 -0.012436085487529405 0 -0.0150376897662721 -0.013634656125515031 0 -0.01500500124335836 -0.013721071881942654 0 -0.014973438731386797 -0.013639427998726035 0 -0.012186590460528982 -0.013865625931243131 0 -0.012026780744833685 -0.01389024206986327 0 -0.011293077905730493 -0.013467843123335477 0 -0.014441381658891295 -0.012436085487529405 0 -0.012876461936075072 -0.012326337749283253 0 -0.016222731147183728 -0.012165044631235753 0 -0.015805887737003067 -0.012233777309025666 0 -0.015818400488069893 -0.012493918559075562 0 -0.016082401498009581 -0.012169513610729155 0 -0.015805887737003067 -0.012233777309025666 0 -0.015852631927074447 -0.011993626887576722 0 -0.014441381658891295 -0.012436085487529405 0 -0.016298963213696539 -0.012154225805000533 0 -0.015805887737003067 -0.012233777309025666 0 -0.01566811425103809 -0.011899401540793022 0 -0.015464691308075254 -0.012159439931189186 0 -0.015805887737003067 -0.012233777309025666 0 -0.015553424700974995 -0.012498350572248972 0 -0.015464691308075254 -0.012159439931189186 0 -0.015805887737003067 -0.012233777309025666 0 -0.015818400488069893 -0.012493918559075562 0 -0.015553424700974995 -0.012498350572248972 0 -0.01566811425103809 -0.011899401540793022 0 -0.015384597195122876 -0.011753942085703236 0 -0.015494574993325716 -0.011557425874860493 0 -0.01566811425103809 -0.011899401540793022 0 -0.015846795287798341 -0.011680614925099638 0 -0.015494574993325716 -0.011557425874860493 0 -0.01566811425103809 -0.011899401540793022 0 -0.015852631927074447 -0.011993626887576722 0 -0.015846795287798341 -0.011680614925099638 0 -0.015805887737003067 -0.012233777309025666 0 -0.01566811425103809 -0.011899401540793022 0 -0.015852631927074447 -0.011993626887576722 0 -0.016082401498009581 -0.012169513610729155 0 -0.015852631927074447 -0.011993626887576722 0 -0.015846795287798341 -0.011680614925099638 0 -0.015024693707381766 -0.010483069165737983 0 -0.014973451444221863 -0.010716310901396846 0 -0.015188480913661774 -0.010810577502879682 0 -0.014441381658891295 -0.012436085487529405 0 -0.015564275902768454 -0.011091715305290227 0 -0.015024693707381766 -0.010483069165737983 0 -0.014999737300051347 -0.010487033546082094 0 -0.014973451444221863 -0.010716310901396846 0 -0.015246783196374195 -0.012578497012388506 0 -0.014970285847524712 -0.012748316710611983 0 -0.01521754554643466 -0.01215179370593714 0 -0.015246783196374195 -0.012578497012388506 0 -0.01521754554643466 -0.01215179370593714 0 -0.015464691308075254 -0.012159439931189186 0 -0.015246783196374195 -0.012578497012388506 0 -0.015553424700974995 -0.012498350572248972 0 -0.015464691308075254 -0.012159439931189186 0 -0.01521754554643466 -0.01215179370593714 0 -0.015464691308075254 -0.012159439931189186 0 -0.015384597195122876 -0.011753942085703236 0 -0.01566811425103809 -0.011899401540793022 0 -0.015464691308075254 -0.012159439931189186 0 -0.015384597195122876 -0.011753942085703236 0 -0.01521754554643466 -0.01215179370593714 0 -0.015384597195122876 -0.011753942085703236 0 -0.015243492714503747 -0.011787139842686199 0 -0.014664913444166766 -0.014064366519547773 0 -0.014998361672941912 -0.011319831212011277 0 -0.014824108634203314 -0.012993513215494383 0 -0.015243492714503747 -0.011787139842686199 0 -0.015082710763417811 -0.012209255447039756 0 -0.015270771406257459 -0.011565617334590165 0 -0.01521754554643466 -0.01215179370593714 0 -0.015243492714503747 -0.011787139842686199 0 -0.015082710763417811 -0.012209255447039756 0 -0.014970285847524712 -0.012748316710611983 0 -0.01521754554643466 -0.01215179370593714 0 -0.015082710763417811 -0.012209255447039756 0 -0.015082710763417811 -0.012209255447039756 0 -0.015056572033804965 -0.012017425273209228 0 -0.014824108634203314 -0.012993513215494383 0 -0.015082710763417811 -0.012209255447039756 0 -0.015270771406257459 -0.011565617334590165 0 -0.015056572033804965 -0.012017425273209228 0 -0.014998361672941912 -0.011319831212011277 0 -0.015056572033804965 -0.012017425273209228 0 -0.014824108634203314 -0.012993513215494383 0 -0.015270771406257459 -0.011565617334590165 0 -0.014998361672941912 -0.011319831212011277 0 -0.015056572033804965 -0.012017425273209228 0 -0.014426710672217754 -0.013990970809672421 0 -0.014694784206947156 -0.013473114740027955 0 -0.014824108634203314 -0.012993513215494383 0 -0.014694784206947156 -0.013473114740027955 0 -0.014970285847524712 -0.012748316710611983 0 -0.014824108634203314 -0.012993513215494383 0 -0.014970285847524712 -0.012748316710611983 0 -0.015082710763417811 -0.012209255447039756 0 -0.014824108634203314 -0.012993513215494383 0 -0.0057986847515487929 -0.013151103315527369 0 -0.0059380609260783427 -0.013382122977658043 0 -0.0060190243334173211 -0.012944274040047787 0 -0.0057986847515487929 -0.013151103315527369 0 -0.0056743918768673808 -0.013366104071311179 0 -0.0059380609260783427 -0.013382122977658043 0 -0.0057986847515487929 -0.013151103315527369 0 -0.0056743918768673808 -0.013366104071311179 0 -0.0056127715928833803 -0.013139113300477213 0 -0.0056743918768673808 -0.013366104071311179 0 -0.0059380609260783427 -0.013382122977658043 0 -0.005775420510376 -0.013621212422631836 0 -0.0077519877626722787 -0.01534724862214281 0 -0.0070535822510262754 -0.015046381684821319 0 -0.0076577574737409079 -0.015112201411517333 0 -0.0077519877626722787 -0.01534724862214281 0 -0.0080529980130200404 -0.015523836986635847 0 -0.0076577574737409079 -0.015112201411517333 0 -0.0059380609260783427 -0.013382122977658043 0 -0.0060190243334173211 -0.012944274040047787 0 -0.0062745164959116312 -0.013522891547947172 0 -0.0069906906718542987 -0.014090162077121327 0 -0.0069667459255747756 -0.014387291069021287 0 -0.0077519877626722787 -0.01534724862214281 0 -0.0080529980130200404 -0.015523836986635847 0 -0.0081989411014632089 -0.01546282495061508 0 -0.0060190243334173211 -0.012944274040047787 0 -0.0057271653755827257 -0.012959427669606361 0 -0.0056796361379928091 -0.012677833791026922 0 -0.0057986847515487929 -0.013151103315527369 0 -0.0060190243334173211 -0.012944274040047787 0 -0.0057271653755827257 -0.012959427669606361 0 -0.0057986847515487929 -0.013151103315527369 0 -0.0057271653755827257 -0.012959427669606361 0 -0.0056127715928833803 -0.013139113300477213 0 -0.0060190243334173211 -0.012944274040047787 0 -0.0058954190912788203 -0.012485978253589351 0 -0.0056796361379928091 -0.012677833791026922 0 -0.0069906906718542987 -0.014090162077121327 0 -0.0071264308395173979 -0.014444476666089672 0 -0.0071264308395173979 -0.014444476666089672 0 -0.0066116774704740545 -0.014099147161570806 0 -0.0077782861927064304 -0.015279224859423086 0 -0.0073908687955796856 -0.015274895957132065 0 -0.0074325793527302928 -0.015604222961254171 0 -0.0071264308395173979 -0.014444476666089672 0 -0.0077303344776333731 -0.015000376096067219 0 -0.0077934992690577897 -0.015290781722688116 0 -0.0077305688377566992 -0.014999992810891111 0 -0.0080884995093686296 -0.015000000818164758 0 -0.0071264308395173979 -0.014444476666089672 0 -0.0080882334906318149 -0.01499989297417512 0 -0.0077782861927064304 -0.015279224859423086 0 -0.0077304758046957316 -0.014999976488857668 0 -0.0073908687955796856 -0.015274895957132065 0 -0.0079665794349147914 -0.015147734764056344 0 -0.0080887379422708329 -0.014999972756378488 0 -0.0082734926793626914 -0.015277011562207586 0 -0.0080887379422708329 -0.014999972756378488 0 -0.0082734926793626914 -0.015277011562207586 0 -0.0085792073104566952 -0.014999854557089572 0 -0.0080529980130200404 -0.015523836986635847 0 -0.0082734926793626914 -0.015277011562207586 0 -0.0081989411014632089 -0.01546282495061508 0 -0.0080529980130200404 -0.015523836986635847 0 -0.0079665794349147914 -0.015147734764056344 0 -0.0082734926793626914 -0.015277011562207586 0 -0.0082734926793626914 -0.015277011562207586 0 -0.0086782126107803371 -0.015329049694822459 0 -0.0081989411014632089 -0.01546282495061508 0 -0.0082734926793626914 -0.015277011562207586 0 -0.0086369198197718683 -0.015171109223292796 0 -0.0086782126107803371 -0.015329049694822459 0 -0.0082734926793626914 -0.015277011562207586 0 -0.0086369198197718683 -0.015171109223292796 0 -0.0085792073104566952 -0.014999854557089572 0 -0.0086369198197718683 -0.015171109223292796 0 -0.0085792073104566952 -0.014999854557089572 0 -0.0090689845255737637 -0.014999994534583349 0 -0.0090698428783660256 -0.014999980057872444 0 -0.0093251292010371328 -0.015422891028501978 0 -0.0090689845255737637 -0.014999994534583349 0 -0.0086782126107803371 -0.015329049694822459 0 -0.0090373102366685543 -0.01519706067927991 0 -0.0086369198197718683 -0.015171109223292796 0 -0.0090689845255737637 -0.014999994534583349 0 -0.0086782126107803371 -0.015329049694822459 0 -0.0086782126107803371 -0.015329049694822459 0 -0.0089315796825208023 -0.015564155196712453 0 -0.0090373102366685543 -0.01519706067927991 0 -0.0086782126107803371 -0.015329049694822459 0 -0.008448665613516794 -0.015643820002447899 0 -0.0089315796825208023 -0.015564155196712453 0 -0.0077848869727282907 -0.015470819977020383 0 -0.0073080840443914327 -0.01561961189331303 0 -0.0077519877626722787 -0.01534724862214281 0 -0.0081989411014632089 -0.01546282495061508 0 -0.008448665613516794 -0.015643820002447899 0 -0.0086782126107803371 -0.015329049694822459 0 -0.0081989411014632089 -0.01546282495061508 0 -0.008448665613516794 -0.015643820002447899 0 -0.0068920812757376406 -0.015425391079926144 0 -0.0066266042772715871 -0.015055977601217678 0 -0.0070535822510262754 -0.015046381684821319 0 -0.0077622533585008724 -0.015384329879575113 0 -0.0077848869727282907 -0.015470819977020383 0 -0.0077519877626722787 -0.01534724862214281 0 -0.0068920812757376406 -0.015425391079926144 0 -0.0070535822510262754 -0.015046381684821319 0 -0.0068920812757376406 -0.015425391079926144 0 -0.0066266042772715871 -0.015055977601217678 0 -0.0065059953715744506 -0.015425626102357055 0 -0.0090700016606179192 -0.014999938736830601 0 -0.010080608687006378 -0.015307124979399176 0 -0.011185340316695104 -0.01500007701722106 0 -0.0066266042772715871 -0.015055977601217678 0 -0.0063112711345685536 -0.015019782592981944 0 -0.0065059953715744506 -0.015425626102357055 0 -0.0063112711345685536 -0.015019782592981944 0 -0.00619617078607423 -0.015243824425677689 0 -0.0065059953715744506 -0.015425626102357055 0 -0.0063112711345685536 -0.015019782592981944 0 -0.00619617078607423 -0.015243824425677689 0 -0.0060184819556121415 -0.014945678381209136 0 -0.00619617078607423 -0.015243824425677689 0 -0.0062119100261283393 -0.015490786908788943 0 -0.0059743385641103661 -0.015244132040961368 0 -0.00619617078607423 -0.015243824425677689 0 -0.0062119100261283393 -0.015490786908788943 0 -0.0065059953715744506 -0.015425626102357055 0 -0.0098408965656888656 -0.015063890105287359 0 -0.010829544619094841 -0.014707565029724503 0 -0.0098408965656888656 -0.015063890105287359 0 -0.0073080840443914327 -0.01561961189331303 0 -0.0092816427143061798 -0.015446587542716484 0 -0.0089315796825208023 -0.015564155196712453 0 -0.0090373102366685543 -0.01519706067927991 0 -0.0098408965656888656 -0.015063890105287359 0 -0.0093251292010371328 -0.015422891028501978 0 -0.0090700016606179192 -0.014999938736830601 0 -0.0095692695870977576 -0.01548432388328576 0 -0.010080608687006378 -0.015307124979399176 0 -0.010226497617454042 -0.015343196403796703 0 -0.010403394832941689 -0.015374307407994756 0 -0.010080608687006378 -0.015307124979399176 0 -0.010244782717900082 -0.015642024949315343 0 -0.010696217497643422 -0.01543819234904369 0 -0.010109719420333342 -0.016035102330652921 0 -0.010244782717900082 -0.015642024949315343 0 -0.010706011692936094 -0.015862538475409554 0 -0.0095692695870977576 -0.01548432388328576 0 -0.010080608687006378 -0.015307124979399176 0 -0.010244782717900082 -0.015642024949315343 0 -0.010109719420333342 -0.016035102330652921 0 -0.0095692695870977576 -0.01548432388328576 0 -0.010244782717900082 -0.015642024949315343 0 -0.010706011692936094 -0.015862538475409554 0 -0.010696217497643422 -0.01543819234904369 0 -0.011374753914872778 -0.015637240535856158 0 -0.010080608687006378 -0.015307124979399176 0 -0.010558558089266781 -0.015466350228569375 0 -0.011185340316695104 -0.01500007701722106 0 -0.0098408965656888656 -0.015063890105287359 0 -0.013618896185015583 -0.01482627193358812 0 -0.010244782717900082 -0.015642024949315343 0 -0.010706011692936094 -0.015862538475409554 0 -0.010696217497643422 -0.01543819234904369 0 -0.010558558089266781 -0.015466350228569375 0 -0.011185340316695104 -0.01500007701722106 0 -0.011050147227119864 -0.015632152216690863 0 -0.013618896185015583 -0.01482627193358812 0 -0.012783424841738595 -0.015195636146988415 0 -0.010403394832941689 -0.015374307407994756 0 -0.012783424841738595 -0.015195636146988415 0 -0.015486427820604913 -0.014184719119454282 0 -0.015449792453861055 -0.014253072837258206 0 -0.015469700651332019 -0.014165901053604289 0 -0.015394905387839003 -0.0142217150037981 0 -0.015449792453861055 -0.014253072837258206 0 -0.015469700651332019 -0.014165901053604289 0 -0.015394905387839003 -0.0142217150037981 0 -0.015420088135999354 -0.014116484328165211 0 -0.015469700651332019 -0.014165901053604289 0 -0.015413311800076126 -0.014034409793480609 0 -0.015420088135999354 -0.014116484328165211 0 -0.015467076614895806 -0.014054524402949709 0 -0.015420088135999354 -0.014116484328165211 0 -0.015469700651332019 -0.014165901053604289 0 -0.015467076614895806 -0.014054524402949709 0 -0.015469700651332019 -0.014165901053604289 0 -0.015512138444094365 -0.014094430303557857 0 -0.015467076614895806 -0.014054524402949709 0 -0.015471834005010999 -0.014162064685752542 0 -0.015486427820604913 -0.014184719119454282 0 -0.015512138444094365 -0.014094430303557857 0 -0.015486427820604913 -0.014184719119454282 0 -0.015469700651332019 -0.014165901053604289 0 -0.015512138444094365 -0.014094430303557857 0 -0.0059743385641103661 -0.015244132040961368 0 -0.0057484137998330652 -0.014993230076099389 0 -0.0060184819556121415 -0.014945678381209136 0 -0.010829544619094841 -0.014707565029724503 0 -0.010946534022589162 -0.014140968178239647 0 -0.00619617078607423 -0.015243824425677689 0 -0.0059743385641103661 -0.015244132040961368 0 -0.0060184819556121415 -0.014945678381209136 0 -0.015475920122367664 -0.013860821412298184 0 -0.015429109762544262 -0.013907077116453823 0 -0.015468596260356531 -0.013981603974455184 0 -0.015404093330075787 -0.013830823676579816 0 -0.015475920122367664 -0.013860821412298184 0 -0.015429109762544262 -0.013907077116453823 0 -0.015429109762544262 -0.013907077116453823 0 -0.015433512162029607 -0.013977855594165438 0 -0.015468596260356531 -0.013981603974455184 0 -0.015413311800076126 -0.014034409793480609 0 -0.015433512162029607 -0.013977855594165438 0 -0.015467076614895806 -0.014054524402949709 0 -0.015401891894552896 -0.013953576410543555 0 -0.015413311800076126 -0.014034409793480609 0 -0.015433512162029607 -0.013977855594165438 0 -0.015401891894552896 -0.013953576410543555 0 -0.015429109762544262 -0.013907077116453823 0 -0.015433512162029607 -0.013977855594165438 0 -0.015433512162029607 -0.013977855594165438 0 -0.015467076614895806 -0.014054524402949709 0 -0.015468596260356531 -0.013981603974455184 0 -0.015512138444094365 -0.014094430303557857 0 -0.015475920122367664 -0.013860821412298184 0 -0.015468596260356531 -0.013981603974455184 0 -0.015512138444094365 -0.014094430303557857 0 -0.015467076614895806 -0.014054524402949709 0 -0.015468596260356531 -0.013981603974455184 0 -0.010683217768560816 -0.01248413952340376 0 -0.010690761513050543 -0.012874437413909324 0 -0.0096429529706362292 -0.014220261589881296 0 -0.010624355960123372 -0.013162482712466851 0 -0.011994501988976208 -0.013788771768512351 0 -0.012147960813083385 -0.013822141800715037 0 -0.010683217768560816 -0.01248413952340376 0 -0.010690761513050543 -0.012874437413909324 0 -0.010946534022589162 -0.014140968178239647 0 -0.0073694133589288276 -0.014500103106794587 0 -0.0060184819556121415 -0.014945678381209136 0 -0.0059234928898888005 -0.014581194828638544 0 -0.0062097723171792097 -0.014687352437019418 0 -0.0057484137998330652 -0.014993230076099389 0 -0.0060184819556121415 -0.014945678381209136 0 -0.0059234928898888005 -0.014581194828638544 0 -0.0096429529706362292 -0.014220261589881296 0 -0.010441058620982683 -0.014149484064369399 0 -0.010240080715648206 -0.015107328850294028 0 -0.010690761513050543 -0.012874437413909324 0 -0.0096429529706362292 -0.014220261589881296 0 -0.010441058620982683 -0.014149484064369399 0 -0.010690761513050543 -0.012874437413909324 0 -0.010441058620982683 -0.014149484064369399 0 -0.011191951653888962 -0.014387910580945434 0 -0.010441058620982683 -0.014149484064369399 0 -0.011191951653888962 -0.014387910580945434 0 -0.010240080715648206 -0.015107328850294028 0 -0.011994501988976208 -0.013788771768512351 0 -0.010182410635445546 -0.014250738005049822 0 -0.011619182654323851 -0.012259461142676615 0 -0.011293077905730493 -0.013467843123335477 0 -0.010235536265751898 -0.013313541233439419 0 -0.011293077905730493 -0.013467843123335477 0 -0.010235536265751898 -0.013313541233439419 0 -0.010437721424060789 -0.01413804523299716 0 -0.012876461936075072 -0.012326337749283253 0 -0.0092261506094626841 -0.013456747630225776 0 -0.012026780744833685 -0.01389024206986327 0 -0.011293077905730493 -0.013467843123335477 0 -0.010437721424060789 -0.01413804523299716 0 -0.0087101322348933623 -0.01267440877401284 0 -0.0083849010572374632 -0.013085138031624109 0 -0.0085535531089284567 -0.013469062374346894 0 -0.012876461936075072 -0.012326337749283253 0 -0.011569241930279743 -0.012016468962530604 0 -0.014999737300051347 -0.010487033546082094 0 -0.014973451444221863 -0.010716310901396846 0 -0.014708154143661646 -0.01083968227579849 0 -0.009422235730722343 -0.012573030600421971 0 -0.0087101322348933623 -0.01267440877401284 0 -0.0085535531089284567 -0.013469062374346894 0 -0.0081588988316507217 -0.013408315928618146 0 -0.0083849010572374632 -0.013085138031624109 0 -0.0085535531089284567 -0.013469062374346894 0 -0.0087101322348933623 -0.01267440877401284 0 -0.0083849010572374632 -0.013085138031624109 0 -0.0080765163776669001 -0.012740801317104233 0 -0.0081588988316507217 -0.013408315928618146 0 -0.0083849010572374632 -0.013085138031624109 0 -0.0080765163776669001 -0.012740801317104233 0 -0.0096429529706362292 -0.014220261589881296 0 -0.010240080715648206 -0.015107328850294028 0 -0.0092886120113605097 -0.015815719991588945 0 -0.0073694133589288276 -0.014500103106794587 0 -0.0073239150433546283 -0.014620027085200944 0 -0.0096429529706362292 -0.014220261589881296 0 -0.0092886120113605097 -0.015815719991588945 0 -0.0086291264783955081 -0.01590952978762834 0 -0.010235536265751898 -0.013313541233439419 0 -0.010437721424060789 -0.01413804523299716 0 -0.0088423257060663823 -0.014380225450071305 0 -0.010182410635445546 -0.014250738005049822 0 -0.0086179506434256575 -0.014129787894260747 0 -0.0092261506094626841 -0.013456747630225776 0 -0.0086179506434256575 -0.014129787894260747 0 -0.0059234928898888005 -0.014581194828638544 0 -0.0062331449753043732 -0.014392025079403858 0 -0.0061283186167048823 -0.014171920699485087 0 -0.0062331449753043732 -0.014392025079403858 0 -0.0061283186167048823 -0.014171920699485087 0 -0.0063846675448194804 -0.014125596200983274 0 -0.0081588988316507217 -0.013408315928618146 0 -0.007190799848713225 -0.013376486169148782 0 -0.0069906323342021478 -0.013748908836564756 0 -0.0086179506434256575 -0.014129787894260747 0 -0.0073239150433546283 -0.014620027085200944 0 -0.0067237645997109989 -0.014006581386135319 0 -0.006698187934833599 -0.01404165911801528 0 -0.0066603973974042842 -0.014009953529458531 0 -0.0073239150433546283 -0.014620027085200944 0 -0.0063702721185874929 -0.014098304909467785 0 -0.0079989383162104143 -0.013981065716181127 0 -0.0076722161710204191 -0.014027541931244133 0 -0.0074574810398514912 -0.014385371175497161 0 -0.0081588988316507217 -0.013408315928618146 0 -0.0080765163776669001 -0.012740801317104233 0 -0.007190799848713225 -0.013376486169148782 0 -0.0086179506434256575 -0.014129787894260747 0 -0.0071830477275084638 -0.01384172246443958 0 -0.0073239150433546283 -0.014620027085200944 0 -0.0071830477275084638 -0.01384172246443958 0 -0.0071830477275084638 -0.01384172246443958 0 -0.0071651499815176519 -0.013735632995220716 0 -0.0066387001520661496 -0.014069209816805702 0 -0.0066603973974042842 -0.014009953529458531 0 -0.0065214289626676948 -0.014157341496928467 0 -0.0066387001520661496 -0.014069209816805702 0 -0.0065214289626676948 -0.014157341496928467 0 -0.0065751984141803905 -0.014124210775085674 0 -0.006698187934833599 -0.01404165911801528 0 -0.0066387001520661496 -0.014069209816805702 0 -0.0066893756956717867 -0.014007438740778236 0 -0.006698187934833599 -0.01404165911801528 0 -0.0066387001520661496 -0.014069209816805702 0 -0.0066603973974042842 -0.014009953529458531 0 -0.0063846675448194804 -0.014125596200983274 0 -0.006399381737564911 -0.014305417311926862 0 -0.0065155726007067464 -0.014157051244624901 0 -0.0062331449753043732 -0.014392025079403858 0 -0.0063846675448194804 -0.014125596200983274 0 -0.006399381737564911 -0.014305417311926862 0 -0.0062331449753043732 -0.014392025079403858 0 -0.006399381737564911 -0.014305417311926862 0 -0.0063504659199438854 -0.014513159909654268 0 -0.006399381737564911 -0.014305417311926862 0 -0.0063504659199438854 -0.014513159909654268 0 -0.0065427331795588264 -0.014450150989312328 0 -0.0063504659199438854 -0.014513159909654268 0 -0.0062097723171792097 -0.014687352437019418 0 -0.0064533878480323645 -0.014739920541633202 0 -0.0063504659199438854 -0.014513159909654268 0 -0.0064533878480323645 -0.014739920541633202 0 -0.0065427331795588264 -0.014450150989312328 0 -0.0062331449753043732 -0.014392025079403858 0 -0.0063504659199438854 -0.014513159909654268 0 -0.0062097723171792097 -0.014687352437019418 0 -0.0059234928898888005 -0.014581194828638544 0 -0.0062331449753043732 -0.014392025079403858 0 -0.0062097723171792097 -0.014687352437019418 0 -0.0063112711345685536 -0.015019782592981944 0 -0.0060184819556121415 -0.014945678381209136 0 -0.0062097723171792097 -0.014687352437019418 0 -0.0066266042772715871 -0.015055977601217678 0 -0.0063112711345685536 -0.015019782592981944 0 -0.0064533878480323645 -0.014739920541633202 0 -0.0063112711345685536 -0.015019782592981944 0 -0.0062097723171792097 -0.014687352437019418 0 -0.0064533878480323645 -0.014739920541633202 0 -0.0066266042772715871 -0.015055977601217678 0 -0.0070535822510262754 -0.015046381684821319 0 -0.0067080727819339618 -0.014634499233304558 0 -0.0066266042772715871 -0.015055977601217678 0 -0.0064533878480323645 -0.014739920541633202 0 -0.0067080727819339618 -0.014634499233304558 0 -0.0070535822510262754 -0.015046381684821319 0 -0.0069692471914311596 -0.014696175724711626 0 -0.0076577574737409079 -0.015112201411517333 0 -0.0070535822510262754 -0.015046381684821319 0 -0.0069692471914311596 -0.014696175724711626 0 -0.0067080727819339618 -0.014634499233304558 0 -0.0068048831255360228 -0.014501565471865374 0 -0.0067080727819339618 -0.014634499233304558 0 -0.0067432901209460248 -0.01441327196641316 0 -0.0069692471914311596 -0.014696175724711626 0 -0.0068048831255360228 -0.014501565471865374 0 -0.0067080727819339618 -0.014634499233304558 0 -0.0069692471914311596 -0.014696175724711626 0 -0.0068048831255360228 -0.014501565471865374 0 -0.0067425220273768984 -0.014340226678953318 0 -0.0068048831255360228 -0.014501565471865374 0 -0.0067432901209460248 -0.01441327196641316 0 -0.0067425220273768984 -0.014340226678953318 0 -0.0067080727819339618 -0.014634499233304558 0 -0.0065427331795588264 -0.014450150989312328 0 -0.0067432901209460248 -0.01441327196641316 0 -0.0064533878480323645 -0.014739920541633202 0 -0.0067080727819339618 -0.014634499233304558 0 -0.0065427331795588264 -0.014450150989312328 0 -0.006399381737564911 -0.014305417311926862 0 -0.0065427331795588264 -0.014450150989312328 0 -0.0065155726007067464 -0.014157051244624901 0 -0.0065427331795588264 -0.014450150989312328 0 -0.0065155726007067464 -0.014157051244624901 0 -0.0067432901209460248 -0.01441327196641316 0 -0.0064206824613579298 -0.014128217281658695 0 -0.0065214289626676948 -0.014157341496928467 0 -0.0059773262859894646 -0.01423619271592148 0 -0.0063846675448194804 -0.014125596200983274 0 -0.0065155726007067464 -0.014157051244624901 0 -0.0064206824613579298 -0.014128217281658695 0 -0.0066603973974042842 -0.014009953529458531 0 -0.0064206824613579298 -0.014128217281658695 0 -0.0065214289626676948 -0.014157341496928467 0 -0.0065155726007067464 -0.014157051244624901 0 -0.0064206824613579298 -0.014128217281658695 0 -0.0058071384892808128 -0.013921936633657444 0 -0.0063702721185874929 -0.014098304909467785 0 -0.0064886847889547841 -0.014102978710178364 0 -0.0064206824613579298 -0.014128217281658695 0 -0.0059773262859894646 -0.01423619271592148 0 -0.0058071384892808128 -0.013921936633657444 0 -0.0067539433622280142 -0.014588164192601205 0 -0.0067432901209460248 -0.01441327196641316 0 -0.0067425220273768984 -0.014340226678953318 0 -0.0065155726007067464 -0.014157051244624901 0 -0.0067539433622280142 -0.014588164192601205 0 -0.0067432901209460248 -0.01441327196641316 0 -0.0064675946599351501 -0.014173886728851897 0 -0.0062452417854775583 -0.01426543509595684 0 -0.0067539433622280142 -0.014588164192601205 0 -0.0061799641981718327 -0.014452029431746191 0 -0.0067425220273768984 -0.014340226678953318 0 -0.0067539433622280142 -0.014588164192601205 0 -0.0057748044295022338 -0.014808082751095979 0 -0.0061799641981718327 -0.014452029431746191 0 -0.0058071384892808128 -0.013921936633657444 0 -0.0055668414823461469 -0.014220224823281603 0 -0.0051806939287281544 -0.014129987016306536 0 -0.0062452417854775583 -0.01426543509595684 0 -0.0055042036986037192 -0.014442979511733471 0 -0.0059773262859894646 -0.01423619271592148 0 -0.0058071384892808128 -0.013921936633657444 0 -0.0055668414823461469 -0.014220224823281603 0 -0.0051806939287281544 -0.014129987016306536 0 -0.0053483778796981404 -0.014403870321737018 0 -0.0051499683207163671 -0.01439803124119363 0 -0.0055668414823461469 -0.014220224823281603 0 -0.0051806939287281544 -0.014129987016306536 0 -0.0053483778796981404 -0.014403870321737018 0 -0.0057748044295022338 -0.014808082751095979 0 -0.0061799641981718327 -0.014452029431746191 0 -0.0055820347110061563 -0.014286522101352898 0 -0.005624038405249848 -0.014048083176928745 0 -0.0059608280516246113 -0.014122357473391797 0 -0.0057738924064286079 -0.013865410271692032 0 -0.0055820347110061563 -0.014286522101352898 0 -0.005624038405249848 -0.014048083176928745 0 -0.0059608280516246113 -0.014122357473391797 0 -0.0059608280516246113 -0.014122357473391797 0 -0.0057738924064286079 -0.013865410271692032 0 -0.0060608809852378143 -0.013793935640382704 0 -0.0061799641981718327 -0.014452029431746191 0 -0.0055820347110061563 -0.014286522101352898 0 -0.0059608280516246113 -0.014122357473391797 0 -0.0059608280516246113 -0.014122357473391797 0 -0.0067425220273768984 -0.014340226678953318 0 -0.0060608809852378143 -0.013793935640382704 0 -0.006788907213974427 -0.01436707205926061 0 -0.0069667459255747756 -0.014387291069021287 0 -0.0061799641981718327 -0.014452029431746191 0 -0.0059608280516246113 -0.014122357473391797 0 -0.0067425220273768984 -0.014340226678953318 0 -0.0067425220273768984 -0.014340226678953318 0 -0.0062745164959116312 -0.013522891547947172 0 -0.0060608809852378143 -0.013793935640382704 0 -0.0069692471914311596 -0.014696175724711626 0 -0.0067425220273768984 -0.014340226678953318 0 -0.0076577574737409079 -0.015112201411517333 0 -0.0059380609260783427 -0.013382122977658043 0 -0.0062745164959116312 -0.013522891547947172 0 -0.0060608809852378143 -0.013793935640382704 0 -0.0059380609260783427 -0.013382122977658043 0 -0.005775420510376 -0.013621212422631836 0 -0.0060608809852378143 -0.013793935640382704 0 -0.0056743918768673808 -0.013366104071311179 0 -0.005775420510376 -0.013621212422631836 0 -0.0055940394634002759 -0.013529857723564619 0 -0.005775420510376 -0.013621212422631836 0 -0.0057738924064286079 -0.013865410271692032 0 -0.0055159194281378752 -0.013811947615995916 0 -0.005775420510376 -0.013621212422631836 0 -0.0057738924064286079 -0.013865410271692032 0 -0.0060608809852378143 -0.013793935640382704 0 -0.005624038405249848 -0.014048083176928745 0 -0.0057738924064286079 -0.013865410271692032 0 -0.0055159194281378752 -0.013811947615995916 0 -0.006253190942506032 -0.014333094049950782 0 -0.0063005405745176048 -0.0142955706253989 0 -0.0061154419419994898 -0.014330325390046217 0 -0.006253190942506032 -0.014333094049950782 0 -0.006206406880293675 -0.014392905598867895 0 -0.0063519715032606672 -0.014342993630845466 0 -0.0063068849468513599 -0.01432113191243084 0 -0.006253190942506032 -0.014333094049950782 0 -0.0063519715032606672 -0.014342993630845466 0 -0.0063618275152945531 -0.01432892588036285 0 -0.0065897970935016852 -0.014163700091497729 0 -0.0063519715032606672 -0.014342993630845466 0 -0.0068413782651509051 -0.013967324503403374 0 -0.006849774785823581 -0.014270424060682596 0 -0.0063519715032606672 -0.014342993630845466 0 -0.006849774785823581 -0.014270424060682596 0 -0.0067125991299988811 -0.014475423350470718 0 -0.0063519715032606672 -0.014342993630845466 0 -0.0063138078020513458 -0.0143211331019188 0 -0.0063230785831653452 -0.0143431550971069 0 -0.0063068849468513599 -0.01432113191243084 0 -0.0063519715032606672 -0.014342993630845466 0 -0.0063138078020513458 -0.0143211331019188 0 -0.0063138078020513458 -0.0143211331019188 0 -0.0062952202628125242 -0.014314240323359782 0 -0.0063230785831653452 -0.0143431550971069 0 -0.0062952202628125242 -0.014314240323359782 0 -0.0063005405745176048 -0.0142955706253989 0 -0.0062445672537476942 -0.014274537049992512 0 -0.0063138078020513458 -0.0143211331019188 0 -0.0062952202628125242 -0.014314240323359782 0 -0.0063005405745176048 -0.0142955706253989 0 -0.0050722527941326583 -0.014517044745666457 0 -0.0052523415674074298 -0.014648490034054759 0 -0.0049689587636703439 -0.014409713497527224 0 -0.0055600992747693841 -0.014402951477486348 0 -0.0057409920481863233 -0.014306685097401824 0 -0.0049689587636703439 -0.014409713497527224 0 -0.0059492146908777894 -0.014306755916689982 0 -0.0054829154312863856 -0.014557509153766721 0 -0.0054899819966195149 -0.014467450466968722 0 -0.005022621423209599 -0.014452995421361262 0 -0.0063068849468513599 -0.01432113191243084 0 -0.006253190942506032 -0.014333094049950782 0 -0.0063005405745176048 -0.0142955706253989 0 -0.0063068849468513599 -0.01432113191243084 0 -0.0063138078020513458 -0.0143211331019188 0 -0.0063005405745176048 -0.0142955706253989 0 -0.0050722527941326583 -0.014517044745666457 0 -0.0051558867150648582 -0.014556056656111508 0 -0.0050331321375070041 -0.014505862995567579 0 -0.0051558867150648582 -0.014556056656111508 0 -0.0051626720709682643 -0.014505667437670689 0 -0.0050331321375070041 -0.014505862995567579 0 -0.0051558867150648582 -0.014556056656111508 0 -0.005285428655039036 -0.01454633458938576 0 -0.0052523415674074298 -0.014648490034054759 0 -0.0050722527941326583 -0.014517044745666457 0 -0.0051558867150648582 -0.014556056656111508 0 -0.0052523415674074298 -0.014648490034054759 0 -0.005285428655039036 -0.01454633458938576 0 -0.0051626720709682643 -0.014505667437670689 0 -0.0053483778796981404 -0.014403870321737018 0 -0.0051558867150648582 -0.014556056656111508 0 -0.005285428655039036 -0.01454633458938576 0 -0.0051626720709682643 -0.014505667437670689 0 -0.0051626720709682643 -0.014505667437670689 0 -0.0053483778796981404 -0.014403870321737018 0 -0.0051499683207163671 -0.01439803124119363 0 -0.0051626720709682643 -0.014505667437670689 0 -0.0051499683207163671 -0.01439803124119363 0 -0.005062222773174886 -0.014473352398359368 0 -0.0059773262859894646 -0.01423619271592148 0 -0.0055668414823461469 -0.014220224823281603 0 -0.0056162598406563034 -0.01439818945310465 0 -0.0055668414823461469 -0.014220224823281603 0 -0.0053483778796981404 -0.014403870321737018 0 -0.0056162598406563034 -0.01439818945310465 0 -0.0053483778796981404 -0.014403870321737018 0 -0.0056162598406563034 -0.01439818945310465 0 -0.005483869556499989 -0.014537075192979075 0 -0.005285428655039036 -0.01454633458938576 0 -0.0053483778796981404 -0.014403870321737018 0 -0.005483869556499989 -0.014537075192979075 0 -0.0056162598406563034 -0.01439818945310465 0 -0.005483869556499989 -0.014537075192979075 0 -0.0058691531650533818 -0.01458623828457091 0 -0.0054899819966195149 -0.014467450466968722 0 -0.0061195933203409261 -0.01435833085604225 0 -0.0057409920481863233 -0.014306685097401824 0 -0.0062445672537476942 -0.014274537049992512 0 -0.006386736160755112 -0.014161715064565065 0 -0.0055600992747693841 -0.014402951477486348 0 -0.0057409920481863233 -0.014306685097401824 0 -0.0062445672537476942 -0.014274537049992512 0 -0.005483869556499989 -0.014537075192979075 0 -0.0052523415674074298 -0.014648490034054759 0 -0.0058691531650533818 -0.01458623828457091 0 -0.0059492146908777894 -0.014306755916689982 0 -0.0062267792668290198 -0.014263905255503804 0 -0.005285428655039036 -0.01454633458938576 0 -0.005483869556499989 -0.014537075192979075 0 -0.0052523415674074298 -0.014648490034054759 0 -0.0063471235042152413 -0.01431509110131441 0 -0.0064078346167488883 -0.014256773778271998 0 -0.0062445672537476942 -0.014274537049992512 0 -0.0062952202628125242 -0.014314240323359782 0 -0.0063471235042152413 -0.01431509110131441 0 -0.0062445672537476942 -0.014274537049992512 0 -0.0064078346167488883 -0.014256773778271998 0 -0.006386736160755112 -0.014161715064565065 0 -0.0064573471597893662 -0.014206859292027949 0 -0.0064078346167488883 -0.014256773778271998 0 -0.0062445672537476942 -0.014274537049992512 0 -0.006386736160755112 -0.014161715064565065 0 -0.0065214289626676948 -0.014157341496928467 0 -0.0059773262859894646 -0.01423619271592148 0 -0.0058691531650533818 -0.01458623828457091 0 -0.0059773262859894646 -0.01423619271592148 0 -0.0056162598406563034 -0.01439818945310465 0 -0.0058691531650533818 -0.01458623828457091 0 -0.0065214289626676948 -0.014157341496928467 0 -0.006386736160755112 -0.014161715064565065 0 -0.0064867629576194309 -0.014172917185815932 0 -0.0064978386106098011 -0.014165625407665042 0 -0.0061195933203409261 -0.01435833085604225 0 -0.006386736160755112 -0.014161715064565065 0 -0.0064573471597893662 -0.014206859292027949 0 -0.0064867629576194309 -0.014172917185815932 0 -0.0065214289626676948 -0.014157341496928467 0 -0.0064867629576194309 -0.014172917185815932 0 -0.0065751984141803905 -0.014124210775085674 0 -0.0064573471597893662 -0.014206859292027949 0 -0.0064867629576194309 -0.014172917185815932 0 -0.0065393461274652143 -0.014206669555001399 0 -0.0064867629576194309 -0.014172917185815932 0 -0.0065393461274652143 -0.014206669555001399 0 -0.0065751984141803905 -0.014124210775085674 0 -0.0063471235042152413 -0.01431509110131441 0 -0.0064078346167488883 -0.014256773778271998 0 -0.0064901798873363194 -0.014344337811835259 0 -0.0065393461274652143 -0.014206669555001399 0 -0.0064723872741402544 -0.014254492166942488 0 -0.0064901798873363194 -0.014344337811835259 0 -0.0065393461274652143 -0.014206669555001399 0 -0.0064901798873363194 -0.014344337811835259 0 -0.0066521315589824518 -0.014212011091478122 0 -0.0064573471597893662 -0.014206859292027949 0 -0.0065393461274652143 -0.014206669555001399 0 -0.0064723872741402544 -0.014254492166942488 0 -0.0064078346167488883 -0.014256773778271998 0 -0.0064573471597893662 -0.014206859292027949 0 -0.0064723872741402544 -0.014254492166942488 0 -0.0064078346167488883 -0.014256773778271998 0 -0.0064723872741402544 -0.014254492166942488 0 -0.0064901798873363194 -0.014344337811835259 0 -0.0069862379686947322 -0.014001406213521587 0 -0.0065897970935016852 -0.014163700091497729 0 -0.007481913014235733 -0.013636689055039805 0 -0.0068413782651509051 -0.013967324503403374 0 -0.0073675710496015371 -0.014135775343743733 0 -0.007481913014235733 -0.013636689055039805 0 -0.0073675710496015371 -0.014135775343743733 0 -0.007768242776531621 -0.013733215461604198 0 -0.0063471235042152413 -0.01431509110131441 0 -0.0064901798873363194 -0.014344337811835259 0 -0.0063230785831653452 -0.0143431550971069 0 -0.0062952202628125242 -0.014314240323359782 0 -0.0063471235042152413 -0.01431509110131441 0 -0.0063230785831653452 -0.0143431550971069 0 -0.006849774785823581 -0.014270424060682596 0 -0.0073675710496015371 -0.014135775343743733 0 -0.0069411997292942885 -0.014531149116395942 0 -0.0068413782651509051 -0.013967324503403374 0 -0.006849774785823581 -0.014270424060682596 0 -0.0073675710496015371 -0.014135775343743733 0 -0.006849774785823581 -0.014270424060682596 0 -0.0069411997292942885 -0.014531149116395942 0 -0.0067125991299988811 -0.014475423350470718 0 -0.0077795047934130718 -0.013799833863512167 0 -0.007795365324152875 -0.013815695887476276 0 -0.0077672958528357721 -0.013812194114713412 0 -0.0075839034343194523 -0.014018173126559825 0 -0.0070140798044115282 -0.013634756451173737 0 -0.011203854504815645 -0.012758806913655728 0 -0.0086664841631226616 -0.011628884327832441 0 -0.0077795047934130718 -0.013799833863512167 0 -0.0078474556121090212 -0.013810359597109384 0 -0.007795365324152875 -0.013815695887476276 0 -0.014066263374724546 -0.011687071652236796 0 -0.014008560651331129 -0.011422189827604781 0 -0.013511938878854511 -0.011878480658578511 0 -0.014066263374724546 -0.011687071652236796 0 -0.01434291688671298 -0.011675029088058612 0 -0.014280844482010399 -0.011536006995959478 0 -0.014066263374724546 -0.011687071652236796 0 -0.014280844482010399 -0.011536006995959478 0 -0.014008560651331129 -0.011422189827604781 0 -0.014280844482010399 -0.011536006995959478 0 -0.014008560651331129 -0.011422189827604781 0 -0.014420225539990294 -0.011346901527995662 0 -0.014008560651331129 -0.011422189827604781 0 -0.014405868051084793 -0.011134762579460491 0 -0.014420225539990294 -0.011346901527995662 0 -0.0078474556121090212 -0.013810359597109384 0 -0.0079302602409619793 -0.013680800292940481 0 -0.0080956272740242766 -0.013689056849221918 0 -0.011203854504815645 -0.012758806913655728 0 -0.011221313095767488 -0.01241541579941835 0 -0.0075839034343194523 -0.014018173126559825 0 -0.0077623827450699744 -0.013728196097820089 0 -0.007768242776531621 -0.013733215461604198 0 -0.0078474556121090212 -0.013810359597109384 0 -0.0079302602409619793 -0.013680800292940481 0 -0.0077795047934130718 -0.013799833863512167 0 -0.007768242776531621 -0.013733215461604198 0 -0.0078474556121090212 -0.013810359597109384 0 -0.0069862379686947322 -0.014001406213521587 0 -0.0074130755131811216 -0.013895706284533656 0 -0.0064901798873363194 -0.014344337811835259 0 -0.0066521315589824518 -0.014212011091478122 0 -0.0068926105827825501 -0.014330160918993579 0 -0.007768242776531621 -0.013733215461604198 0 -0.0079018066691378536 -0.013525157976728399 0 -0.0079302602409619793 -0.013680800292940481 0 -0.007481913014235733 -0.013636689055039805 0 -0.007768242776531621 -0.013733215461604198 0 -0.0079018066691378536 -0.013525157976728399 0 -0.0065393461274652143 -0.014206669555001399 0 -0.0066521315589824518 -0.014212011091478122 0 -0.0065751984141803905 -0.014124210775085674 0 -0.0066521315589824518 -0.014212011091478122 0 -0.0068926105827825501 -0.014330160918993579 0 -0.0068714839693281805 -0.014067178297358858 0 -0.0066521315589824518 -0.014212011091478122 0 -0.0066893756956717867 -0.014007438740778236 0 -0.0068714839693281805 -0.014067178297358858 0 -0.0071830477275084638 -0.01384172246443958 0 -0.0067756990801556699 -0.013968254694015352 0 -0.0071310492468555442 -0.013349157766164799 0 -0.0066893756956717867 -0.014007438740778236 0 -0.0069906323342021478 -0.013748908836564756 0 -0.0066893756956717867 -0.014007438740778236 0 -0.0068714839693281805 -0.014067178297358858 0 -0.0069906323342021478 -0.013748908836564756 0 -0.0066387001520661496 -0.014069209816805702 0 -0.0066893756956717867 -0.014007438740778236 0 -0.0065751984141803905 -0.014124210775085674 0 -0.0066521315589824518 -0.014212011091478122 0 -0.0066893756956717867 -0.014007438740778236 0 -0.0065751984141803905 -0.014124210775085674 0 -0.0081588988316507217 -0.013408315928618146 0 -0.0079018066691378536 -0.013525157976728399 0 -0.0080735790600334374 -0.013537599005752228 0 -0.0081588988316507217 -0.013408315928618146 0 -0.0068926105827825501 -0.014330160918993579 0 -0.0068714839693281805 -0.014067178297358858 0 -0.0081017886706704675 -0.013447583863102144 0 -0.0074130755131811216 -0.013895706284533656 0 -0.0081588988316507217 -0.013408315928618146 0 -0.0068714839693281805 -0.014067178297358858 0 -0.0069906323342021478 -0.013748908836564756 0 -0.0080735790600334374 -0.013537599005752228 0 -0.0079302602409619793 -0.013680800292940481 0 -0.0080956272740242766 -0.013689056849221918 0 -0.0079018066691378536 -0.013525157976728399 0 -0.0080735790600334374 -0.013537599005752228 0 -0.0079302602409619793 -0.013680800292940481 0 -0.014405868051084793 -0.011134762579460491 0 -0.014602489687506092 -0.011198650995520153 0 -0.014420225539990294 -0.011346901527995662 0 -0.014405868051084793 -0.011134762579460491 0 -0.014602489687506092 -0.011198650995520153 0 -0.014694264292380294 -0.011061120730112995 0 -0.011221313095767488 -0.01241541579941835 0 -0.011569241930279743 -0.012016468962530604 0 -0.0080735790600334374 -0.013537599005752228 0 -0.0080956272740242766 -0.013689056849221918 0 -0.0085535531089284567 -0.013469062374346894 0 -0.014405868051084793 -0.011134762579460491 0 -0.014708154143661646 -0.01083968227579849 0 -0.014694264292380294 -0.011061120730112995 0 -0.0081588988316507217 -0.013408315928618146 0 -0.0080735790600334374 -0.013537599005752228 0 -0.0085535531089284567 -0.013469062374346894 0 -0.014973451444221863 -0.010716310901396846 0 -0.014708154143661646 -0.01083968227579849 0 -0.014951272801010431 -0.010988543792333818 0 -0.014708154143661646 -0.01083968227579849 0 -0.014694264292380294 -0.011061120730112995 0 -0.014951272801010431 -0.010988543792333818 0 -0.014802074019152714 -0.011162287673078327 0 -0.014951272801010431 -0.010988543792333818 0 -0.015052989244508196 -0.011302760388265706 0 -0.014694264292380294 -0.011061120730112995 0 -0.014802074019152714 -0.011162287673078327 0 -0.014951272801010431 -0.010988543792333818 0 -0.014602489687506092 -0.011198650995520153 0 -0.014694264292380294 -0.011061120730112995 0 -0.014802074019152714 -0.011162287673078327 0 -0.014602489687506092 -0.011198650995520153 0 -0.014802074019152714 -0.011162287673078327 0 -0.014679318818786579 -0.011335410278955791 0 -0.014802074019152714 -0.011162287673078327 0 -0.014863232397482381 -0.011311397234375858 0 -0.015052989244508196 -0.011302760388265706 0 -0.014863232397482381 -0.011311397234375858 0 -0.014914127167113907 -0.011430134808002026 0 -0.015052989244508196 -0.011302760388265706 0 -0.014914127167113907 -0.011430134808002026 0 -0.014679318818786579 -0.011335410278955791 0 -0.014701074439651326 -0.011482237186297994 0 -0.014863232397482381 -0.011311397234375858 0 -0.014914127167113907 -0.011430134808002026 0 -0.014679318818786579 -0.011335410278955791 0 -0.014802074019152714 -0.011162287673078327 0 -0.014863232397482381 -0.011311397234375858 0 -0.014679318818786579 -0.011335410278955791 0 -0.014602489687506092 -0.011198650995520153 0 -0.014679318818786579 -0.011335410278955791 0 -0.014420225539990294 -0.011346901527995662 0 -0.014280844482010399 -0.011536006995959478 0 -0.014420225539990294 -0.011346901527995662 0 -0.014498626157928761 -0.011499132029359623 0 -0.014679318818786579 -0.011335410278955791 0 -0.014498626157928761 -0.011499132029359623 0 -0.014701074439651326 -0.011482237186297994 0 -0.014679318818786579 -0.011335410278955791 0 -0.014420225539990294 -0.011346901527995662 0 -0.014498626157928761 -0.011499132029359623 0 -0.014615390619461021 -0.011570325961848066 0 -0.014498626157928761 -0.011499132029359623 0 -0.014701074439651326 -0.011482237186297994 0 -0.014615390619461021 -0.011570325961848066 0 -0.014498626157928761 -0.011499132029359623 0 -0.014544150768184884 -0.01166352085303975 0 -0.01434291688671298 -0.011675029088058612 0 -0.014280844482010399 -0.011536006995959478 0 -0.014498626157928761 -0.011499132029359623 0 -0.01434291688671298 -0.011675029088058612 0 -0.014498626157928761 -0.011499132029359623 0 -0.014544150768184884 -0.01166352085303975 0 -0.01434291688671298 -0.011675029088058612 0 -0.014544150768184884 -0.01166352085303975 0 -0.014429722997415823 -0.011770718297758959 0 -0.014544150768184884 -0.01166352085303975 0 -0.014710922680673486 -0.011637041382851749 0 -0.014578973229513022 -0.011754142834722313 0 -0.014615390619461021 -0.011570325961848066 0 -0.014544150768184884 -0.01166352085303975 0 -0.014710922680673486 -0.011637041382851749 0 -0.014710922680673486 -0.011637041382851749 0 -0.014828709144578688 -0.01152818941430666 0 -0.014977606838201488 -0.011576043289338299 0 -0.014914127167113907 -0.011430134808002026 0 -0.014828709144578688 -0.01152818941430666 0 -0.014977606838201488 -0.011576043289338299 0 -0.014710922680673486 -0.011637041382851749 0 -0.014828709144578688 -0.01152818941430666 0 -0.014701074439651326 -0.011482237186297994 0 -0.014615390619461021 -0.011570325961848066 0 -0.014710922680673486 -0.011637041382851749 0 -0.014701074439651326 -0.011482237186297994 0 -0.014914127167113907 -0.011430134808002026 0 -0.014828709144578688 -0.01152818941430666 0 -0.014701074439651326 -0.011482237186297994 0 -0.012106411372015891 -0.0085313820544336214 0 -0.012674817353059654 -0.0088592441927414205 0 -0.013041901233113905 -0.0086198123341014211 0 -0.014636577771459986 -0.011854939148847785 0 -0.014977606838201488 -0.011576043289338299 0 -0.015101498064110309 -0.011713518624987694 0 -0.014710922680673486 -0.011637041382851749 0 -0.014636577771459986 -0.011854939148847785 0 -0.014977606838201488 -0.011576043289338299 0 -0.012218746441817694 -0.0092281977691517705 0 -0.014343477230645151 -0.010318899930584408 0 -0.0088262449390205562 -0.0061488590785582879 0 -0.0083856292834886652 -0.0063712667357907413 0 -0.0079712324943788729 -0.0060836571574426571 0 -0.014710922680673486 -0.011637041382851749 0 -0.014578973229513022 -0.011754142834722313 0 -0.014636577771459986 -0.011854939148847785 0 -0.014631887422861494 -0.01187258495042519 0 -0.014561285479941967 -0.011846202775345297 0 -0.014120255306924451 -0.011916806488777796 0 -0.014429722997415823 -0.011770718297758959 0 -0.014561285479941967 -0.011846202775345297 0 -0.014120255306924451 -0.011916806488777796 0 -0.012218746441817694 -0.0092281977691517705 0 -0.010935420358229486 -0.0088773873563449037 0 -0.014544150768184884 -0.01166352085303975 0 -0.014578973229513022 -0.011754142834722313 0 -0.014429722997415823 -0.011770718297758959 0 -0.014578973229513022 -0.011754142834722313 0 -0.014636577771459986 -0.011854939148847785 0 -0.014561285479941967 -0.011846202775345297 0 -0.014578973229513022 -0.011754142834722313 0 -0.014429722997415823 -0.011770718297758959 0 -0.014561285479941967 -0.011846202775345297 0 -0.012218746441817694 -0.0092281977691517705 0 -0.013403933971126016 -0.010111137059142867 0 -0.0088262449390205562 -0.0061488590785582879 0 -0.0083856292834886652 -0.0063712667357907413 0 -0.0087954026086501016 -0.0066160335284486628 0 -0.0083856292834886652 -0.0063712667357907413 0 -0.0087954026086501016 -0.0066160335284486628 0 -0.0083075775624362157 -0.006685314933710885 0 -0.0087954026086501016 -0.0066160335284486628 0 -0.0087911125137559946 -0.0070922579913444885 0 -0.0083075775624362157 -0.006685314933710885 0 -0.0088262449390205562 -0.0061488590785582879 0 -0.0087954026086501016 -0.0066160335284486628 0 -0.0094853873377845274 -0.0065038012578752767 0 -0.012218746441817694 -0.0092281977691517705 0 -0.010693946716084873 -0.0073977092881920004 0 -0.0087954026086501016 -0.0066160335284486628 0 -0.0094853873377845274 -0.0065038012578752767 0 -0.0092235904396457003 -0.0069081898852905886 0 -0.0094853873377845274 -0.0065038012578752767 0 -0.0092235904396457003 -0.0069081898852905886 0 -0.0096733981360400574 -0.0070108888691763375 0 -0.0093909048362232229 -0.007328576904700789 0 -0.0089461801262347082 -0.0076554365979637148 0 -0.0087911125137559946 -0.0070922579913444885 0 -0.0092235904396457003 -0.0069081898852905886 0 -0.0093909048362232229 -0.007328576904700789 0 -0.0096733981360400574 -0.0070108888691763375 0 -0.0092235904396457003 -0.0069081898852905886 0 -0.0093909048362232229 -0.007328576904700789 0 -0.0087911125137559946 -0.0070922579913444885 0 -0.0087954026086501016 -0.0066160335284486628 0 -0.0092235904396457003 -0.0069081898852905886 0 -0.0087911125137559946 -0.0070922579913444885 0 -0.0093909048362232229 -0.007328576904700789 0 -0.00935916486433617 -0.007667288537061584 0 -0.0089461801262347082 -0.0076554365979637148 0 -0.0093909048362232229 -0.007328576904700789 0 -0.00935916486433617 -0.007667288537061584 0 -0.0096161445928006749 -0.0074107756102967737 0 -0.0089461801262347082 -0.0076554365979637148 0 -0.0091598551882927197 -0.0079176129703143645 0 -0.0088990294540395119 -0.0081688978174199456 0 -0.00935916486433617 -0.007667288537061584 0 -0.0089461801262347082 -0.0076554365979637148 0 -0.0091598551882927197 -0.0079176129703143645 0 -0.00935916486433617 -0.007667288537061584 0 -0.0093954223264323972 -0.0079573059308787296 0 -0.0096110265443266271 -0.0079240104618937234 0 -0.0093954223264323972 -0.0079573059308787296 0 -0.0096042617231783499 -0.0079117362175006797 0 -0.0092620899136825804 -0.0081154267924251084 0 -0.00935916486433617 -0.007667288537061584 0 -0.0091598551882927197 -0.0079176129703143645 0 -0.0093954223264323972 -0.0079573059308787296 0 -0.0091598551882927197 -0.0079176129703143645 0 -0.0093954223264323972 -0.0079573059308787296 0 -0.0092620899136825804 -0.0081154267924251084 0 -0.0089461801262347082 -0.0076554365979637148 0 -0.0083616993914577345 -0.0078418987624473205 0 -0.0087911125137559946 -0.0070922579913444885 0 -0.0089461801262347082 -0.0076554365979637148 0 -0.0083616993914577345 -0.0078418987624473205 0 -0.0088990294540395119 -0.0081688978174199456 0 -0.0087911125137559946 -0.0070922579913444885 0 -0.0080417888955073777 -0.007246629562259313 0 -0.0083075775624362157 -0.006685314933710885 0 -0.0083616993914577345 -0.0078418987624473205 0 -0.0087911125137559946 -0.0070922579913444885 0 -0.0080417888955073777 -0.007246629562259313 0 -0.0080417888955073777 -0.007246629562259313 0 -0.0075448943554037445 -0.0070394699404182004 0 -0.0078046970659806326 -0.0065755209164736761 0 -0.0083616993914577345 -0.0078418987624473205 0 -0.0080417888955073777 -0.007246629562259313 0 -0.0073983704588281955 -0.0080502419623458589 0 -0.0069100723080588403 -0.0086489760010642156 0 -0.0067731924005914367 -0.0086389390888655156 0 -0.0069792696104858803 -0.0087774531363414322 0 -0.006900766128749047 -0.0075765905177943051 0 -0.0072353571401190192 -0.0085033651905801408 0 -0.0080417888955073777 -0.007246629562259313 0 -0.0075448943554037445 -0.0070394699404182004 0 -0.0073983704588281955 -0.0080502419623458589 0 -0.0069100723080588403 -0.0086489760010642156 0 -0.0068500855139565931 -0.0085821653387767177 0 -0.0067731924005914367 -0.0086389390888655156 0 -0.0075448943554037445 -0.0070394699404182004 0 -0.0078046970659806326 -0.0065755209164736761 0 -0.0076553567156743534 -0.0060549277473665713 0 -0.006900766128749047 -0.0075765905177943051 0 -0.0097880088402095295 -0.0084317413830691367 0 -0.0069100723080588403 -0.0086489760010642156 0 -0.0068500855139565931 -0.0085821653387767177 0 -0.0070063288447798598 -0.0084082727918712661 0 -0.0080417888955073777 -0.007246629562259313 0 -0.0083075775624362157 -0.006685314933710885 0 -0.0078046970659806326 -0.0065755209164736761 0 -0.0083075775624362157 -0.006685314933710885 0 -0.0080682515110118529 -0.0063956831383097587 0 -0.0078046970659806326 -0.0065755209164736761 0 -0.0083856292834886652 -0.0063712667357907413 0 -0.0083075775624362157 -0.006685314933710885 0 -0.0080682515110118529 -0.0063956831383097587 0 -0.0080682515110118529 -0.0063956831383097587 0 -0.0078046970659806326 -0.0065755209164736761 0 -0.0078742240193511049 -0.0062672489156345903 0 -0.0080682515110118529 -0.0063956831383097587 0 -0.0078742240193511049 -0.0062672489156345903 0 -0.0079712324943788729 -0.0060836571574426571 0 -0.0078742240193511049 -0.0062672489156345903 0 -0.0079712324943788729 -0.0060836571574426571 0 -0.0076553567156743534 -0.0060549277473665713 0 -0.0078046970659806326 -0.0065755209164736761 0 -0.0078742240193511049 -0.0062672489156345903 0 -0.0076553567156743534 -0.0060549277473665713 0 -0.010935420358229486 -0.0088773873563449037 0 -0.0097880088402095295 -0.0084317413830691367 0 -0.0083856292834886652 -0.0063712667357907413 0 -0.0080682515110118529 -0.0063956831383097587 0 -0.0079712324943788729 -0.0060836571574426571 0 -0.01434291688671298 -0.011675029088058612 0 -0.014429722997415823 -0.011770718297758959 0 -0.014120255306924451 -0.011916806488777796 0 -0.014066263374724546 -0.011687071652236796 0 -0.01434291688671298 -0.011675029088058612 0 -0.014120255306924451 -0.011916806488777796 0 -0.014066263374724546 -0.011687071652236796 0 -0.014120255306924451 -0.011916806488777796 0 -0.013884411352814969 -0.011917778205452411 0 -0.014066263374724546 -0.011687071652236796 0 -0.013884411352814969 -0.011917778205452411 0 -0.013511938878854511 -0.011878480658578511 0 -0.0097880088402095295 -0.0084317413830691367 0 -0.0086664841631226616 -0.011628884327832441 0 -0.0068500855139565931 -0.0085821653387767177 0 -0.0070063288447798598 -0.0084082727918712661 0 -0.006739022326688048 -0.0082534214334211882 0 -0.0068691365795000205 -0.011647453508091116 0 -0.0067492924275999793 -0.011640681943938431 0 -0.006751803016781425 -0.011758138992591328 0 -0.0086664841631226616 -0.011628884327832441 0 -0.0070140798044115282 -0.013634756451173737 0 -0.0070140798044115282 -0.013634756451173737 0 -0.006597492105573882 -0.01332756499668754 0 -0.0068203513398154472 -0.014484431353850365 0 -0.0067125991299988811 -0.014475423350470718 0 -0.0065791396643508663 -0.014674510429308181 0 -0.0070140798044115282 -0.013634756451173737 0 -0.0068307233275268263 -0.014020323778699113 0 -0.0067492924275999793 -0.011640681943938431 0 -0.006751803016781425 -0.011758138992591328 0 -0.0066626377720050752 -0.011733852557047744 0 -0.006751803016781425 -0.011758138992591328 0 -0.0066628930332020128 -0.011788326114528312 0 -0.0066626377720050752 -0.011733852557047744 0 -0.0086664841631226616 -0.011628884327832441 0 -0.0062578890851786714 -0.010184584599537401 0 -0.0068500855139565931 -0.0085821653387767177 0 -0.0061095908200601307 -0.0088784697230141155 0 -0.006323913014404217 -0.0096395669789478243 0 -0.0068500855139565931 -0.0085821653387767177 0 -0.006739022326688048 -0.0082534214334211882 0 -0.0061095908200601307 -0.0088784697230141155 0 -0.0068358547405244314 -0.0086139656935927886 0 -0.0065395677142799612 -0.0091276454252353229 0 -0.0067731924005914367 -0.0086389390888655156 0 -0.0069792696104858803 -0.0087774531363414322 0 -0.0067967549171398132 -0.0088802847283925221 0 -0.0067731924005914367 -0.0086389390888655156 0 -0.0064890509009808747 -0.0088341773244472854 0 -0.0067967549171398132 -0.0088802847283925221 0 -0.006323913014404217 -0.0096395669789478243 0 -0.0057201120138533615 -0.0098252075717155975 0 -0.0057388420792105635 -0.010326927718922359 0 -0.0065395677142799612 -0.0091276454252353229 0 -0.0061148750079525662 -0.0095733342352980998 0 -0.0056358057867446831 -0.010100646035407938 0 -0.0058693933253403689 -0.010381313799859597 0 -0.0061095908200601307 -0.0088784697230141155 0 -0.0057201120138533615 -0.0098252075717155975 0 -0.0055232474741787026 -0.009698530170929226 0 -0.0061095908200601307 -0.0088784697230141155 0 -0.006323913014404217 -0.0096395669789478243 0 -0.0057201120138533615 -0.0098252075717155975 0 -0.006751803016781425 -0.011758138992591328 0 -0.0066628930332020128 -0.011788326114528312 0 -0.0066528691790855325 -0.011848725459409759 0 -0.0062578890851786714 -0.010184584599537401 0 -0.0058693933253403689 -0.010381313799859597 0 -0.0066628930332020128 -0.011788326114528312 0 -0.0065889416641033731 -0.011811579143943205 0 -0.0066528691790855325 -0.011848725459409759 0 -0.0054080237298405808 -0.010353490995373303 0 -0.0053762977799835807 -0.010344694777869102 0 -0.0054055111492057502 -0.010332036244011869 0 -0.0059484391223761871 -0.011735371144352542 0 -0.0058693933253403689 -0.010381313799859597 0 -0.0058693933253403689 -0.010381313799859597 0 -0.0053562710192548608 -0.010190593686188057 0 -0.0057201120138533615 -0.0098252075717155975 0 -0.0056244320942758982 -0.0097682738237999302 0 -0.0054154630387320251 -0.010285619966278749 0 -0.0053762977799835807 -0.010344694777869102 0 -0.0054055111492057502 -0.010332036244011869 0 -0.0054154630387320251 -0.010285619966278749 0 -0.0057201120138533615 -0.0098252075717155975 0 -0.0054154630387320251 -0.010285619966278749 0 -0.0057388420792105635 -0.010326927718922359 0 -0.0054080237298405808 -0.010353490995373303 0 -0.0054055111492057502 -0.010332036244011869 0 -0.0054041138829244847 -0.010335510630728417 0 -0.0054055111492057502 -0.010332036244011869 0 -0.0054041138829244847 -0.010335510630728417 0 -0.0054154630387320251 -0.010285619966278749 0 -0.0059484391223761871 -0.011735371144352542 0 -0.0054742065063787329 -0.0099591343059146492 0 -0.0055304652512059927 -0.010201611022142397 0 -0.0054041138829244847 -0.010335510630728417 0 -0.0053303140779360674 -0.010222630899598418 0 -0.0055304652512059927 -0.010201611022142397 0 -0.0052923921291372893 -0.01003409004072835 0 -0.0053303140779360674 -0.010222630899598418 0 -0.006356506002173295 -0.014643201556753803 0 -0.0062490809391236536 -0.014506874110268584 0 -0.0061211689069980398 -0.014658333674223045 0 -0.0063931922620727001 -0.01483553362930303 0 -0.006356506002173295 -0.014643201556753803 0 -0.0061211689069980398 -0.014658333674223045 0 -0.0059484391223761871 -0.011735371144352542 0 -0.0058121474403935213 -0.012315761567918443 0 -0.0066628930332020128 -0.011788326114528312 0 -0.0065889416641033731 -0.011811579143943205 0 -0.0066626377720050752 -0.011733852557047744 0 -0.006356506002173295 -0.014643201556753803 0 -0.0065791396643508663 -0.014674510429308181 0 -0.0064555207319039768 -0.014534788004619138 0 -0.0063931922620727001 -0.01483553362930303 0 -0.006356506002173295 -0.014643201556753803 0 -0.0065791396643508663 -0.014674510429308181 0 -0.0059484391223761871 -0.011735371144352542 0 -0.006597492105573882 -0.01332756499668754 0 -0.0063519715032606672 -0.014342993630845466 0 -0.0067125991299988811 -0.014475423350470718 0 -0.0064555207319039768 -0.014534788004619138 0 -0.0067125991299988811 -0.014475423350470718 0 -0.0065791396643508663 -0.014674510429308181 0 -0.0064555207319039768 -0.014534788004619138 0 -0.0063519715032606672 -0.014342993630845466 0 -0.0064555207319039768 -0.014534788004619138 0 -0.0062490809391236536 -0.014506874110268584 0 -0.006206406880293675 -0.014392905598867895 0 -0.0063519715032606672 -0.014342993630845466 0 -0.0062490809391236536 -0.014506874110268584 0 -0.006356506002173295 -0.014643201556753803 0 -0.0064555207319039768 -0.014534788004619138 0 -0.0062490809391236536 -0.014506874110268584 0 -0.014998361672941912 -0.011319831212011277 0 -0.015766384427485888 -0.0099489319605278494 0 -0.015000055037908308 -0.0076741067499145194 0 -0.01535321396387092 -0.011270172954038215 0 -0.015465787457740124 -0.011378061281554053 0 -0.015513758836216548 -0.010897765087559822 0 -0.015603744585396203 -0.010609049364960026 0 -0.015528915924479839 -0.010905271056457685 0 -0.01535321396387092 -0.011270172954038215 0 -0.015398073664610783 -0.011360216091376477 0 -0.01536125512284401 -0.011340974982647439 0 -0.01535321396387092 -0.011270172954038215 0 -0.015325523128287617 -0.01136830042247507 0 -0.01536125512284401 -0.011340974982647439 0 -0.01535321396387092 -0.011270172954038215 0 -0.015398073664610783 -0.011360216091376477 0 -0.015465787457740124 -0.011378061281554053 0 -0.015398073664610783 -0.011360216091376477 0 -0.015465787457740124 -0.011378061281554053 0 -0.015423178680202222 -0.011320835072882613 0 -0.014998361672941912 -0.011319831212011277 0 -0.015766384427485888 -0.0099489319605278494 0 -0.015513758836216548 -0.010897765087559822 0 -0.015270771406257459 -0.011565617334590165 0 -0.014998361672941912 -0.011319831212011277 0 -0.015513758836216548 -0.010897765087559822 0 -0.015270771406257459 -0.011565617334590165 0 -0.015513758836216548 -0.010897765087559822 0 -0.015325523128287617 -0.01136830042247507 0 -0.01535321396387092 -0.011270172954038215 0 -0.015513758836216548 -0.010897765087559822 0 -0.015325523128287617 -0.01136830042247507 0 -0.015243492714503747 -0.011787139842686199 0 -0.015270771406257459 -0.011565617334590165 0 -0.015325523128287617 -0.01136830042247507 0 -0.015384597195122876 -0.011753942085703236 0 -0.015243492714503747 -0.011787139842686199 0 -0.015325523128287617 -0.01136830042247507 0 -0.015384597195122876 -0.011753942085703236 0 -0.015325523128287617 -0.01136830042247507 0 -0.015370835292445604 -0.011364947876936454 0 -0.015384597195122876 -0.011753942085703236 0 -0.015370835292445604 -0.011364947876936454 0 -0.015494574993325716 -0.011557425874860493 0 -0.015370835292445604 -0.011364947876936454 0 -0.015401981106155364 -0.011278870617766971 0 -0.015334581539099102 -0.011369540356419683 0 -0.015325523128287617 -0.01136830042247507 0 -0.015370835292445604 -0.011364947876936454 0 -0.01536125512284401 -0.011340974982647439 0 -0.014973451444221863 -0.010716310901396846 0 -0.014951272801010431 -0.010988543792333818 0 -0.015188480913661774 -0.010810577502879682 0 -0.014951272801010431 -0.010988543792333818 0 -0.015188480913661774 -0.010810577502879682 0 -0.015401981106155364 -0.011278870617766971 0 -0.015564275902768454 -0.011091715305290227 0 -0.015440113539304603 -0.011348085820176601 0 -0.015846795287798341 -0.011680614925099638 0 -0.015494574993325716 -0.011557425874860493 0 -0.015401981106155364 -0.011278870617766971 0 -0.015370835292445604 -0.011364947876936454 0 -0.015494574993325716 -0.011557425874860493 0 -0.015401981106155364 -0.011278870617766971 0 -0.014951272801010431 -0.010988543792333818 0 -0.015401981106155364 -0.011278870617766971 0 -0.015052989244508196 -0.011302760388265706 0 -0.015401981106155364 -0.011278870617766971 0 -0.015052989244508196 -0.011302760388265706 0 -0.015155224252731279 -0.011413763436711527 0 -0.014914127167113907 -0.011430134808002026 0 -0.015052989244508196 -0.011302760388265706 0 -0.015155224252731279 -0.011413763436711527 0 -0.015401981106155364 -0.011278870617766971 0 -0.015155224252731279 -0.011413763436711527 0 -0.015334581539099102 -0.011369540356419683 0 -0.015155224252731279 -0.011413763436711527 0 -0.015218514982380797 -0.011479321296891106 0 -0.015334581539099102 -0.011369540356419683 0 -0.014914127167113907 -0.011430134808002026 0 -0.015155224252731279 -0.011413763436711527 0 -0.014977606838201488 -0.011576043289338299 0 -0.015155224252731279 -0.011413763436711527 0 -0.015218514982380797 -0.011479321296891106 0 -0.014977606838201488 -0.011576043289338299 0 -0.015370835292445604 -0.011364947876936454 0 -0.01536125512284401 -0.011340974982647439 0 -0.015334581539099102 -0.011369540356419683 0 -0.015218514982380797 -0.011479321296891106 0 -0.015334581539099102 -0.011369540356419683 0 -0.015330426133472285 -0.011442558787506734 0 -0.01536125512284401 -0.011340974982647439 0 -0.015334581539099102 -0.011369540356419683 0 -0.015330426133472285 -0.011442558787506734 0 -0.015398073664610783 -0.011360216091376477 0 -0.01536125512284401 -0.011340974982647439 0 -0.015376757050910085 -0.011411647783120208 0 -0.01536125512284401 -0.011340974982647439 0 -0.015330426133472285 -0.011442558787506734 0 -0.015376757050910085 -0.011411647783120208 0 -0.015376757050910085 -0.011411647783120208 0 -0.015309559729066989 -0.011548024334326168 0 -0.015404394900861219 -0.011437124265240571 0 -0.015330426133472285 -0.011442558787506734 0 -0.015376757050910085 -0.011411647783120208 0 -0.015309559729066989 -0.011548024334326168 0 -0.013974382833085445 -0.0087253525356554874 0 -0.013736209905249356 -0.0091337371183730486 0 -0.014478975397117263 -0.0092573751961124717 0 -0.014521194116142172 -0.010078662558521988 0 -0.015361943473362593 -0.010387796206261136 0 -0.013974382833085445 -0.0087253525356554874 0 -0.014478975397117263 -0.0092573751961124717 0 -0.014890953182076483 -0.0088422841831958098 0 -0.015218514982380797 -0.011479321296891106 0 -0.014977606838201488 -0.011576043289338299 0 -0.015101498064110309 -0.011713518624987694 0 -0.015330426133472285 -0.011442558787506734 0 -0.015309559729066989 -0.011548024334326168 0 -0.015101498064110309 -0.011713518624987694 0 -0.015218514982380797 -0.011479321296891106 0 -0.015330426133472285 -0.011442558787506734 0 -0.015101498064110309 -0.011713518624987694 0 -0.013736209905249356 -0.0091337371183730486 0 -0.013041901233113905 -0.0086198123341014211 0 -0.013246005797024568 -0.0091937578098194792 0 -0.013974382833085445 -0.0087253525356554874 0 -0.013736209905249356 -0.0091337371183730486 0 -0.013041901233113905 -0.0086198123341014211 0 -0.014521194116142172 -0.010078662558521988 0 -0.014343477230645151 -0.010318899930584408 0 -0.0094853873377845274 -0.0065038012578752767 0 -0.0096733981360400574 -0.0070108888691763375 0 -0.010212167972783504 -0.006888039941387601 0 -0.012674817353059654 -0.0088592441927414205 0 -0.013041901233113905 -0.0086198123341014211 0 -0.013246005797024568 -0.0091937578098194792 0 -0.010693946716084873 -0.0073977092881920004 0 -0.011753770245447619 -0.0081129173628858471 0 -0.0096161445928006749 -0.0074107756102967737 0 -0.0096733981360400574 -0.0070108888691763375 0 -0.010051044829487977 -0.0071186178302557884 0 -0.0093909048362232229 -0.007328576904700789 0 -0.0096161445928006749 -0.0074107756102967737 0 -0.0096733981360400574 -0.0070108888691763375 0 -0.0096733981360400574 -0.0070108888691763375 0 -0.010051044829487977 -0.0071186178302557884 0 -0.010212167972783504 -0.006888039941387601 0 -0.013736209905249356 -0.0091337371183730486 0 -0.013246005797024568 -0.0091937578098194792 0 -0.013817864181639784 -0.0095255944031935793 0 -0.010385401083370651 -0.0073440975338594757 0 -0.010212167972783504 -0.006888039941387601 0 -0.010957903370582023 -0.0073131695913057418 0 -0.011753770245447619 -0.0081129173628858471 0 -0.012959481024070033 -0.007830450931632104 0 -0.010051044829487977 -0.0071186178302557884 0 -0.010385401083370651 -0.0073440975338594757 0 -0.010196997950045958 -0.0075505985320745194 0 -0.010051044829487977 -0.0071186178302557884 0 -0.010385401083370651 -0.0073440975338594757 0 -0.010212167972783504 -0.006888039941387601 0 -0.0120270377556071 -0.0059330746822952038 0 -0.010103239516122334 -0.0071907764121696026 0 -0.010667721121865594 -0.0077716511096467293 0 -0.010196997950045958 -0.0075505985320745194 0 -0.0096832328655340593 -0.0079641326002478814 0 -0.010385401083370651 -0.0073440975338594757 0 -0.010667721121865594 -0.0077716511096467293 0 -0.010957903370582023 -0.0073131695913057418 0 -0.010385401083370651 -0.0073440975338594757 0 -0.010667721121865594 -0.0077716511096467293 0 -0.010196997950045958 -0.0075505985320745194 0 -0.0096161445928006749 -0.0074107756102967737 0 -0.010051044829487977 -0.0071186178302557884 0 -0.0096110265443266271 -0.0079240104618937234 0 -0.010051044829487977 -0.0071186178302557884 0 -0.010196997950045958 -0.0075505985320745194 0 -0.0096832328655340593 -0.0079641326002478814 0 -0.0098601037395864167 -0.0074786301010889454 0 -0.010103239516122334 -0.0071907764121696026 0 -0.0096157779229160516 -0.0074537612877601479 0 -0.010103239516122334 -0.0071907764121696026 0 -0.00935916486433617 -0.007667288537061584 0 -0.0096161445928006749 -0.0074107756102967737 0 -0.0096110265443266271 -0.0079240104618937234 0 -0.016328968399770386 -0.010499985420600688 0 -0.016606646071793525 -0.0098968471166151796 0 -0.01600833280292227 -0.010046469348522158 0 -0.016328968399770386 -0.010499985420600688 0 -0.016765252535079562 -0.0099916678595519115 0 -0.016606646071793525 -0.0098968471166151796 0 -0.015348380075873294 -0.010011400276041348 0 -0.014596664885983678 -0.0075313102070270269 0 -0.013736209905249356 -0.0091337371183730486 0 -0.014478975397117263 -0.0092573751961124717 0 -0.013848001093505088 -0.0094776421298467441 0 -0.014478975397117263 -0.0092573751961124717 0 -0.013848001093505088 -0.0094776421298467441 0 -0.014066129192707959 -0.0096691302049516335 0 -0.013736209905249356 -0.0091337371183730486 0 -0.013848001093505088 -0.0094776421298467441 0 -0.013817864181639784 -0.0095255944031935793 0 -0.012943496962590719 -0.0079566987067630629 0 -0.012959481024070033 -0.007830450931632104 0 -0.013848001093505088 -0.0094776421298467441 0 -0.013819353523366136 -0.0095240181886604332 0 -0.014066129192707959 -0.0096691302049516335 0 -0.012959481024070033 -0.007830450931632104 0 -0.014596664885983678 -0.0075313102070270269 0 -0.014764909188019523 0.00060259175802856633 0 -0.014975004039869321 0.00035916113027183307 0 -0.014316455723781197 0.00017584134197339167 0 -0.014702728044190337 -0.0051365187793521111 0 -0.014459622211123315 -0.0053874963594173139 0 -0.014957520821820839 -0.0052901527676191508 0 -0.014596664885983678 -0.0075313102070270269 0 -0.015413975609465618 -0.0055423030743727173 0 -0.014532701069470249 -0.0043759731631287154 0 -0.015413975609465618 -0.0055423030743727173 0 -0.014764909188019523 0.00060259175802856633 0 -0.014975004039869321 0.00035916113027183307 0 -0.015093137344751791 0.00066624235693405842 0 -0.013461454154995892 -0.006405562800025499 0 -0.013643375958820664 -0.0065124493530047591 0 -0.013540445938209605 -0.0066144775555143243 0 -0.014596664885983678 -0.0075313102070270269 0 -0.014532701069470249 -0.0043759731631287154 0 -0.0120270377556071 -0.0059330746822952038 0 -0.014532701069470249 -0.0043759731631287154 0 -0.0120270377556071 -0.0059330746822952038 0 -0.012959481024070033 -0.007830450931632104 0 -0.01329964635703227 -0.0066587484838053395 0 -0.013461454154995892 -0.006405562800025499 0 -0.013540445938209605 -0.0066144775555143243 0 -0.014532701069470249 -0.0043759731631287154 0 -0.014128651046138068 -0.0013790262721075407 0 -0.013216399247665014 -0.0038855733068916477 0 -0.013072258418571795 -0.0039236674945855371 0 -0.013236566364597946 -0.0037088944935940115 0 -0.016080757995357683 -0.0059922330555748013 0 -0.015484523929279357 -0.0056248358794200714 0 -0.015411543769103683 -0.0061429960513279085 0 -0.015413975609465618 -0.0055423030743727173 0 -0.015738583511112129 -0.0081186005399460654 0 -0.015413975609465618 -0.0055423030743727173 0 -0.015233279497686903 -0.0023390729252323076 0 -0.014975004039869321 0.00035916113027183307 0 -0.015093137344751791 0.00066624235693405842 0 -0.015671743635233246 0.00033997068922729718 0 -0.015484523929279357 -0.0056248358794200714 0 -0.015411543769103683 -0.0061429960513279085 0 -0.014730658526119291 -0.0062971637047631573 0 -0.015484523929279357 -0.0056248358794200714 0 -0.014730658526119291 -0.0062971637047631573 0 -0.01487810452334218 -0.0052539117622832868 0 -0.015766384427485888 -0.0099489319605278494 0 -0.016002922246780023 -0.0090285925402818004 0 -0.015000055037908308 -0.0076741067499145194 0 -0.015375106608440652 -0.0083502593181163914 0 -0.015734419263616416 -0.0047481276715631224 0 -0.016241895968018047 -0.0081085842583545134 0 -0.01579914469497817 -0.0076044937180001371 0 -0.016373274538033018 -0.0072124434830542596 0 -0.016241895968018047 -0.0081085842583545134 0 -0.015785739191251369 -0.0082084093487891849 0 -0.01579914469497817 -0.0076044937180001371 0 -0.015385228563986232 -0.01019170298945677 0 -0.01580393238707407 -0.010545386053136555 0 -0.015407664839456528 -0.010972983194389396 0 -0.016194210753635571 -0.0081283836957750984 0 -0.016002922246780023 -0.0090285925402818004 0 -0.015785739191251369 -0.0082084093487891849 0 -0.015375106608440652 -0.0083502593181163914 0 -0.016071613773129649 -0.0081588507407258318 0 -0.01600833280292227 -0.010046469348522158 0 -0.015385228563986232 -0.01019170298945677 0 -0.01580393238707407 -0.010545386053136555 0 -0.015738583511112129 -0.0081186005399460654 0 -0.015375106608440652 -0.0083502593181163914 0 -0.016328968399770386 -0.010499985420600688 0 -0.01600833280292227 -0.010046469348522158 0 -0.01580393238707407 -0.010545386053136555 0 -0.015348380075873294 -0.010011400276041348 0 -0.015361943473362593 -0.010387796206261136 0 -0.016328968399770386 -0.010499985420600688 0 -0.01580393238707407 -0.010545386053136555 0 -0.015886626928378843 -0.010999378757415947 0 -0.015361943473362593 -0.010387796206261136 0 -0.015613202333817281 -0.010919509894020402 0 -0.01580393238707407 -0.010545386053136555 0 -0.015886626928378843 -0.010999378757415947 0 -0.015407664839456528 -0.010972983194389396 0 -0.015375106608440652 -0.0083502593181163914 0 -0.015709143348579768 -0.010269838532652764 0 -0.015385228563986232 -0.01019170298945677 0 -0.015313067253202325 -0.011195677676383098 0 -0.015407664839456528 -0.010972983194389396 0 -0.01573470675129213 -0.011008296135154676 0 -0.015407664839456528 -0.010972983194389396 0 -0.015423178680202222 -0.011320835072882613 0 -0.015465787457740124 -0.011378061281554053 0 -0.015313067253202325 -0.011195677676383098 0 -0.015423178680202222 -0.011320835072882613 0 -0.015603744585396203 -0.010609049364960026 0 -0.015709143348579768 -0.010269838532652764 0 -0.015313067253202325 -0.011195677676383098 0 -0.015407664839456528 -0.010972983194389396 0 -0.015423178680202222 -0.011320835072882613 0 -0.015376757050910085 -0.011411647783120208 0 -0.015404394900861219 -0.011437124265240571 0 -0.015402230954118743 -0.011375271111135149 0 -0.015398073664610783 -0.011360216091376477 0 -0.015423178680202222 -0.011320835072882613 0 -0.015402230954118743 -0.011375271111135149 0 -0.015398073664610783 -0.011360216091376477 0 -0.015376757050910085 -0.011411647783120208 0 -0.015402230954118743 -0.011375271111135149 0 -0.015404394900861219 -0.011437124265240571 0 -0.015423178680202222 -0.011320835072882613 0 -0.015402230954118743 -0.011375271111135149 0 -0.015361943473362593 -0.010387796206261136 0 -0.015342514863055186 -0.011444835644734577 0 -0.016002922246780023 -0.0090285925402818004 0 -0.015785739191251369 -0.0082084093487891849 0 -0.015000055037908308 -0.0076741067499145194 0 -0.015785739191251369 -0.0082084093487891849 0 -0.01579914469497817 -0.0076044937180001371 0 -0.015000055037908308 -0.0076741067499145194 0 -0.015000055037908308 -0.0076741067499145194 0 -0.015685850244801736 -0.0068102198663389608 0 -0.015550540253707988 -0.0058208791606203739 0 -0.015000055037908308 -0.0076741067499145194 0 -0.015550540253707988 -0.0058208791606203739 0 -0.014999672088441707 -0.00480079330802715 0 -0.01579914469497817 -0.0076044937180001371 0 -0.015000055037908308 -0.0076741067499145194 0 -0.015685850244801736 -0.0068102198663389608 0 -0.015233279497686903 -0.0023390729252323076 0 -0.015734419263616416 -0.0047481276715631224 0 -0.015671743635233246 0.00033997068922729718 0 -0.016247300116093686 -5.9906733723827111e-06 0 -0.015596147327759926 -0.00038182201032204918 0 -0.01579914469497817 -0.0076044937180001371 0 -0.015685850244801736 -0.0068102198663389608 0 -0.016373274538033018 -0.0072124434830542596 0 -0.016170651398781016 -0.0074611198627746126 0 -0.015734419263616416 -0.0047481276715631224 0 -0.015685850244801736 -0.0068102198663389608 0 -0.016270933303743369 -0.0071121694405277625 0 -0.016382264445708426 -0.0062920463117023488 0 -0.016247300116093686 -5.9906733723827111e-06 0 -0.016176106277662163 -0.00092979070581059519 0 -0.015596147327759926 -0.00038182201032204918 0 -0.015734419263616416 -0.0047481276715631224 0 -0.0163651068723717 -0.0033439894745751174 0 -0.016176106277662163 -0.00092979070581059519 0 -0.016206377099669163 -0.001982108318906143 0 -0.015312287580928024 -0.0012338829054568303 0 -0.016176106277662163 -0.00092979070581059519 0 -0.015312287580928024 -0.0012338829054568303 0 -0.015596147327759926 -0.00038182201032204918 0 -0.015685850244801736 -0.0068102198663389608 0 -0.016382264445708426 -0.0062920463117023488 0 -0.015550540253707988 -0.0058208791606203739 0 -0.016382264445708426 -0.0062920463117023488 0 -0.016426285172131967 -0.0052625717064177062 0 -0.015550540253707988 -0.0058208791606203739 0 -0.0163651068723717 -0.0033439894745751174 0 -0.016274277724013169 -0.0037125930792091372 0 -0.015550540253707988 -0.0058208791606203739 0 -0.014999672088441707 -0.00480079330802715 0 -0.015732686803829016 -0.0045979657361707553 0 -0.016426285172131967 -0.0052625717064177062 0 -0.015550540253707988 -0.0058208791606203739 0 -0.015732686803829016 -0.0045979657361707553 0 -0.016118681496229411 -0.003750702359964274 0 -0.015732686803829016 -0.0045979657361707553 0 -0.015848288822324356 -0.003825138562126686 0 -0.016426285172131967 -0.0052625717064177062 0 -0.016118681496229411 -0.003750702359964274 0 -0.015732686803829016 -0.0045979657361707553 0 -0.016206377099669163 -0.001982108318906143 0 -0.016118681496229411 -0.003750702359964274 0 -0.015388199643048274 -0.0023456139382852167 0 -0.016274277724013169 -0.0037125930792091372 0 -0.016156050554002745 -0.003753284661760295 0 -0.016118681496229411 -0.003750702359964274 0 -0.015877800582145444 -0.0037266367377807291 0 -0.015848288822324356 -0.003825138562126686 0 -0.015904830505389597 -0.0037236103711730316 0 -0.015848288822324356 -0.003825138562126686 0 -0.015893866085644345 -0.0035010138840630761 0 -0.015877800582145444 -0.0037266367377807291 0 -0.015904830505389597 -0.0037236103711730316 0 -0.015848288822324356 -0.003825138562126686 0 -0.015877800582145444 -0.0037266367377807291 0 -0.015904830505389597 -0.0037236103711730316 0 -0.015814632074261141 -0.0037586689607436159 0 -0.014999672088441707 -0.00480079330802715 0 -0.015732686803829016 -0.0045979657361707553 0 -0.015848288822324356 -0.003825138562126686 0 -0.014999672088441707 -0.00480079330802715 0 -0.015848288822324356 -0.003825138562126686 0 -0.015579758605780526 -0.0033926657930092442 0 -0.013997591641816194 -0.0032888846371243955 0 -0.013842944785595722 -0.0029428466517011967 0 -0.013492526388319308 -0.0030298865996696927 0 -0.013997591641816194 -0.0032888846371243955 0 -0.014296479605234214 -0.0030626084093380644 0 -0.01463750242728082 -0.0033974158130983434 0 -0.014296479605234214 -0.0030626084093380644 0 -0.013842944785595722 -0.0029428466517011967 0 -0.013964052154595282 -0.0026912401404268899 0 -0.013997591641816194 -0.0032888846371243955 0 -0.014296479605234214 -0.0030626084093380644 0 -0.013842944785595722 -0.0029428466517011967 0 -0.013842944785595722 -0.0029428466517011967 0 -0.013492526388319308 -0.0030298865996696927 0 -0.013481088998955875 -0.0026456519069483512 0 -0.013492526388319308 -0.0030298865996696927 0 -0.013481088998955875 -0.0026456519069483512 0 -0.013022960167493797 -0.0028039356113728495 0 -0.013172885082198016 -0.0031292269311986838 0 -0.013492526388319308 -0.0030298865996696927 0 -0.013022960167493797 -0.0028039356113728495 0 -0.013172885082198016 -0.0031292269311986838 0 -0.013492526388319308 -0.0030298865996696927 0 -0.013593627585827868 -0.0032759020818167524 0 -0.013997591641816194 -0.0032888846371243955 0 -0.013492526388319308 -0.0030298865996696927 0 -0.013593627585827868 -0.0032759020818167524 0 -0.013593627585827868 -0.0032759020818167524 0 -0.013391711551932011 -0.0033933196047847077 0 -0.013837159459109252 -0.0035730947874850066 0 -0.013172885082198016 -0.0031292269311986838 0 -0.013593627585827868 -0.0032759020818167524 0 -0.013391711551932011 -0.0033933196047847077 0 -0.013172885082198016 -0.0031292269311986838 0 -0.013391711551932011 -0.0033933196047847077 0 -0.012943541644503634 -0.0033433575774889169 0 -0.013273106259351389 -0.0036010695969865489 0 -0.012943541644503634 -0.0033433575774889169 0 -0.013060323752620605 -0.0036643000380417868 0 -0.013391711551932011 -0.0033933196047847077 0 -0.013273106259351389 -0.0036010695969865489 0 -0.012943541644503634 -0.0033433575774889169 0 -0.013391711551932011 -0.0033933196047847077 0 -0.013544835999180662 -0.0036234062867600233 0 -0.013837159459109252 -0.0035730947874850066 0 -0.013544835999180662 -0.0036234062867600233 0 -0.013837159459109252 -0.0035730947874850066 0 -0.013708845237657698 -0.003857642186100887 0 -0.013391711551932011 -0.0033933196047847077 0 -0.013273106259351389 -0.0036010695969865489 0 -0.013544835999180662 -0.0036234062867600233 0 -0.013273106259351389 -0.0036010695969865489 0 -0.013544835999180662 -0.0036234062867600233 0 -0.013456178681681533 -0.0037255070245150166 0 -0.013837159459109252 -0.0035730947874850066 0 -0.014061624567569 -0.0038302922856624818 0 -0.013708845237657698 -0.003857642186100887 0 -0.013837159459109252 -0.0035730947874850066 0 -0.01433493941432467 -0.0037601523452197106 0 -0.014061624567569 -0.0038302922856624818 0 -0.013997591641816194 -0.0032888846371243955 0 -0.013593627585827868 -0.0032759020818167524 0 -0.013837159459109252 -0.0035730947874850066 0 -0.013997591641816194 -0.0032888846371243955 0 -0.013837159459109252 -0.0035730947874850066 0 -0.01433493941432467 -0.0037601523452197106 0 -0.013997591641816194 -0.0032888846371243955 0 -0.01433493941432467 -0.0037601523452197106 0 -0.01463750242728082 -0.0033974158130983434 0 -0.01433493941432467 -0.0037601523452197106 0 -0.014766749299096429 -0.0039332746924661943 0 -0.015054086147483119 -0.0037200025475075541 0 -0.014766749299096429 -0.0039332746924661943 0 -0.015145179820184679 -0.003924839272405522 0 -0.015054086147483119 -0.0037200025475075541 0 -0.015054086147483119 -0.0037200025475075541 0 -0.015519494740235812 -0.0037919031026904465 0 -0.015518113378178528 -0.0037067077890519484 0 -0.015145179820184679 -0.003924839272405522 0 -0.015054086147483119 -0.0037200025475075541 0 -0.015519494740235812 -0.0037919031026904465 0 -0.015054086147483119 -0.0037200025475075541 0 -0.01463750242728082 -0.0033974158130983434 0 -0.015277049546504114 -0.0035230379773890591 0 -0.015054086147483119 -0.0037200025475075541 0 -0.015518113378178528 -0.0037067077890519484 0 -0.015277049546504114 -0.0035230379773890591 0 -0.01433493941432467 -0.0037601523452197106 0 -0.015054086147483119 -0.0037200025475075541 0 -0.01463750242728082 -0.0033974158130983434 0 -0.015877800582145444 -0.0037266367377807291 0 -0.015518113378178528 -0.0037067077890519484 0 -0.015277049546504114 -0.0035230379773890591 0 -0.015904830505389597 -0.0037236103711730316 0 -0.015814632074261141 -0.0037586689607436159 0 -0.015854443068658436 -0.0038409882904280259 0 -0.015814632074261141 -0.0037586689607436159 0 -0.015519494740235812 -0.0037919031026904465 0 -0.015854443068658436 -0.0038409882904280259 0 -0.015814632074261141 -0.0037586689607436159 0 -0.015519494740235812 -0.0037919031026904465 0 -0.015518113378178528 -0.0037067077890519484 0 -0.015877800582145444 -0.0037266367377807291 0 -0.015814632074261141 -0.0037586689607436159 0 -0.015518113378178528 -0.0037067077890519484 0 -0.015877800582145444 -0.0037266367377807291 0 -0.015471044041496108 -0.0034706628497939611 0 -0.015277049546504114 -0.0035230379773890591 0 -0.016118681496229411 -0.003750702359964274 0 -0.015877800582145444 -0.0037266367377807291 0 -0.015471044041496108 -0.0034706628497939611 0 -0.01463750242728082 -0.0033974158130983434 0 -0.015277049546504114 -0.0035230379773890591 0 -0.014818148500843854 -0.0031924847111791084 0 -0.015471044041496108 -0.0034706628497939611 0 -0.015277049546504114 -0.0035230379773890591 0 -0.014818148500843854 -0.0031924847111791084 0 -0.014296479605234214 -0.0030626084093380644 0 -0.01463750242728082 -0.0033974158130983434 0 -0.014818148500843854 -0.0031924847111791084 0 -0.014818148500843854 -0.0031924847111791084 0 -0.014994154051486923 -0.002887405363135232 0 -0.014481636675718739 -0.0027432287556983497 0 -0.014296479605234214 -0.0030626084093380644 0 -0.014818148500843854 -0.0031924847111791084 0 -0.014481636675718739 -0.0027432287556983497 0 -0.015471044041496108 -0.0034706628497939611 0 -0.014818148500843854 -0.0031924847111791084 0 -0.014994154051486923 -0.002887405363135232 0 -0.014994154051486923 -0.002887405363135232 0 -0.014481636675718739 -0.0027432287556983497 0 -0.014658004514735456 -0.0022862071223425633 0 -0.016118681496229411 -0.003750702359964274 0 -0.014994154051486923 -0.002887405363135232 0 -0.015388199643048274 -0.0023456139382852167 0 -0.016118681496229411 -0.003750702359964274 0 -0.015471044041496108 -0.0034706628497939611 0 -0.014994154051486923 -0.002887405363135232 0 -0.014994154051486923 -0.002887405363135232 0 -0.015388199643048274 -0.0023456139382852167 0 -0.014658004514735456 -0.0022862071223425633 0 -0.015388199643048274 -0.0023456139382852167 0 -0.014658004514735456 -0.0022862071223425633 0 -0.014871088701426706 -0.001768997459290281 0 -0.014658004514735456 -0.0022862071223425633 0 -0.014115110598524357 -0.0022379088367013565 0 -0.014025810728073823 -0.001759857186436969 0 -0.014115110598524357 -0.0022379088367013565 0 -0.013625060816445782 -0.0020601694053889977 0 -0.014025810728073823 -0.001759857186436969 0 -0.014115110598524357 -0.0022379088367013565 0 -0.01362835728901556 -0.0023859069385661789 0 -0.013625060816445782 -0.0020601694053889977 0 -0.014481636675718739 -0.0027432287556983497 0 -0.014658004514735456 -0.0022862071223425633 0 -0.014115110598524357 -0.0022379088367013565 0 -0.014481636675718739 -0.0027432287556983497 0 -0.014115110598524357 -0.0022379088367013565 0 -0.013964052154595282 -0.0026912401404268899 0 -0.014115110598524357 -0.0022379088367013565 0 -0.013964052154595282 -0.0026912401404268899 0 -0.01362835728901556 -0.0023859069385661789 0 -0.013842944785595722 -0.0029428466517011967 0 -0.013964052154595282 -0.0026912401404268899 0 -0.013481088998955875 -0.0026456519069483512 0 -0.014296479605234214 -0.0030626084093380644 0 -0.014481636675718739 -0.0027432287556983497 0 -0.013964052154595282 -0.0026912401404268899 0 -0.013481088998955875 -0.0026456519069483512 0 -0.012968043723111385 -0.0024781156174057345 0 -0.013022960167493797 -0.0028039356113728495 0 -0.013481088998955875 -0.0026456519069483512 0 -0.01362835728901556 -0.0023859069385661789 0 -0.013240309777627687 -0.0022305752141935811 0 -0.013964052154595282 -0.0026912401404268899 0 -0.013481088998955875 -0.0026456519069483512 0 -0.01362835728901556 -0.0023859069385661789 0 -0.013481088998955875 -0.0026456519069483512 0 -0.013240309777627687 -0.0022305752141935811 0 -0.012968043723111385 -0.0024781156174057345 0 -0.013240309777627687 -0.0022305752141935811 0 -0.013625060816445782 -0.0020601694053889977 0 -0.013111697713753262 -0.0018862619809671898 0 -0.01362835728901556 -0.0023859069385661789 0 -0.013240309777627687 -0.0022305752141935811 0 -0.013625060816445782 -0.0020601694053889977 0 -0.013625060816445782 -0.0020601694053889977 0 -0.013472168779949681 -0.0016951291016210391 0 -0.013111697713753262 -0.0018862619809671898 0 -0.013158456451759537 -0.0015584350159768632 0 -0.013472168779949681 -0.0016951291016210391 0 -0.013111697713753262 -0.0018862619809671898 0 -0.013158456451759537 -0.0015584350159768632 0 -0.01343128457624242 -0.0013941190846237916 0 -0.013472168779949681 -0.0016951291016210391 0 -0.013158456451759537 -0.0015584350159768632 0 -0.01343128457624242 -0.0013941190846237916 0 -0.013114242933709457 -0.0011587941104850849 0 -0.01343128457624242 -0.0013941190846237916 0 -0.013729821222253516 -0.0014728844409968463 0 -0.013472168779949681 -0.0016951291016210391 0 -0.01343128457624242 -0.0013941190846237916 0 -0.013729821222253516 -0.0014728844409968463 0 -0.013710462475007392 -0.0011328078346425489 0 -0.013729821222253516 -0.0014728844409968463 0 -0.013472168779949681 -0.0016951291016210391 0 -0.014025810728073823 -0.001759857186436969 0 -0.013625060816445782 -0.0020601694053889977 0 -0.013472168779949681 -0.0016951291016210391 0 -0.014025810728073823 -0.001759857186436969 0 -0.014025810728073823 -0.001759857186436969 0 -0.014022057607729574 -0.0013216535774383086 0 -0.014504378891594085 -0.0013278932591729165 0 -0.013729821222253516 -0.0014728844409968463 0 -0.014025810728073823 -0.001759857186436969 0 -0.014022057607729574 -0.0013216535774383086 0 -0.014022057607729574 -0.0013216535774383086 0 -0.014187904914784376 -0.0010164098732219685 0 -0.013710462475007392 -0.0011328078346425489 0 -0.013729821222253516 -0.0014728844409968463 0 -0.014022057607729574 -0.0013216535774383086 0 -0.013710462475007392 -0.0011328078346425489 0 -0.014022057607729574 -0.0013216535774383086 0 -0.014187904914784376 -0.0010164098732219685 0 -0.014504378891594085 -0.0013278932591729165 0 -0.014187904914784376 -0.0010164098732219685 0 -0.0139135610229208 -0.00076699024238428024 0 -0.014308841991584633 -0.00069477513179219555 0 -0.014187904914784376 -0.0010164098732219685 0 -0.014678575709892876 -0.00085289330673538955 0 -0.014308841991584633 -0.00069477513179219555 0 -0.014187904914784376 -0.0010164098732219685 0 -0.0139135610229208 -0.00076699024238428024 0 -0.013710462475007392 -0.0011328078346425489 0 -0.0139135610229208 -0.00076699024238428024 0 -0.013560821362683198 -0.00091352469141983564 0 -0.013710462475007392 -0.0011328078346425489 0 -0.0139135610229208 -0.00076699024238428024 0 -0.013560821362683198 -0.00091352469141983564 0 -0.013511115723069353 -0.00059292203444653207 0 -0.012811786320354665 -0.0012575973899391494 0 -0.01287578917381841 -0.0012337782089616677 0 -0.012781080442418713 -0.0013916160565951685 0 -0.013253823663675265 -0.0014016835543827614 0 -0.012967075635089469 -0.001222147992022904 0 -0.013560821362683198 -0.00091352469141983564 0 -0.013511115723069353 -0.00059292203444653207 0 -0.013114242933709457 -0.0011587941104850849 0 -0.013560821362683198 -0.00091352469141983564 0 -0.013710462475007392 -0.0011328078346425489 0 -0.013114242933709457 -0.0011587941104850849 0 -0.01343128457624242 -0.0013941190846237916 0 -0.013710462475007392 -0.0011328078346425489 0 -0.013114242933709457 -0.0011587941104850849 0 -0.016206377099669163 -0.001982108318906143 0 -0.015388199643048274 -0.0023456139382852167 0 -0.015312287580928024 -0.0012338829054568303 0 -0.015388199643048274 -0.0023456139382852167 0 -0.014871088701426706 -0.001768997459290281 0 -0.015312287580928024 -0.0012338829054568303 0 -0.014025810728073823 -0.001759857186436969 0 -0.014871088701426706 -0.001768997459290281 0 -0.014504378891594085 -0.0013278932591729165 0 -0.014871088701426706 -0.001768997459290281 0 -0.014504378891594085 -0.0013278932591729165 0 -0.015312287580928024 -0.0012338829054568303 0 -0.014658004514735456 -0.0022862071223425633 0 -0.014025810728073823 -0.001759857186436969 0 -0.014871088701426706 -0.001768997459290281 0 -0.014504378891594085 -0.0013278932591729165 0 -0.014678575709892876 -0.00085289330673538955 0 -0.015312287580928024 -0.0012338829054568303 0 -0.014678575709892876 -0.00085289330673538955 0 -0.015312287580928024 -0.0012338829054568303 0 -0.015035446621572725 -0.00056827387747966011 0 -0.014187904914784376 -0.0010164098732219685 0 -0.014504378891594085 -0.0013278932591729165 0 -0.014678575709892876 -0.00085289330673538955 0 -0.015596147327759926 -0.00038182201032204918 0 -0.015035446621572725 -0.00056827387747966011 0 -0.01502982240968477 9.0773211286980296e-06 0 -0.015312287580928024 -0.0012338829054568303 0 -0.015596147327759926 -0.00038182201032204918 0 -0.015035446621572725 -0.00056827387747966011 0 -0.014678575709892876 -0.00085289330673538955 0 -0.014709021332356244 -0.00024276289188729402 0 -0.014308841991584633 -0.00069477513179219555 0 -0.014678575709892876 -0.00085289330673538955 0 -0.015035446621572725 -0.00056827387747966011 0 -0.014709021332356244 -0.00024276289188729402 0 -0.015035446621572725 -0.00056827387747966011 0 -0.01502982240968477 9.0773211286980296e-06 0 -0.014709021332356244 -0.00024276289188729402 0 -0.014975004039869321 0.00035916113027183307 0 -0.01502982240968477 9.0773211286980296e-06 0 -0.014316455723781197 0.00017584134197339167 0 -0.01502982240968477 9.0773211286980296e-06 0 -0.014709021332356244 -0.00024276289188729402 0 -0.014316455723781197 0.00017584134197339167 0 -0.015671743635233246 0.00033997068922729718 0 -0.015596147327759926 -0.00038182201032204918 0 -0.01502982240968477 9.0773211286980296e-06 0 -0.014975004039869321 0.00035916113027183307 0 -0.015671743635233246 0.00033997068922729718 0 -0.01502982240968477 9.0773211286980296e-06 0 -0.011183445960292457 -0.0057874694485634502 0 -0.011346658060705877 -0.005619944538040194 0 -0.011107766042571488 -0.0056384969644031951 0 -0.013541794567131036 -0.00077743486917947722 0 -0.014147385955805811 -0.00051448309016989145 0 -0.013825813466088422 -0.00030960774077165831 0 -0.011799661690545747 -0.0034818263907175151 0 -0.012716964006169423 -0.0032079618911952427 0 -0.013253823663675265 -0.0014016835543827614 0 -0.012716964006169423 -0.0032079618911952427 0 -0.011799661690545747 -0.0034818263907175151 0 -0.013253823663675265 -0.0014016835543827614 0 -0.013253823663675265 -0.0014016835543827614 0 -0.014213249138663895 -0.00043702488200511537 0 -0.012550137819668123 -0.0028840128035812086 0 -0.0126214111534924 -0.0028600668264570227 0 -0.012699565669630816 -0.0027521128454448558 0 -0.0139135610229208 -0.00076699024238428024 0 -0.013511115723069353 -0.00059292203444653207 0 -0.014102813098514437 -0.00039367493833061075 0 -0.0139135610229208 -0.00076699024238428024 0 -0.014308841991584633 -0.00069477513179219555 0 -0.014102813098514437 -0.00039367493833061075 0 -0.014709021332356244 -0.00024276289188729402 0 -0.014308841991584633 -0.00069477513179219555 0 -0.014102813098514437 -0.00039367493833061075 0 -0.014595606476397028 -0.00028071641602380956 0 -0.014213249138663895 -0.00043702488200511537 0 -0.014709021332356244 -0.00024276289188729402 0 -0.014147385955805811 -0.00051448309016989145 0 -0.014316455723781197 0.00017584134197339167 0 -0.014128651046138068 -0.0013790262721075407 0 -0.012716964006169423 -0.0032079618911952427 0 -0.014147385955805811 -0.00051448309016989145 0 -0.014316455723781197 0.00017584134197339167 0 -0.013825813466088422 -0.00030960774077165831 0 -0.0120270377556071 -0.0059330746822952038 0 -0.012716964006169423 -0.0032079618911952427 0 -0.011507562419603297 -0.0053663822856828683 0 -0.011216323589986619 -0.0054254604324710911 0 -0.011346658060705877 -0.005619944538040194 0 -0.013216399247665014 -0.0038855733068916477 0 -0.013236566364597946 -0.0037088944935940115 0 -0.013402893663725001 -0.0034942652437982037 0 -0.011216323589986619 -0.0054254604324710911 0 -0.011346658060705877 -0.005619944538040194 0 -0.011107766042571488 -0.0056384969644031951 0 -0.0096042617231783499 -0.0079117362175006797 0 -0.0092620899136825804 -0.0081154267924251084 0 -0.0092486901671831167 -0.0086219893975232123 0 -0.010103239516122334 -0.0071907764121696026 0 -0.010172105196045047 -0.007252391755840441 0 -0.0091598551882927197 -0.0079176129703143645 0 -0.0092620899136825804 -0.0081154267924251084 0 -0.0088990294540395119 -0.0081688978174199456 0 -0.0088990294540395119 -0.0081688978174199456 0 -0.0092486901671831167 -0.0086219893975232123 0 -0.0088596397727206053 -0.0087481397684304654 0 -0.0092620899136825804 -0.0081154267924251084 0 -0.0088990294540395119 -0.0081688978174199456 0 -0.0092486901671831167 -0.0086219893975232123 0 -0.010172105196045047 -0.007252391755840441 0 -0.0098003200341818496 -0.0061966543801718448 0 -0.0092486901671831167 -0.0086219893975232123 0 -0.0088596397727206053 -0.0087481397684304654 0 -0.008885379778453259 -0.0093030852634163157 0 -0.011183445960292457 -0.0057874694485634502 0 -0.011107766042571488 -0.0056384969644031951 0 -0.010986084434867259 -0.0058661551074522698 0 -0.0088596397727206053 -0.0087481397684304654 0 -0.008738026178438163 -0.0091261082521388349 0 -0.008885379778453259 -0.0093030852634163157 0 -0.008738026178438163 -0.0091261082521388349 0 -0.0083838807740610598 -0.0088208681069200118 0 -0.0082559180761609119 -0.0091913855971378113 0 -0.0088596397727206053 -0.0087481397684304654 0 -0.008738026178438163 -0.0091261082521388349 0 -0.0083838807740610598 -0.0088208681069200118 0 -0.0088596397727206053 -0.0087481397684304654 0 -0.0083838807740610598 -0.0088208681069200118 0 -0.00849302747741916 -0.0083820885630550932 0 -0.0083838807740610598 -0.0088208681069200118 0 -0.00849302747741916 -0.0083820885630550932 0 -0.0079420747515593151 -0.0085012508584785956 0 -0.0083616993914577345 -0.0078418987624473205 0 -0.00849302747741916 -0.0083820885630550932 0 -0.0079420747515593151 -0.0085012508584785956 0 -0.0088990294540395119 -0.0081688978174199456 0 -0.0088596397727206053 -0.0087481397684304654 0 -0.00849302747741916 -0.0083820885630550932 0 -0.0083616993914577345 -0.0078418987624473205 0 -0.0088990294540395119 -0.0081688978174199456 0 -0.00849302747741916 -0.0083820885630550932 0 -0.0083616993914577345 -0.0078418987624473205 0 -0.0079420747515593151 -0.0085012508584785956 0 -0.0073983704588281955 -0.0080502419623458589 0 -0.0079420747515593151 -0.0085012508584785956 0 -0.0073983704588281955 -0.0080502419623458589 0 -0.0071888869169714703 -0.0091790687637642726 0 -0.0069792696104858803 -0.0087774531363414322 0 -0.0071888869169714703 -0.0091790687637642726 0 -0.0067967549171398132 -0.0088802847283925221 0 -0.0072353571401190192 -0.0085033651905801408 0 -0.0071726011498102534 -0.0091306713933526351 0 -0.0079420747515593151 -0.0085012508584785956 0 -0.0071888869169714703 -0.0091790687637642726 0 -0.0078910140581828422 -0.0091280354445161527 0 -0.0083838807740610598 -0.0088208681069200118 0 -0.0079420747515593151 -0.0085012508584785956 0 -0.0078910140581828422 -0.0091280354445161527 0 -0.0083838807740610598 -0.0088208681069200118 0 -0.0078910140581828422 -0.0091280354445161527 0 -0.0082559180761609119 -0.0091913855971378113 0 -0.0071888869169714703 -0.0091790687637642726 0 -0.0078910140581828422 -0.0091280354445161527 0 -0.0075259946181481761 -0.0094973806613107992 0 -0.0078910140581828422 -0.0091280354445161527 0 -0.0080115269691675914 -0.0096945803276927318 0 -0.0082559180761609119 -0.0091913855971378113 0 -0.0075259946181481761 -0.0094973806613107992 0 -0.0080115269691675914 -0.0096945803276927318 0 -0.0072994976157331635 -0.0098375403260343858 0 -0.0078910140581828422 -0.0091280354445161527 0 -0.0075259946181481761 -0.0094973806613107992 0 -0.0080115269691675914 -0.0096945803276927318 0 -0.0071888869169714703 -0.0091790687637642726 0 -0.0072149508989018509 -0.00951982786515943 0 -0.0068726120337877653 -0.009553603191941519 0 -0.0071888869169714703 -0.0091790687637642726 0 -0.0075259946181481761 -0.0094973806613107992 0 -0.0072149508989018509 -0.00951982786515943 0 -0.0075259946181481761 -0.0094973806613107992 0 -0.0072149508989018509 -0.00951982786515943 0 -0.0072994976157331635 -0.0098375403260343858 0 -0.0072149508989018509 -0.00951982786515943 0 -0.0072994976157331635 -0.0098375403260343858 0 -0.0068726120337877653 -0.009553603191941519 0 -0.0072994976157331635 -0.0098375403260343858 0 -0.0068726120337877653 -0.009553603191941519 0 -0.0067809413280789125 -0.0098801284956469854 0 -0.0073999296412991149 -0.0095151726495870583 0 -0.0071179297258154289 -0.0098637883284269888 0 -0.0067809413280789125 -0.0098801284956469854 0 -0.0072296592227607172 -0.0097470723410805048 0 -0.0069064546492568196 -0.0098364802062972986 0 -0.0073999296412991149 -0.0095151726495870583 0 -0.0074732611799317537 -0.0098087338408786254 0 -0.0071179297258154289 -0.0098637883284269888 0 -0.0074732611799317537 -0.0098087338408786254 0 -0.0071179297258154289 -0.0098637883284269888 0 -0.00688646698330239 -0.010245174932402569 0 -0.0085972329844202153 -0.0083942456990239115 0 -0.0072296592227607172 -0.0097470723410805048 0 -0.0082460470386905779 -0.0091674694513190352 0 -0.0073999296412991149 -0.0095151726495870583 0 -0.0074732611799317537 -0.0098087338408786254 0 -0.0099318309269659615 -0.0050082306154891516 0 -0.010252951596940283 -0.0044279922162574542 0 -0.010008176516673668 -0.0043302610833451036 0 -0.0085972329844202153 -0.0083942456990239115 0 -0.0093390462552126966 -0.006823564625182436 0 -0.0099318309269659615 -0.0050082306154891516 0 -0.010657824079559685 -0.0043467915341107244 0 -0.010252951596940283 -0.0044279922162574542 0 -0.010657824079559685 -0.0043467915341107244 0 -0.010252951596940283 -0.0044279922162574542 0 -0.010413723882364887 -0.0040322018664396136 0 -0.010252951596940283 -0.0044279922162574542 0 -0.010008176516673668 -0.0043302610833451036 0 -0.010413723882364887 -0.0040322018664396136 0 -0.012381736907948008 -0.0015697197527103845 0 -0.012667283503197947 -0.0016916147088834117 0 -0.012441771955913629 -0.0019751032547804756 0 -0.0099318309269659615 -0.0050082306154891516 0 -0.010008176516673668 -0.0043302610833451036 0 -0.0093620280353065681 -0.0044758374819117595 0 -0.01116979192555557 -0.002912490839048485 0 -0.012047694473362623 -0.0024047503230557694 0 -0.012667283503197947 -0.0016916147088834117 0 -0.012660204966896476 -0.0013669836187742801 0 -0.012781080442418713 -0.0013916160565951685 0 -0.013158456451759537 -0.0015584350159768632 0 -0.012667283503197947 -0.0016916147088834117 0 -0.013114242933709457 -0.0011587941104850849 0 -0.012680587910083328 -0.0016862181321183078 0 -0.012967075635089469 -0.001222147992022904 0 -0.012381736907948008 -0.0015697197527103845 0 -0.012667283503197947 -0.0016916147088834117 0 -0.012660204966896476 -0.0013669836187742801 0 -0.013158456451759537 -0.0015584350159768632 0 -0.012667283503197947 -0.0016916147088834117 0 -0.013111697713753262 -0.0018862619809671898 0 -0.011240985847443553 -0.0036337591841613406 0 -0.01112601382759861 -0.0037747254936185701 0 -0.011156111883064913 -0.0038442394525604402 0 -0.011027661727998565 -0.0039006328518205987 0 -0.01112601382759861 -0.0037747254936185701 0 -0.011156111883064913 -0.0038442394525604402 0 -0.011799661690545747 -0.0034818263907175151 0 -0.0098003200341818496 -0.0061966543801718448 0 -0.012811786320354665 -0.0012575973899391494 0 -0.012660204966896476 -0.0013669836187742801 0 -0.012781080442418713 -0.0013916160565951685 0 -0.011799661690545747 -0.0034818263907175151 0 -0.012047694473362623 -0.0024047503230557694 0 -0.0099318309269659615 -0.0050082306154891516 0 -0.0093620280353065681 -0.0044758374819117595 0 -0.0089425420864323989 -0.0054184276465488301 0 -0.008738026178438163 -0.0091261082521388349 0 -0.0082819561729294815 -0.0094933622833276912 0 -0.008885379778453259 -0.0093030852634163157 0 -0.008738026178438163 -0.0091261082521388349 0 -0.0080115269691675914 -0.0096945803276927318 0 -0.0082559180761609119 -0.0091913855971378113 0 -0.0084140358426242814 -0.0094999925424703539 0 -0.0085972329844202153 -0.0083942456990239115 0 -0.0085972329844202153 -0.0083942456990239115 0 -0.0098003200341818496 -0.0061966543801718448 0 -0.01116979192555557 -0.002912490839048485 0 -0.0098003200341818496 -0.0061966543801718448 0 -0.0054779044876471887 -0.010355903595338745 0 -0.0054682897464325905 -0.010357066240555039 0 -0.0054581830948733047 -0.010326482995484207 0 -0.0054779044876471887 -0.010355903595338745 0 -0.0054229884697075256 -0.010366795936845623 0 -0.0054682897464325905 -0.010357066240555039 0 -0.0054041138829244847 -0.010335510630728417 0 -0.0054229884697075256 -0.010366795936845623 0 -0.0053746755330708043 -0.010451573931866454 0 -0.0054041138829244847 -0.010335510630728417 0 -0.0054229884697075256 -0.010366795936845623 0 -0.0054154630387320251 -0.010285619966278749 0 -0.0054229884697075256 -0.010366795936845623 0 -0.0054154630387320251 -0.010285619966278749 0 -0.0054682897464325905 -0.010357066240555039 0 -0.0054154630387320251 -0.010285619966278749 0 -0.0054682897464325905 -0.010357066240555039 0 -0.0057388420792105635 -0.010326927718922359 0 -0.0054682897464325905 -0.010357066240555039 0 -0.0057388420792105635 -0.010326927718922359 0 -0.0054581830948733047 -0.010326482995484207 0 -0.0064890509009808747 -0.0088341773244472854 0 -0.0066170160888762292 -0.0092131324807006258 0 -0.0060474169932398488 -0.0093149226842784445 0 -0.0061148750079525662 -0.0095733342352980998 0 -0.0057674132679280676 -0.0098268796085449455 0 -0.0064890509009808747 -0.0088341773244472854 0 -0.0067967549171398132 -0.0088802847283925221 0 -0.0066170160888762292 -0.0092131324807006258 0 -0.0071888869169714703 -0.0091790687637642726 0 -0.0067967549171398132 -0.0088802847283925221 0 -0.0066170160888762292 -0.0092131324807006258 0 -0.0071888869169714703 -0.0091790687637642726 0 -0.0066170160888762292 -0.0092131324807006258 0 -0.0068726120337877653 -0.009553603191941519 0 -0.0066170160888762292 -0.0092131324807006258 0 -0.0068726120337877653 -0.009553603191941519 0 -0.006349912435778338 -0.0096525466999673355 0 -0.0068726120337877653 -0.009553603191941519 0 -0.0065199818628355359 -0.0098497710651991709 0 -0.006349912435778338 -0.0096525466999673355 0 -0.0071179297258154289 -0.0098637883284269888 0 -0.0067809413280789125 -0.0098801284956469854 0 -0.0068402169206347851 -0.010188753261432126 0 -0.0067809413280789125 -0.0098801284956469854 0 -0.0065199818628355359 -0.0098497710651991709 0 -0.0065035341284796037 -0.010106226645333029 0 -0.0068726120337877653 -0.009553603191941519 0 -0.0067809413280789125 -0.0098801284956469854 0 -0.0065199818628355359 -0.0098497710651991709 0 -0.0065199818628355359 -0.0098497710651991709 0 -0.006349912435778338 -0.0096525466999673355 0 -0.0061598686564826944 -0.010088043485706471 0 -0.0066170160888762292 -0.0092131324807006258 0 -0.006349912435778338 -0.0096525466999673355 0 -0.0060474169932398488 -0.0093149226842784445 0 -0.006349912435778338 -0.0096525466999673355 0 -0.0060474169932398488 -0.0093149226842784445 0 -0.0056334074070826228 -0.010018930810402527 0 -0.0057674132679280676 -0.0098268796085449455 0 -0.0056345246834938398 -0.01001242870837536 0 -0.006349912435778338 -0.0096525466999673355 0 -0.0056334074070826228 -0.010018930810402527 0 -0.0061598686564826944 -0.010088043485706471 0 -0.0054779044876471887 -0.010355903595338745 0 -0.0054581830948733047 -0.010326482995484207 0 -0.0055849551826582947 -0.010157346571771727 0 -0.0054581830948733047 -0.010326482995484207 0 -0.0056334074070826228 -0.010018930810402527 0 -0.0055849551826582947 -0.010157346571771727 0 -0.0057758613223252344 -0.010291486653949085 0 -0.0055874072243660986 -0.01046458707882934 0 -0.0054658265715711715 -0.010198268668044389 0 -0.0056334074070826228 -0.010018930810402527 0 -0.0057758613223252344 -0.010291486653949085 0 -0.0054658265715711715 -0.010198268668044389 0 -0.0056334074070826228 -0.010018930810402527 0 -0.0057758613223252344 -0.010291486653949085 0 -0.0061598686564826944 -0.010088043485706471 0 -0.0057758613223252344 -0.010291486653949085 0 -0.0062601839549099652 -0.010443205744104463 0 -0.0058490619056615969 -0.010587450540929935 0 -0.0057758613223252344 -0.010291486653949085 0 -0.0062601839549099652 -0.010443205744104463 0 -0.0061598686564826944 -0.010088043485706471 0 -0.0062601839549099652 -0.010443205744104463 0 -0.0061598686564826944 -0.010088043485706471 0 -0.0065035341284796037 -0.010106226645333029 0 -0.0065199818628355359 -0.0098497710651991709 0 -0.0061598686564826944 -0.010088043485706471 0 -0.0065035341284796037 -0.010106226645333029 0 -0.0062601839549099652 -0.010443205744104463 0 -0.0065035341284796037 -0.010106226645333029 0 -0.0068402169206347851 -0.010188753261432126 0 -0.0067809413280789125 -0.0098801284956469854 0 -0.0065035341284796037 -0.010106226645333029 0 -0.0068402169206347851 -0.010188753261432126 0 -0.0066971492248030081 -0.0082134192692919564 0 -0.0082086247768058101 -0.0070718776629345908 0 -0.0075816022662736288 -0.0055961429057371295 0 -0.0075209072911006951 -0.0057175891640008324 0 -0.007556272633540616 -0.005571570489828149 0 -0.011603630928320018 -0.0027668658994839776 0 -0.011105823381294407 -0.0032415367718274628 0 -0.011264273128829 -0.0026389550777425226 0 -0.011312503846529685 -0.0036825642646601433 0 -0.011603630928320018 -0.0027668658994839776 0 -0.011105823381294407 -0.0032415367718274628 0 -0.0082086247768058101 -0.0070718776629345908 0 -0.0098386411079423343 -0.0036845301076277649 0 -0.011603630928320018 -0.0027668658994839776 0 -0.011421420699567265 -0.0025524384365998545 0 -0.011264273128829 -0.0026389550777425226 0 -0.011421420699567265 -0.0025524384365998545 0 -0.011264273128829 -0.0026389550777425226 0 -0.011354214390650087 -0.0026046347535653423 0 -0.011421420699567265 -0.0025524384365998545 0 -0.011334777581333312 -0.0024115842064704805 0 -0.011651226540562868 -0.0023993911331490802 0 -0.011421420699567265 -0.0025524384365998545 0 -0.011334777581333312 -0.0024115842064704805 0 -0.011354214390650087 -0.0026046347535653423 0 -0.0075816022662736288 -0.0055961429057371295 0 -0.007556272633540616 -0.005571570489828149 0 -0.0075844743645120897 -0.0054926091000515693 0 -0.011603630928320018 -0.0027668658994839776 0 -0.011421420699567265 -0.0025524384365998545 0 -0.011651226540562868 -0.0023993911331490802 0 -0.0098386411079423343 -0.0036845301076277649 0 -0.009582483570804632 -0.0039614269004991792 0 -0.0075816022662736288 -0.0055961429057371295 0 -0.0075844743645120897 -0.0054926091000515693 0 -0.0075984805000927011 -0.0055256465867200687 0 -0.0066971492248030081 -0.0082134192692919564 0 -0.006788234276385207 -0.0080059442729227218 0 -0.0075844743645120897 -0.0054926091000515693 0 -0.0075984805000927011 -0.0055256465867200687 0 -0.0075895258165698054 -0.0054883545913253845 0 -0.0075984805000927011 -0.0055256465867200687 0 -0.0075895258165698054 -0.0054883545913253845 0 -0.0075684088565778195 -0.0054891260102310456 0 -0.006788234276385207 -0.0080059442729227218 0 -0.0064883260530845801 -0.0081658823407767325 0 -0.0058490619056615969 -0.010587450540929935 0 -0.0055874072243660986 -0.01046458707882934 0 -0.0055161412132299159 -0.010765853037825693 0 -0.0057758613223252344 -0.010291486653949085 0 -0.0058490619056615969 -0.010587450540929935 0 -0.0055874072243660986 -0.01046458707882934 0 -0.012194052943072676 -0.0022411277631721491 0 -0.012081997968050203 -0.0019790745252820647 0 -0.011742573039076882 -0.0024027689668799116 0 -0.012194052943072676 -0.0022411277631721491 0 -0.012535573224279459 -0.0023547911158800418 0 -0.012441771955913629 -0.0019751032547804756 0 -0.012194052943072676 -0.0022411277631721491 0 -0.012172954782123466 -0.0024955376843676792 0 -0.012535573224279459 -0.0023547911158800418 0 -0.012194052943072676 -0.0022411277631721491 0 -0.012172954782123466 -0.0024955376843676792 0 -0.011742573039076882 -0.0024027689668799116 0 -0.012172954782123466 -0.0024955376843676792 0 -0.012535573224279459 -0.0023547911158800418 0 -0.01257226125324247 -0.0026371486000346645 0 -0.012968043723111385 -0.0024781156174057345 0 -0.012535573224279459 -0.0023547911158800418 0 -0.01257226125324247 -0.0026371486000346645 0 -0.012968043723111385 -0.0024781156174057345 0 -0.013022960167493797 -0.0028039356113728495 0 -0.01257226125324247 -0.0026371486000346645 0 -0.013240309777627687 -0.0022305752141935811 0 -0.012968043723111385 -0.0024781156174057345 0 -0.012803886265146664 -0.0020860695681736404 0 -0.012968043723111385 -0.0024781156174057345 0 -0.012535573224279459 -0.0023547911158800418 0 -0.012803886265146664 -0.0020860695681736404 0 -0.012535573224279459 -0.0023547911158800418 0 -0.012803886265146664 -0.0020860695681736404 0 -0.012441771955913629 -0.0019751032547804756 0 -0.013240309777627687 -0.0022305752141935811 0 -0.012803886265146664 -0.0020860695681736404 0 -0.013111697713753262 -0.0018862619809671898 0 -0.012667283503197947 -0.0016916147088834117 0 -0.012803886265146664 -0.0020860695681736404 0 -0.013111697713753262 -0.0018862619809671898 0 -0.012667283503197947 -0.0016916147088834117 0 -0.012803886265146664 -0.0020860695681736404 0 -0.012441771955913629 -0.0019751032547804756 0 -0.01116979192555557 -0.002912490839048485 0 -0.012042872487679874 -0.0018645052697175699 0 -0.012381736907948008 -0.0015697197527103845 0 -0.012441771955913629 -0.0019751032547804756 0 -0.012081997968050203 -0.0019790745252820647 0 -0.012194052943072676 -0.0022411277631721491 0 -0.012441771955913629 -0.0019751032547804756 0 -0.012081997968050203 -0.0019790745252820647 0 -0.01116979192555557 -0.002912490839048485 0 -0.010869882320989033 -0.0029446180418458562 0 -0.010008176516673668 -0.0043302610833451036 0 -0.0093620280353065681 -0.0044758374819117595 0 -0.010323200897820628 -0.00346961179754693 0 -0.011867726696862023 -0.0020342134186993907 0 -0.011790274696372212 -0.0021768432004168111 0 -0.011656031711790435 -0.0022152162074622664 0 -0.010008176516673668 -0.0043302610833451036 0 -0.010413723882364887 -0.0040322018664396136 0 -0.010323200897820628 -0.00346961179754693 0 -0.010413723882364887 -0.0040322018664396136 0 -0.010323200897820628 -0.00346961179754693 0 -0.0107390143469679 -0.0037207833360212344 0 -0.010323200897820628 -0.00346961179754693 0 -0.0107390143469679 -0.0037207833360212344 0 -0.011105823381294407 -0.0032415367718274628 0 -0.0066314156992051893 -0.010602516188595219 0 -0.0082086247768058101 -0.0070718776629345908 0 -0.0093390462552126966 -0.006823564625182436 0 -0.0082086247768058101 -0.0070718776629345908 0 -0.010657824079559685 -0.0043467915341107244 0 -0.011312503846529685 -0.0036825642646601433 0 -0.0107390143469679 -0.0037207833360212344 0 -0.010657824079559685 -0.0043467915341107244 0 -0.010413723882364887 -0.0040322018664396136 0 -0.0107390143469679 -0.0037207833360212344 0 -0.011312503846529685 -0.0036825642646601433 0 -0.0107390143469679 -0.0037207833360212344 0 -0.011105823381294407 -0.0032415367718274628 0 -0.011656031711790435 -0.0022152162074622664 0 -0.011742573039076882 -0.0024027689668799116 0 -0.011264273128829 -0.0026389550777425226 0 -0.010323200897820628 -0.00346961179754693 0 -0.011105823381294407 -0.0032415367718274628 0 -0.011264273128829 -0.0026389550777425226 0 -0.010869882320989033 -0.0029446180418458562 0 -0.011293404631612269 -0.0026015867505291834 0 -0.011790274696372212 -0.0021768432004168111 0 -0.011656031711790435 -0.0022152162074622664 0 -0.011742573039076882 -0.0024027689668799116 0 -0.012042872487679874 -0.0018645052697175699 0 -0.011728617671274456 -0.0024631180731375436 0 -0.012172954782123466 -0.0024955376843676792 0 -0.011742573039076882 -0.0024027689668799116 0 -0.01182192876027913 -0.0026738728007883262 0 -0.011742573039076882 -0.0024027689668799116 0 -0.01182192876027913 -0.0026738728007883262 0 -0.011502109477389144 -0.0026258660768812355 0 -0.01182192876027913 -0.0026738728007883262 0 -0.011502109477389144 -0.0026258660768812355 0 -0.011443067749469524 -0.0027163241897186197 0 -0.011742573039076882 -0.0024027689668799116 0 -0.011264273128829 -0.0026389550777425226 0 -0.011502109477389144 -0.0026258660768812355 0 -0.011502109477389144 -0.0026258660768812355 0 -0.011354214390650087 -0.0026046347535653423 0 -0.011443067749469524 -0.0027163241897186197 0 -0.011264273128829 -0.0026389550777425226 0 -0.011502109477389144 -0.0026258660768812355 0 -0.011354214390650087 -0.0026046347535653423 0 -0.011334777581333312 -0.0024115842064704805 0 -0.011354214390650087 -0.0026046347535653423 0 -0.011443067749469524 -0.0027163241897186197 0 -0.011443067749469524 -0.0027163241897186197 0 -0.012010067747581054 -0.0029170173819823217 0 -0.011624189275502005 -0.0028913365422985208 0 -0.01182192876027913 -0.0026738728007883262 0 -0.011443067749469524 -0.0027163241897186197 0 -0.012010067747581054 -0.0029170173819823217 0 -0.012010067747581054 -0.0029170173819823217 0 -0.012283988916472645 -0.0033315494495824547 0 -0.011624189275502005 -0.0028913365422985208 0 -0.012010067747581054 -0.0029170173819823217 0 -0.012491032702594333 -0.003211512305804303 0 -0.012283988916472645 -0.0033315494495824547 0 -0.01182192876027913 -0.0026738728007883262 0 -0.012010067747581054 -0.0029170173819823217 0 -0.012203298185720085 -0.0027211723027746907 0 -0.012010067747581054 -0.0029170173819823217 0 -0.012203298185720085 -0.0027211723027746907 0 -0.012587866554594394 -0.0029570108387118356 0 -0.012172954782123466 -0.0024955376843676792 0 -0.012203298185720085 -0.0027211723027746907 0 -0.01257226125324247 -0.0026371486000346645 0 -0.012172954782123466 -0.0024955376843676792 0 -0.01182192876027913 -0.0026738728007883262 0 -0.012203298185720085 -0.0027211723027746907 0 -0.013022960167493797 -0.0028039356113728495 0 -0.01257226125324247 -0.0026371486000346645 0 -0.012587866554594394 -0.0029570108387118356 0 -0.012203298185720085 -0.0027211723027746907 0 -0.01257226125324247 -0.0026371486000346645 0 -0.012587866554594394 -0.0029570108387118356 0 -0.013172885082198016 -0.0031292269311986838 0 -0.013022960167493797 -0.0028039356113728495 0 -0.012587866554594394 -0.0029570108387118356 0 -0.013172885082198016 -0.0031292269311986838 0 -0.012587866554594394 -0.0029570108387118356 0 -0.012943541644503634 -0.0033433575774889169 0 -0.012587866554594394 -0.0029570108387118356 0 -0.012491032702594333 -0.003211512305804303 0 -0.012943541644503634 -0.0033433575774889169 0 -0.012010067747581054 -0.0029170173819823217 0 -0.012587866554594394 -0.0029570108387118356 0 -0.012491032702594333 -0.003211512305804303 0 -0.012491032702594333 -0.003211512305804303 0 -0.012943541644503634 -0.0033433575774889169 0 -0.012763355958918768 -0.0035379889314325649 0 -0.011312532333711049 -0.0025789904398794508 0 -0.011504501151715198 -0.002800581806159282 0 -0.010456838794660797 -0.0016643515563996396 0 -0.010405815594194118 -0.0018461121091207073 0 -0.01045919365557425 -0.0016245430989166919 0 -0.012943541644503634 -0.0033433575774889169 0 -0.012763355958918768 -0.0035379889314325649 0 -0.013060323752620605 -0.0036643000380417868 0 -0.012763355958918768 -0.0035379889314325649 0 -0.012283988916472645 -0.0033315494495824547 0 -0.013114826683127939 -0.0039827056791342614 0 -0.011921418891159117 -0.0033880931229987115 0 -0.012283988916472645 -0.0033315494495824547 0 -0.013114826683127939 -0.0039827056791342614 0 -0.012491032702594333 -0.003211512305804303 0 -0.012763355958918768 -0.0035379889314325649 0 -0.012283988916472645 -0.0033315494495824547 0 -0.010456838794660797 -0.0016643515563996396 0 -0.010366868119586523 -0.0016772701110295892 0 -0.010405815594194118 -0.0018461121091207073 0 -0.010456838794660797 -0.0016643515563996396 0 -0.010600753932407963 -0.0010841525761757242 0 -0.010409870220429074 -0.0014544893325318254 0 -0.010476353558008227 -0.0016462046265785085 0 -0.010798808279071911 -0.0012643776832465109 0 -0.010456838794660797 -0.0016643515563996396 0 -0.010600753932407963 -0.0010841525761757242 0 -0.011260043512931231 -0.00088513407920890992 0 -0.010366868119586523 -0.0016772701110295892 0 -0.010405815594194118 -0.0018461121091207073 0 -0.010690757663313375 -0.0016172584021104208 0 -0.011921418891159117 -0.0033880931229987115 0 -0.012283988916472645 -0.0033315494495824547 0 -0.011624189275502005 -0.0028913365422985208 0 -0.011921418891159117 -0.0033880931229987115 0 -0.011624189275502005 -0.0028913365422985208 0 -0.011105582233816068 -0.0022011026904513557 0 -0.011443067749469524 -0.0027163241897186197 0 -0.011624189275502005 -0.0028913365422985208 0 -0.011105582233816068 -0.0022011026904513557 0 -0.011334777581333312 -0.0024115842064704805 0 -0.011443067749469524 -0.0027163241897186197 0 -0.011105582233816068 -0.0022011026904513557 0 -0.011105582233816068 -0.0022011026904513557 0 -0.010690757663313375 -0.0016172584021104208 0 -0.011156181197688308 -0.0012072668831201864 0 -0.011312532333711049 -0.0025789904398794508 0 -0.011165345940240693 -0.0022682978396679244 0 -0.010405815594194118 -0.0018461121091207073 0 -0.011105582233816068 -0.0022011026904513557 0 -0.010690757663313375 -0.0016172584021104208 0 -0.010798808279071911 -0.0012643776832465109 0 -0.011140732165900863 -0.00059401080178740596 0 -0.010366868119586523 -0.0016772701110295892 0 -0.010690757663313375 -0.0016172584021104208 0 -0.010674938447980807 -0.0010226530695632025 0 -0.010690757663313375 -0.0016172584021104208 0 -0.011156181197688308 -0.0012072668831201864 0 -0.010674938447980807 -0.0010226530695632025 0 -0.011156181197688308 -0.0012072668831201864 0 -0.010674938447980807 -0.0010226530695632025 0 -0.011239993227279893 -0.0002840707094203909 0 -0.011605132906840175 -0.0001343753891092068 0 -0.011543098841992203 -0.00014524532287381366 0 -0.011239993227279893 -0.0002840707094203909 0 -0.011140732165900863 -0.00059401080178740596 0 -0.011248380561325641 -0.00030487331808459403 0 -0.011605132906840175 -0.0001343753891092068 0 -0.011454411810231603 -0.00021599374978628885 0 -0.011543098841992203 -0.00014524532287381366 0 -0.011454411810231603 -0.00021599374978628885 0 -0.011527070129814639 -0.00017313524467460196 0 -0.011545732636115127 -0.00011249828601342232 0 -0.011454411810231603 -0.00021599374978628885 0 -0.011545732636115127 -0.00011249828601342232 0 -0.011543098841992203 -0.00014524532287381366 0 -0.011454411810231603 -0.00021599374978628885 0 -0.011527070129814639 -0.00017313524467460196 0 -0.011563216301299044 -9.856500423693806e-05 0 -0.011527070129814639 -0.00017313524467460196 0 -0.011598440038637825 -0.00026141091171765949 0 -0.011658479565205104 -0.00017690685510349897 0 -0.011527070129814639 -0.00017313524467460196 0 -0.011563216301299044 -9.856500423693806e-05 0 -0.011658479565205104 -0.00017690685510349897 0 -0.010600753932407963 -0.0010841525761757242 0 -0.011260043512931231 -0.00088513407920890992 0 -0.010790490885426258 -0.00053721908887243298 0 -0.011260043512931231 -0.00088513407920890992 0 -0.011454411810231603 -0.00021599374978628885 0 -0.010790490885426258 -0.00053721908887243298 0 -0.011260043512931231 -0.00088513407920890992 0 -0.011605132906840175 -0.0001343753891092068 0 -0.011454411810231603 -0.00021599374978628885 0 -0.0114085643889177 -0.00023081003559451005 0 -0.011284644278547296 -0.00030405152086817352 0 -0.0075989079381925465 -0.0054757078850125466 0 -0.0075950638704954197 -0.0054890943813994441 0 -0.0075645002181795049 -0.0054930544214845242 0 -0.0075895258165698054 -0.0054883545913253845 0 -0.0075645002181795049 -0.0054930544214845242 0 -0.0075684088565778195 -0.0054891260102310456 0 -0.0075895258165698054 -0.0054883545913253845 0 -0.0075989079381925465 -0.0054757078850125466 0 -0.0075645002181795049 -0.0054930544214845242 0 -0.009582483570804632 -0.0039614269004991792 0 -0.0096250101756060538 -0.0040910487784910424 0 -0.0075844743645120897 -0.0054926091000515693 0 -0.0075895258165698054 -0.0054883545913253845 0 -0.0075989079381925465 -0.0054757078850125466 0 -0.011751814823029387 -0.0017450313808718117 0 -0.01155847336776644 -0.0011426135550674159 0 -0.011591310150384181 -0.00087978256873519226 0 -0.011751814823029387 -0.0017450313808718117 0 -0.0114949576144258 -0.0012577226802646248 0 -0.01155847336776644 -0.0011426135550674159 0 -0.0096250101756060538 -0.0040910487784910424 0 -0.0090448949256027953 -0.00058815891812881373 0 -0.011751814823029387 -0.0017450313808718117 0 -0.0114949576144258 -0.0012577226802646248 0 -0.01138967104333124 -0.0018027154989378074 0 -0.0114949576144258 -0.0012577226802646248 0 -0.01138967104333124 -0.0018027154989378074 0 -0.011350894163991808 -0.0011058211087258702 0 -0.011651226540562868 -0.0023993911331490802 0 -0.011751814823029387 -0.0017450313808718117 0 -0.01138967104333124 -0.0018027154989378074 0 -0.011334777581333312 -0.0024115842064704805 0 -0.011651226540562868 -0.0023993911331490802 0 -0.01138967104333124 -0.0018027154989378074 0 -0.011334777581333312 -0.0024115842064704805 0 -0.011105582233816068 -0.0022011026904513557 0 -0.01138967104333124 -0.0018027154989378074 0 -0.011105582233816068 -0.0022011026904513557 0 -0.011156181197688308 -0.0012072668831201864 0 -0.01138967104333124 -0.0018027154989378074 0 -0.011156181197688308 -0.0012072668831201864 0 -0.01138967104333124 -0.0018027154989378074 0 -0.011350894163991808 -0.0011058211087258702 0 -0.011156181197688308 -0.0012072668831201864 0 -0.011302781237504538 -0.00056679003515852601 0 -0.011350894163991808 -0.0011058211087258702 0 -0.011156181197688308 -0.0012072668831201864 0 -0.011302781237504538 -0.00056679003515852601 0 -0.011239993227279893 -0.0002840707094203909 0 -0.011302781237504538 -0.00056679003515852601 0 -0.011413457835287544 -0.00071650627930190691 0 -0.011191571439423283 -0.0003357038790829673 0 -0.011302781237504538 -0.00056679003515852601 0 -0.011350894163991808 -0.0011058211087258702 0 -0.011413457835287544 -0.00071650627930190691 0 -0.0114949576144258 -0.0012577226802646248 0 -0.011350894163991808 -0.0011058211087258702 0 -0.011413457835287544 -0.00071650627930190691 0 -0.0114949576144258 -0.0012577226802646248 0 -0.01155847336776644 -0.0011426135550674159 0 -0.011413457835287544 -0.00071650627930190691 0 -0.01155847336776644 -0.0011426135550674159 0 -0.011413457835287544 -0.00071650627930190691 0 -0.011591310150384181 -0.00087978256873519226 0 -0.011413457835287544 -0.00071650627930190691 0 -0.011191571439423283 -0.0003357038790829673 0 -0.010952020631659279 -0.00011710832072384991 0 -0.011413457835287544 -0.00071650627930190691 0 -0.011591310150384181 -0.00087978256873519226 0 -0.010952020631659279 -0.00011710832072384991 0 -0.0090448949256027953 -0.00058815891812881373 0 -0.010427089072797775 0.0015349961491640126 0 -0.010927587251639214 -0.00018022151721986239 0 -0.010384413514438666 -0.00012561903378131235 0 -0.010952020631659279 -0.00011710832072384991 0 -0.011191571439423283 -0.0003357038790829673 0 -0.010927587251639214 -0.00018022151721986239 0 -0.010952020631659279 -0.00011710832072384991 0 -0.011191571439423283 -0.0003357038790829673 0 -0.010927587251639214 -0.00018022151721986239 0 -0.011214338188459195 -0.00025056497119979121 0 -0.010927587251639214 -0.00018022151721986239 0 -0.011214338188459195 -0.00025056497119979121 0 -0.011121336574452873 -0.00027067682462843381 0 -0.011214338188459195 -0.00025056497119979121 0 -0.01132487681711042 -0.00020849197642015018 0 -0.011121336574452873 -0.00027067682462843381 0 -0.011302781237504538 -0.00056679003515852601 0 -0.011191571439423283 -0.0003357038790829673 0 -0.011214338188459195 -0.00025056497119979121 0 -0.011302781237504538 -0.00056679003515852601 0 -0.011214338188459195 -0.00025056497119979121 0 -0.011239993227279893 -0.0002840707094203909 0 -0.011214338188459195 -0.00025056497119979121 0 -0.01132487681711042 -0.00020849197642015018 0 -0.011239993227279893 -0.0002840707094203909 0 -0.01132487681711042 -0.00020849197642015018 0 -0.011289814765880557 -0.00031389508156792577 0 -0.011121336574452873 -0.00027067682462843381 0 -0.01132487681711042 -0.00020849197642015018 0 -0.011289814765880557 -0.00031389508156792577 0 -0.011488311214802824 -0.00021386384044928347 0 -0.011289814765880557 -0.00031389508156792577 0 -0.011367770260839478 -0.000511063299252904 0 -0.011488311214802824 -0.00021386384044928347 0 -0.011332417510385887 -0.00012186271323927371 0 -0.011486817194641235 -0.0002324672387247659 0 -0.011332417510385887 -0.00012186271323927371 0 -0.011066017306390929 -0.00029435175299867864 0 -0.011289814765880557 -0.00031389508156792577 0 -0.011367770260839478 -0.000511063299252904 0 -0.011136317335931132 -0.00042395508954562195 0 -0.011136317335931132 -0.00042395508954562195 0 -0.010733855905979752 -0.00039420680719270447 0 -0.011112977274104825 -0.000663277352803059 0 -0.011367770260839478 -0.000511063299252904 0 -0.011136317335931132 -0.00042395508954562195 0 -0.011112977274104825 -0.000663277352803059 0 -0.011136317335931132 -0.00042395508954562195 0 -0.011121336574452873 -0.00027067682462843381 0 -0.010733855905979752 -0.00039420680719270447 0 -0.011289814765880557 -0.00031389508156792577 0 -0.011136317335931132 -0.00042395508954562195 0 -0.011121336574452873 -0.00027067682462843381 0 -0.010927587251639214 -0.00018022151721986239 0 -0.011121336574452873 -0.00027067682462843381 0 -0.010733855905979752 -0.00039420680719270447 0 -0.011009678733791444 -0.00049865136205549303 0 -0.0094357021573490928 -0.00087198098804687246 0 -0.010733855905979752 -0.00039420680719270447 0 -0.011112977274104825 -0.000663277352803059 0 -0.010807829109995004 -0.00081102532226758788 0 -0.010733855905979752 -0.00039420680719270447 0 -0.010247564756023746 -0.00072116482644074759 0 -0.010787170470336359 -0.0010406279315939195 0 -0.010733855905979752 -0.00039420680719270447 0 -0.010247564756023746 -0.00072116482644074759 0 -0.010384413514438666 -0.00012561903378131235 0 -0.010247564756023746 -0.00072116482644074759 0 -0.010384413514438666 -0.00012561903378131235 0 -0.0096930757774842322 -0.00042970093400132613 0 -0.010927587251639214 -0.00018022151721986239 0 -0.010733855905979752 -0.00039420680719270447 0 -0.010384413514438666 -0.00012561903378131235 0 -0.011616164150326166 -4.8330580748239618e-05 0 -0.011578427178530854 -8.1596604082014089e-05 0 -0.011662479933410649 -1.186881101623511e-05 0 -0.011616164150326166 -4.8330580748239618e-05 0 -0.011531491480590125 -0.00014378413102721964 0 -0.011578427178530854 -8.1596604082014089e-05 0 -0.011616164150326166 -4.8330580748239618e-05 0 -0.011742365299199394 2.7975693222677198e-05 0 -0.011725755849237064 7.7206319334491649e-05 0 -0.011742365299199394 2.7975693222677198e-05 0 -0.011717603703424824 9.001574851207755e-06 0 -0.011825473539276727 5.0609745162512433e-05 0 -0.011616164150326166 -4.8330580748239618e-05 0 -0.011742365299199394 2.7975693222677198e-05 0 -0.011717603703424824 9.001574851207755e-06 0 -0.011616164150326166 -4.8330580748239618e-05 0 -0.011725755849237064 7.7206319334491649e-05 0 -0.011545732636115127 -0.00011249828601342232 0 -0.011740771831614712 -0.0001073364740635902 0 -0.011550081138315151 -0.00010424009941584908 0 -0.011527070129814639 -0.00017313524467460196 0 -0.011598440038637825 -0.00026141091171765949 0 -0.011545732636115127 -0.00011249828601342232 0 -0.011616164150326166 -4.8330580748239618e-05 0 -0.011545732636115127 -0.00011249828601342232 0 -0.011531491480590125 -0.00014378413102721964 0 -0.011543098841992203 -0.00014524532287381366 0 -0.011531491480590125 -0.00014378413102721964 0 -0.011239993227279893 -0.0002840707094203909 0 -0.011545732636115127 -0.00011249828601342232 0 -0.011543098841992203 -0.00014524532287381366 0 -0.011531491480590125 -0.00014378413102721964 0 -0.011531491480590125 -0.00014378413102721964 0 -0.011239993227279893 -0.0002840707094203909 0 -0.011399721673668445 -0.00019839876859051073 0 -0.01132487681711042 -0.00020849197642015018 0 -0.011239993227279893 -0.0002840707094203909 0 -0.011399721673668445 -0.00019839876859051073 0 -0.011399721673668445 -0.00019839876859051073 0 -0.011506297195022296 -0.00014913483731410565 0 -0.011465906998161199 -0.00018007848034715663 0 -0.01132487681711042 -0.00020849197642015018 0 -0.011399721673668445 -0.00019839876859051073 0 -0.011465906998161199 -0.00018007848034715663 0 -0.011531491480590125 -0.00014378413102721964 0 -0.011399721673668445 -0.00019839876859051073 0 -0.011506297195022296 -0.00014913483731410565 0 -0.011531491480590125 -0.00014378413102721964 0 -0.011506297195022296 -0.00014913483731410565 0 -0.011578427178530854 -8.1596604082014089e-05 0 -0.011578427178530854 -8.1596604082014089e-05 0 -0.011527113708044061 -0.00011961304803551534 0 -0.011588043128799467 -5.8955589517703805e-05 0 -0.011506297195022296 -0.00014913483731410565 0 -0.011527113708044061 -0.00011961304803551534 0 -0.011465906998161199 -0.00018007848034715663 0 -0.011506297195022296 -0.00014913483731410565 0 -0.011578427178530854 -8.1596604082014089e-05 0 -0.011527113708044061 -0.00011961304803551534 0 -0.011527113708044061 -0.00011961304803551534 0 -0.011544391165370435 -7.3294311699604597e-05 0 -0.011588043128799467 -5.8955589517703805e-05 0 -0.011527113708044061 -0.00011961304803551534 0 -0.011544391165370435 -7.3294311699604597e-05 0 -0.011500831513073432 -0.00014342355497218588 0 -0.01132487681711042 -0.00020849197642015018 0 -0.011465906998161199 -0.00018007848034715663 0 -0.011488311214802824 -0.00021386384044928347 0 -0.011527113708044061 -0.00011961304803551534 0 -0.011465906998161199 -0.00018007848034715663 0 -0.011500831513073432 -0.00014342355497218588 0 -0.011465906998161199 -0.00018007848034715663 0 -0.011500831513073432 -0.00014342355497218588 0 -0.011488311214802824 -0.00021386384044928347 0 -0.011544391165370435 -7.3294311699604597e-05 0 -0.011500831513073432 -0.00014342355497218588 0 -0.011507558174961397 -8.5100982343244775e-05 0 -0.011500831513073432 -0.00014342355497218588 0 -0.011488311214802824 -0.00021386384044928347 0 -0.011507558174961397 -8.5100982343244775e-05 0 -0.011525639885963557 -2.3361400218252926e-05 0 -0.011507558174961397 -8.5100982343244775e-05 0 -0.011533906383984086 5.8388911715850825e-06 0 -0.011507558174961397 -8.5100982343244775e-05 0 -0.011564545974820258 -2.1515628008386085e-05 0 -0.011533906383984086 5.8388911715850825e-06 0 -0.011643185831802348 -1.9584927034701639e-05 0 -0.011488311214802824 -0.00021386384044928347 0 -0.011507558174961397 -8.5100982343244775e-05 0 -0.011332417510385887 -0.00012186271323927371 0 -0.01157688715903349 -3.7644081343209458e-05 0 -0.011544391165370435 -7.3294311699604597e-05 0 -0.011507558174961397 -8.5100982343244775e-05 0 -0.011564545974820258 -2.1515628008386085e-05 0 -0.011621371647225636 -1.0783580749045658e-05 0 -0.011701367744239409 5.5022983955618985e-05 0 -0.011634470566450424 3.0393952530752443e-05 0 -0.011621371647225636 -1.0783580749045658e-05 0 -0.011564545974820258 -2.1515628008386085e-05 0 -0.011634470566450424 3.0393952530752443e-05 0 -0.011544391165370435 -7.3294311699604597e-05 0 -0.011588043128799467 -5.8955589517703805e-05 0 -0.011621371647225636 -1.0783580749045658e-05 0 -0.011544391165370435 -7.3294311699604597e-05 0 -0.011621371647225636 -1.0783580749045658e-05 0 -0.011564545974820258 -2.1515628008386085e-05 0 -0.011621371647225636 -1.0783580749045658e-05 0 -0.011750114888520666 5.8498768776680914e-05 0 -0.011701367744239409 5.5022983955618985e-05 0 -0.011621371647225636 -1.0783580749045658e-05 0 -0.011662479933410649 -1.186881101623511e-05 0 -0.011750114888520666 5.8498768776680914e-05 0 -0.011616164150326166 -4.8330580748239618e-05 0 -0.011662479933410649 -1.186881101623511e-05 0 -0.011717603703424824 9.001574851207755e-06 0 -0.011588043128799467 -5.8955589517703805e-05 0 -0.011621371647225636 -1.0783580749045658e-05 0 -0.011662479933410649 -1.186881101623511e-05 0 -0.011578427178530854 -8.1596604082014089e-05 0 -0.011588043128799467 -5.8955589517703805e-05 0 -0.011662479933410649 -1.186881101623511e-05 0 -0.011662479933410649 -1.186881101623511e-05 0 -0.011717603703424824 9.001574851207755e-06 0 -0.011783107242757954 5.0143852453953947e-05 0 -0.011717603703424824 9.001574851207755e-06 0 -0.011783107242757954 5.0143852453953947e-05 0 -0.011825473539276727 5.0609745162512433e-05 0 -0.011662479933410649 -1.186881101623511e-05 0 -0.011783107242757954 5.0143852453953947e-05 0 -0.011750114888520666 5.8498768776680914e-05 0 -0.011783107242757954 5.0143852453953947e-05 0 -0.011750114888520666 5.8498768776680914e-05 0 -0.011882963114700008 0.00013389828920492726 0 -0.011783107242757954 5.0143852453953947e-05 0 -0.01187328197886567 9.2926463759055163e-05 0 -0.011882963114700008 0.00013389828920492726 0 -0.01187328197886567 9.2926463759055163e-05 0 -0.011951554595115056 0.00014503730352044572 0 -0.011882963114700008 0.00013389828920492726 0 -0.011951554595115056 0.00014503730352044572 0 -0.011977518772913878 0.00014529334317390382 0 -0.012026270856466922 0.000200395370082804 0 -0.011951554595115056 0.00014503730352044572 0 -0.011977518772913878 0.00014529334317390382 0 -0.011918316313558584 9.9174333934669992e-05 0 -0.01187328197886567 9.2926463759055163e-05 0 -0.011951554595115056 0.00014503730352044572 0 -0.011918316313558584 9.9174333934669992e-05 0 -0.011977518772913878 0.00014529334317390382 0 -0.011918316313558584 9.9174333934669992e-05 0 -0.011952238876067165 0.00011689864045176027 0 -0.011918316313558584 9.9174333934669992e-05 0 -0.011825473539276727 5.0609745162512433e-05 0 -0.011899416011185177 6.0325692260441512e-05 0 -0.011918316313558584 9.9174333934669992e-05 0 -0.011899416011185177 6.0325692260441512e-05 0 -0.011952238876067165 0.00011689864045176027 0 -0.011783107242757954 5.0143852453953947e-05 0 -0.01187328197886567 9.2926463759055163e-05 0 -0.011825473539276727 5.0609745162512433e-05 0 -0.01187328197886567 9.2926463759055163e-05 0 -0.011918316313558584 9.9174333934669992e-05 0 -0.011825473539276727 5.0609745162512433e-05 0 -0.011742365299199394 2.7975693222677198e-05 0 -0.011725755849237064 7.7206319334491649e-05 0 -0.011816005485196316 6.8060257470287273e-05 0 -0.011742365299199394 2.7975693222677198e-05 0 -0.011825473539276727 5.0609745162512433e-05 0 -0.011816005485196316 6.8060257470287273e-05 0 -0.011825473539276727 5.0609745162512433e-05 0 -0.011816005485196316 6.8060257470287273e-05 0 -0.011899416011185177 6.0325692260441512e-05 0 -0.011899416011185177 6.0325692260441512e-05 0 -0.012010626163508434 9.1691821024494647e-05 0 -0.012067477428748958 2.0743775584101816e-05 0 -0.011816005485196316 6.8060257470287273e-05 0 -0.011899416011185177 6.0325692260441512e-05 0 -0.01189712751601257 0.00015152319996263451 0 -0.011899416011185177 6.0325692260441512e-05 0 -0.01189712751601257 0.00015152319996263451 0 -0.012010626163508434 9.1691821024494647e-05 0 -0.011799973127148282 -0.00033968762477004091 0 -0.011921392924252341 -0.00028705785920888472 0 -0.011811162963940807 -0.00017078398753622067 0 -0.011725755849237064 7.7206319334491649e-05 0 -0.011816005485196316 6.8060257470287273e-05 0 -0.01189712751601257 0.00015152319996263451 0 -0.011740771831614712 -0.0001073364740635902 0 -0.011559650925148449 -1.659038078976251e-05 0 -0.011598440038637825 -0.00026141091171765949 0 -0.011799973127148282 -0.00033968762477004091 0 -0.011658479565205104 -0.00017690685510349897 0 -0.015686733718980803 -0.0012768762247758842 0 -0.016352016788126377 -0.0023414064690930963 0 -0.016808307647653887 -0.0015935007478382181 0 -0.016514201640556284 -0.001906290234099645 0 -0.016722966364631758 -0.0022349179353547566 0 -0.015991654239066927 -0.0015442789852944156 0 -0.016177187505163945 -0.0015675819996878255 0 -0.015889696529347554 -0.002368640659602691 0 -0.016808307647653887 -0.0015935007478382181 0 -0.016700668444619093 -0.0015809259727858724 0 -0.01655443681986871 -0.0016835977974245368 0 -0.016808307647653887 -0.0015935007478382181 0 -0.01655443681986871 -0.0016835977974245368 0 -0.016514201640556284 -0.001906290234099645 0 -0.016786963596172124 -0.0015896992400100118 0 -0.016700668444619093 -0.0015809259727858724 0 -0.016671259624309272 -0.001468178157818996 0 -0.015686733718980803 -0.0012768762247758842 0 -0.01612944952703415 -0.0013548292278873636 0 -0.016700668444619093 -0.0015809259727858724 0 -0.01655443681986871 -0.0016835977974245368 0 -0.016541674104047912 -0.0015027192265712633 0 -0.01655443681986871 -0.0016835977974245368 0 -0.016514201640556284 -0.001906290234099645 0 -0.016371961717303495 -0.0016058888794800541 0 -0.01655443681986871 -0.0016835977974245368 0 -0.016541674104047912 -0.0015027192265712633 0 -0.016371961717303495 -0.0016058888794800541 0 -0.01189712751601257 0.00015152319996263451 0 -0.012109992707859677 0.00015961975039983789 0 -0.012010626163508434 9.1691821024494647e-05 0 -0.011799973127148282 -0.00033968762477004091 0 -0.011921392924252341 -0.00028705785920888472 0 -0.012026756867346552 -0.00038413854330868701 0 -0.013449495724743741 -0.00082670906292631934 0 -0.01428449167155048 -0.0012886795515743383 0 -0.011921392924252341 -0.00028705785920888472 0 -0.012026756867346552 -0.00038413854330868701 0 -0.011975281234418879 -0.00017706029247571979 0 -0.011559650925148449 -1.659038078976251e-05 0 -0.013449495724743741 -0.00082670906292631934 0 -0.015686733718980803 -0.0012768762247758842 0 -0.013449495724743741 -0.00082670906292631934 0 -0.014153398667570573 -0.0012954911496599983 0 -0.014416363786716187 -0.0013276996881677846 0 -0.014270555078971158 -0.00055364223317513265 0 -0.013449495724743741 -0.00082670906292631934 0 -0.013899023958734236 -0.00055267164114658506 0 -0.012109992707859677 0.00015961975039983789 0 -0.012083556422656782 7.4084624046478898e-05 0 -0.01214711174978662 2.4829727043033429e-05 0 -0.011899416011185177 6.0325692260441512e-05 0 -0.012067477428748958 2.0743775584101816e-05 0 -0.012168980494754204 -9.610045028691842e-05 0 -0.015686733718980803 -0.0012768762247758842 0 -0.013899023958734236 -0.00055267164114658506 0 -0.012109992707859677 0.00015961975039983789 0 -0.012083556422656782 7.4084624046478898e-05 0 -0.012010626163508434 9.1691821024494647e-05 0 -0.012083556422656782 7.4084624046478898e-05 0 -0.012010626163508434 9.1691821024494647e-05 0 -0.012067477428748958 2.0743775584101816e-05 0 -0.012083556422656782 7.4084624046478898e-05 0 -0.012067477428748958 2.0743775584101816e-05 0 -0.01214711174978662 2.4829727043033429e-05 0 -0.012067477428748958 2.0743775584101816e-05 0 -0.01214711174978662 2.4829727043033429e-05 0 -0.012142804349975719 -2.1248832986375034e-05 0 -0.013899023958734236 -0.00055267164114658506 0 -0.013615432656231247 -0.00037458214283490258 0 -0.016669879423689218 -0.001174271220145437 0 -0.016708070614893305 -0.0013597921787371103 0 -0.016591793129963069 -0.0013310462632020535 0 -0.016819607261804134 -0.0012373125108229776 0 -0.016669879423689218 -0.001174271220145437 0 -0.016708070614893305 -0.0013597921787371103 0 -0.016786963596172124 -0.0015896992400100118 0 -0.016708070614893305 -0.0013597921787371103 0 -0.016671259624309272 -0.001468178157818996 0 -0.016786963596172124 -0.0015896992400100118 0 -0.016819607261804134 -0.0012373125108229776 0 -0.016708070614893305 -0.0013597921787371103 0 -0.016708070614893305 -0.0013597921787371103 0 -0.016671259624309272 -0.001468178157818996 0 -0.016591793129963069 -0.0013310462632020535 0 -0.016700668444619093 -0.0015809259727858724 0 -0.016671259624309272 -0.001468178157818996 0 -0.016541674104047912 -0.0015027192265712633 0 -0.016541674104047912 -0.0015027192265712633 0 -0.016435981328777511 -0.0013743715857217783 0 -0.016371961717303495 -0.0016058888794800541 0 -0.016671259624309272 -0.001468178157818996 0 -0.016541674104047912 -0.0015027192265712633 0 -0.016591793129963069 -0.0013310462632020535 0 -0.016541674104047912 -0.0015027192265712633 0 -0.016591793129963069 -0.0013310462632020535 0 -0.016435981328777511 -0.0013743715857217783 0 -0.016591793129963069 -0.0013310462632020535 0 -0.016435981328777511 -0.0013743715857217783 0 -0.016499223548490736 -0.0012108860321842587 0 -0.016435981328777511 -0.0013743715857217783 0 -0.016499223548490736 -0.0012108860321842587 0 -0.016351241941228622 -0.001227423239990753 0 -0.016669879423689218 -0.001174271220145437 0 -0.016591793129963069 -0.0013310462632020535 0 -0.016499223548490736 -0.0012108860321842587 0 -0.016669879423689218 -0.001174271220145437 0 -0.016499223548490736 -0.0012108860321842587 0 -0.016546245913563254 -0.001079749307129291 0 -0.016499223548490736 -0.0012108860321842587 0 -0.016546245913563254 -0.001079749307129291 0 -0.016397229939688458 -0.0011077533683309425 0 -0.016546245913563254 -0.001079749307129291 0 -0.016397229939688458 -0.0011077533683309425 0 -0.016372487197291931 -0.00098118959848964666 0 -0.012046847973333592 0.00012375060669157951 0 -0.012016033497073954 0.00015352729694979476 0 -0.011995588868845978 0.00015196264062149501 0 -0.016754023632185203 -0.00097589269112983599 0 -0.016127916113571224 -0.00073787596990361384 0 -0.016372487197291931 -0.00098118959848964666 0 -0.013131533010920547 -0.00041056571962660277 0 -0.014654453037339121 4.4440961066712583e-05 0 -0.016546245913563254 -0.001079749307129291 0 -0.016754023632185203 -0.00097589269112983599 0 -0.016372487197291931 -0.00098118959848964666 0 -0.016669879423689218 -0.001174271220145437 0 -0.016546245913563254 -0.001079749307129291 0 -0.016754023632185203 -0.00097589269112983599 0 -0.016819607261804134 -0.0012373125108229776 0 -0.016669879423689218 -0.001174271220145437 0 -0.016754023632185203 -0.00097589269112983599 0 -0.011452081005457772 0.00024101385742745758 0 -0.013131533010920547 -0.00041056571962660277 0 -0.011899416011185177 6.0325692260441512e-05 0 -0.011971776804548993 0.000127855106120618 0 -0.011952238876067165 0.00011689864045176027 0 -0.012067477428748958 2.0743775584101816e-05 0 -0.012142804349975719 -2.1248832986375034e-05 0 -0.012168980494754204 -9.610045028691842e-05 0 -0.013899023958734236 -0.00055267164114658506 0 -0.013131533010920547 -0.00041056571962660277 0 -0.012155899056164602 2.7977693040165502e-05 0 -0.012142804349975719 -2.1248832986375034e-05 0 -0.012168980494754204 -9.610045028691842e-05 0 -0.011971776804548993 0.000127855106120618 0 -0.011952238876067165 0.00011689864045176027 0 -0.011988287134186747 0.00014912920679922568 0 -0.011977518772913878 0.00014529334317390382 0 -0.011952238876067165 0.00011689864045176027 0 -0.011988287134186747 0.00014912920679922568 0 -0.011988287134186747 0.00014912920679922568 0 -0.012023324751699429 0.00018690551441450702 0 -0.012012646614137302 0.00018476938533430317 0 -0.011977518772913878 0.00014529334317390382 0 -0.012026270856466922 0.000200395370082804 0 -0.012023324751699429 0.00018690551441450702 0 -0.011977518772913878 0.00014529334317390382 0 -0.011988287134186747 0.00014912920679922568 0 -0.012023324751699429 0.00018690551441450702 0 -0.013131533010920547 -0.00041056571962660277 0 -0.011729785383336883 0.00043818133080043468 0 -0.011971776804548993 0.000127855106120618 0 -0.011988287134186747 0.00014912920679922568 0 -0.012012646614137302 0.00018476938533430317 0 -0.012046847973333592 0.00012375060669157951 0 -0.012016033497073954 0.00015352729694979476 0 -0.012012646614137302 0.00018476938533430317 0 -0.012016033497073954 0.00015352729694979476 0 -0.012003878103420585 0.00017272339904496057 0 -0.012012646614137302 0.00018476938533430317 0 -0.012003878103420585 0.00017272339904496057 0 -0.012012646614137302 0.00018476938533430317 0 -0.011984217194432304 0.00019406630115709349 0 -0.013526813545449665 0.0019559547537015003 0 -0.013542340813271152 0.0017521723458314036 0 -0.013343700855680762 0.0017280512638934984 0 -0.012016033497073954 0.00015352729694979476 0 -0.012003878103420585 0.00017272339904496057 0 -0.011995588868845978 0.00015196264062149501 0 -0.012003878103420585 0.00017272339904496057 0 -0.011995588868845978 0.00015196264062149501 0 -0.011984217194432304 0.00019406630115709349 0 -0.014654453037339121 4.4440961066712583e-05 0 -0.012532486451544939 0.0010147504199025223 0 -0.013526813545449665 0.0019559547537015003 0 -0.013704759630105416 0.0018902351843677399 0 -0.013542340813271152 0.0017521723458314036 0 -0.01577360406854765 -0.00023441811083422419 0 -0.015580358586659369 -8.2641124301238421e-05 0 -0.015667265043047041 -4.9046821871251222e-05 0 -0.014654453037339121 4.4440961066712583e-05 0 -0.015255810724042309 0.00024312149016554696 0 -0.016103963083416727 -0.00077983824149340322 0 -0.015857744963384979 -0.0006861878340368732 0 -0.015947639641135242 -0.0010726722536774423 0 -0.014654453037339121 4.4440961066712583e-05 0 -0.015963511996382705 -0.0010086352348698745 0 -0.015255810724042309 0.00024312149016554696 0 -0.015997930062436608 -0.0015150226410323502 0 -0.015857744963384979 -0.0006861878340368732 0 -0.015947639641135242 -0.0010726722536774423 0 -0.01582426430900807 -0.0012405085374913201 0 -0.016004427180610094 -0.000341102481573241 0 -0.01556120447923013 -0.00072492932075534755 0 -0.01582426430900807 -0.0012405085374913201 0 -0.016127916113571224 -0.00073787596990361384 0 -0.016214058905716044 -0.0011124870470537863 0 -0.016372487197291931 -0.00098118959848964666 0 -0.016127916113571224 -0.00073787596990361384 0 -0.015947639641135242 -0.0010726722536774423 0 -0.016214058905716044 -0.0011124870470537863 0 -0.016214058905716044 -0.0011124870470537863 0 -0.016397229939688458 -0.0011077533683309425 0 -0.016372487197291931 -0.00098118959848964666 0 -0.014999914952091489 -0.0002300288299703719 0 -0.015255952831440697 -0.00079104329232224514 0 -0.014999865317210592 -0.0012798524392394174 0 -0.014999914952091489 -0.0002300288299703719 0 -0.015297287552521905 -0.00044348418676334856 0 -0.015255952831440697 -0.00079104329232224514 0 -0.014999914952091489 -0.0002300288299703719 0 -0.015297287552521905 -0.00044348418676334856 0 -0.015495496273506019 -0.00015269395610935493 0 -0.014999914952091489 -0.0002300288299703719 0 -0.015495496273506019 -0.00015269395610935493 0 -0.015491412864515237 -2.3089561301328335e-05 0 -0.01499988646379671 -0.00022971995317098778 0 -0.015435256219892843 0.00013679327856070848 0 -0.01577360406854765 -0.00023441811083422419 0 -0.015495496273506019 -0.00015269395610935493 0 -0.015580358586659369 -8.2641124301238421e-05 0 -0.016004427180610094 -0.000341102481573241 0 -0.015495496273506019 -0.00015269395610935493 0 -0.015658148831386127 -0.00040140896658972023 0 -0.015255810724042309 0.00024312149016554696 0 -0.015786777629256524 -0.00027264957959557306 0 -0.015297287552521905 -0.00044348418676334856 0 -0.015487902142324761 -0.00039685904214320066 0 -0.015495496273506019 -0.00015269395610935493 0 -0.015487902142324761 -0.00039685904214320066 0 -0.015658148831386127 -0.00040140896658972023 0 -0.01556120447923013 -0.00072492932075534755 0 -0.015487902142324761 -0.00039685904214320066 0 -0.015495496273506019 -0.00015269395610935493 0 -0.015658148831386127 -0.00040140896658972023 0 -0.016004427180610094 -0.000341102481573241 0 -0.015658148831386127 -0.00040140896658972023 0 -0.01556120447923013 -0.00072492932075534755 0 -0.01556120447923013 -0.00072492932075534755 0 -0.015255952831440697 -0.00079104329232224514 0 -0.01542765814163761 -0.0011814342403573773 0 -0.015297287552521905 -0.00044348418676334856 0 -0.015487902142324761 -0.00039685904214320066 0 -0.01556120447923013 -0.00072492932075534755 0 -0.015297287552521905 -0.00044348418676334856 0 -0.01556120447923013 -0.00072492932075534755 0 -0.015255952831440697 -0.00079104329232224514 0 -0.014999865317210592 -0.0012798524392394174 0 -0.01542765814163761 -0.0011814342403573773 0 -0.015570458278834014 -0.0017595477837955126 0 -0.015255952831440697 -0.00079104329232224514 0 -0.014999865317210592 -0.0012798524392394174 0 -0.01542765814163761 -0.0011814342403573773 0 -0.01542765814163761 -0.0011814342403573773 0 -0.015570458278834014 -0.0017595477837955126 0 -0.01582426430900807 -0.0012405085374913201 0 -0.01556120447923013 -0.00072492932075534755 0 -0.01542765814163761 -0.0011814342403573773 0 -0.01582426430900807 -0.0012405085374913201 0 -0.016259456271565203 -0.0013782582664430738 0 -0.016051473910946221 -0.0013343724268455347 0 -0.016139315080037769 -0.0015419657337333616 0 -0.016435981328777511 -0.0013743715857217783 0 -0.016259456271565203 -0.0013782582664430738 0 -0.016371961717303495 -0.0016058888794800541 0 -0.016259456271565203 -0.0013782582664430738 0 -0.016139315080037769 -0.0015419657337333616 0 -0.016371961717303495 -0.0016058888794800541 0 -0.016435981328777511 -0.0013743715857217783 0 -0.016259456271565203 -0.0013782582664430738 0 -0.016351241941228622 -0.001227423239990753 0 -0.016214058905716044 -0.0011124870470537863 0 -0.016259456271565203 -0.0013782582664430738 0 -0.016351241941228622 -0.001227423239990753 0 -0.016214058905716044 -0.0011124870470537863 0 -0.016397229939688458 -0.0011077533683309425 0 -0.016351241941228622 -0.001227423239990753 0 -0.016499223548490736 -0.0012108860321842587 0 -0.016397229939688458 -0.0011077533683309425 0 -0.016351241941228622 -0.001227423239990753 0 -0.015947639641135242 -0.0010726722536774423 0 -0.016214058905716044 -0.0011124870470537863 0 -0.016051473910946221 -0.0013343724268455347 0 -0.016214058905716044 -0.0011124870470537863 0 -0.016259456271565203 -0.0013782582664430738 0 -0.016051473910946221 -0.0013343724268455347 0 -0.015947639641135242 -0.0010726722536774423 0 -0.01582426430900807 -0.0012405085374913201 0 -0.016051473910946221 -0.0013343724268455347 0 -0.016051473910946221 -0.0013343724268455347 0 -0.015900129826951891 -0.0015482354395213516 0 -0.016139315080037769 -0.0015419657337333616 0 -0.01582426430900807 -0.0012405085374913201 0 -0.016051473910946221 -0.0013343724268455347 0 -0.015900129826951891 -0.0015482354395213516 0 -0.015900129826951891 -0.0015482354395213516 0 -0.016128461580172896 -0.0018529356741923664 0 -0.016139315080037769 -0.0015419657337333616 0 -0.015570458278834014 -0.0017595477837955126 0 -0.015900129826951891 -0.0015482354395213516 0 -0.016128461580172896 -0.0018529356741923664 0 -0.015570458278834014 -0.0017595477837955126 0 -0.01582426430900807 -0.0012405085374913201 0 -0.015900129826951891 -0.0015482354395213516 0 -0.016514201640556284 -0.001906290234099645 0 -0.016128461580172896 -0.0018529356741923664 0 -0.016371961717303495 -0.0016058888794800541 0 -0.016128461580172896 -0.0018529356741923664 0 -0.016139315080037769 -0.0015419657337333616 0 -0.016371961717303495 -0.0016058888794800541 0 -0.014999672088441707 -0.00480079330802715 0 -0.014999800756854536 -0.0027485849958766391 0 -0.015579758605780526 -0.0033926657930092442 0 -0.016514201640556284 -0.001906290234099645 0 -0.016128461580172896 -0.0018529356741923664 0 -0.016428361884677146 -0.0021960350353779057 0 -0.016128461580172896 -0.0018529356741923664 0 -0.016181663719569261 -0.0023593481302886486 0 -0.015773645536335982 -0.0024040827699322144 0 -0.016128461580172896 -0.0018529356741923664 0 -0.016181663719569261 -0.0023593481302886486 0 -0.016428361884677146 -0.0021960350353779057 0 -0.016181663719569261 -0.0023593481302886486 0 -0.016428361884677146 -0.0021960350353779057 0 -0.016386590070867429 -0.0024989279307394583 0 -0.015570458278834014 -0.0017595477837955126 0 -0.016128461580172896 -0.0018529356741923664 0 -0.015773645536335982 -0.0024040827699322144 0 -0.015773645536335982 -0.0024040827699322144 0 -0.015554860392105697 -0.0029141275422133552 0 -0.015837072714908543 -0.0030673883594388661 0 -0.015773645536335982 -0.0024040827699322144 0 -0.016111915699031115 -0.0027641693589563403 0 -0.015837072714908543 -0.0030673883594388661 0 -0.016181663719569261 -0.0023593481302886486 0 -0.015773645536335982 -0.0024040827699322144 0 -0.016111915699031115 -0.0027641693589563403 0 -0.016181663719569261 -0.0023593481302886486 0 -0.016111915699031115 -0.0027641693589563403 0 -0.016386590070867429 -0.0024989279307394583 0 -0.015773645536335982 -0.0024040827699322144 0 -0.014999800756854536 -0.0027485849958766391 0 -0.015554860392105697 -0.0029141275422133552 0 -0.015570458278834014 -0.0017595477837955126 0 -0.015773645536335982 -0.0024040827699322144 0 -0.014999800756854536 -0.0027485849958766391 0 -0.014999865317210592 -0.0012798524392394174 0 -0.015570458278834014 -0.0017595477837955126 0 -0.014999800756854536 -0.0027485849958766391 0 -0.014999800756854536 -0.0027485849958766391 0 -0.015554860392105697 -0.0029141275422133552 0 -0.015579758605780526 -0.0033926657930092442 0 -0.01605135827141178 -0.0032347942904144668 0 -0.015837072714908543 -0.0030673883594388661 0 -0.015893866085644345 -0.0035010138840630761 0 -0.016111915699031115 -0.0027641693589563403 0 -0.01605135827141178 -0.0032347942904144668 0 -0.016510381592265085 -0.0029372262494964827 0 -0.016111915699031115 -0.0027641693589563403 0 -0.01605135827141178 -0.0032347942904144668 0 -0.015837072714908543 -0.0030673883594388661 0 -0.015579758605780526 -0.0033926657930092442 0 -0.015837072714908543 -0.0030673883594388661 0 -0.015893866085644345 -0.0035010138840630761 0 -0.015554860392105697 -0.0029141275422133552 0 -0.015579758605780526 -0.0033926657930092442 0 -0.015837072714908543 -0.0030673883594388661 0 -0.015848288822324356 -0.003825138562126686 0 -0.015579758605780526 -0.0033926657930092442 0 -0.015893866085644345 -0.0035010138840630761 0 -0.01605135827141178 -0.0032347942904144668 0 -0.015893866085644345 -0.0035010138840630761 0 -0.015973519645616163 -0.0036307065485447648 0 -0.015904830505389597 -0.0037236103711730316 0 -0.015893866085644345 -0.0035010138840630761 0 -0.015973519645616163 -0.0036307065485447648 0 -0.015904830505389597 -0.0037236103711730316 0 -0.015854443068658436 -0.0038409882904280259 0 -0.015973519645616163 -0.0036307065485447648 0 -0.015854443068658436 -0.0038409882904280259 0 -0.016025494255102857 -0.0036602609351678046 0 -0.015973519645616163 -0.0036307065485447648 0 -0.015145179820184679 -0.003924839272405522 0 -0.015519494740235812 -0.0037919031026904465 0 -0.015854443068658436 -0.0038409882904280259 0 -0.016025494255102857 -0.0036602609351678046 0 -0.016022032626109291 -0.0035364221316294899 0 -0.015973519645616163 -0.0036307065485447648 0 -0.01605135827141178 -0.0032347942904144668 0 -0.015973519645616163 -0.0036307065485447648 0 -0.016510381592265085 -0.0029372262494964827 0 -0.015962547017353772 -0.0033437421263518199 0 -0.016458328057557165 -0.0031900293659429873 0 -0.015847249189277272 -0.0031303382256865787 0 -0.015973519645616163 -0.0036307065485447648 0 -0.015962547017353772 -0.0033437421263518199 0 -0.015847249189277272 -0.0031303382256865787 0 -0.016014541378626599 -0.0035521216470509398 0 -0.016165780975931052 -0.003005499184289954 0 -0.016022032626109291 -0.0035364221316294899 0 -0.015962547017353772 -0.0033437421263518199 0 -0.016105282654220475 -0.0034190293188417829 0 -0.016022032626109291 -0.0035364221316294899 0 -0.015973519645616163 -0.0036307065485447648 0 -0.015962547017353772 -0.0033437421263518199 0 -0.015962547017353772 -0.0033437421263518199 0 -0.016302759760158835 -0.003225427725958335 0 -0.016105282654220475 -0.0034190293188417829 0 -0.016853673578757625 -0.0031503017594460185 0 -0.013413792091633302 -0.0019660962060982579 0 -0.016302759760158835 -0.003225427725958335 0 -0.016105282654220475 -0.0034190293188417829 0 -0.016135323658959432 -0.0035676128238693234 0 -0.013413792091633302 -0.0019660962060982579 0 -0.013400972921903422 -0.0030092189541705561 0 -0.016302759760158835 -0.003225427725958335 0 -0.016135323658959432 -0.0035676128238693234 0 -0.016415061572287507 -0.0037000518756396339 0 -0.016022032626109291 -0.0035364221316294899 0 -0.016105282654220475 -0.0034190293188417829 0 -0.016135323658959432 -0.0035676128238693234 0 -0.015145179820184679 -0.003924839272405522 0 -0.015854443068658436 -0.0038409882904280259 0 -0.014480756892111066 -0.0044169471289350311 0 -0.016606100794024116 -0.0040336693978796035 0 -0.013400972921903422 -0.0030092189541705561 0 -0.015854443068658436 -0.0038409882904280259 0 -0.016025494255102857 -0.0036602609351678046 0 -0.016415061572287507 -0.0037000518756396339 0 -0.016025494255102857 -0.0036602609351678046 0 -0.016135323658959432 -0.0035676128238693234 0 -0.016415061572287507 -0.0037000518756396339 0 -0.016025494255102857 -0.0036602609351678046 0 -0.016022032626109291 -0.0035364221316294899 0 -0.016135323658959432 -0.0035676128238693234 0 -0.014766749299096429 -0.0039332746924661943 0 -0.015145179820184679 -0.003924839272405522 0 -0.014480756892111066 -0.0044169471289350311 0 -0.01436543320689938 -0.0041211135733774037 0 -0.013708845237657698 -0.003857642186100887 0 -0.013114826683127939 -0.0039827056791342614 0 -0.01433493941432467 -0.0037601523452197106 0 -0.01436543320689938 -0.0041211135733774037 0 -0.014061624567569 -0.0038302922856624818 0 -0.01409437822088983 -0.0040907067185430241 0 -0.013400972921903422 -0.0030092189541705561 0 -0.01433493941432467 -0.0037601523452197106 0 -0.014766749299096429 -0.0039332746924661943 0 -0.014480756892111066 -0.0044169471289350311 0 -0.0097473028076222427 -0.0017100597073451329 0 -0.010194851413841197 -0.0014617823152962772 0 -0.010023000594157049 -0.0012911210115609617 0 -0.013400972921903422 -0.0030092189541705561 0 -0.011504501151715198 -0.002800581806159282 0 -0.01436543320689938 -0.0041211135733774037 0 -0.014061624567569 -0.0038302922856624818 0 -0.013708845237657698 -0.003857642186100887 0 -0.0097473028076222427 -0.0017100597073451329 0 -0.01045919365557425 -0.0016245430989166919 0 -0.010194851413841197 -0.0014617823152962772 0 -0.012763355958918768 -0.0035379889314325649 0 -0.013060323752620605 -0.0036643000380417868 0 -0.013114826683127939 -0.0039827056791342614 0 -0.013273106259351389 -0.0036010695969865489 0 -0.013293830184747314 -0.0038213968766264163 0 -0.013456178681681533 -0.0037255070245150166 0 -0.013273106259351389 -0.0036010695969865489 0 -0.013060323752620605 -0.0036643000380417868 0 -0.013293830184747314 -0.0038213968766264163 0 -0.013060323752620605 -0.0036643000380417868 0 -0.013293830184747314 -0.0038213968766264163 0 -0.013114826683127939 -0.0039827056791342614 0 -0.013293830184747314 -0.0038213968766264163 0 -0.013456178681681533 -0.0037255070245150166 0 -0.013708845237657698 -0.003857642186100887 0 -0.013293830184747314 -0.0038213968766264163 0 -0.013708845237657698 -0.003857642186100887 0 -0.013114826683127939 -0.0039827056791342614 0 -0.013544835999180662 -0.0036234062867600233 0 -0.013456178681681533 -0.0037255070245150166 0 -0.013708845237657698 -0.003857642186100887 0 -0.01045919365557425 -0.0016245430989166919 0 -0.010409870220429074 -0.0014544893325318254 0 -0.010194851413841197 -0.0014617823152962772 0 -0.010456838794660797 -0.0016643515563996396 0 -0.01045919365557425 -0.0016245430989166919 0 -0.010409870220429074 -0.0014544893325318254 0 -0.010600753932407963 -0.0010841525761757242 0 -0.010296040116842757 -0.0012432123964779666 0 -0.010147049804501741 -0.00088575089154739009 0 -0.010409870220429074 -0.0014544893325318254 0 -0.010194851413841197 -0.0014617823152962772 0 -0.010296040116842757 -0.0012432123964779666 0 -0.010600753932407963 -0.0010841525761757242 0 -0.010409870220429074 -0.0014544893325318254 0 -0.010296040116842757 -0.0012432123964779666 0 -0.010194851413841197 -0.0014617823152962772 0 -0.010296040116842757 -0.0012432123964779666 0 -0.010023000594157049 -0.0012911210115609617 0 -0.010296040116842757 -0.0012432123964779666 0 -0.010023000594157049 -0.0012911210115609617 0 -0.010147049804501741 -0.00088575089154739009 0 -0.0096409338280671452 -0.0011115837606590286 0 -0.0097473028076222427 -0.0017100597073451329 0 -0.010023000594157049 -0.0012911210115609617 0 -0.0096409338280671452 -0.0011115837606590286 0 -0.010023000594157049 -0.0012911210115609617 0 -0.010147049804501741 -0.00088575089154739009 0 -0.011862979643804554 -9.4231168950133817e-05 0 -0.011730295626908671 -3.7828152781064456e-05 0 -0.011811162963940807 -0.00017078398753622067 0 -0.011935687094984767 9.0047496839093342e-06 0 -0.011862979643804554 -9.4231168950133817e-05 0 -0.011730295626908671 -3.7828152781064456e-05 0 -0.013413792091633302 -0.0019660962060982579 0 -0.010485671432045868 -0.00042687888097399786 0 -0.011284644278547296 -0.00030405152086817352 0 -0.010485671432045868 -0.00042687888097399786 0 -0.011563216301299044 -9.856500423693806e-05 0 -0.011730295626908671 -3.7828152781064456e-05 0 -0.011658479565205104 -0.00017690685510349897 0 -0.010600753932407963 -0.0010841525761757242 0 -0.010790490885426258 -0.00053721908887243298 0 -0.010147049804501741 -0.00088575089154739009 0 -0.011730295626908671 -3.7828152781064456e-05 0 -0.011658479565205104 -0.00017690685510349897 0 -0.011811162963940807 -0.00017078398753622067 0 -0.011862979643804554 -9.4231168950133817e-05 0 -0.011811162963940807 -0.00017078398753622067 0 -0.011975281234418879 -0.00017706029247571979 0 -0.011799973127148282 -0.00033968762477004091 0 -0.011658479565205104 -0.00017690685510349897 0 -0.011811162963940807 -0.00017078398753622067 0 -0.011921392924252341 -0.00028705785920888472 0 -0.011811162963940807 -0.00017078398753622067 0 -0.011975281234418879 -0.00017706029247571979 0 -0.016177187505163945 -0.0015675819996878255 0 -0.016346484879222679 -0.002432969359186157 0 -0.015889696529347554 -0.002368640659602691 0 -0.016346484879222679 -0.002432969359186157 0 -0.015889696529347554 -0.002368640659602691 0 -0.016100751367320913 -0.0027877504126136128 0 -0.016514201640556284 -0.001906290234099645 0 -0.016428361884677146 -0.0021960350353779057 0 -0.016722966364631758 -0.0022349179353547566 0 -0.016428361884677146 -0.0021960350353779057 0 -0.016722966364631758 -0.0022349179353547566 0 -0.016386590070867429 -0.0024989279307394583 0 -0.016352016788126377 -0.0023414064690930963 0 -0.016165780975931052 -0.003005499184289954 0 -0.015889696529347554 -0.002368640659602691 0 -0.015847249189277272 -0.0031303382256865787 0 -0.016100751367320913 -0.0027877504126136128 0 -0.016722966364631758 -0.0022349179353547566 0 -0.016386590070867429 -0.0024989279307394583 0 -0.016510381592265085 -0.0029372262494964827 0 -0.016111915699031115 -0.0027641693589563403 0 -0.016386590070867429 -0.0024989279307394583 0 -0.016510381592265085 -0.0029372262494964827 0 -0.013413792091633302 -0.0019660962060982579 0 -0.01428449167155048 -0.0012886795515743383 0 -0.016458328057557165 -0.0031900293659429873 0 -0.015847249189277272 -0.0031303382256865787 0 -0.016100751367320913 -0.0027877504126136128 0 -0.016458328057557165 -0.0031900293659429873 0 -0.016346484879222679 -0.002432969359186157 0 -0.016100751367320913 -0.0027877504126136128 0 -0.011935687094984767 9.0047496839093342e-06 0 -0.011862979643804554 -9.4231168950133817e-05 0 -0.011975281234418879 -0.00017706029247571979 0 0.00031335727484630392 -0.010768879923971105 0 -0.0013264574325347015 -0.011630610807805893 0 -0.0016224172202845162 -0.011964368731099486 0 -0.0014346717186420215 -0.011779276164487913 0 -0.0010797379918219528 -0.012037046887116371 0 -0.0016224172202845162 -0.011964368731099486 0 -0.0010797379918219528 -0.012037046887116371 0 -0.0017811089599829135 -0.012198017946713819 0 -0.0016224172202845162 -0.011964368731099486 0 -0.0014346717186420215 -0.011779276164487913 0 -0.0017975983738926858 -0.011793151421611987 0 0.00031335727484630392 -0.010768879923971105 0 0.0019108623799586123 -0.0098064607228176698 0 -0.0014346717186420215 -0.011779276164487913 0 -0.0010797379918219528 -0.012037046887116371 0 -0.0010603710360579785 -0.011675947944284485 0 0.00031335727484630392 -0.010768879923971105 0 0.00021911915700725042 -0.010813541900479106 0 0.0010230416458927598 -0.010985257388197944 0 0.00181996773481907 -0.011336265614679476 0 0.00057710259653599206 -0.011819534381935472 0 0.00076380846050219436 -0.010183505425603501 0 0.0010230416458927598 -0.010985257388197944 0 -2.5563529523455881e-05 -0.011118303762526103 0 0.0010230416458927598 -0.010985257388197944 0 -2.5563529523455881e-05 -0.011118303762526103 0 0.00057710259653599206 -0.011819534381935472 0 0.00076380846050219436 -0.010183505425603501 0 0.0010230416458927598 -0.010985257388197944 0 0.0017707965923846175 -0.010474816255384498 0 -2.5563529523455881e-05 -0.011118303762526103 0 -0.00060227282216174086 -0.011640964507772262 0 0.00057710259653599206 -0.011819534381935472 0 0.0007686464122166458 -0.010104191492652473 0 -2.5563529523455881e-05 -0.011118303762526103 0 -0.00070207281232511102 -0.010901478889433179 0 -2.5563529523455881e-05 -0.011118303762526103 0 -0.00070207281232511102 -0.010901478889433179 0 -0.00060227282216174086 -0.011640964507772262 0 -0.0013264574325347015 -0.011630610807805893 0 -0.0020107065406568588 -0.012083619160334432 0 -0.00070207281232511102 -0.010901478889433179 0 -0.00060227282216174086 -0.011640964507772262 0 -0.0021332498027874344 -0.012189646440687596 0 -0.0017811089599829135 -0.012198017946713819 0 -0.0020784842397299462 -0.012087552544181427 0 -0.0021332498027874344 -0.012189646440687596 0 -0.0017811089599829135 -0.012198017946713819 0 -0.0020784842397299462 -0.012087552544181427 0 -0.0019245708898507146 -0.012000123967242104 0 -0.0025605548220994515 -0.012230771930131128 0 -0.0023361718466755822 -0.012066519888844466 0 -0.0026653941764006616 -0.011968494125675924 0 -0.0025605548220994515 -0.012230771930131128 0 -0.0023361718466755822 -0.012066519888844466 0 -0.0021332498027874344 -0.012189646440687596 0 -0.0020784842397299462 -0.012087552544181427 0 -0.0023361718466755822 -0.012066519888844466 0 -0.0021332498027874344 -0.012189646440687596 0 -0.0020784842397299462 -0.012087552544181427 0 -0.0023361718466755822 -0.012066519888844466 0 -0.0022709944874391343 -0.011883274474518764 0 -0.0022709944874391343 -0.011883274474518764 0 -0.0021621444353288311 -0.011594071978843677 0 -0.0026587344310093565 -0.011648098330165269 0 -0.0023361718466755822 -0.012066519888844466 0 -0.0022709944874391343 -0.011883274474518764 0 -0.0026653941764006616 -0.011968494125675924 0 -0.0022709944874391343 -0.011883274474518764 0 -0.0026653941764006616 -0.011968494125675924 0 -0.0026587344310093565 -0.011648098330165269 0 -0.0016224172202845162 -0.011964368731099486 0 -0.0017811089599829135 -0.012198017946713819 0 -0.0019245708898507146 -0.012000123967242104 0 -0.0020784842397299462 -0.012087552544181427 0 -0.0022709944874391343 -0.011883274474518764 0 -0.0019245708898507146 -0.012000123967242104 0 -0.0022709944874391343 -0.011883274474518764 0 -0.0019245708898507146 -0.012000123967242104 0 -0.0020561025357787024 -0.011811220102354655 0 -0.0020561025357787024 -0.011811220102354655 0 -0.0017975983738926858 -0.011793151421611987 0 -0.0021621444353288311 -0.011594071978843677 0 -0.0022709944874391343 -0.011883274474518764 0 -0.0020561025357787024 -0.011811220102354655 0 -0.0021621444353288311 -0.011594071978843677 0 -0.0019245708898507146 -0.012000123967242104 0 -0.0020561025357787024 -0.011811220102354655 0 -0.0017975983738926858 -0.011793151421611987 0 -0.0016224172202845162 -0.011964368731099486 0 -0.0019245708898507146 -0.012000123967242104 0 -0.0017975983738926858 -0.011793151421611987 0 -0.0017975983738926858 -0.011793151421611987 0 -0.0021621444353288311 -0.011594071978843677 0 -0.0016857678140706732 -0.01156605690199152 0 -0.0021621444353288311 -0.011594071978843677 0 -0.001870550254555674 -0.01134228430508981 0 -0.0016857678140706732 -0.01156605690199152 0 -0.0021621444353288311 -0.011594071978843677 0 -0.002224821643154816 -0.011163895782553012 0 -0.001870550254555674 -0.01134228430508981 0 -0.0021621444353288311 -0.011594071978843677 0 -0.0026587344310093565 -0.011648098330165269 0 -0.0027222710058357347 -0.011218399684326065 0 -0.0021621444353288311 -0.011594071978843677 0 -0.002224821643154816 -0.011163895782553012 0 -0.0027222710058357347 -0.011218399684326065 0 -0.002224821643154816 -0.011163895782553012 0 -0.0027222710058357347 -0.011218399684326065 0 -0.0024830781218519457 -0.010852375228596547 0 -0.002224821643154816 -0.011163895782553012 0 -0.0020902060921030819 -0.010841796531893847 0 -0.0024830781218519457 -0.010852375228596547 0 -0.0027222710058357347 -0.011218399684326065 0 -0.0029154976150922284 -0.010780302752905863 0 -0.0024830781218519457 -0.010852375228596547 0 -0.002224821643154816 -0.011163895782553012 0 -0.001870550254555674 -0.01134228430508981 0 -0.0019121956698294525 -0.011078300209727349 0 -0.002224821643154816 -0.011163895782553012 0 -0.0019121956698294525 -0.011078300209727349 0 -0.0020902060921030819 -0.010841796531893847 0 -0.0019121956698294525 -0.011078300209727349 0 -0.001610381312658076 -0.011001115672236271 0 -0.0020902060921030819 -0.010841796531893847 0 -0.001870550254555674 -0.01134228430508981 0 -0.0019121956698294525 -0.011078300209727349 0 -0.001610381312658076 -0.011001115672236271 0 -0.001610381312658076 -0.011001115672236271 0 -0.0011219698561947601 -0.011129259775671854 0 -0.0012716529092905902 -0.010829021195136828 0 -0.001610381312658076 -0.011001115672236271 0 -0.0014352886688205929 -0.011306787570201076 0 -0.0011219698561947601 -0.011129259775671854 0 -0.001870550254555674 -0.01134228430508981 0 -0.001610381312658076 -0.011001115672236271 0 -0.0014352886688205929 -0.011306787570201076 0 -0.001870550254555674 -0.01134228430508981 0 -0.0014352886688205929 -0.011306787570201076 0 -0.0016857678140706732 -0.01156605690199152 0 -0.0014352886688205929 -0.011306787570201076 0 -0.0013210848449184936 -0.01156998815681954 0 -0.0016857678140706732 -0.01156605690199152 0 -0.0014352886688205929 -0.011306787570201076 0 -0.0013210848449184936 -0.01156998815681954 0 -0.00098605811625733725 -0.011441418983576444 0 -0.0014346717186420215 -0.011779276164487913 0 -0.0013210848449184936 -0.01156998815681954 0 -0.0016857678140706732 -0.01156605690199152 0 -0.0014346717186420215 -0.011779276164487913 0 -0.0013210848449184936 -0.01156998815681954 0 -0.0010603710360579785 -0.011675947944284485 0 -0.0014346717186420215 -0.011779276164487913 0 -0.0017975983738926858 -0.011793151421611987 0 -0.0016857678140706732 -0.01156605690199152 0 -0.0010603710360579785 -0.011675947944284485 0 -0.00098605811625733725 -0.011441418983576444 0 -0.00046933483346514886 -0.01154816575294417 0 0.00031335727484630392 -0.010768879923971105 0 0.00066330176185142443 -0.010607835204127775 0 -0.0010797379918219528 -0.012037046887116371 0 -0.0010603710360579785 -0.011675947944284485 0 -0.00046933483346514886 -0.01154816575294417 0 -0.0013210848449184936 -0.01156998815681954 0 -0.0010603710360579785 -0.011675947944284485 0 -0.00098605811625733725 -0.011441418983576444 0 -0.00098605811625733725 -0.011441418983576444 0 -0.00073656026665521054 -0.011254088698956877 0 -0.0011219698561947601 -0.011129259775671854 0 -0.00098605811625733725 -0.011441418983576444 0 -0.00073656026665521054 -0.011254088698956877 0 -0.00046933483346514886 -0.01154816575294417 0 -0.0014352886688205929 -0.011306787570201076 0 -0.00098605811625733725 -0.011441418983576444 0 -0.0011219698561947601 -0.011129259775671854 0 -0.00073656026665521054 -0.011254088698956877 0 -0.0011219698561947601 -0.011129259775671854 0 -0.00082972228450060935 -0.01092940816970242 0 -0.00073656026665521054 -0.011254088698956877 0 -0.00042791951048593501 -0.011089903816331431 0 -0.00046933483346514886 -0.01154816575294417 0 -0.00042791951048593501 -0.011089903816331431 0 -0.00046933483346514886 -0.01154816575294417 0 0.00026189233265986841 -0.010999094883703401 0 -0.00073656026665521054 -0.011254088698956877 0 -0.00042791951048593501 -0.011089903816331431 0 -0.00082972228450060935 -0.01092940816970242 0 0.0024998708524306993 -0.0093157214773244238 0 0.0018944643880374277 -0.0095059614595609 0 0.0024845486597621699 -0.0089152806443309179 0 0.00066330176185142443 -0.010607835204127775 0 0.0013965179518756169 -0.0099383281000510002 0 0.0024998708524306993 -0.0093157214773244238 0 0.0028744517286692162 -0.0092204613671763892 0 0.0024845486597621699 -0.0089152806443309179 0 0.0024143648332269701 -0.0096101606535558912 0 0.0016705585728133405 -0.0098130983637415153 0 0.0022013082573038314 -0.0099905816229338487 0 0.0024998708524306993 -0.0093157214773244238 0 0.0024143648332269701 -0.0096101606535558912 0 0.0018944643880374277 -0.0095059614595609 0 0.0022802224112588145 -0.009661595617876698 0 0.0019108623799586123 -0.0098064607228176698 0 0.0024998708524306993 -0.0093157214773244238 0 0.0024143648332269701 -0.0096101606535558912 0 0.0028837406004371736 -0.0095897157991993026 0 0.0024143648332269701 -0.0096101606535558912 0 0.0018944643880374277 -0.0095059614595609 0 0.0018735080134889028 -0.0099534873590618501 0 0.0012414822552793336 -0.010274375957683624 0 0.0018944643880374277 -0.0095059614595609 0 0.0018735080134889028 -0.0099534873590618501 0 0.0032810223362522918 -0.0091220461649883598 0 0.0035234312296890963 -0.0094588110403683902 0 0.003605321065790115 -0.009092814489546559 0 0.0032810223362522918 -0.0091220461649883598 0 0.0031781114904372411 -0.0094155473498203062 0 0.0035234312296890963 -0.0094588110403683902 0 0.0032810223362522918 -0.0091220461649883598 0 0.0034435964633293035 -0.0088374385142776096 0 0.003605321065790115 -0.009092814489546559 0 0.0032810223362522918 -0.0091220461649883598 0 0.0031781114904372411 -0.0094155473498203062 0 0.0028744517286692162 -0.0092204613671763892 0 0.0028744517286692162 -0.0092204613671763892 0 0.0030721427255313268 -0.0089024607895265423 0 0.0024845486597621699 -0.0089152806443309179 0 0.0031781114904372411 -0.0094155473498203062 0 0.0028744517286692162 -0.0092204613671763892 0 0.0028837406004371736 -0.0095897157991993026 0 0.0032810223362522918 -0.0091220461649883598 0 0.0028744517286692162 -0.0092204613671763892 0 0.0030721427255313268 -0.0089024607895265423 0 0.0024998708524306993 -0.0093157214773244238 0 0.0028744517286692162 -0.0092204613671763892 0 0.0028837406004371736 -0.0095897157991993026 0 0.0024143648332269701 -0.0096101606535558912 0 0.0028837406004371736 -0.0095897157991993026 0 0.0027537758056627275 -0.010069684624889353 0 0.0028837406004371736 -0.0095897157991993026 0 0.0031157652577822534 -0.0099094671429179916 0 0.0027537758056627275 -0.010069684624889353 0 0.0031781114904372411 -0.0094155473498203062 0 0.0028837406004371736 -0.0095897157991993026 0 0.0033262469523098427 -0.0096975488880932381 0 0.0028837406004371736 -0.0095897157991993026 0 0.0033262469523098427 -0.0096975488880932381 0 0.0031157652577822534 -0.0099094671429179916 0 0.0033262469523098427 -0.0096975488880932381 0 0.0035375736489754606 -0.0099077435554887783 0 0.0036328294140495817 -0.0097352119420021054 0 0.0033262469523098427 -0.0096975488880932381 0 0.0035234312296890963 -0.0094588110403683902 0 0.0036328294140495817 -0.0097352119420021054 0 0.0031781114904372411 -0.0094155473498203062 0 0.0033262469523098427 -0.0096975488880932381 0 0.0035234312296890963 -0.0094588110403683902 0 0.0034260866837187124 -0.010223583389907935 0 0.0035088788020515476 -0.010344991736425698 0 0.0036031592073482665 -0.010196144821419154 0 0.0034260866837187124 -0.010223583389907935 0 0.003537019775900188 -0.010064698476102692 0 0.0033592636468471851 -0.010002264860550107 0 0.0034260866837187124 -0.010223583389907935 0 0.003537019775900188 -0.010064698476102692 0 0.0036031592073482665 -0.010196144821419154 0 0.003537019775900188 -0.010064698476102692 0 0.0035375736489754606 -0.0099077435554887783 0 0.0033592636468471851 -0.010002264860550107 0 0.0033262469523098427 -0.0096975488880932381 0 0.0035375736489754606 -0.0099077435554887783 0 0.0033592636468471851 -0.010002264860550107 0 0.0033592636468471851 -0.010002264860550107 0 0.0031157652577822534 -0.0099094671429179916 0 0.003177343078708845 -0.010179065605207182 0 0.0033262469523098427 -0.0096975488880932381 0 0.0033592636468471851 -0.010002264860550107 0 0.0031157652577822534 -0.0099094671429179916 0 0.0034260866837187124 -0.010223583389907935 0 0.003177343078708845 -0.010179065605207182 0 0.0033085524363453472 -0.010387522071344401 0 0.003177343078708845 -0.010179065605207182 0 0.0030149108880376057 -0.010460292445553134 0 0.0033085524363453472 -0.010387522071344401 0 0.0034260866837187124 -0.010223583389907935 0 0.0033592636468471851 -0.010002264860550107 0 0.003177343078708845 -0.010179065605207182 0 0.003177343078708845 -0.010179065605207182 0 0.0027537758056627275 -0.010069684624889353 0 0.0030149108880376057 -0.010460292445553134 0 0.0031157652577822534 -0.0099094671429179916 0 0.003177343078708845 -0.010179065605207182 0 0.0027537758056627275 -0.010069684624889353 0 0.0027537758056627275 -0.010069684624889353 0 0.0026569323729881342 -0.010495334993219758 0 0.0030149108880376057 -0.010460292445553134 0 0.0023433015788538385 -0.0041868457794633166 0 0.0020538211058731969 0.00041440014863692936 0 0.0027111135065005609 -0.010921421525488159 0 0.0030149108880376057 -0.010460292445553134 0 0.0034027728087210212 -0.010636438110079027 0 0.0026569323729881342 -0.010495334993219758 0 0.0027111135065005609 -0.010921421525488159 0 0.0030149108880376057 -0.010460292445553134 0 0.0030149108880376057 -0.010460292445553134 0 0.0033085524363453472 -0.010387522071344401 0 0.0034027728087210212 -0.010636438110079027 0 0.0041892191060655583 0.0046084007968210357 0 0.0042156815527660584 0.0051439361665764211 0 0.0040520002944400731 0.004775888173501993 0 0.0020538211058731969 0.00041440014863692936 0 0.0035145113184833236 0.0032333909533800984 0 0.0033085524363453472 -0.010387522071344401 0 0.0034027728087210212 -0.010636438110079027 0 0.0035088788020515476 -0.010344991736425698 0 0.0034260866837187124 -0.010223583389907935 0 0.0033085524363453472 -0.010387522071344401 0 0.0035088788020515476 -0.010344991736425698 0 0.00076380846050219436 -0.010183505425603501 0 0.0017707965923846175 -0.010474816255384498 0 0.0016705585728133405 -0.0098130983637415153 0 0.0017707965923846175 -0.010474816255384498 0 0.0016705585728133405 -0.0098130983637415153 0 0.0022013082573038314 -0.0099905816229338487 0 0.0027537758056627275 -0.010069684624889353 0 0.0022013082573038314 -0.0099905816229338487 0 0.0023526390582805866 -0.010336838570223371 0 0.0024143648332269701 -0.0096101606535558912 0 0.0027537758056627275 -0.010069684624889353 0 0.0022013082573038314 -0.0099905816229338487 0 0.0027537758056627275 -0.010069684624889353 0 0.0026569323729881342 -0.010495334993219758 0 0.0023526390582805866 -0.010336838570223371 0 0.0017707965923846175 -0.010474816255384498 0 0.0022013082573038314 -0.0099905816229338487 0 0.0023526390582805866 -0.010336838570223371 0 0.0027111135065005609 -0.010921421525488159 0 0.0022820830705864944 -0.010712978312411461 0 0.00181996773481907 -0.011336265614679476 0 0.0017707965923846175 -0.010474816255384498 0 0.0023526390582805866 -0.010336838570223371 0 0.0022820830705864944 -0.010712978312411461 0 0.0026569323729881342 -0.010495334993219758 0 0.0023526390582805866 -0.010336838570223371 0 0.0022820830705864944 -0.010712978312411461 0 0.0026569323729881342 -0.010495334993219758 0 0.0027111135065005609 -0.010921421525488159 0 0.0022820830705864944 -0.010712978312411461 0 0.0010230416458927598 -0.010985257388197944 0 0.0017707965923846175 -0.010474816255384498 0 0.00181996773481907 -0.011336265614679476 0 0.0017707965923846175 -0.010474816255384498 0 0.0022820830705864944 -0.010712978312411461 0 0.00181996773481907 -0.011336265614679476 0 0.0031800104442148251 0.0035465700399617407 0 0.0033429708644118422 0.0044521687581666573 0 0.0037454948116868491 0.0041827047325266259 0 0.0031800104442148251 0.0035465700399617407 0 0.0027906160665860779 0.0041633118949630545 0 0.0033429708644118422 0.0044521687581666573 0 0.0023433015788538385 -0.0041868457794633166 0 0.0024872286948070862 -0.0038510695001659446 0 0.0025269423431045464 0.0037646604859692574 0 0.0027906160665860779 0.0041633118949630545 0 0.0019968276455494356 0.0040827155828496537 0 0.0021152118064322782 0.0032723588152089845 0 0.0031800104442148251 0.0035465700399617407 0 0.0025269423431045464 0.0037646604859692574 0 0.0031800104442148251 0.0035465700399617407 0 0.0025269423431045464 0.0037646604859692574 0 0.0027906160665860779 0.0041633118949630545 0 0.0027718925066521185 0.0046419318826625621 0 0.0024176273784627016 0.0041113378609343443 0 0.0031474107743789596 0.0049754986560859218 0 0.0027906160665860779 0.0041633118949630545 0 0.0019968276455494356 0.0040827155828496537 0 0.0029250871621015035 0.0049479461395055104 0 0.0022048485113841856 0.0045351933623734774 0 0.003020793202604558 0.0048898159856871626 0 0.0033429708644118422 0.0044521687581666573 0 0.0036332497088421736 0.0050431976067648251 0 0.0029250871621015035 0.0049479461395055104 0 0.0027906160665860779 0.0041633118949630545 0 0.0033429708644118422 0.0044521687581666573 0 0.0029250871621015035 0.0049479461395055104 0 0.0033429708644118422 0.0044521687581666573 0 0.0036332497088421736 0.0050431976067648251 0 0.0038757532371370878 0.0047234317159721194 0 0.0017081091669673297 0.0032865857829431017 0 0.0015300892632797041 0.0032486665883111479 0 0.0021477361302981979 0.0039323599745382676 0 0.0041892191060655583 0.0046084007968210357 0 0.0042156815527660584 0.0051439361665764211 0 0.0045833179578668838 0.0055703473862164796 0 0.0035145113184833236 0.0032333909533800984 0 0.0032797228278626184 0.004794992821175242 0 0.0041130809330021979 0.0053422471448510882 0 0.0043047516716709202 0.0055148483805874159 0 0.0041719420599541117 0.0057993565946933912 0 0.0041130809330021979 0.0053422471448510882 0 0.0042156815527660584 0.0051439361665764211 0 0.0043047516716709202 0.0055148483805874159 0 0.0041130809330021979 0.0053422471448510882 0 0.0042156815527660584 0.0051439361665764211 0 0.0039803643779414291 0.0050448815399775932 0 0.0042156815527660584 0.0051439361665764211 0 0.0040520002944400731 0.004775888173501993 0 0.0039803643779414291 0.0050448815399775932 0 0.0043047516716709202 0.0055148483805874159 0 0.0045833179578668838 0.0055703473862164796 0 0.0043952270882251648 0.005825289698074272 0 0.0042156815527660584 0.0051439361665764211 0 0.0043047516716709202 0.0055148483805874159 0 0.0045833179578668838 0.0055703473862164796 0 0.0021152118064322782 0.0032723588152089845 0 0.0025269423431045464 0.0037646604859692574 0 0.0019968276455494356 0.0040827155828496537 0 0.0020538211058731969 0.00041440014863692936 0 0.0022048485113841856 0.0045351933623734774 0 0.0021152118064322782 0.0032723588152089845 0 0.00096807894414312862 0.003060523516495208 0 0.0019968276455494356 0.0040827155828496537 0 0.0017081091669673297 0.0032865857829431017 0 0.0024176273784627016 0.0041113378609343443 0 0.0021477361302981979 0.0039323599745382676 0 0.0027718925066521185 0.0046419318826625621 0 0.0024176273784627016 0.0041113378609343443 0 0.0021477361302981979 0.0039323599745382676 0 0.0036758227696934822 0.0054150847097301962 0 0.0032797228278626184 0.004794992821175242 0 0.0045978175422264397 0.0062350329326605934 0 0.0045833179578668838 0.0055703473862164796 0 0.0044812790319689044 0.0060558559965387003 0 0.0045978175422264397 0.0062350329326605934 0 0.0044812790319689044 0.0060558559965387003 0 0.0045093890948901304 0.0062753842514674685 0 0.0044812790319689044 0.0060558559965387003 0 0.0043756423435976606 0.0062795078964544811 0 0.0045093890948901304 0.0062753842514674685 0 0.0044812790319689044 0.0060558559965387003 0 0.004308931378902041 0.0060972509529322932 0 0.0043756423435976606 0.0062795078964544811 0 0.0045833179578668838 0.0055703473862164796 0 0.0044812790319689044 0.0060558559965387003 0 0.0043952270882251648 0.005825289698074272 0 0.0043952270882251648 0.005825289698074272 0 0.004308931378902041 0.0060972509529322932 0 0.0041719420599541117 0.0057993565946933912 0 0.0043047516716709202 0.0055148483805874159 0 0.0043952270882251648 0.005825289698074272 0 0.0041719420599541117 0.0057993565946933912 0 0.0044812790319689044 0.0060558559965387003 0 0.0043952270882251648 0.005825289698074272 0 0.004308931378902041 0.0060972509529322932 0 0.004308931378902041 0.0060972509529322932 0 0.0041719420599541117 0.0057993565946933912 0 0.0041083276515521223 0.0062102606715574698 0 0.0041794533090821987 0.0065229759659699103 0 0.0041419310774649179 0.0063809825458852063 0 0.0040232712208080144 0.0064282252147760937 0 0.0041794533090821987 0.0065229759659699103 0 0.0041419310774649179 0.0063809825458852063 0 0.0042515956830562395 0.0063519627830419187 0 0.004308931378902041 0.0060972509529322932 0 0.0041083276515521223 0.0062102606715574698 0 0.0042515956830562395 0.0063519627830419187 0 0.0041419310774649179 0.0063809825458852063 0 0.0041083276515521223 0.0062102606715574698 0 0.0042515956830562395 0.0063519627830419187 0 0.004308931378902041 0.0060972509529322932 0 0.0042515956830562395 0.0063519627830419187 0 0.0043756423435976606 0.0062795078964544811 0 0.0042515956830562395 0.0063519627830419187 0 0.0043148968650773929 0.0065307791828699167 0 0.0043756423435976606 0.0062795078964544811 0 0.0041794533090821987 0.0065229759659699103 0 0.0042515956830562395 0.0063519627830419187 0 0.0043148968650773929 0.0065307791828699167 0 0.0043148968650773929 0.0065307791828699167 0 0.0044184691553457792 0.0063986902241924253 0 0.0043756423435976606 0.0062795078964544811 0 0.0043148968650773929 0.0065307791828699167 0 0.0044184691553457792 0.0063986902241924253 0 0.0043915330661903106 0.006532942495737039 0 0.0044184691553457792 0.0063986902241924253 0 0.0043756423435976606 0.0062795078964544811 0 0.0045093890948901304 0.0062753842514674685 0 0.0044184691553457792 0.0063986902241924253 0 0.0045093890948901304 0.0062753842514674685 0 0.0044550976866140034 0.0064217430891767265 0 0.0044184691553457792 0.0063986902241924253 0 0.0044550976866140034 0.0064217430891767265 0 0.0043915330661903106 0.006532942495737039 0 0.0044550976866140034 0.0064217430891767265 0 0.0043915330661903106 0.006532942495737039 0 0.0044206985000524897 0.0065183711087022853 0 0.0043915330661903106 0.006532942495737039 0 0.0043637719492487289 0.0066357909497196639 0 0.0043310079646434732 0.0066700159221516125 0 0.0043915330661903106 0.006532942495737039 0 0.0043637719492487289 0.0066357909497196639 0 0.0044206985000524897 0.0065183711087022853 0 0.0043637719492487289 0.0066357909497196639 0 0.0043310079646434732 0.0066700159221516125 0 0.0043105255597893537 0.0067895748860551186 0 0.0043637719492487289 0.0066357909497196639 0 0.0043105255597893537 0.0067895748860551186 0 0.0043250143370934897 0.0066905076646504268 0 0.0043310079646434732 0.0066700159221516125 0 0.0042794787251176306 0.006711396552528095 0 0.0042826570247237296 0.0068369861654879035 0 0.0043148968650773929 0.0065307791828699167 0 0.0043915330661903106 0.006532942495737039 0 0.0043310079646434732 0.0066700159221516125 0 0.0043148968650773929 0.0065307791828699167 0 0.0043310079646434732 0.0066700159221516125 0 0.0042794787251176306 0.006711396552528095 0 0.0043148968650773929 0.0065307791828699167 0 0.0042794787251176306 0.006711396552528095 0 0.0042244279945633156 0.0066736750605397256 0 0.0041794533090821987 0.0065229759659699103 0 0.0043148968650773929 0.0065307791828699167 0 0.0042244279945633156 0.0066736750605397256 0 0.0042794787251176306 0.006711396552528095 0 0.0042244279945633156 0.0066736750605397256 0 0.0042383536312667136 0.0068175650209406314 0 0.0042794787251176306 0.006711396552528095 0 0.0042383536312667136 0.0068175650209406314 0 0.0042826570247237296 0.0068369861654879035 0 0.004165281320759457 0.0067909579558911694 0 0.0042244279945633156 0.0066736750605397256 0 0.0042383536312667136 0.0068175650209406314 0 0.0041794533090821987 0.0065229759659699103 0 0.0042244279945633156 0.0066736750605397256 0 0.0041201591443964115 0.0066351258788898328 0 0.004165281320759457 0.0067909579558911694 0 0.0042244279945633156 0.0066736750605397256 0 0.0041201591443964115 0.0066351258788898328 0 0.0036332497088421736 0.0050431976067648251 0 0.0029250871621015035 0.0049479461395055104 0 0.0039580231325620913 0.005898424974898662 0 0.0034341424400501897 0.0053880472431074257 0 0.0031474107743789596 0.0049754986560859218 0 0.0039580231325620913 0.005898424974898662 0 0.003020793202604558 0.0048898159856871626 0 0.0039245027306982882 0.0058697203735445886 0 0.0043703387913793567 0.0065339464763885784 0 0.0044092776579727679 0.0064966359005325051 0 0.0043362668565948611 0.0064745773559277313 0 0.0036758227696934822 0.0054150847097301962 0 0.0039203173649833495 0.0059397583920257338 0 0.0045978175422264397 0.0062350329326605934 0 0.0043703387913793567 0.0065339464763885784 0 0.0044859284881091817 0.0064150873325940026 0 0.0027718925066521185 0.0046419318826625621 0 0.0034341424400501897 0.0053880472431074257 0 0.0031474107743789596 0.0049754986560859218 0 0.0045093890948901304 0.0062753842514674685 0 0.0044550976866140034 0.0064217430891767265 0 0.0044859284881091817 0.0064150873325940026 0 0.0045978175422264397 0.0062350329326605934 0 0.0045093890948901304 0.0062753842514674685 0 0.0044859284881091817 0.0064150873325940026 0 0.0044550976866140034 0.0064217430891767265 0 0.0044859284881091817 0.0064150873325940026 0 0.0044206985000524897 0.0065183711087022853 0 0.0044859284881091817 0.0064150873325940026 0 0.0044073112225518248 0.0065184440469901088 0 0.0044206985000524897 0.0065183711087022853 0 0.0043703387913793567 0.0065339464763885784 0 0.0044092776579727679 0.0064966359005325051 0 0.0044859284881091817 0.0064150873325940026 0 0.0044092776579727679 0.0064966359005325051 0 0.0044859284881091817 0.0064150873325940026 0 0.0044073112225518248 0.0065184440469901088 0 0.0044073112225518248 0.0065184440469901088 0 0.0043343282976385251 0.006570557987900274 0 0.0043362668565948611 0.0064745773559277313 0 0.0044073112225518248 0.0065184440469901088 0 0.0043736235308145816 0.0065946328172947471 0 0.0043343282976385251 0.006570557987900274 0 0.0043637719492487289 0.0066357909497196639 0 0.0044206985000524897 0.0065183711087022853 0 0.0043736235308145816 0.0065946328172947471 0 0.0044073112225518248 0.0065184440469901088 0 0.0044206985000524897 0.0065183711087022853 0 0.0043736235308145816 0.0065946328172947471 0 0.0043637719492487289 0.0066357909497196639 0 0.0043736235308145816 0.0065946328172947471 0 0.0043250143370934897 0.0066905076646504268 0 0.0043736235308145816 0.0065946328172947471 0 0.0043343282976385251 0.006570557987900274 0 0.0043250143370934897 0.0066905076646504268 0 0.0043343282976385251 0.006570557987900274 0 0.0043362668565948611 0.0064745773559277313 0 0.004244890508274991 0.0065006145440815637 0 0.0043703387913793567 0.0065339464763885784 0 0.0043362668565948611 0.0064745773559277313 0 0.0041771749543938778 0.0061809235532510548 0 0.0043362668565948611 0.0064745773559277313 0 0.004244890508274991 0.0065006145440815637 0 0.0041771749543938778 0.0061809235532510548 0 0.0044092776579727679 0.0064966359005325051 0 0.0044073112225518248 0.0065184440469901088 0 0.0043362668565948611 0.0064745773559277313 0 0.0034341424400501897 0.0053880472431074257 0 0.0041771749543938778 0.0061809235532510548 0 0.0039580231325620913 0.005898424974898662 0 0.0041771749543938778 0.0061809235532510548 0 0.00461277198385806 0.0061638388552497734 0 0.0041692356058024866 0.0065713201754975551 0 0.0039203173649833495 0.0059397583920257338 0 0.0041673512648172624 0.0061845094355077136 0 0.0041771749543938778 0.0061809235532510548 0 0.0042295528081193294 0.0057272062614555303 0 0.00461277198385806 0.0061638388552497734 0 0.0042295528081193294 0.0057272062614555303 0 0.0039580231325620913 0.005898424974898662 0 0.0040470783715100154 0.0052959215364362698 0 0.0041771749543938778 0.0061809235532510548 0 0.0042295528081193294 0.0057272062614555303 0 0.0039580231325620913 0.005898424974898662 0 0.00461277198385806 0.0061638388552497734 0 0.0044731387728397017 0.0053466772482099042 0 0.0055060832914872017 0.005491359806613378 0 0.0042295528081193294 0.0057272062614555303 0 0.00461277198385806 0.0061638388552497734 0 0.0044731387728397017 0.0053466772482099042 0 0.0044731387728397017 0.0053466772482099042 0 0.004604472349414768 0.0044245256219928152 0 0.0055060832914872017 0.005491359806613378 0 0.0044731387728397017 0.0053466772482099042 0 0.0042746474634396238 0.0047349623442879355 0 0.004604472349414768 0.0044245256219928152 0 0.0036332497088421736 0.0050431976067648251 0 0.0039580231325620913 0.005898424974898662 0 0.0040470783715100154 0.0052959215364362698 0 0.0042295528081193294 0.0057272062614555303 0 0.0044731387728397017 0.0053466772482099042 0 0.0040470783715100154 0.0052959215364362698 0 0.0044731387728397017 0.0053466772482099042 0 0.0042746474634396238 0.0047349623442879355 0 0.0040470783715100154 0.0052959215364362698 0 0.0042746474634396238 0.0047349623442879355 0 0.0040470783715100154 0.0052959215364362698 0 0.0038757532371370878 0.0047234317159721194 0 0.0036332497088421736 0.0050431976067648251 0 0.0040470783715100154 0.0052959215364362698 0 0.0038757532371370878 0.0047234317159721194 0 0.0033429708644118422 0.0044521687581666573 0 0.0038757532371370878 0.0047234317159721194 0 0.0037454948116868491 0.0041827047325266259 0 0.0038757532371370878 0.0047234317159721194 0 0.0041812256822933453 0.0043849801854645093 0 0.0037454948116868491 0.0041827047325266259 0 0.0042746474634396238 0.0047349623442879355 0 0.0038757532371370878 0.0047234317159721194 0 0.0041812256822933453 0.0043849801854645093 0 0.0042746474634396238 0.0047349623442879355 0 0.004604472349414768 0.0044245256219928152 0 0.0044331956839887676 0.0044254683889535535 0 0.0042746474634396238 0.0047349623442879355 0 0.0041812256822933453 0.0043849801854645093 0 0.0044331956839887676 0.0044254683889535535 0 0.004604472349414768 0.0044245256219928152 0 0.0044331956839887676 0.0044254683889535535 0 0.0043389908184496692 0.0044554901958355469 0 0.0044331956839887676 0.0044254683889535535 0 0.0044536082746860096 0.0043878709940991844 0 0.0043389908184496692 0.0044554901958355469 0 0.0041812256822933453 0.0043849801854645093 0 0.0044331956839887676 0.0044254683889535535 0 0.0044536082746860096 0.0043878709940991844 0 -0.00060227282216174086 -0.011640964507772262 0 0.00057710259653599206 -0.011819534381935472 0 -0.00099907730411885891 -0.012275308072505577 0 0.0041812256822933453 0.0043849801854645093 0 0.0044536082746860096 0.0043878709940991844 0 0.0040674439988942438 0.0039270553966932065 0 0.002264717883184793 -0.0040795917557039816 0 0.0017496341527609451 -0.0024020578078307463 0 0.0044536082746860096 0.0043878709940991844 0 0.0040674439988942438 0.0039270553966932065 0 0.0046923279650446384 0.004343741261795089 0 0.0031647241341177823 0.0011869729819100623 0 0.0017496341527609451 -0.0024020578078307463 0 0.0044536082746860096 0.0043878709940991844 0 0.004240674985871204 0.0048157532557025415 0 0.0043389908184496692 0.0044554901958355469 0 0.0031800104442148251 0.0035465700399617407 0 0.0040674439988942438 0.0039270553966932065 0 0.0037454948116868491 0.0041827047325266259 0 0.0024872286948070862 -0.0038510695001659446 0 0.002264717883184793 -0.0040795917557039816 0 0.0041812256822933453 0.0043849801854645093 0 0.0040674439988942438 0.0039270553966932065 0 0.0037454948116868491 0.0041827047325266259 0 -0.00048663853705498833 -0.0046067713202189711 0 -0.00045385937518930625 -0.0048291476982997459 0 5.0388816547099141e-05 -0.0047376173124245302 0 0.0028000274998827 0.0052007023585617434 0 0.004240674985871204 0.0048157532557025415 0 0.0033460893772427067 0.0045774479074641326 0 -0.0025605548220994515 -0.012230771930131128 0 -0.0021332498027874344 -0.012189646440687596 0 -0.00099907730411885891 -0.012275308072505577 0 0.0013423162425196351 0.00034316858018376413 0 0.0017496341527609451 -0.0024020578078307463 0 -0.0017091902645081484 -0.0089299505240768452 0 0.0017496341527609451 -0.0024020578078307463 0 -0.00060227282216174086 -0.011640964507772262 0 -0.0021332498027874344 -0.012189646440687596 0 -0.00099907730411885891 -0.012275308072505577 0 0.004604472349414768 0.0044245256219928152 0 0.0038066009465454265 0.0043311250104589565 0 0.0036367304999104506 0.0037898522882970315 0 0.004240674985871204 0.0048157532557025415 0 0.0038066009465454265 0.0043311250104589565 0 0.0033460893772427067 0.0045774479074641326 0 0.004240674985871204 0.0048157532557025415 0 0.0038066009465454265 0.0043311250104589565 0 0.0043389908184496692 0.0044554901958355469 0 0.004604472349414768 0.0044245256219928152 0 0.0038066009465454265 0.0043311250104589565 0 0.0043389908184496692 0.0044554901958355469 0 0.0038066009465454265 0.0043311250104589565 0 0.0030444830440405539 0.0038958823490115365 0 0.0036367304999104506 0.0037898522882970315 0 0.0038066009465454265 0.0043311250104589565 0 0.0030444830440405539 0.0038958823490115365 0 0.0033460893772427067 0.0045774479074641326 0 0.0022921694383981716 0.0042108280303802025 0 0.0020674155188230609 0.0016665013138889371 0 0.0030444830440405539 0.0038958823490115365 0 0.0023132846531641509 0.0043271467676172194 0 0.0024462235085577363 0.0033729475663350768 0 0.0030444830440405539 0.0038958823490115365 0 0.0033460893772427067 0.0045774479074641326 0 0.0023132846531641509 0.0043271467676172194 0 0.0028000274998827 0.0052007023585617434 0 0.0033460893772427067 0.0045774479074641326 0 0.0023132846531641509 0.0043271467676172194 0 0.0030444830440405539 0.0038958823490115365 0 0.0030724520711643715 0.0033273282727480859 0 0.0024462235085577363 0.0033729475663350768 0 0.0030444830440405539 0.0038958823490115365 0 0.0030724520711643715 0.0033273282727480859 0 0.0036367304999104506 0.0037898522882970315 0 0.0030724520711643715 0.0033273282727480859 0 0.0036511702749827853 0.0029514576420104121 0 0.0028094554610537128 0.0027601539737371508 0 0.0030724520711643715 0.0033273282727480859 0 0.0028094554610537128 0.0027601539737371508 0 0.0024462235085577363 0.0033729475663350768 0 0.0045614607760892387 0.0043534269705193867 0 0.004671014507419048 0.0042483018339110612 0 0.004604472349414768 0.0044245256219928152 0 0.0036367304999104506 0.0037898522882970315 0 0.0036511702749827853 0.0029514576420104121 0 0.0030724520711643715 0.0033273282727480859 0 0.0036367304999104506 0.0037898522882970315 0 0.0036511702749827853 0.0029514576420104121 0 0.0055060832914872017 0.005491359806613378 0 0.0061389804139658369 0.0061670431848711588 0 0.0050324740530607905 0.0066484516320112711 0 0.00461277198385806 0.0061638388552497734 0 0.0055060832914872017 0.005491359806613378 0 0.0050324740530607905 0.0066484516320112711 0 0.0036511702749827853 0.0029514576420104121 0 0.0028094554610537128 0.0027601539737371508 0 0.0026670871172224694 0.0020052702179295151 0 0.004671014507419048 0.0042483018339110612 0 0.003548082338986108 0.0043177869631990645 0 0.0028094554610537128 0.0027601539737371508 0 0.0022645591845532054 0.0021725315078612245 0 0.0026670871172224694 0.0020052702179295151 0 0.0028094554610537128 0.0027601539737371508 0 0.0022645591845532054 0.0021725315078612245 0 0.0024462235085577363 0.0033729475663350768 0 -0.00021528915396354595 0.00065459048263278555 0 0.0020674155188230609 0.0016665013138889371 0 0.00078537819286229025 -0.0031726172300379479 0 -0.00064932995188663161 -0.0010491383094452624 0 0.0015399886918813822 0.00020633521784820457 0 -0.00021528915396354595 0.00065459048263278555 0 0.003548082338986108 0.0043177869631990645 0 -0.00064932995188663161 -0.0010491383094452624 0 0.0015399886918813822 0.00020633521784820457 0 -0.0012913099517815165 0.00014305962020166985 0 0.0015399886918813822 0.00020633521784820457 0 -0.0012913099517815165 0.00014305962020166985 0 0.00025437496888871305 0.002373795262191003 0 -0.0012913099517815165 0.00014305962020166985 0 -0.0032832421686669585 -0.00119336235905974 0 -0.0027366465908674415 0.0011178185073137548 0 -0.00064932995188663161 -0.0010491383094452624 0 -0.0012913099517815165 0.00014305962020166985 0 -0.0032832421686669585 -0.00119336235905974 0 0.00078537819286229025 -0.0031726172300379479 0 -0.00064932995188663161 -0.0010491383094452624 0 -0.0032832421686669585 -0.00119336235905974 0 -0.00021528915396354595 0.00065459048263278555 0 -0.0044057478996481171 -0.00099737225290254402 0 -0.0041804123376404092 -0.00051461475165255719 0 -0.0050527782987772425 -0.00013634005466913761 0 -0.0047593035229160459 -0.00063605148318161451 0 -0.0050527782987772425 -0.00013634005466913761 0 -0.0052334480452979415 -0.0006735271655031491 0 -0.0047593035229160459 -0.00063605148318161451 0 -0.0050527782987772425 -0.00013634005466913761 0 -0.005740558067454998 -0.00044275970719005449 0 -0.0052334480452979415 -0.0006735271655031491 0 -0.0050527782987772425 -0.00013634005466913761 0 -0.005740558067454998 -0.00044275970719005449 0 -0.0060504341826468694 0.00037454154832704229 0 -0.005740558067454998 -0.00044275970719005449 0 -0.0066103483791244387 -0.00057239572540610949 0 -0.0060993431371488887 -0.00092495534703088253 0 -0.005740558067454998 -0.00044275970719005449 0 -0.0060504341826468694 0.00037454154832704229 0 -0.0066103483791244387 -0.00057239572540610949 0 -0.0044057478996481171 -0.00099737225290254402 0 -0.0058853196924517574 0.00038704377108709939 0 -0.0032832421686669585 -0.00119336235905974 0 -0.0060504341826468694 0.00037454154832704229 0 -0.0042765912131920809 0.00092447887999911325 0 -0.0032832421686669585 -0.00119336235905974 0 -0.0042765912131920809 0.00092447887999911325 0 -0.0027366465908674415 0.0011178185073137548 0 -0.0043400635825642042 0.0019522427142829549 0 -0.0052511215467992214 0.0017864943810778897 0 -0.0042765912131920809 0.00092447887999911325 0 -0.0036559236676674527 0.0023509599415665011 0 -0.0054911928175761741 0.0017036647250423366 0 -0.0042765912131920809 0.00092447887999911325 0 -0.0036559236676674527 0.0023509599415665011 0 -0.0027366465908674415 0.0011178185073137548 0 -0.0054911928175761741 0.0017036647250423366 0 -0.0065654037040504681 0.0013148907981827948 0 -0.0065274286757797863 0.0020806281589978216 0 -0.0060504341826468694 0.00037454154832704229 0 -0.0042765912131920809 0.00092447887999911325 0 -0.0054911928175761741 0.0017036647250423366 0 -0.0060504341826468694 0.00037454154832704229 0 -0.0054911928175761741 0.0017036647250423366 0 -0.0065654037040504681 0.0013148907981827948 0 -0.0054911928175761741 0.0017036647250423366 0 -0.0055603606444516 0.0021578105833543319 0 -0.0065274286757797863 0.0020806281589978216 0 -0.0055603606444516 0.0021578105833543319 0 -0.0051624678922716207 0.0025808814092905938 0 -0.0060945970066928106 0.0025507296705020634 0 -0.0055603606444516 0.0021578105833543319 0 -0.0065274286757797863 0.0020806281589978216 0 -0.0060945970066928106 0.0025507296705020634 0 -0.0047919904012494532 0.0016994457626909266 0 -0.0055603606444516 0.0021578105833543319 0 -0.0051624678922716207 0.0025808814092905938 0 -0.0047919904012494532 0.0016994457626909266 0 -0.0054911928175761741 0.0017036647250423366 0 -0.0055603606444516 0.0021578105833543319 0 -0.0047919904012494532 0.0016994457626909266 0 -0.0040024184282178264 0.0019208748434240246 0 -0.0051624678922716207 0.0025808814092905938 0 -0.0031594507433948408 -0.0038999433412453418 0 -0.0025999184953762458 -0.0099544540746898443 0 -0.0008750650385493168 -0.0048233824875000457 0 -0.00072092577259838953 -0.0047208830399545799 0 -0.00091292049019904553 -0.0045243463693592544 0 -0.0047919904012494532 0.0016994457626909266 0 -0.0040024184282178264 0.0019208748434240246 0 -0.0039865354218005244 0.0017713617870529375 0 -0.0044404778273242186 -0.010373918364701104 0 -0.0042349525500795472 -0.010789585403046186 0 -0.0040376663629763266 -0.010802510604583121 0 -0.0031594507433948408 -0.0038999433412453418 0 -0.0048336784980829734 -0.0041318427820729959 0 -0.0031594507433948408 -0.0038999433412453418 0 -0.0019067972505865767 0.0007076189675255275 0 -0.00089239391608197981 -0.0048105989826203299 0 -0.00084739480326025878 -0.0048372318760645863 0 -0.00087860363577879521 -0.0048658049848001456 0 -0.0031594507433948408 -0.0038999433412453418 0 -0.0027639391285080167 -0.0041083823206561933 0 0.0013423162425196351 0.00034316858018376413 0 -0.0019067972505865767 0.0007076189675255275 0 -0.00045385937518930625 -0.0048291476982997459 0 -0.00084739480326025878 -0.0048372318760645863 0 -0.00087860363577879521 -0.0048658049848001456 0 -0.00045385937518930625 -0.0048291476982997459 0 -0.00084739480326025878 -0.0048372318760645863 0 -0.00072092577259838953 -0.0047208830399545799 0 0.0028000274998827 0.0052007023585617434 0 0.0023132846531641509 0.0043271467676172194 0 -0.0015690866126309311 0.004867044539881688 0 -0.00048663853705498833 -0.0046067713202189711 0 -0.00045385937518930625 -0.0048291476982997459 0 -0.00072092577259838953 -0.0047208830399545799 0 -0.0008750650385493168 -0.0048233824875000457 0 -0.00084739480326025878 -0.0048372318760645863 0 -0.00072092577259838953 -0.0047208830399545799 0 -0.0012913099517815165 0.00014305962020166985 0 -0.0015690866126309311 0.004867044539881688 0 0.00025437496888871305 0.002373795262191003 0 0.0023132846531641509 0.0043271467676172194 0 -0.0015690866126309311 0.004867044539881688 0 0.00025437496888871305 0.002373795262191003 0 0.0023132846531641509 0.0043271467676172194 0 0.0015399886918813822 0.00020633521784820457 0 0.00025437496888871305 0.002373795262191003 0 -0.0012913099517815165 0.00014305962020166985 0 -0.0017966090729811801 0.0026912391809739934 0 -0.0027366465908674415 0.0011178185073137548 0 -0.0043400635825642042 0.0019522427142829549 0 -0.0019067972505865767 0.0007076189675255275 0 -0.0036559236676674527 0.0023509599415665011 0 -0.0017966090729811801 0.0026912391809739934 0 -0.0027366465908674415 0.0011178185073137548 0 -0.0013407976475171487 0.0015768441440423995 0 -0.0019067972505865767 0.0007076189675255275 0 -0.010384413514438666 -0.00012561903378131235 0 -0.0096930757774842322 -0.00042970093400132613 0 -0.0098932307317758945 9.0751765705440174e-05 0 -0.010247564756023746 -0.00072116482644074759 0 -0.0096930757774842322 -0.00042970093400132613 0 -0.0092564019357330857 -0.00092671336687541147 0 -0.0095475092191359048 -0.00041578424065886452 0 -0.0080483857591962474 -0.00089964595800096287 0 -0.0096930757774842322 -0.00042970093400132613 0 -0.0082648324851615686 -0.00037745653002721599 0 -0.0080780265143769736 -0.0011944043922433008 0 -0.0083563095377639958 -0.00036076659185784062 0 -0.0091758399735791529 0.00040145775678032122 0 -0.0096930757774842322 -0.00042970093400132613 0 -0.0082648324851615686 -0.00037745653002721599 0 -0.0098932307317758945 9.0751765705440174e-05 0 -0.0082648324851615686 -0.00037745653002721599 0 -0.0074006288186344938 0.00083709448047269899 0 -0.0087012024868038801 0.001074180002162939 0 -0.0082648324851615686 -0.00037745653002721599 0 -0.0074006288186344938 0.00083709448047269899 0 -0.0071947263641728857 -1.1100496153288183e-05 0 -0.0082648324851615686 -0.00037745653002721599 0 -0.0073065717575399496 -0.00079540963576683508 0 -0.0080780265143769736 -0.0011944043922433008 0 -0.0082648324851615686 -0.00037745653002721599 0 -0.0071947263641728857 -1.1100496153288183e-05 0 -0.0073065717575399496 -0.00079540963576683508 0 -0.0060504341826468694 0.00037454154832704229 0 -0.0071947263641728857 -1.1100496153288183e-05 0 -0.0066103483791244387 -0.00057239572540610949 0 -0.0071947263641728857 -1.1100496153288183e-05 0 -0.0066103483791244387 -0.00057239572540610949 0 -0.0073065717575399496 -0.00079540963576683508 0 -0.0060504341826468694 0.00037454154832704229 0 -0.0074006288186344938 0.00083709448047269899 0 -0.0071947263641728857 -1.1100496153288183e-05 0 -0.0074006288186344938 0.00083709448047269899 0 -0.0065654037040504681 0.0013148907981827948 0 -0.0074006821766045274 0.0016408538760859979 0 -0.0065654037040504681 0.0013148907981827948 0 -0.0065274286757797863 0.0020806281589978216 0 -0.0074006821766045274 0.0016408538760859979 0 -0.0060504341826468694 0.00037454154832704229 0 -0.0074006288186344938 0.00083709448047269899 0 -0.0065654037040504681 0.0013148907981827948 0 -0.0065274286757797863 0.0020806281589978216 0 -0.0077929698608505968 0.0023500353065429576 0 -0.0068202608800583429 0.0027022394804055278 0 -0.0065274286757797863 0.0020806281589978216 0 -0.0068202608800583429 0.0027022394804055278 0 -0.0060945970066928106 0.0025507296705020634 0 -0.0065274286757797863 0.0020806281589978216 0 -0.0077929698608505968 0.0023500353065429576 0 -0.0074006821766045274 0.0016408538760859979 0 -0.0074006288186344938 0.00083709448047269899 0 -0.0074006821766045274 0.0016408538760859979 0 -0.0087012024868038801 0.001074180002162939 0 -0.010384413514438666 -0.00012561903378131235 0 -0.0098932307317758945 9.0751765705440174e-05 0 -0.010952020631659279 -0.00011710832072384991 0 -0.0077929698608505968 0.0023500353065429576 0 -0.0074006821766045274 0.0016408538760859979 0 -0.0087012024868038801 0.001074180002162939 0 -0.0077929698608505968 0.0023500353065429576 0 -0.0087012024868038801 0.001074180002162939 0 -0.0092630920690824504 0.0023493223493078891 0 -0.0091758399735791529 0.00040145775678032122 0 -0.010427089072797775 0.0015349961491640126 0 -0.0098626286621049161 0.0035201558864010924 0 -0.0092630920690824504 0.0023493223493078891 0 -0.0087991536159535422 0.0036429667033685401 0 -0.0090448949256027953 -0.00058815891812881373 0 -0.0081703971620265096 -0.00062203002200822627 0 -0.0092630920690824504 0.0023493223493078891 0 -0.0087991536159535422 0.0036429667033685401 0 -0.0081958517662894352 0.0030909452854944127 0 -0.0077929698608505968 0.0023500353065429576 0 -0.0092630920690824504 0.0023493223493078891 0 -0.0081958517662894352 0.0030909452854944127 0 -0.0087991536159535422 0.0036429667033685401 0 -0.0081958517662894352 0.0030909452854944127 0 -0.0076660362552584812 0.003766261447824399 0 -0.007533546664094299 -0.0055320015127962733 0 -0.0074076232944174075 -0.0055781465572509676 0 -0.0074455936099267275 -0.0055519754088769867 0 -0.0081703971620265096 -0.00062203002200822627 0 -0.0069957811876335254 -0.0050279285310062677 0 -0.0076660362552584812 0.003766261447824399 0 -0.0073865054361370803 0.0030282800288688938 0 -0.0064335209666232865 0.0031937076428438663 0 -0.0081958517662894352 0.0030909452854944127 0 -0.0076660362552584812 0.003766261447824399 0 -0.0073865054361370803 0.0030282800288688938 0 -0.007385190081898565 -0.0055866123324440336 0 -0.0073318903604903431 -0.005583675900401386 0 -0.0074455936099267275 -0.0055519754088769867 0 -0.0069957811876335254 -0.0050279285310062677 0 -0.0072553095515540279 -0.0052620457816539828 0 -0.0069957811876335254 -0.0050279285310062677 0 -0.0049956708109432394 -0.0087880646860762322 0 -0.0042894557488985918 -0.010858699054620601 0 -0.0042327404436266038 -0.010858737230129992 0 -0.004176689798920807 -0.010918081330987036 0 -0.0049956708109432394 -0.0087880646860762322 0 -0.0038518494789952919 -0.01045741334835933 0 -0.0077929698608505968 0.0023500353065429576 0 -0.0073865054361370803 0.0030282800288688938 0 -0.0068202608800583429 0.0027022394804055278 0 -0.0077929698608505968 0.0023500353065429576 0 -0.0081958517662894352 0.0030909452854944127 0 -0.0073865054361370803 0.0030282800288688938 0 -0.0073865054361370803 0.0030282800288688938 0 -0.0068202608800583429 0.0027022394804055278 0 -0.0064335209666232865 0.0031937076428438663 0 -0.0068202608800583429 0.0027022394804055278 0 -0.0064335209666232865 0.0031937076428438663 0 -0.0060945970066928106 0.0025507296705020634 0 -0.0049956708109432394 -0.0087880646860762322 0 -0.0039508151222233572 -0.011663161965262988 0 -0.0040957915852002456 -0.010984660432473569 0 -0.004176689798920807 -0.010918081330987036 0 -0.0041193410259850712 -0.011059030725783296 0 -0.0042894557488985918 -0.010858699054620601 0 -0.0040957915852002456 -0.010984660432473569 0 -0.004176689798920807 -0.010918081330987036 0 -0.0041911135122023151 -0.010882810197528001 0 -0.004176689798920807 -0.010918081330987036 0 -0.0041193410259850712 -0.011059030725783296 0 -0.0069957811876335254 -0.0050279285310062677 0 -0.0050815557721612774 -0.0037185014718272465 0 -0.0047193132608374612 -0.011268157360105249 0 -0.0044370171228076327 -0.011005640216933326 0 -0.0041193410259850712 -0.011059030725783296 0 -0.0044370171228076327 -0.011005640216933326 0 -0.0045615952013937332 -0.010813100081285876 0 -0.0041010069638614827 -0.010876451920294253 0 -0.0044370171228076327 -0.011005640216933326 0 -0.0045615952013937332 -0.010813100081285876 0 -0.0047599592894517571 -0.010969789742366643 0 -0.0045615952013937332 -0.010813100081285876 0 -0.0049166244250768466 -0.010813514055332174 0 -0.0047599592894517571 -0.010969789742366643 0 -0.0049166244250768466 -0.010813514055332174 0 -0.0047599592894517571 -0.010969789742366643 0 -0.0051416533052294194 -0.010992334575800053 0 -0.0049956708109432394 -0.0087880646860762322 0 -0.0065254184467327322 -0.0081277991312004583 0 -0.0047193132608374612 -0.011268157360105249 0 -0.0047599592894517571 -0.010969789742366643 0 -0.0051416533052294194 -0.010992334575800053 0 -0.0047193132608374612 -0.011268157360105249 0 -0.0044370171228076327 -0.011005640216933326 0 -0.0047599592894517571 -0.010969789742366643 0 -0.007533546664094299 -0.0055320015127962733 0 -0.0074455936099267275 -0.0055519754088769867 0 -0.0075081865995622341 -0.0055189854087881948 0 -0.0073318903604903431 -0.005583675900401386 0 -0.0074455936099267275 -0.0055519754088769867 0 -0.0074956185279262729 -0.0054881103055783231 0 -0.0074455936099267275 -0.0055519754088769867 0 -0.0075081865995622341 -0.0055189854087881948 0 -0.0074956185279262729 -0.0054881103055783231 0 -0.0049166244250768466 -0.010813514055332174 0 -0.0051416533052294194 -0.010992334575800053 0 -0.0051796945689594458 -0.010722628885639265 0 -0.0074956185279262729 -0.0054881103055783231 0 -0.0075645002181795049 -0.0054930544214845242 0 -0.0075684088565778195 -0.0054891260102310456 0 -0.0051416533052294194 -0.010992334575800053 0 -0.0055161412132299159 -0.010765853037825693 0 -0.0051796945689594458 -0.010722628885639265 0 -0.0065254184467327322 -0.0081277991312004583 0 -0.0064883260530845801 -0.0081658823407767325 0 -0.007533546664094299 -0.0055320015127962733 0 -0.0075081865995622341 -0.0055189854087881948 0 -0.0075645002181795049 -0.0054930544214845242 0 -0.0075081865995622341 -0.0055189854087881948 0 -0.0074956185279262729 -0.0054881103055783231 0 -0.0075645002181795049 -0.0054930544214845242 0 -0.0075950638704954197 -0.0054890943813994441 0 -0.007533546664094299 -0.0055320015127962733 0 -0.0075645002181795049 -0.0054930544214845242 0 -0.0029663180980230917 -0.011765972355521005 0 -0.0031402542792820739 -0.012128309864584987 0 -0.003328058044092383 -0.01160839821526111 0 -0.0039414760967466057 -0.011072113131121705 0 -0.0040617917139466903 -0.011025291452269057 0 -0.0038807771265949777 -0.011007831727589049 0 -0.0025999184953762458 -0.0099544540746898443 0 -0.0036744977802340676 -0.011631630904393425 0 -0.0029663180980230917 -0.011765972355521005 0 -0.0026653941764006616 -0.011968494125675924 0 -0.0031402542792820739 -0.012128309864584987 0 -0.0029663180980230917 -0.011765972355521005 0 -0.0026653941764006616 -0.011968494125675924 0 -0.0026587344310093565 -0.011648098330165269 0 -0.00048663853705498833 -0.0046067713202189711 0 -0.00072092577259838953 -0.0047208830399545799 0 -0.00091292049019904553 -0.0045243463693592544 0 -0.0017091902645081484 -0.0089299505240768452 0 -0.0025999184953762458 -0.0099544540746898443 0 -0.0025605548220994515 -0.012230771930131128 0 -0.0026653941764006616 -0.011968494125675924 0 -0.0031402542792820739 -0.012128309864584987 0 -0.0044404778273242186 -0.010373918364701104 0 -0.0044166744711982616 -0.010917481913119656 0 -0.0042349525500795472 -0.010789585403046186 0 -0.0044166744711982616 -0.010917481913119656 0 -0.0042349525500795472 -0.010789585403046186 0 -0.0040617917139466903 -0.011025291452269057 0 -0.0025999184953762458 -0.0099544540746898443 0 -0.0044095424377706425 -0.01087722566271089 0 -0.0040376663629763266 -0.010802510604583121 0 -0.0040746677380579443 -0.011012952636387257 0 -0.0040617917139466903 -0.011025291452269057 0 -0.0042349525500795472 -0.010789585403046186 0 -0.0040376663629763266 -0.010802510604583121 0 -0.0040617917139466903 -0.011025291452269057 0 -0.0040957915852002456 -0.010984660432473569 0 -0.0040376663629763266 -0.010802510604583121 0 -0.0040746677380579443 -0.011012952636387257 0 -0.0050815557721612774 -0.0037185014718272465 0 -0.0048336784980829734 -0.0041318427820729959 0 -0.0064335209666232865 0.0031937076428438663 0 -0.0051624678922716207 0.0025808814092905938 0 -0.0060945970066928106 0.0025507296705020634 0 -0.0040957915852002456 -0.010984660432473569 0 -0.0040746677380579443 -0.011012952636387257 0 -0.0041193410259850712 -0.011059030725783296 0 -0.0040746677380579443 -0.011012952636387257 0 -0.0039906696550127364 -0.011027683902209947 0 -0.0041193410259850712 -0.011059030725783296 0 -0.0040746677380579443 -0.011012952636387257 0 -0.0040617917139466903 -0.011025291452269057 0 -0.0039906696550127364 -0.011027683902209947 0 -0.0040617917139466903 -0.011025291452269057 0 -0.0039906696550127364 -0.011027683902209947 0 -0.0038807771265949777 -0.011007831727589049 0 -0.0044370171228076327 -0.011005640216933326 0 -0.0041193410259850712 -0.011059030725783296 0 -0.0041010069638614827 -0.010876451920294253 0 -0.0039906696550127364 -0.011027683902209947 0 -0.0041193410259850712 -0.011059030725783296 0 -0.0041010069638614827 -0.010876451920294253 0 -0.0041010069638614827 -0.010876451920294253 0 -0.00362605490934087 -0.010880858942688582 0 -0.0038708687914758566 -0.010581760290369797 0 -0.0039906696550127364 -0.011027683902209947 0 -0.0041010069638614827 -0.010876451920294253 0 -0.00362605490934087 -0.010880858942688582 0 -0.00362605490934087 -0.010880858942688582 0 -0.003328058044092383 -0.01160839821526111 0 -0.0030390836530957755 -0.011429893467507612 0 -0.0036232632330489871 -0.010740781582098787 0 -0.0036744977802340676 -0.011631630904393425 0 -0.0039906696550127364 -0.011027683902209947 0 -0.00362605490934087 -0.010880858942688582 0 -0.0038807771265949777 -0.011007831727589049 0 -0.0026587344310093565 -0.011648098330165269 0 -0.0030390836530957755 -0.011429893467507612 0 -0.0027222710058357347 -0.011218399684326065 0 -0.0029663180980230917 -0.011765972355521005 0 -0.0026587344310093565 -0.011648098330165269 0 -0.0030390836530957755 -0.011429893467507612 0 -0.0029663180980230917 -0.011765972355521005 0 -0.003328058044092383 -0.01160839821526111 0 -0.0030390836530957755 -0.011429893467507612 0 -0.00362605490934087 -0.010880858942688582 0 -0.0027222710058357347 -0.011218399684326065 0 -0.0029154976150922284 -0.010780302752905863 0 -0.00362605490934087 -0.010880858942688582 0 -0.0030390836530957755 -0.011429893467507612 0 -0.0027222710058357347 -0.011218399684326065 0 -0.00362605490934087 -0.010880858942688582 0 -0.0029154976150922284 -0.010780302752905863 0 -0.0033238068241542647 -0.010568596656885155 0 -0.0033238068241542647 -0.010568596656885155 0 -0.0030460226378499927 -0.01050214096284024 0 -0.0033443611914638631 -0.010357918720389981 0 -0.0029154976150922284 -0.010780302752905863 0 -0.0033238068241542647 -0.010568596656885155 0 -0.0030460226378499927 -0.01050214096284024 0 -0.0029154976150922284 -0.010780302752905863 0 -0.0030460226378499927 -0.01050214096284024 0 -0.0026713617900281077 -0.010508724051227809 0 -0.0030460226378499927 -0.01050214096284024 0 -0.0029284742576991714 -0.010390362678498985 0 -0.0026713617900281077 -0.010508724051227809 0 -0.0030460226378499927 -0.01050214096284024 0 -0.0030407523862843429 -0.010278453652165238 0 -0.0033443611914638631 -0.010357918720389981 0 -0.0030460226378499927 -0.01050214096284024 0 -0.0029284742576991714 -0.010390362678498985 0 -0.0030407523862843429 -0.010278453652165238 0 -0.0029284742576991714 -0.010390362678498985 0 -0.0030407523862843429 -0.010278453652165238 0 -0.0029737487920380784 -0.01020118914331172 0 -0.0028009713302673597 -0.010365120135229885 0 -0.0027690985650792128 -0.010357091437617755 0 -0.0030407523862843429 -0.010278453652165238 0 -0.0033443611914638631 -0.010357918720389981 0 -0.0033138203922859467 -0.010204365041036905 0 -0.0033443611914638631 -0.010357918720389981 0 -0.0033138203922859467 -0.010204365041036905 0 -0.003589239901328489 -0.01015723433414099 0 -0.0030407523862843429 -0.010278453652165238 0 -0.0033138203922859467 -0.010204365041036905 0 -0.0030386565706143009 -0.010250293010432336 0 -0.0036109289564515419 -0.010389701726943311 0 -0.00379408452158109 -0.010306755835388058 0 -0.003589239901328489 -0.01015723433414099 0 -0.0033443611914638631 -0.010357918720389981 0 -0.0036109289564515419 -0.010389701726943311 0 -0.003589239901328489 -0.01015723433414099 0 -0.0033238068241542647 -0.010568596656885155 0 -0.0033443611914638631 -0.010357918720389981 0 -0.0036109289564515419 -0.010389701726943311 0 -0.00362605490934087 -0.010880858942688582 0 -0.0033238068241542647 -0.010568596656885155 0 -0.0036109289564515419 -0.010389701726943311 0 -0.00362605490934087 -0.010880858942688582 0 -0.0036109289564515419 -0.010389701726943311 0 -0.0038708687914758566 -0.010581760290369797 0 -0.0045615952013937332 -0.010813100081285876 0 -0.0041010069638614827 -0.010876451920294253 0 -0.0041683040064605555 -0.010403418603727631 0 -0.0041010069638614827 -0.010876451920294253 0 -0.0038708687914758566 -0.010581760290369797 0 -0.0041683040064605555 -0.010403418603727631 0 -0.0042826087092004833 -0.010477501872025705 0 -0.0039704538476657341 -0.01017543534956313 0 -0.0043935417814415061 -0.010530574624545447 0 -0.0041587796293692412 -0.010291461533651082 0 -0.0044511969645678658 -0.010348369175558004 0 -0.0038708687914758566 -0.010581760290369797 0 -0.0041683040064605555 -0.010403418603727631 0 -0.00379408452158109 -0.010306755835388058 0 -0.0041683040064605555 -0.010403418603727631 0 -0.00379408452158109 -0.010306755835388058 0 -0.0037751428311762134 -0.010064747095954334 0 -0.0036109289564515419 -0.010389701726943311 0 -0.0038708687914758566 -0.010581760290369797 0 -0.00379408452158109 -0.010306755835388058 0 -0.00379408452158109 -0.010306755835388058 0 -0.0037751428311762134 -0.010064747095954334 0 -0.003589239901328489 -0.01015723433414099 0 -0.0041587796293692412 -0.010291461533651082 0 -0.0044511969645678658 -0.010348369175558004 0 -0.0043424991674830098 -0.010184958574701489 0 -0.0044511969645678658 -0.010348369175558004 0 -0.0043424991674830098 -0.010184958574701489 0 -0.0045278123928490181 -0.010184550116625442 0 -0.0040970647681855005 -0.010116833239280974 0 -0.0043864056959317171 -0.010102074467828844 0 -0.0043424991674830098 -0.010184958574701489 0 -0.0045278123928490181 -0.010184550116625442 0 -0.0043885125951121451 -0.0099800816769196072 0 -0.0043424991674830098 -0.010184958574701489 0 -0.0041785527887017006 -0.010098180680933164 0 -0.0043885125951121451 -0.0099800816769196072 0 -0.0041587796293692412 -0.010291461533651082 0 -0.0041785527887017006 -0.010098180680933164 0 -0.0038303988911823502 -0.010037192222310353 0 -0.0041587796293692412 -0.010291461533651082 0 -0.0043424991674830098 -0.010184958574701489 0 -0.0041785527887017006 -0.010098180680933164 0 -0.0037431804040914157 -0.010057309978541946 0 -0.0037345457881343071 -0.010052086098072415 0 -0.0034478157940331716 -0.010051501899185897 0 -0.0037751428311762134 -0.010064747095954334 0 -0.0037431804040914157 -0.010057309978541946 0 -0.0038303988911823502 -0.010037192222310353 0 -0.0039704538476657341 -0.01017543534956313 0 -0.0038310745526682656 -0.010033527894848066 0 -0.0037350270675283316 -0.010054706330074903 0 -0.0037345457881343071 -0.010052086098072415 0 -0.0038303988911823502 -0.010037192222310353 0 -0.0037431804040914157 -0.010057309978541946 0 -0.0037345457881343071 -0.010052086098072415 0 -0.0038303988911823502 -0.010037192222310353 0 -0.0034108402109291895 -0.0096940516106496909 0 -0.0031396875424193837 -0.010129433488463251 0 -0.0037350270675283316 -0.010054706330074903 0 -0.0037345457881343071 -0.010052086098072415 0 -0.0034478157940331716 -0.010051501899185897 0 -0.0028651611634834058 -0.010097071596051384 0 -0.0027813774471278857 -0.0094545594267282599 0 -0.0024812347641851142 -0.0097030197793688128 0 -0.0031049878096496035 -0.0095214023821859894 0 -0.0028651611634834058 -0.010097071596051384 0 -0.0027813774471278857 -0.0094545594267282599 0 -0.0027690985650792128 -0.010357091437617755 0 -0.0031396875424193837 -0.010129433488463251 0 -0.0033138203922859467 -0.010204365041036905 0 -0.0030386565706143009 -0.010250293010432336 0 -0.0034478157940331716 -0.010051501899185897 0 -0.0026287016547768762 -0.010669124813999819 0 -0.0028651611634834058 -0.010097071596051384 0 -0.0025337059249462062 -0.010157471380953432 0 -0.0028651611634834058 -0.010097071596051384 0 -0.0024812347641851142 -0.0097030197793688128 0 -0.0025337059249462062 -0.010157471380953432 0 -0.0033138203922859467 -0.010204365041036905 0 -0.0034478157940331716 -0.010051501899185897 0 -0.003589239901328489 -0.01015723433414099 0 -0.0037431804040914157 -0.010057309978541946 0 -0.0034478157940331716 -0.010051501899185897 0 -0.003589239901328489 -0.01015723433414099 0 -0.0037751428311762134 -0.010064747095954334 0 -0.0037431804040914157 -0.010057309978541946 0 -0.003589239901328489 -0.01015723433414099 0 -0.0055874072243660986 -0.01046458707882934 0 -0.0053087086134598095 -0.010502755325786359 0 -0.0055161412132299159 -0.010765853037825693 0 -0.0055874072243660986 -0.01046458707882934 0 -0.0053087086134598095 -0.010502755325786359 0 -0.0054658265715711715 -0.010198268668044389 0 -0.0053087086134598095 -0.010502755325786359 0 -0.0055161412132299159 -0.010765853037825693 0 -0.0051796945689594458 -0.010722628885639265 0 -0.0049166244250768466 -0.010813514055332174 0 -0.0051796945689594458 -0.010722628885639265 0 -0.0049326263118217046 -0.01058297341704929 0 -0.0053087086134598095 -0.010502755325786359 0 -0.0051796945689594458 -0.010722628885639265 0 -0.0049326263118217046 -0.01058297341704929 0 -0.0053087086134598095 -0.010502755325786359 0 -0.0049326263118217046 -0.01058297341704929 0 -0.005113890996584684 -0.01034068587045491 0 -0.0046857634760683851 -0.010355121365801089 0 -0.0049326263118217046 -0.01058297341704929 0 -0.004604061202050448 -0.010559957546402439 0 -0.0048387386356865758 -0.010367378943064181 0 -0.0049326263118217046 -0.01058297341704929 0 -0.005113890996584684 -0.01034068587045491 0 -0.0047709091355971249 -0.010374514130164089 0 -0.0049170223232477481 -0.010571305843240996 0 -0.0045615952013937332 -0.010813100081285876 0 -0.0049326263118217046 -0.01058297341704929 0 -0.004604061202050448 -0.010559957546402439 0 -0.0045615952013937332 -0.010813100081285876 0 -0.0049166244250768466 -0.010813514055332174 0 -0.0049326263118217046 -0.01058297341704929 0 -0.0045615952013937332 -0.010813100081285876 0 -0.0043935417814415061 -0.010530574624545447 0 -0.004604061202050448 -0.010559957546402439 0 -0.0045505626746228977 -0.010801091823448973 0 -0.0042826087092004833 -0.010477501872025705 0 -0.0044511969645678658 -0.010348369175558004 0 -0.0046857634760683851 -0.010355121365801089 0 -0.004604061202050448 -0.010559957546402439 0 -0.0043935417814415061 -0.010530574624545447 0 -0.0044511969645678658 -0.010348369175558004 0 -0.004604061202050448 -0.010559957546402439 0 -0.0044511969645678658 -0.010348369175558004 0 -0.0046857634760683851 -0.010355121365801089 0 -0.0045278123928490181 -0.010184550116625442 0 -0.0047709091355971249 -0.010374514130164089 0 -0.0045938511742666336 -0.010115480735273465 0 -0.0046712499966514798 -0.010104269207989352 0 -0.0047796361514638877 -0.0099064715905985267 0 -0.0049893993347015116 -0.010084995364497373 0 -0.0045938511742666336 -0.010115480735273465 0 -0.0043864056959317171 -0.010102074467828844 0 -0.0046712499966514798 -0.010104269207989352 0 -0.0047796361514638877 -0.0099064715905985267 0 -0.0044968412768423274 -0.0098315994932198659 0 -0.0049893993347015116 -0.010084995364497373 0 -0.0052478186358886538 -0.0098465754216916432 0 -0.0049685163094841927 -0.0098251357153783178 0 -0.0047796361514638877 -0.0099064715905985267 0 -0.0049893993347015116 -0.010084995364497373 0 -0.0049685163094841927 -0.0098251357153783178 0 -0.0048387386356865758 -0.010367378943064181 0 -0.0049893993347015116 -0.010084995364497373 0 -0.005113890996584684 -0.01034068587045491 0 -0.0048387386356865758 -0.010367378943064181 0 -0.0046712499966514798 -0.010104269207989352 0 -0.0049893993347015116 -0.010084995364497373 0 -0.0056334074070826228 -0.010018930810402527 0 -0.0054658265715711715 -0.010198268668044389 0 -0.0055406000690465008 -0.010117772186748501 0 -0.0053087086134598095 -0.010502755325786359 0 -0.005113890996584684 -0.01034068587045491 0 -0.0054658265715711715 -0.010198268668044389 0 -0.0049893993347015116 -0.010084995364497373 0 -0.005113890996584684 -0.01034068587045491 0 -0.0054658265715711715 -0.010198268668044389 0 -0.0049893993347015116 -0.010084995364497373 0 -0.0054658265715711715 -0.010198268668044389 0 -0.0052478186358886538 -0.0098465754216916432 0 -0.0054737498533666152 -0.010197257172095339 0 -0.0053977010633379664 -0.0099545491619985032 0 -0.0056334074070826228 -0.010018930810402527 0 -0.0055849551826582947 -0.010157346571771727 0 -0.0055406000690465008 -0.010117772186748501 0 -0.0054779044876471887 -0.010355903595338745 0 -0.0056078746331868134 -0.010214698146502887 0 -0.0055849551826582947 -0.010157346571771727 0 -0.0056078746331868134 -0.010214698146502887 0 -0.0055849551826582947 -0.010157346571771727 0 -0.0055842807093825862 -0.010157610217393814 0 -0.0055849551826582947 -0.010157346571771727 0 -0.0055406000690465008 -0.010117772186748501 0 -0.0055842807093825862 -0.010157610217393814 0 -0.0053977010633379664 -0.0099545491619985032 0 -0.0052052255077293932 -0.010106601265849398 0 -0.0055406000690465008 -0.010117772186748501 0 -0.0055842807093825862 -0.010157610217393814 0 -0.005623859324406206 -0.010168930007182737 0 -0.0052478186358886538 -0.0098465754216916432 0 -0.0050532778563665429 -0.0095339472601928404 0 -0.0049685163094841927 -0.0098251357153783178 0 -0.005543204480510832 -0.010310851922557264 0 -0.0052052255077293932 -0.010106601265849398 0 -0.0056078746331868134 -0.010214698146502887 0 -0.0055842807093825862 -0.010157610217393814 0 -0.005623859324406206 -0.010168930007182737 0 -0.0054133146595548983 -0.010413044964032548 0 -0.0054092415667373545 -0.010416164349119102 0 -0.0054118486722378682 -0.010410451213507288 0 -0.0052052255077293932 -0.010106601265849398 0 -0.0048367311759623371 -0.01055502806832961 0 -0.0048319313013854394 -0.010266328348787448 0 -0.0047069952491194588 -0.010232062383781453 0 -0.0047499858905878196 -0.010130239856619585 0 -0.0048319313013854394 -0.010266328348787448 0 -0.0046865840928261501 -0.010340662702106644 0 -0.0047069952491194588 -0.010232062383781453 0 -0.0052052255077293932 -0.010106601265849398 0 -0.0047209095948364081 -0.010005917710513422 0 -0.0050532778563665429 -0.0095339472601928404 0 -0.0049685163094841927 -0.0098251357153783178 0 -0.0047721631110545504 -0.0096833255148436517 0 -0.0047796361514638877 -0.0099064715905985267 0 -0.0049685163094841927 -0.0098251357153783178 0 -0.0047721631110545504 -0.0096833255148436517 0 -0.0047796361514638877 -0.0099064715905985267 0 -0.0047721631110545504 -0.0096833255148436517 0 -0.0044968412768423274 -0.0098315994932198659 0 -0.0047209095948364081 -0.010005917710513422 0 -0.0043864056959317171 -0.010102074467828844 0 -0.0046865840928261501 -0.010340662702106644 0 -0.0045422060712379947 -0.010414214577447284 0 -0.0045613735540714359 -0.01030071757074196 0 -0.0047069952491194588 -0.010232062383781453 0 -0.0046011891362026675 -0.010191983894597391 0 -0.0045613735540714359 -0.01030071757074196 0 -0.0046865840928261501 -0.010340662702106644 0 -0.0047069952491194588 -0.010232062383781453 0 -0.0045613735540714359 -0.01030071757074196 0 -0.0047069952491194588 -0.010232062383781453 0 -0.0046011891362026675 -0.010191983894597391 0 -0.0047499858905878196 -0.010130239856619585 0 -0.0044001601704685787 -0.010764939604206731 0 -0.0045665944728507631 -0.010704864875307163 0 -0.0045908613433871363 -0.010818641415215206 0 -0.0043477159913919428 -0.010835399486369848 0 -0.0044001601704685787 -0.010764939604206731 0 -0.0045908613433871363 -0.010818641415215206 0 -0.004459683356667161 -0.010496623824403127 0 -0.0048367311759623371 -0.01055502806832961 0 -0.0044001601704685787 -0.010764939604206731 0 -0.0044723744199946852 -0.010620331897206809 0 -0.0045665944728507631 -0.010704864875307163 0 -0.0044723744199946852 -0.010620331897206809 0 -0.0045665944728507631 -0.010704864875307163 0 -0.0048503204706975903 -0.010539238219472882 0 -0.0045665944728507631 -0.010704864875307163 0 -0.0048503204706975903 -0.010539238219472882 0 -0.0048069247474645561 -0.010723650721436578 0 -0.0048503204706975903 -0.010539238219472882 0 -0.0048069247474645561 -0.010723650721436578 0 -0.0050502483063792616 -0.010755877725938333 0 -0.0053968492809842172 -0.010407074822591955 0 -0.0054118486722378682 -0.010410451213507288 0 -0.0054227464589081485 -0.010400855924778523 0 -0.0048069247474645561 -0.010723650721436578 0 -0.0047210196312063206 -0.010935549750301293 0 -0.0050502483063792616 -0.010755877725938333 0 -0.0054092415667373545 -0.010416164349119102 0 -0.0053968492809842172 -0.010407074822591955 0 -0.0054118486722378682 -0.010410451213507288 0 -0.0048367311759623371 -0.01055502806832961 0 -0.0052588963104194123 -0.010567072303850794 0 -0.0046326033471806643 -0.010753312541478564 0 -0.0048367311759623371 -0.01055502806832961 0 -0.0045665944728507631 -0.010704864875307163 0 -0.0048069247474645561 -0.010723650721436578 0 -0.0047210196312063206 -0.010935549750301293 0 -0.0054133146595548983 -0.010413044964032548 0 -0.0054118486722378682 -0.010410451213507288 0 -0.0054227464589081485 -0.010400855924778523 0 -0.0054133146595548983 -0.010413044964032548 0 -0.0054227464589081485 -0.010400855924778523 0 -0.005416484897703815 -0.010394451434544111 0 -0.0050502483063792616 -0.010755877725938333 0 -0.0051205744570683104 -0.010482046326051816 0 -0.0053746755330708043 -0.010451573931866454 0 -0.0052588963104194123 -0.010567072303850794 0 -0.005343637525806493 -0.010484779288923171 0 -0.0048503204706975903 -0.010539238219472882 0 -0.0050502483063792616 -0.010755877725938333 0 -0.0051205744570683104 -0.010482046326051816 0 -0.0054227464589081485 -0.010400855924778523 0 -0.0053746755330708043 -0.010451573931866454 0 -0.005416484897703815 -0.010394451434544111 0 -0.0051205744570683104 -0.010482046326051816 0 -0.0053746755330708043 -0.010451573931866454 0 -0.0052425495915439813 -0.010348719701691473 0 -0.0054779044876471887 -0.010355903595338745 0 -0.0054229884697075256 -0.010366795936845623 0 -0.0053746755330708043 -0.010451573931866454 0 -0.0054779044876471887 -0.010355903595338745 0 -0.0054133146595548983 -0.010413044964032548 0 -0.005416484897703815 -0.010394451434544111 0 -0.0054779044876471887 -0.010355903595338745 0 -0.0053746755330708043 -0.010451573931866454 0 -0.005416484897703815 -0.010394451434544111 0 -0.0054621134802184347 -0.010356144527941634 0 -0.005543204480510832 -0.010310851922557264 0 -0.0044589899373835224 -0.010439147946958389 0 -0.0042473215003646734 -0.010569860925536261 0 -0.0043296038842355012 -0.010732843140328912 0 -0.0039653389955134353 -0.0099544307663425608 0 -0.0042255131399472293 -0.010917065389872646 0 -0.0042100009779461886 -0.010853082272234653 0 -0.0041780503891400509 -0.01095837529810958 0 -0.0042735141414856383 -0.010954832734732778 0 -0.0039653389955134353 -0.0099544307663425608 0 -0.0035722789722096421 -0.0094522992758818668 0 -0.0033457249399624503 -0.0089494236593765392 0 -0.0029467104672887099 -0.0087430667623086822 0 -0.002852895257859151 -0.0090202930122276273 0 -0.0033457249399624503 -0.0089494236593765392 0 -0.0029467104672887099 -0.0087430667623086822 0 -0.0029679662992828314 -0.0083567985666495107 0 -0.0029467104672887099 -0.0087430667623086822 0 -0.0026196050465913208 -0.008646113514619521 0 -0.0029679662992828314 -0.0083567985666495107 0 -0.0029467104672887099 -0.0087430667623086822 0 -0.0026196050465913208 -0.008646113514619521 0 -0.002852895257859151 -0.0090202930122276273 0 -0.0026196050465913208 -0.008646113514619521 0 -0.002852895257859151 -0.0090202930122276273 0 -0.0023776594651199138 -0.009092346265871399 0 -0.002852895257859151 -0.0090202930122276273 0 -0.0030213758875153548 -0.0092363904973160309 0 -0.0027813774471278857 -0.0094545594267282599 0 -0.0033457249399624503 -0.0089494236593765392 0 -0.002852895257859151 -0.0090202930122276273 0 -0.0030213758875153548 -0.0092363904973160309 0 -0.002852895257859151 -0.0090202930122276273 0 -0.0027813774471278857 -0.0094545594267282599 0 -0.0023776594651199138 -0.009092346265871399 0 -0.0031049878096496035 -0.0095214023821859894 0 -0.0030213758875153548 -0.0092363904973160309 0 -0.0027813774471278857 -0.0094545594267282599 0 -0.0037350270675283316 -0.010054706330074903 0 -0.0039005383830484964 -0.0097572232229732169 0 -0.0038303988911823502 -0.010037192222310353 0 -0.0034108402109291895 -0.0096940516106496909 0 -0.0039653389955134353 -0.0099544307663425608 0 -0.0039005383830484964 -0.0097572232229732169 0 -0.0038303988911823502 -0.010037192222310353 0 -0.0041151086901423679 -0.010066537119337167 0 -0.0031049878096496035 -0.0095214023821859894 0 -0.0033457249399624503 -0.0089494236593765392 0 -0.0030213758875153548 -0.0092363904973160309 0 -0.0044589899373835224 -0.010439147946958389 0 -0.0041151086901423679 -0.010066537119337167 0 -0.0041773992323016302 -0.01035790703550021 0 -0.0039653389955134353 -0.0099544307663425608 0 -0.0041726361938484134 -0.010139664785004391 0 -0.0041785527887017006 -0.010098180680933164 0 -0.0038303988911823502 -0.010037192222310353 0 -0.0041151086901423679 -0.010066537119337167 0 -0.0041785527887017006 -0.010098180680933164 0 -0.0041151086901423679 -0.010066537119337167 0 -0.0040936355691070375 -0.010242989365254911 0 -0.0040936355691070375 -0.010242989365254911 0 -0.0041773992323016302 -0.01035790703550021 0 -0.0041430885680892827 -0.010410833528399123 0 -0.0041151086901423679 -0.010066537119337167 0 -0.0040936355691070375 -0.010242989365254911 0 -0.0041773992323016302 -0.01035790703550021 0 -0.0045422060712379947 -0.010414214577447284 0 -0.0045613735540714359 -0.01030071757074196 0 -0.0044537392860150163 -0.010254376937380317 0 -0.0043864056959317171 -0.010102074467828844 0 -0.0043017664865390949 -0.010395412664489621 0 -0.0040936355691070375 -0.010242989365254911 0 -0.0038805421625698047 -0.010134917067485684 0 -0.0041166647104857474 -0.010586996816981394 0 -0.0041785527887017006 -0.010098180680933164 0 -0.0040936355691070375 -0.010242989365254911 0 -0.0038805421625698047 -0.010134917067485684 0 -0.004459683356667161 -0.010496623824403127 0 -0.0043017664865390949 -0.010395412664489621 0 -0.0046011891362026675 -0.010191983894597391 0 -0.0045613735540714359 -0.01030071757074196 0 -0.0044537392860150163 -0.010254376937380317 0 -0.0043477159913919428 -0.010835399486369848 0 -0.0041166647104857474 -0.010586996816981394 0 -0.004226475686549905 -0.01075332408288124 0 -0.0041166647104857474 -0.010586996816981394 0 -0.0041662369395574937 -0.010624594829364294 0 -0.004226475686549905 -0.01075332408288124 0 -0.0044589899373835224 -0.010439147946958389 0 -0.0041773992323016302 -0.01035790703550021 0 -0.0042473215003646734 -0.010569860925536261 0 -0.0041773992323016302 -0.01035790703550021 0 -0.0041744389827164767 -0.010498694417335577 0 -0.0042473215003646734 -0.010569860925536261 0 -0.0041773992323016302 -0.01035790703550021 0 -0.0041430885680892827 -0.010410833528399123 0 -0.0041744389827164767 -0.010498694417335577 0 -0.0040936355691070375 -0.010242989365254911 0 -0.0041430885680892827 -0.010410833528399123 0 -0.0041166647104857474 -0.010586996816981394 0 -0.0041430885680892827 -0.010410833528399123 0 -0.0041166647104857474 -0.010586996816981394 0 -0.0041744389827164767 -0.010498694417335577 0 -0.0041166647104857474 -0.010586996816981394 0 -0.0041744389827164767 -0.010498694417335577 0 -0.0041662369395574937 -0.010624594829364294 0 -0.0041662369395574937 -0.010624594829364294 0 -0.0042147392502548779 -0.010698509769406268 0 -0.004226475686549905 -0.01075332408288124 0 -0.0041744389827164767 -0.010498694417335577 0 -0.0041662369395574937 -0.010624594829364294 0 -0.0042473215003646734 -0.010569860925536261 0 -0.0041662369395574937 -0.010624594829364294 0 -0.0042473215003646734 -0.010569860925536261 0 -0.0042147392502548779 -0.010698509769406268 0 -0.0042473215003646734 -0.010569860925536261 0 -0.0042147392502548779 -0.010698509769406268 0 -0.0043296038842355012 -0.010732843140328912 0 -0.004226481399301694 -0.010781974010336867 0 -0.004232423554164315 -0.010875358058993777 0 -0.0043296038842355012 -0.010732843140328912 0 -0.00424827845643871 -0.010844066050544006 0 -0.0042255131399472293 -0.010917065389872646 0 -0.0042147392502548779 -0.010698509769406268 0 -0.004226481399301694 -0.010781974010336867 0 -0.0043296038842355012 -0.010732843140328912 0 -0.0042147392502548779 -0.010698509769406268 0 -0.004226481399301694 -0.010781974010336867 0 -0.004226475686549905 -0.01075332408288124 0 -0.0043477159913919428 -0.010835399486369848 0 -0.0044001601704685787 -0.010764939604206731 0 -0.004226475686549905 -0.01075332408288124 0 -0.004226481399301694 -0.010781974010336867 0 -0.004226475686549905 -0.01075332408288124 0 -0.0042844717056413663 -0.010771127818344748 0 -0.0044001601704685787 -0.010764939604206731 0 -0.004226475686549905 -0.01075332408288124 0 -0.0042844717056413663 -0.010771127818344748 0 -0.0044001601704685787 -0.010764939604206731 0 -0.0044723744199946852 -0.010620331897206809 0 -0.0042844717056413663 -0.010771127818344748 0 -0.0044723744199946852 -0.010620331897206809 0 -0.0042844717056413663 -0.010771127818344748 0 -0.004280377101670476 -0.010699814084817584 0 -0.004232423554164315 -0.010875358058993777 0 -0.004280377101670476 -0.010699814084817584 0 -0.0041361269461337603 -0.010775130987474946 0 -0.004226481399301694 -0.010781974010336867 0 -0.0042844717056413663 -0.010771127818344748 0 -0.004232423554164315 -0.010875358058993777 0 -0.0042844717056413663 -0.010771127818344748 0 -0.004232423554164315 -0.010875358058993777 0 -0.004280377101670476 -0.010699814084817584 0 -0.0043794610441631032 -0.011344702467884289 0 -0.0042889211267121922 -0.01203078082276143 0 -0.0038747208774964586 -0.01253287837631069 0 -0.0044018842906901751 -0.011328050570347775 0 -0.0040636021322388747 -0.011619168925083197 0 -0.004232423554164315 -0.010875358058993777 0 -0.0041935288612729412 -0.01102408427088624 0 -0.0041361269461337603 -0.010775130987474946 0 -0.0041935288612729412 -0.01102408427088624 0 -0.0043794610441631032 -0.011344702467884289 0 -0.0041361269461337603 -0.010775130987474946 0 -0.004232423554164315 -0.010875358058993777 0 -0.0041935288612729412 -0.01102408427088624 0 -0.0041780503891400509 -0.01095837529810958 0 -0.0041935288612729412 -0.01102408427088624 0 -0.0041780503891400509 -0.01095837529810958 0 -0.0042735141414856383 -0.010954832734732778 0 -0.0029679662992828314 -0.0083567985666495107 0 -0.0026310356526375919 -0.0083047845955166212 0 -0.0025935719151641929 -0.0077741863556678352 0 -0.0026196050465913208 -0.008646113514619521 0 -0.0029679662992828314 -0.0083567985666495107 0 -0.0026310356526375919 -0.0083047845955166212 0 -0.0041935288612729412 -0.01102408427088624 0 -0.0042735141414856383 -0.010954832734732778 0 -0.0043794610441631032 -0.011344702467884289 0 -0.0042735141414856383 -0.010954832734732778 0 -0.0043794610441631032 -0.011344702467884289 0 -0.004716156748736931 -0.011641291837861507 0 -0.0035722789722096421 -0.0094522992758818668 0 -0.0033522536650523365 -0.010966549691491698 0 -0.0042889211267121922 -0.01203078082276143 0 -0.0040403476132235836 -0.012143678203988711 0 -0.0042668205031931791 -0.012130691743762325 0 -0.0043794610441631032 -0.011344702467884289 0 -0.0042889211267121922 -0.01203078082276143 0 -0.004716156748736931 -0.011641291837861507 0 -0.0042889211267121922 -0.01203078082276143 0 -0.0038072901977955452 -0.012369897862891832 0 -0.0040403476132235836 -0.012143678203988711 0 -0.00435620153267691 -0.01181046071828331 0 -0.0033522536650523365 -0.010966549691491698 0 -0.0026310356526375919 -0.0083047845955166212 0 -0.0025935719151641929 -0.0077741863556678352 0 -0.0024581444173097551 -0.0080720724075785087 0 -0.0033522536650523365 -0.010966549691491698 0 -0.0021481235239219115 -0.010092073515615746 0 -0.0025935719151641929 -0.0077741863556678352 0 -0.0017340183537260549 -0.0079132780991866668 0 -0.0021892452399477091 -0.0080750466266249817 0 -0.0036143229441076012 -0.012317938389969479 0 -0.0030601586196514134 -0.012152779832404864 0 -0.0026484050969999696 -0.012514146747522168 0 -0.0025935719151641929 -0.0077741863556678352 0 -0.0024581444173097551 -0.0080720724075785087 0 -0.0021892452399477091 -0.0080750466266249817 0 -0.0026484050969999696 -0.012514146747522168 0 -0.0022705445330094853 -0.012385033267920356 0 -0.0026815441665170824 -0.011981169357352441 0 -0.0030601586196514134 -0.012152779832404864 0 -0.0026484050969999696 -0.012514146747522168 0 -0.0026815441665170824 -0.011981169357352441 0 -0.0018669364404765695 -0.0082925454163659228 0 -0.002292103587227712 -0.0083252867164389562 0 -0.0021892452399477091 -0.0080750466266249817 0 -0.0017340183537260549 -0.0079132780991866668 0 -0.0018669364404765695 -0.0082925454163659228 0 -0.0021892452399477091 -0.0080750466266249817 0 -0.0017340183537260549 -0.0079132780991866668 0 -0.0018669364404765695 -0.0082925454163659228 0 -0.0014375369599902311 -0.0082922445076970015 0 -0.0018669364404765695 -0.0082925454163659228 0 -0.002292103587227712 -0.0083252867164389562 0 -0.0020940711015521767 -0.0086791500783780784 0 -0.0026196050465913208 -0.008646113514619521 0 -0.0026310356526375919 -0.0083047845955166212 0 -0.002292103587227712 -0.0083252867164389562 0 -0.0026310356526375919 -0.0083047845955166212 0 -0.0024581444173097551 -0.0080720724075785087 0 -0.002292103587227712 -0.0083252867164389562 0 -0.0024581444173097551 -0.0080720724075785087 0 -0.002292103587227712 -0.0083252867164389562 0 -0.0021892452399477091 -0.0080750466266249817 0 -0.0015533702520596777 -0.012105847543933743 0 -0.0022705445330094853 -0.012385033267920356 0 -0.0014766182261798752 -0.012706802709319025 0 -0.0015533702520596777 -0.012105847543933743 0 -0.0014766182261798752 -0.012706802709319025 0 -0.00098292049704886168 -0.012326003602199537 0 -0.0015533702520596777 -0.012105847543933743 0 -0.00098292049704886168 -0.012326003602199537 0 -0.0010539755860000982 -0.011761395159793834 0 -0.0026484050969999696 -0.012514146747522168 0 -0.0022705445330094853 -0.012385033267920356 0 -0.0014766182261798752 -0.012706802709319025 0 -0.0021481235239219115 -0.010092073515615746 0 -0.0011796748710720156 -0.010397350500237436 0 -0.0017340183537260549 -0.0079132780991866668 0 -0.0014375369599902311 -0.0082922445076970015 0 -0.00085677043777209155 -0.0080645182465475963 0 -0.0014375369599902311 -0.0082922445076970015 0 -0.00085677043777209155 -0.0080645182465475963 0 -0.0011609189439950873 -0.0085692469890183698 0 -0.0018669364404765695 -0.0082925454163659228 0 -0.0014375369599902311 -0.0082922445076970015 0 -0.0015667936912720443 -0.0086392615694167816 0 -0.0014375369599902311 -0.0082922445076970015 0 -0.0011609189439950873 -0.0085692469890183698 0 -0.0015667936912720443 -0.0086392615694167816 0 -0.00085677043777209155 -0.0080645182465475963 0 -0.00070347568202861757 -0.0084991869447991666 0 -0.0011609189439950873 -0.0085692469890183698 0 -0.00074410499364592193 -0.0085362368011954338 0 -0.001161104461489991 -0.0089638352332284295 0 -0.00070347568202861757 -0.0084991869447991666 0 -0.0011325907721657221 -0.0088310812735437338 0 -0.00074026633807823853 -0.0088825153623703634 0 -0.00070347568202861757 -0.0084991869447991666 0 -0.0011609189439950873 -0.0085692469890183698 0 -0.0011881554129139814 -0.0091023118789626597 0 -0.0015667936912720443 -0.0086392615694167816 0 -0.0011881554129139814 -0.0091023118789626597 0 -0.0018312217716111377 -0.0090824848109170211 0 -0.0011609189439950873 -0.0085692469890183698 0 -0.0015667936912720443 -0.0086392615694167816 0 -0.0011881554129139814 -0.0091023118789626597 0 -0.0011881554129139814 -0.0091023118789626597 0 -0.0018312217716111377 -0.0090824848109170211 0 -0.0016791941851143789 -0.0096393904462538493 0 -0.0011325907721657221 -0.0088310812735437338 0 -0.0016577012222078011 -0.0092630560619116759 0 -0.0010075250535598759 -0.0093593728662411373 0 -0.001161104461489991 -0.0089638352332284295 0 -0.0016729081845461066 -0.0094555191339998138 0 -0.0011325907721657221 -0.0088310812735437338 0 -0.00074026633807823853 -0.0088825153623703634 0 -0.0010075250535598759 -0.0093593728662411373 0 -0.00074026633807823853 -0.0088825153623703634 0 -0.0010075250535598759 -0.0093593728662411373 0 -0.00053035195277593007 -0.0092184772716169313 0 -0.0026196050465913208 -0.008646113514619521 0 -0.002292103587227712 -0.0083252867164389562 0 -0.0020940711015521767 -0.0086791500783780784 0 -0.0026196050465913208 -0.008646113514619521 0 -0.0020940711015521767 -0.0086791500783780784 0 -0.0023776594651199138 -0.009092346265871399 0 -0.0020940711015521767 -0.0086791500783780784 0 -0.0018312217716111377 -0.0090824848109170211 0 -0.0023776594651199138 -0.009092346265871399 0 -0.0018669364404765695 -0.0082925454163659228 0 -0.0015667936912720443 -0.0086392615694167816 0 -0.0020940711015521767 -0.0086791500783780784 0 -0.0015667936912720443 -0.0086392615694167816 0 -0.0020940711015521767 -0.0086791500783780784 0 -0.0018312217716111377 -0.0090824848109170211 0 -0.0018312217716111377 -0.0090824848109170211 0 -0.0021148323283346009 -0.0094917702254191574 0 -0.0016791941851143789 -0.0096393904462538493 0 -0.0018312217716111377 -0.0090824848109170211 0 -0.0021148323283346009 -0.0094917702254191574 0 -0.0023776594651199138 -0.009092346265871399 0 -0.0021148323283346009 -0.0094917702254191574 0 -0.0023776594651199138 -0.009092346265871399 0 -0.0024812347641851142 -0.0097030197793688128 0 -0.0027813774471278857 -0.0094545594267282599 0 -0.0023776594651199138 -0.009092346265871399 0 -0.0024812347641851142 -0.0097030197793688128 0 -0.0021148323283346009 -0.0094917702254191574 0 -0.0024812347641851142 -0.0097030197793688128 0 -0.0021593853619979197 -0.010157748952870891 0 -0.0026287016547768762 -0.010669124813999819 0 -0.0025337059249462062 -0.010157471380953432 0 -0.0021593853619979197 -0.010157748952870891 0 -0.0024812347641851142 -0.0097030197793688128 0 -0.0025337059249462062 -0.010157471380953432 0 -0.0021593853619979197 -0.010157748952870891 0 -0.0027690985650792128 -0.010357091437617755 0 -0.0021763420236415648 -0.0099543258467374562 0 -0.0022008001313082045 -0.0097280408160172107 0 -0.001479811539938993 -0.0097923015818281566 0 -0.0017491412316775249 -0.010191276338147797 0 -0.0022008001313082045 -0.0097280408160172107 0 -0.0016577012222078011 -0.0092630560619116759 0 -0.001479811539938993 -0.0097923015818281566 0 -0.0021763420236415648 -0.0099543258467374562 0 -0.0016729081845461066 -0.0094555191339998138 0 -0.0021148323283346009 -0.0094917702254191574 0 -0.0021593853619979197 -0.010157748952870891 0 -0.0016791941851143789 -0.0096393904462538493 0 -0.0016577012222078011 -0.0092630560619116759 0 -0.0010075250535598759 -0.0093593728662411373 0 -0.001479811539938993 -0.0097923015818281566 0 -0.0010075250535598759 -0.0093593728662411373 0 -0.00058479010753700238 -0.0096620046479704968 0 -0.00053035195277593007 -0.0092184772716169313 0 -0.00095344385848735943 -0.0099466923425943037 0 -0.00049020807387125612 -0.010166277203025485 0 -0.00058479010753700238 -0.0096620046479704968 0 -0.0010075250535598759 -0.0093593728662411373 0 -0.00095344385848735943 -0.0099466923425943037 0 -0.00058479010753700238 -0.0096620046479704968 0 -0.0010075250535598759 -0.0093593728662411373 0 -0.00095344385848735943 -0.0099466923425943037 0 -0.001479811539938993 -0.0097923015818281566 0 -0.00095344385848735943 -0.0099466923425943037 0 -0.001479811539938993 -0.0097923015818281566 0 -0.0012635519096519028 -0.010233294012238766 0 -0.0012635519096519028 -0.010233294012238766 0 -0.0010017120887596041 -0.010609716346996209 0 -0.0015224275091781892 -0.010556138676823104 0 -0.001479811539938993 -0.0097923015818281566 0 -0.0012635519096519028 -0.010233294012238766 0 -0.0017491412316775249 -0.010191276338147797 0 -0.0012635519096519028 -0.010233294012238766 0 -0.0015224275091781892 -0.010556138676823104 0 -0.0017491412316775249 -0.010191276338147797 0 -0.00083580074798268484 -0.010311780142909557 0 -0.0010017120887596041 -0.010609716346996209 0 -0.00041078040429157891 -0.010656647518940297 0 -0.00095344385848735943 -0.0099466923425943037 0 -0.00083580074798268484 -0.010311780142909557 0 -0.00049020807387125612 -0.010166277203025485 0 -0.00095344385848735943 -0.0099466923425943037 0 -0.0012635519096519028 -0.010233294012238766 0 -0.00083580074798268484 -0.010311780142909557 0 -0.0012635519096519028 -0.010233294012238766 0 -0.00083580074798268484 -0.010311780142909557 0 -0.0010017120887596041 -0.010609716346996209 0 -0.0010017120887596041 -0.010609716346996209 0 -0.00082972228450060935 -0.01092940816970242 0 -0.00041078040429157891 -0.010656647518940297 0 -0.0011219698561947601 -0.011129259775671854 0 -0.00082972228450060935 -0.01092940816970242 0 -0.0012716529092905902 -0.010829021195136828 0 -0.0010017120887596041 -0.010609716346996209 0 -0.00082972228450060935 -0.01092940816970242 0 -0.0012716529092905902 -0.010829021195136828 0 -0.001610381312658076 -0.011001115672236271 0 -0.0015224275091781892 -0.010556138676823104 0 -0.0018959606395217677 -0.010571413628135747 0 -0.001610381312658076 -0.011001115672236271 0 -0.0015224275091781892 -0.010556138676823104 0 -0.0012716529092905902 -0.010829021195136828 0 -0.0010017120887596041 -0.010609716346996209 0 -0.0015224275091781892 -0.010556138676823104 0 -0.0012716529092905902 -0.010829021195136828 0 -0.001610381312658076 -0.011001115672236271 0 -0.0018959606395217677 -0.010571413628135747 0 -0.0020902060921030819 -0.010841796531893847 0 -0.0018959606395217677 -0.010571413628135747 0 -0.0020902060921030819 -0.010841796531893847 0 -0.0022565938716392372 -0.010552267980680506 0 -0.0020902060921030819 -0.010841796531893847 0 -0.0024830781218519457 -0.010852375228596547 0 -0.0022565938716392372 -0.010552267980680506 0 -0.0029154976150922284 -0.010780302752905863 0 -0.0024830781218519457 -0.010852375228596547 0 -0.0026713617900281077 -0.010508724051227809 0 -0.0024830781218519457 -0.010852375228596547 0 -0.0026713617900281077 -0.010508724051227809 0 -0.0022565938716392372 -0.010552267980680506 0 -0.0022565938716392372 -0.010552267980680506 0 -0.0024246817506339544 -0.010261375050425755 0 -0.0021265553478481696 -0.010270862018906479 0 -0.0027454305386286461 -0.010208546187814789 0 -0.0022008001313082045 -0.0097280408160172107 0 -0.0024246817506339544 -0.010261375050425755 0 -0.0026713617900281077 -0.010508724051227809 0 -0.0022565938716392372 -0.010552267980680506 0 -0.0024246817506339544 -0.010261375050425755 0 -0.0022008001313082045 -0.0097280408160172107 0 -0.0024246817506339544 -0.010261375050425755 0 -0.0021265553478481696 -0.010270862018906479 0 -0.0029284742576991714 -0.010390362678498985 0 -0.0029737487920380784 -0.01020118914331172 0 -0.0026713617900281077 -0.010508724051227809 0 -0.0027454305386286461 -0.010208546187814789 0 -0.0026713617900281077 -0.010508724051227809 0 -0.0024246817506339544 -0.010261375050425755 0 -0.0027690985650792128 -0.010357091437617755 0 -0.002724346973005116 -0.010442377681974606 0 -0.0022008001313082045 -0.0097280408160172107 0 -0.0017491412316775249 -0.010191276338147797 0 -0.0021265553478481696 -0.010270862018906479 0 -0.0018959606395217677 -0.010571413628135747 0 -0.0017491412316775249 -0.010191276338147797 0 -0.0021265553478481696 -0.010270862018906479 0 -0.0015224275091781892 -0.010556138676823104 0 -0.0018959606395217677 -0.010571413628135747 0 -0.0017491412316775249 -0.010191276338147797 0 -0.0018959606395217677 -0.010571413628135747 0 -0.0022565938716392372 -0.010552267980680506 0 -0.0021265553478481696 -0.010270862018906479 0 0.00075310063205973911 -0.010731593198303031 0 0.00096675040553762816 -0.010774932238847349 0 0.0015588639404932288 -0.011562171468979462 0 0.00075310063205973911 -0.010731593198303031 0 0.00096675040553762816 -0.010774932238847349 0 0.00026189233265986841 -0.010999094883703401 0 0.0030209005251352916 -0.008433192045493523 0 0.0032686350602881982 -0.0086470315403011644 0 0.0029661531541955786 -0.0087235510292829957 0 0.0030209005251352916 -0.008433192045493523 0 0.0032686350602881982 -0.0086470315403011644 0 0.0036086161157691489 -0.0084728985894999501 0 0.0032686350602881982 -0.0086470315403011644 0 0.0034435964633293035 -0.0088374385142776096 0 0.0030721427255313268 -0.0089024607895265423 0 0.0032686350602881982 -0.0086470315403011644 0 0.0034435964633293035 -0.0088374385142776096 0 0.0036086161157691489 -0.0084728985894999501 0 0.0032810223362522918 -0.0091220461649883598 0 0.0034435964633293035 -0.0088374385142776096 0 0.0030721427255313268 -0.0089024607895265423 0 0.0030721427255313268 -0.0089024607895265423 0 0.0029661531541955786 -0.0087235510292829957 0 0.0024845486597621699 -0.0089152806443309179 0 0.0019970595956685824 -0.0096051523317339637 0 0.0013965179518756169 -0.0099383281000510002 0 0.0030209005251352916 -0.008433192045493523 0 0.0029661531541955786 -0.0087235510292829957 0 0.0024845486597621699 -0.0089152806443309179 0 0.0032686350602881982 -0.0086470315403011644 0 0.0030721427255313268 -0.0089024607895265423 0 0.0029661531541955786 -0.0087235510292829957 0 0.00026189233265986841 -0.010999094883703401 0 -0.00041078040429157891 -0.010656647518940297 0 0.00019562093636216792 -0.010669797949505086 0 0.00075310063205973911 -0.010731593198303031 0 0.00026189233265986841 -0.010999094883703401 0 0.00019562093636216792 -0.010669797949505086 0 -0.00042791951048593501 -0.011089903816331431 0 -0.00082972228450060935 -0.01092940816970242 0 -0.00041078040429157891 -0.010656647518940297 0 -0.00042791951048593501 -0.011089903816331431 0 0.00026189233265986841 -0.010999094883703401 0 -0.00041078040429157891 -0.010656647518940297 0 -0.00041078040429157891 -0.010656647518940297 0 -0.00049020807387125612 -0.010166277203025485 0 -7.0797943190285145e-05 -0.010327050243357875 0 -0.00041078040429157891 -0.010656647518940297 0 0.00019562093636216792 -0.010669797949505086 0 -7.0797943190285145e-05 -0.010327050243357875 0 -0.00083580074798268484 -0.010311780142909557 0 -0.00041078040429157891 -0.010656647518940297 0 -0.00049020807387125612 -0.010166277203025485 0 0.00075310063205973911 -0.010731593198303031 0 0.00019562093636216792 -0.010669797949505086 0 0.00044449299762793469 -0.010429597324460365 0 -7.0797943190285145e-05 -0.010327050243357875 0 0.00044449299762793469 -0.010429597324460365 0 4.4425891086782028e-05 -0.0099456658764343255 0 0.00019562093636216792 -0.010669797949505086 0 -7.0797943190285145e-05 -0.010327050243357875 0 0.00044449299762793469 -0.010429597324460365 0 0.00044449299762793469 -0.010429597324460365 0 0.00044559458026568127 -0.0097717924691657024 0 0.00054166994403545814 -0.0098411729229315476 0 0.00044449299762793469 -0.010429597324460365 0 4.4425891086782028e-05 -0.0099456658764343255 0 0.00015203590581263992 -0.0094418696596867743 0 0.00042593876252756914 -0.010357116765173417 0 0.0003038313942427963 -0.0097182162532688712 0 -7.0797943190285145e-05 -0.010327050243357875 0 4.4425891086782028e-05 -0.0099456658764343255 0 -0.00022383460372279456 -0.0098960209984531814 0 4.4425891086782028e-05 -0.0099456658764343255 0 -0.00022383460372279456 -0.0098960209984531814 0 -6.1499339506831477e-05 -0.0096329085774207405 0 4.4425891086782028e-05 -0.0099456658764343255 0 0.00015203590581263992 -0.0094418696596867743 0 -6.1499339506831477e-05 -0.0096329085774207405 0 -0.00049020807387125612 -0.010166277203025485 0 -0.00022383460372279456 -0.0098960209984531814 0 -0.00058479010753700238 -0.0096620046479704968 0 -0.00049020807387125612 -0.010166277203025485 0 -7.0797943190285145e-05 -0.010327050243357875 0 -0.00022383460372279456 -0.0098960209984531814 0 -0.00022383460372279456 -0.0098960209984531814 0 -0.00058479010753700238 -0.0096620046479704968 0 -0.0002694775623823898 -0.0094513191048889219 0 -0.00022383460372279456 -0.0098960209984531814 0 -0.0002694775623823898 -0.0094513191048889219 0 -6.1499339506831477e-05 -0.0096329085774207405 0 -0.00058479010753700238 -0.0096620046479704968 0 -0.0002694775623823898 -0.0094513191048889219 0 -0.00053035195277593007 -0.0092184772716169313 0 -0.0002694775623823898 -0.0094513191048889219 0 -0.00053035195277593007 -0.0092184772716169313 0 -0.00014617469919958422 -0.0091203808177308127 0 0.00044559458026568127 -0.0097717924691657024 0 0.00054166994403545814 -0.0098411729229315476 0 0.00043985011228740934 -0.009683560763480965 0 0.0010060799936400522 -0.010733486718166426 0 0.0011101835866168851 -0.01095753453236544 0 -0.0002694775623823898 -0.0094513191048889219 0 -6.1499339506831477e-05 -0.0096329085774207405 0 -8.1156870437379977e-05 -0.0094042190378505319 0 0.00015203590581263992 -0.0094418696596867743 0 -6.1499339506831477e-05 -0.0096329085774207405 0 -8.1156870437379977e-05 -0.0094042190378505319 0 0.00015203590581263992 -0.0094418696596867743 0 -8.1156870437379977e-05 -0.0094042190378505319 0 -0.00014617469919958422 -0.0091203808177308127 0 -0.0002694775623823898 -0.0094513191048889219 0 -8.1156870437379977e-05 -0.0094042190378505319 0 -0.00014617469919958422 -0.0091203808177308127 0 0.0014652517680473433 -0.011887186209752616 0 0.0015588639404932288 -0.011562171468979462 0 0.0016147277092230007 -0.012254613829187237 0 0.0012656544601268684 -0.01173554657726061 0 0.0012411157821949196 -0.012018452320567365 0 0.0013938019690235 -0.011987624144809838 0 0.0014652517680473433 -0.011887186209752616 0 0.0012656544601268684 -0.01173554657726061 0 0.0013938019690235 -0.011987624144809838 0 0.0012656544601268684 -0.01173554657726061 0 0.0015588639404932288 -0.011562171468979462 0 0.0011641216396384596 -0.011399530239048725 0 0.0014652517680473433 -0.011887186209752616 0 0.0012656544601268684 -0.01173554657726061 0 0.0015588639404932288 -0.011562171468979462 0 0.00081880182376304516 -0.010767627516531581 0 0.0010060799936400522 -0.010733486718166426 0 0.00096675040553762816 -0.010774932238847349 0 0.0015588639404932288 -0.011562171468979462 0 0.0011641216396384596 -0.011399530239048725 0 0.00075310063205973911 -0.010731593198303031 0 0.00044449299762793469 -0.010429597324460365 0 0.00054166994403545814 -0.0098411729229315476 0 0.00096675040553762816 -0.010774932238847349 0 0.0011641216396384596 -0.011399530239048725 0 0.00099904090914237627 -0.011661097453012394 0 0.0019970595956685824 -0.0096051523317339637 0 0.0022471554793575717 -0.0098405104349044686 0 0.0030209005251352916 -0.008433192045493523 0 0.0034734057594284083 -0.0080147171644480205 0 0.0036086161157691489 -0.0084728985894999501 0 0.0012656544601268684 -0.01173554657726061 0 0.0011641216396384596 -0.011399530239048725 0 0.00099904090914237627 -0.011661097453012394 0 0.0012656544601268684 -0.01173554657726061 0 0.00099904090914237627 -0.011661097453012394 0 0.0012411157821949196 -0.012018452320567365 0 0.00099904090914237627 -0.011661097453012394 0 0.0012411157821949196 -0.012018452320567365 0 0.0011982653199797378 -0.012158581435001047 0 0.0012411157821949196 -0.012018452320567365 0 0.0011982653199797378 -0.012158581435001047 0 0.0012778320307950002 -0.012275232875918944 0 0.0011982653199797378 -0.012158581435001047 0 0.0012778320307950002 -0.012275232875918944 0 0.0012736173356292099 -0.012443432343746784 0 0.0012778320307950002 -0.012275232875918944 0 0.001342498872621508 -0.01215309984816202 0 0.0013826743394732691 -0.01229232043723031 0 0.0012411157821949196 -0.012018452320567365 0 0.0012778320307950002 -0.012275232875918944 0 0.001342498872621508 -0.01215309984816202 0 0.0012411157821949196 -0.012018452320567365 0 0.001342498872621508 -0.01215309984816202 0 0.0013938019690235 -0.011987624144809838 0 0.001342498872621508 -0.01215309984816202 0 0.0013938019690235 -0.011987624144809838 0 0.0014459444295667108 -0.012201304920495617 0 0.0013938019690235 -0.011987624144809838 0 0.0014459444295667108 -0.012201304920495617 0 0.0016147277092230007 -0.012254613829187237 0 0.0014652517680473433 -0.011887186209752616 0 0.0013938019690235 -0.011987624144809838 0 0.0016147277092230007 -0.012254613829187237 0 0.0014459444295667108 -0.012201304920495617 0 0.0014924079262814657 -0.012312949477174576 0 0.0016147277092230007 -0.012254613829187237 0 0.0014459444295667108 -0.012201304920495617 0 0.0013826743394732691 -0.01229232043723031 0 0.0014924079262814657 -0.012312949477174576 0 0.001342498872621508 -0.01215309984816202 0 0.0014459444295667108 -0.012201304920495617 0 0.0013826743394732691 -0.01229232043723031 0 0.0013826743394732691 -0.01229232043723031 0 0.0014458132160635395 -0.012402958828957453 0 0.0012931278272831253 -0.012426950194301574 0 0.0013826743394732691 -0.01229232043723031 0 0.0014924079262814657 -0.012312949477174576 0 0.0014458132160635395 -0.012402958828957453 0 0.0014924079262814657 -0.012312949477174576 0 0.0016147277092230007 -0.012254613829187237 0 0.0015576475141375111 -0.012390036127283732 0 0.0014924079262814657 -0.012312949477174576 0 0.0014458132160635395 -0.012402958828957453 0 0.0015576475141375111 -0.012390036127283732 0 0.0014458132160635395 -0.012402958828957453 0 0.0015067628174796424 -0.012494755327758096 0 0.0015576475141375111 -0.012390036127283732 0 0.0014458132160635395 -0.012402958828957453 0 0.0014400549147365821 -0.012489044442537749 0 0.0015067628174796424 -0.012494755327758096 0 0.0014458132160635395 -0.012402958828957453 0 0.0014400549147365821 -0.012489044442537749 0 0.0012931278272831253 -0.012426950194301574 0 0.0012778320307950002 -0.012275232875918944 0 0.0012931278272831253 -0.012426950194301574 0 0.0012736173356292099 -0.012443432343746784 0 0.0012931278272831253 -0.012426950194301574 0 0.0011715301825991117 -0.012523157393033287 0 0.0012736173356292099 -0.012443432343746784 0 0.0014400549147365821 -0.012489044442537749 0 0.0012931278272831253 -0.012426950194301574 0 0.0011715301825991117 -0.012523157393033287 0 0.0012778320307950002 -0.012275232875918944 0 0.0013826743394732691 -0.01229232043723031 0 0.0012931278272831253 -0.012426950194301574 0 -0.00074026633807823853 -0.0088825153623703634 0 -0.00040036367038712612 -0.0088504714580542113 0 -0.00054316375439266112 -0.0086960998451801851 0 -0.00074026633807823853 -0.0088825153623703634 0 -0.00053035195277593007 -0.0092184772716169313 0 -0.00040036367038712612 -0.0088504714580542113 0 -0.00053035195277593007 -0.0092184772716169313 0 -0.00040036367038712612 -0.0088504714580542113 0 -0.00014617469919958422 -0.0091203808177308127 0 0.00015203590581263992 -0.0094418696596867743 0 -4.9962374157527017e-05 -0.0088117082335258477 0 -0.00014617469919958422 -0.0091203808177308127 0 0.0003038313942427963 -0.0097182162532688712 0 0.00023066098926538794 -0.0089182191074123531 0 0.00044559458026568127 -0.0097717924691657024 0 0.00044760793441726658 -0.009690848131843597 0 0.00043985011228740934 -0.009683560763480965 0 -0.00040036367038712612 -0.0088504714580542113 0 -4.9962374157527017e-05 -0.0088117082335258477 0 -0.00014617469919958422 -0.0091203808177308127 0 0.0015067628174796424 -0.012494755327758096 0 0.0015576475141375111 -0.012390036127283732 0 0.0015831005684342979 -0.012601336708798299 0 -4.9962374157527017e-05 -0.0088117082335258477 0 -0.00032557515871043394 -0.0085591243068230977 0 -0.00012437508393292379 -0.0082245376175780188 0 0.0016147277092230007 -0.012254613829187237 0 0.0015576475141375111 -0.012390036127283732 0 0.0015831005684342979 -0.012601336708798299 0 0.00044760793441726658 -0.009690848131843597 0 0.00043985011228740934 -0.009683560763480965 0 0.00041159570705043042 -0.0098640859467709913 0 0.0011101835866168851 -0.01095753453236544 0 0.00037409467557495351 -0.01129101742086328 0 0.00023066098926538794 -0.0089182191074123531 0 -0.00022509499555060255 -0.010598673328603047 0 -0.00070347568202861757 -0.0084991869447991666 0 -0.00074026633807823853 -0.0088825153623703634 0 -0.00054316375439266112 -0.0086960998451801851 0 -0.00040036367038712612 -0.0088504714580542113 0 -0.00032557515871043394 -0.0085591243068230977 0 -0.00054316375439266112 -0.0086960998451801851 0 -0.00040036367038712612 -0.0088504714580542113 0 -4.9962374157527017e-05 -0.0088117082335258477 0 -0.00032557515871043394 -0.0085591243068230977 0 -0.00070347568202861757 -0.0084991869447991666 0 -0.00032557515871043394 -0.0085591243068230977 0 -0.00054316375439266112 -0.0086960998451801851 0 -0.0011796748710720156 -0.010397350500237436 0 -0.00022509499555060255 -0.010598673328603047 0 -0.00070347568202861757 -0.0084991869447991666 0 -0.00032557515871043394 -0.0085591243068230977 0 -0.00012437508393292379 -0.0082245376175780188 0 -0.00085677043777209155 -0.0080645182465475963 0 -0.00070347568202861757 -0.0084991869447991666 0 -0.00012437508393292379 -0.0082245376175780188 0 0.00044760793441726658 -0.009690848131843597 0 0.00044606342203434233 -0.0098723446284562331 0 0.00041159570705043042 -0.0098640859467709913 0 7.1205051935487439e-05 -0.011691170875749385 0 4.4785344400496056e-05 -0.011513108149197329 0 0.00017783888037434649 -0.011712497595500117 0 2.6682939442618728e-05 -0.011585253562174392 0 5.2031651149683466e-05 -0.011589624840359473 0 4.4785344400496056e-05 -0.011513108149197329 0 0.00037409467557495351 -0.01129101742086328 0 0.00086586644229821115 -0.012199869058525858 0 -0.00022509499555060255 -0.010598673328603047 0 0.00037409467557495351 -0.01129101742086328 0 6.3034814285337041e-05 -0.011489973190820667 0 4.4785344400496056e-05 -0.011513108149197329 0 0.00017783888037434649 -0.011712497595500117 0 0.00037409467557495351 -0.01129101742086328 0 7.4070788067834908e-05 -0.011624068677889931 0 -0.00022509499555060255 -0.010598673328603047 0 -0.00016716337125612007 -0.012140459392174521 0 -7.6769016597371884e-05 -0.011591975664882841 0 0.00086586644229821115 -0.012199869058525858 0 2.6682939442618728e-05 -0.011585253562174392 0 4.4785344400496056e-05 -0.011513108149197329 0 1.3743235176540384e-05 -0.011486796644128017 0 6.3034814285337041e-05 -0.011489973190820667 0 4.4785344400496056e-05 -0.011513108149197329 0 1.3743235176540384e-05 -0.011486796644128017 0 -0.00040955843764314522 -0.012140828787217261 0 -0.00098292049704886168 -0.012326003602199537 0 -0.0010539755860000982 -0.011761395159793834 0 -0.00033452924124880888 -0.012901266799226995 0 -0.00040955843764314522 -0.012140828787217261 0 -0.00098292049704886168 -0.012326003602199537 0 -0.0014766182261798752 -0.012706802709319025 0 -0.00033452924124880888 -0.012901266799226995 0 -0.00098292049704886168 -0.012326003602199537 0 0.00089403781433777709 -0.012207939534087648 0 0.0011715301825991117 -0.012523157393033287 0 0.00027720270815464706 -0.01247898923955887 0 0.00089403781433777709 -0.012207939534087648 0 0.0011715301825991117 -0.012523157393033287 0 0.0013214927755221203 -0.012181653953457839 0 0.0014400549147365821 -0.012489044442537749 0 0.0011715301825991117 -0.012523157393033287 0 0.0014853629075660154 -0.012595973737444482 0 0.0011613591624036702 -0.012590855555597913 0 0.00086586644229821115 -0.012199869058525858 0 0.00089403781433777709 -0.012207939534087648 0 0.00027720270815464706 -0.01247898923955887 0 0.00057847160865161728 -0.011913062536455512 0 0.0015067628174796424 -0.012494755327758096 0 0.0015831005684342979 -0.012601336708798299 0 0.0014826839523778539 -0.012577263189266328 0 0.0012493878215199242 -0.012593628438817771 0 0.00086586644229821115 -0.012199869058525858 0 0.0014400549147365821 -0.012489044442537749 0 0.0015067628174796424 -0.012494755327758096 0 0.0014826839523778539 -0.012577263189266328 0 -0.00010762435541875687 -0.011767868695010016 0 0.00027720270815464706 -0.01247898923955887 0 0.00057847160865161728 -0.011913062536455512 0 -0.00010762435541875687 -0.011767868695010016 0 0.00057847160865161728 -0.011913062536455512 0 0.00043253072262370586 -0.011405094955612927 0 0.00057847160865161728 -0.011913062536455512 0 0.0010042898568411436 -0.011972639387320341 0 0.001027902500475178 -0.011561786954870246 0 0.00057847160865161728 -0.011913062536455512 0 0.001027902500475178 -0.011561786954870246 0 0.00043253072262370586 -0.011405094955612927 0 0.00089403781433777709 -0.012207939534087648 0 0.00057847160865161728 -0.011913062536455512 0 0.0010042898568411436 -0.011972639387320341 0 0.00089403781433777709 -0.012207939534087648 0 0.0010042898568411436 -0.011972639387320341 0 0.0013214927755221203 -0.012181653953457839 0 0.0010042898568411436 -0.011972639387320341 0 0.001027902500475178 -0.011561786954870246 0 0.001474930157459863 -0.011768618057302555 0 0.001027902500475178 -0.011561786954870246 0 0.00043253072262370586 -0.011405094955612927 0 0.0008484181851537737 -0.011021797164201146 0 0.001027902500475178 -0.011561786954870246 0 0.0008484181851537737 -0.011021797164201146 0 0.0012717097973855302 -0.011060384583494665 0 0.00043253072262370586 -0.011405094955612927 0 0.00016637010740907758 -0.011112712355494662 0 0.00037920230349645364 -0.01083536456362803 0 0.00043253072262370586 -0.011405094955612927 0 0.00037920230349645364 -0.01083536456362803 0 0.0008484181851537737 -0.011021797164201146 0 -0.00010762435541875687 -0.011767868695010016 0 0.00043253072262370586 -0.011405094955612927 0 -3.434520128554218e-05 -0.011282738898855898 0 0.00016637010740907758 -0.011112712355494662 0 -0.0001047105800225353 -0.010930202687516362 0 -3.434520128554218e-05 -0.011282738898855898 0 0.00043253072262370586 -0.011405094955612927 0 0.00016637010740907758 -0.011112712355494662 0 -3.434520128554218e-05 -0.011282738898855898 0 0.00016637010740907758 -0.011112712355494662 0 0.00037920230349645364 -0.01083536456362803 0 -0.0001047105800225353 -0.010930202687516362 0 0.00037920230349645364 -0.01083536456362803 0 0.00068182887404355909 -0.010611825508046201 0 0.00020626634898716009 -0.010399938652061111 0 0.00037920230349645364 -0.01083536456362803 0 8.3681911681558345e-05 -0.01068370477953034 0 -0.0001047105800225353 -0.010930202687516362 0 0.00037920230349645364 -0.01083536456362803 0 8.3681911681558345e-05 -0.01068370477953034 0 0.00020626634898716009 -0.010399938652061111 0 0.0008484181851537737 -0.011021797164201146 0 0.0012717097973855302 -0.011060384583494665 0 0.0012240916963510481 -0.010593795793356238 0 0.00037920230349645364 -0.01083536456362803 0 0.0008484181851537737 -0.011021797164201146 0 0.00068182887404355909 -0.010611825508046201 0 0.0008484181851537737 -0.011021797164201146 0 0.00068182887404355909 -0.010611825508046201 0 0.0012240916963510481 -0.010593795793356238 0 0.00078051040387385774 -0.010227722081338056 0 0.0012240916963510481 -0.010593795793356238 0 0.001385942342589763 -0.010049057239804324 0 0.00068182887404355909 -0.010611825508046201 0 0.00078051040387385774 -0.010227722081338056 0 0.0012240916963510481 -0.010593795793356238 0 0.00078051040387385774 -0.010227722081338056 0 0.0008794307736283858 -0.0097759174351231513 0 0.001385942342589763 -0.010049057239804324 0 0.00068182887404355909 -0.010611825508046201 0 0.00078051040387385774 -0.010227722081338056 0 0.00020626634898716009 -0.010399938652061111 0 8.3681911681558345e-05 -0.01068370477953034 0 0.00020626634898716009 -0.010399938652061111 0 -0.00020923105448439127 -0.010608819009020151 0 0.00020626634898716009 -0.010399938652061111 0 0.00030192194773808124 -0.0099268070867141889 0 -0.00013265768887284597 -0.01003347516690134 0 0.00020626634898716009 -0.010399938652061111 0 -0.00013265768887284597 -0.01003347516690134 0 -0.00029764403091241462 -0.010327961296955113 0 0.00078051040387385774 -0.010227722081338056 0 0.00020626634898716009 -0.010399938652061111 0 0.00030192194773808124 -0.0099268070867141889 0 0.00030192194773808124 -0.0099268070867141889 0 0.00047801343803683907 -0.0093485468917103159 0 6.5390714924599768e-05 -0.0096479925265481829 0 0.00030192194773808124 -0.0099268070867141889 0 -0.00013265768887284597 -0.01003347516690134 0 6.5390714924599768e-05 -0.0096479925265481829 0 0.0008794307736283858 -0.0097759174351231513 0 0.00047801343803683907 -0.0093485468917103159 0 0.0012040650812738631 -0.0093232586494763001 0 0.00030192194773808124 -0.0099268070867141889 0 0.0008794307736283858 -0.0097759174351231513 0 0.00047801343803683907 -0.0093485468917103159 0 0.00078051040387385774 -0.010227722081338056 0 0.00030192194773808124 -0.0099268070867141889 0 0.0008794307736283858 -0.0097759174351231513 0 -0.00059979944524077473 -0.010145761236315656 0 -0.00043105137789303387 -0.0097965464371584082 0 -0.0011523310872746599 -0.0098682630237642427 0 -0.00092367780132838779 -0.010409029654791187 0 -0.0013371022257782593 -0.010398456135887354 0 -0.0011523310872746599 -0.0098682630237642427 0 -0.00059979944524077473 -0.010145761236315656 0 -0.00092367780132838779 -0.010409029654791187 0 -0.0011523310872746599 -0.0098682630237642427 0 -0.00013265768887284597 -0.01003347516690134 0 6.5390714924599768e-05 -0.0096479925265481829 0 -0.00043105137789303387 -0.0097965464371584082 0 -0.00013265768887284597 -0.01003347516690134 0 -0.00059979944524077473 -0.010145761236315656 0 -0.00029764403091241462 -0.010327961296955113 0 -0.00013265768887284597 -0.01003347516690134 0 -0.00059979944524077473 -0.010145761236315656 0 -0.00043105137789303387 -0.0097965464371584082 0 -0.00059979944524077473 -0.010145761236315656 0 -0.00029764403091241462 -0.010327961296955113 0 -0.00053492709856496948 -0.0104676057117807 0 0.00020626634898716009 -0.010399938652061111 0 -0.00029764403091241462 -0.010327961296955113 0 -0.00020923105448439127 -0.010608819009020151 0 -0.00029764403091241462 -0.010327961296955113 0 -0.00020923105448439127 -0.010608819009020151 0 -0.00053492709856496948 -0.0104676057117807 0 -0.00092367780132838779 -0.010409029654791187 0 -0.0011297734730580157 -0.011051945212936115 0 -0.0013371022257782593 -0.010398456135887354 0 -0.00053492709856496948 -0.0104676057117807 0 -0.00092367780132838779 -0.010409029654791187 0 -0.00053398235918900657 -0.01083049265614117 0 -0.00059979944524077473 -0.010145761236315656 0 -0.00053492709856496948 -0.0104676057117807 0 -0.00092367780132838779 -0.010409029654791187 0 -0.00092782700642440191 -0.010438032261466869 0 -0.00035215319662640208 -0.01119158696349291 0 -0.00092367780132838779 -0.010409029654791187 0 -0.0011297734730580157 -0.011051945212936115 0 -0.00048343510553489397 -0.011363762746750678 0 -0.00092367780132838779 -0.010409029654791187 0 -0.00053398235918900657 -0.01083049265614117 0 -0.00047142960455461767 -0.011068317222794579 0 -0.00020923105448439127 -0.010608819009020151 0 -0.00053398235918900657 -0.01083049265614117 0 -0.0001047105800225353 -0.010930202687516362 0 8.3681911681558345e-05 -0.01068370477953034 0 -0.00020923105448439127 -0.010608819009020151 0 -0.0001047105800225353 -0.010930202687516362 0 -0.00020923105448439127 -0.010608819009020151 0 -0.00053492709856496948 -0.0104676057117807 0 -0.00053398235918900657 -0.01083049265614117 0 -0.00044753982986398905 -0.010906983836395538 0 -0.00035215319662640208 -0.01119158696349291 0 -0.00053398235918900657 -0.01083049265614117 0 -0.00047738634262689945 -0.011092285559620598 0 -0.0001047105800225353 -0.010930202687516362 0 -7.6769016597371884e-05 -0.011591975664882841 0 -0.00035215319662640208 -0.01119158696349291 0 -0.00010762435541875687 -0.011767868695010016 0 -0.00047738634262689945 -0.011092285559620598 0 -3.434520128554218e-05 -0.011282738898855898 0 6.3034814285337041e-05 -0.011489973190820667 0 1.3743235176540384e-05 -0.011486796644128017 0 -4.5348023950207435e-06 -0.011364411223616719 0 -0.00016716337125612007 -0.012140459392174521 0 -0.00035215319662640208 -0.01119158696349291 0 -0.00047738634262689945 -0.011092285559620598 0 -0.0001047105800225353 -0.010930202687516362 0 -3.434520128554218e-05 -0.011282738898855898 0 -0.0011297734730580157 -0.011051945212936115 0 -0.00048343510553489397 -0.011363762746750678 0 -0.0010539755860000982 -0.011761395159793834 0 -0.00040955843764314522 -0.012140828787217261 0 -0.00048343510553489397 -0.011363762746750678 0 -0.0010539755860000982 -0.011761395159793834 0 -0.0011297734730580157 -0.011051945212936115 0 -0.0010539755860000982 -0.011761395159793834 0 -0.001812075735978763 -0.011328342002600064 0 -0.0015533702520596777 -0.012105847543933743 0 -0.0010539755860000982 -0.011761395159793834 0 -0.001812075735978763 -0.011328342002600064 0 -0.002250330210826895 -0.012334610267672354 0 -0.0019024093657914669 -0.011486624012400101 0 -0.0022705445330094853 -0.012385033267920356 0 -0.0019925091260612421 -0.011604964541858147 0 -0.0026815441665170824 -0.011981169357352441 0 -0.0015533702520596777 -0.012105847543933743 0 -0.0022705445330094853 -0.012385033267920356 0 -0.001812075735978763 -0.011328342002600064 0 -0.0019925091260612421 -0.011604964541858147 0 -0.0026815441665170824 -0.011981169357352441 0 -0.0028731046055470791 -0.011434977731571575 0 -0.0019925091260612421 -0.011604964541858147 0 -0.0028731046055470791 -0.011434977731571575 0 -0.0024701177861193805 -0.010943903208734861 0 -0.0019024093657914669 -0.011486624012400101 0 -0.0014802782122325634 -0.010601863823751452 0 -0.0011297734730580157 -0.011051945212936115 0 -0.001812075735978763 -0.011328342002600064 0 -0.0013371022257782593 -0.010398456135887354 0 -0.0036143229441076012 -0.012317938389969479 0 -0.0030601586196514134 -0.012152779832404864 0 -0.0032868862643442302 -0.011785859703168847 0 -0.0033522536650523365 -0.010966549691491698 0 -0.0035703871754107293 -0.012241963936735326 0 -0.0038072901977955452 -0.012369897862891832 0 -0.0032868862643442302 -0.011785859703168847 0 -0.0037978031067941076 -0.011911313791544538 0 -0.0032868862643442302 -0.011785859703168847 0 -0.0035531928721430099 -0.011453455982351906 0 -0.0037978031067941076 -0.011911313791544538 0 -0.0032868862643442302 -0.011785859703168847 0 -0.0026815441665170824 -0.011981169357352441 0 -0.0028731046055470791 -0.011434977731571575 0 -0.0030601586196514134 -0.012152779832404864 0 -0.0032868862643442302 -0.011785859703168847 0 -0.0026815441665170824 -0.011981169357352441 0 -0.0028731046055470791 -0.011434977731571575 0 -0.0034015090242767547 -0.010978321353693256 0 -0.0024701177861193805 -0.010943903208734861 0 -0.0032868862643442302 -0.011785859703168847 0 -0.0028731046055470791 -0.011434977731571575 0 -0.0035531928721430099 -0.011453455982351906 0 -0.0028731046055470791 -0.011434977731571575 0 -0.0035531928721430099 -0.011453455982351906 0 -0.0034015090242767547 -0.010978321353693256 0 -0.0034015090242767547 -0.010978321353693256 0 -0.0030161042697360416 -0.010404183457919944 0 -0.0034849941181424862 -0.010462982596178028 0 -0.0034015090242767547 -0.010978321353693256 0 -0.0030161042697360416 -0.010404183457919944 0 -0.0024701177861193805 -0.010943903208734861 0 -0.0030161042697360416 -0.010404183457919944 0 -0.0024701177861193805 -0.010943903208734861 0 -0.0025065873804943316 -0.010476747533061617 0 -0.0030161042697360416 -0.010404183457919944 0 -0.0025065873804943316 -0.010476747533061617 0 -0.0027879779868331313 -0.0099455274351097356 0 -0.0030161042697360416 -0.010404183457919944 0 -0.0034849941181424862 -0.010462982596178028 0 -0.0035870681590494157 -0.0099556387537366349 0 -0.0016228021817154311 -0.010829281267615188 0 -0.0024701177861193805 -0.010943903208734861 0 -0.0020940517192253672 -0.010568595371453115 0 -0.0019925091260612421 -0.011604964541858147 0 -0.0016228021817154311 -0.010829281267615188 0 -0.0024701177861193805 -0.010943903208734861 0 -0.0024701177861193805 -0.010943903208734861 0 -0.0020940517192253672 -0.010568595371453115 0 -0.0025065873804943316 -0.010476747533061617 0 -0.0020940517192253672 -0.010568595371453115 0 -0.002134499308059196 -0.010198574854495669 0 -0.0017520032582308746 -0.010282471305061111 0 -0.0025065873804943316 -0.010476747533061617 0 -0.002134499308059196 -0.010198574854495669 0 -0.0027879779868331313 -0.0099455274351097356 0 -0.0020940517192253672 -0.010568595371453115 0 -0.0025065873804943316 -0.010476747533061617 0 -0.002134499308059196 -0.010198574854495669 0 -0.002134499308059196 -0.010198574854495669 0 -0.0017520032582308746 -0.010282471305061111 0 -0.0017809731089485196 -0.0099271461924836761 0 -0.0014802782122325634 -0.010601863823751452 0 -0.0011716595229428861 -0.0099027542996698928 0 -0.0016228021817154311 -0.010829281267615188 0 -0.0017520032582308746 -0.010282471305061111 0 -0.0011523310872746599 -0.0098682630237642427 0 -0.0016228021817154311 -0.010829281267615188 0 -0.0020940517192253672 -0.010568595371453115 0 -0.0017520032582308746 -0.010282471305061111 0 -0.0017520032582308746 -0.010282471305061111 0 -0.0017809731089485196 -0.0099271461924836761 0 -0.0011523310872746599 -0.0098682630237642427 0 -0.0017809731089485196 -0.0099271461924836761 0 -0.0017042436452331606 -0.0096137633584078997 0 -0.0011523310872746599 -0.0098682630237642427 0 -0.002134499308059196 -0.010198574854495669 0 -0.0023143781889786792 -0.0096532979528487477 0 -0.0027879779868331313 -0.0099455274351097356 0 -0.002134499308059196 -0.010198574854495669 0 -0.0017809731089485196 -0.0099271461924836761 0 -0.0023143781889786792 -0.0096532979528487477 0 -0.0017809731089485196 -0.0099271461924836761 0 -0.0023143781889786792 -0.0096532979528487477 0 -0.0017042436452331606 -0.0096137633584078997 0 -0.0023143781889786792 -0.0096532979528487477 0 -0.002181280412441206 -0.0091602362587451022 0 -0.0017042436452331606 -0.0096137633584078997 0 -0.0022744028077457202 -0.009235256301725921 0 -0.0017499434630144936 -0.0096356867067882313 0 -0.0023143781889786792 -0.0096532979528487477 0 -0.002181280412441206 -0.0091602362587451022 0 -0.0027200412598561573 -0.0092056794659312931 0 -0.0017042436452331606 -0.0096137633584078997 0 -0.0017457332179871979 -0.0094506569609645041 0 -0.0010326978277111728 -0.009416250853588189 0 -0.0021260553095402918 -0.0095943171829023111 0 -0.0017042436452331606 -0.0096137633584078997 0 -0.0017457332179871979 -0.0094506569609645041 0 -0.0027879779868331313 -0.0099455274351097356 0 -0.0030261712698377414 -0.0095213292022294782 0 -0.0035870681590494157 -0.0099556387537366349 0 -0.0030261712698377414 -0.0095213292022294782 0 -0.0035252185467240069 -0.0094824386204007179 0 -0.0035870681590494157 -0.0099556387537366349 0 -0.0030161042697360416 -0.010404183457919944 0 -0.0027879779868331313 -0.0099455274351097356 0 -0.0035870681590494157 -0.0099556387537366349 0 -0.0023143781889786792 -0.0096532979528487477 0 -0.0027879779868331313 -0.0099455274351097356 0 -0.0030261712698377414 -0.0095213292022294782 0 -0.0023143781889786792 -0.0096532979528487477 0 -0.0030261712698377414 -0.0095213292022294782 0 -0.0027200412598561573 -0.0092056794659312931 0 -0.0030261712698377414 -0.0095213292022294782 0 -0.0027200412598561573 -0.0092056794659312931 0 -0.0035834270961185087 -0.008961360819254768 0 -0.0030261712698377414 -0.0095213292022294782 0 -0.0035252185467240069 -0.0094824386204007179 0 -0.0035834270961185087 -0.008961360819254768 0 -0.0033239840807311313 -0.014244387311981228 0 -0.003522085561885806 -0.014448049223024069 0 -0.0035348218150083321 -0.014308760545324753 0 -0.0031933773395806143 -0.014346042119230034 0 -0.0033239840807311313 -0.014244387311981228 0 -0.003522085561885806 -0.014448049223024069 0 -0.0029401570270153428 -0.011287370938213494 0 -0.0035967800504909751 -0.011607445111557958 0 -0.0022193095524325667 -0.0096526664007917408 0 -0.002128853069411843 -0.0097775744604345488 0 -0.0023194483177684739 -0.0096531033540767901 0 -0.0027200412598561573 -0.0092056794659312931 0 -0.0026227577189056796 -0.0087669174347202675 0 -0.0035834270961185087 -0.008961360819254768 0 -0.0029401570270153428 -0.011287370938213494 0 -0.0025058650339350656 -0.011973367368267627 0 -0.002181280412441206 -0.0091602362587451022 0 -0.0027200412598561573 -0.0092056794659312931 0 -0.0026227577189056796 -0.0087669174347202675 0 -0.0033258058071663362 -0.0099622223516536157 0 -0.0033211560475668472 -0.010095385188057965 0 -0.0033120072859673059 -0.01124702953210934 0 -0.0025058650339350656 -0.011973367368267627 0 -0.0026145606794473423 -0.0092157722225353587 0 -0.0033258058071663362 -0.0099622223516536157 0 -0.0033211560475668472 -0.010095385188057965 0 -0.0023194483177684739 -0.0096531033540767901 0 -0.0025058650339350656 -0.011973367368267627 0 -0.0027802479780318309 -0.014234844061887957 0 -0.0033239840807311313 -0.014244387311981228 0 -0.0035348218150083321 -0.014308760545324753 0 -0.0036025990742008431 -0.014188548938403744 0 -0.0033211560475668472 -0.010095385188057965 0 -0.0026428216797894023 -0.011391078374404484 0 -0.0033120072859673059 -0.01124702953210934 0 -0.0013893085683582011 -0.01393705633700849 0 -0.0021513540386862125 -0.013757122327541556 0 -0.0018189031785357881 -0.013540512890358411 0 -0.0025058650339350656 -0.011973367368267627 0 -0.0022663864730894734 -0.012471275864873992 0 -0.0017457332179871979 -0.0094506569609645041 0 -0.0018713134182653851 -0.00925975968122595 0 -0.0012014722793352796 -0.0091119818421951104 0 -0.0017457332179871979 -0.0094506569609645041 0 -0.0023194483177684739 -0.0096531033540767901 0 -0.0018713134182653851 -0.00925975968122595 0 -0.0021260553095402918 -0.0095943171829023111 0 -0.0017457332179871979 -0.0094506569609645041 0 -0.0023194483177684739 -0.0096531033540767901 0 -0.0022744028077457202 -0.009235256301725921 0 -0.0029401570270153428 -0.011287370938213494 0 -0.0021260553095402918 -0.0095943171829023111 0 -0.0022193095524325667 -0.0096526664007917408 0 -0.0023194483177684739 -0.0096531033540767901 0 -0.0023194483177684739 -0.0096531033540767901 0 -0.0024399774451423772 -0.009480895778111573 0 -0.0018713134182653851 -0.00925975968122595 0 -0.0033258058071663362 -0.0099622223516536157 0 -0.0023194483177684739 -0.0096531033540767901 0 -0.0024399774451423772 -0.009480895778111573 0 -0.0018713134182653851 -0.00925975968122595 0 -0.001535922511211416 -0.0087412343940390363 0 -0.0020144826087733678 -0.0088940741191092416 0 -0.0024399774451423772 -0.009480895778111573 0 -0.0018713134182653851 -0.00925975968122595 0 -0.0020144826087733678 -0.0088940741191092416 0 -0.0012014722793352796 -0.0091119818421951104 0 -0.00086545572794005611 -0.0086001386964765919 0 -0.001535922511211416 -0.0087412343940390363 0 -0.0018713134182653851 -0.00925975968122595 0 -0.0012014722793352796 -0.0091119818421951104 0 -0.001535922511211416 -0.0087412343940390363 0 -0.0017457332179871979 -0.0094506569609645041 0 -0.0012014722793352796 -0.0091119818421951104 0 -0.0010326978277111728 -0.009416250853588189 0 -0.0012014722793352796 -0.0091119818421951104 0 -0.00027372979943928415 -0.0089501993113469663 0 -0.0010326978277111728 -0.009416250853588189 0 -0.0012014722793352796 -0.0091119818421951104 0 -0.00027372979943928415 -0.0089501993113469663 0 -0.00086545572794005611 -0.0086001386964765919 0 -0.00027372979943928415 -0.0089501993113469663 0 -0.00086545572794005611 -0.0086001386964765919 0 5.1060557411487026e-05 -0.0085012113638323668 0 5.1060557411487026e-05 -0.0085012113638323668 0 0.0011110415232099028 -0.0082901440418148009 0 0.00096223298357254626 -0.0077414589206106889 0 0.0011110415232099028 -0.0082901440418148009 0 0.0015993127567969882 -0.0089899920481125752 0 0.0018702677780340403 -0.007827469151293228 0 5.1060557411487026e-05 -0.0085012113638323668 0 0.0011110415232099028 -0.0082901440418148009 0 0.0015993127567969882 -0.0089899920481125752 0 0.0011110415232099028 -0.0082901440418148009 0 0.00096223298357254626 -0.0077414589206106889 0 0.0018702677780340403 -0.007827469151293228 0 0.00014348001356175125 -0.008467408990643301 0 0.0011449701065406994 -0.0087628498220707549 0 -0.00027372979943928415 -0.0089501993113469663 0 5.1060557411487026e-05 -0.0085012113638323668 0 0.00072700536499071579 -0.0085594642842150483 0 -0.00027372979943928415 -0.0089501993113469663 0 0.00072700536499071579 -0.0085594642842150483 0 0.00034882975528900554 -0.0090117576190418009 0 -0.00027372979943928415 -0.0089501993113469663 0 0.00034882975528900554 -0.0090117576190418009 0 -0.00019926471349766017 -0.0092979455920808238 0 0.00034882975528900554 -0.0090117576190418009 0 0.00047801343803683907 -0.0093485468917103159 0 -0.00019926471349766017 -0.0092979455920808238 0 0.00034882975528900554 -0.0090117576190418009 0 0.00047801343803683907 -0.0093485468917103159 0 0.001049901114586487 -0.0089589739413077595 0 0.00072700536499071579 -0.0085594642842150483 0 0.00034882975528900554 -0.0090117576190418009 0 0.001049901114586487 -0.0089589739413077595 0 0.00047801343803683907 -0.0093485468917103159 0 0.0012040650812738631 -0.0093232586494763001 0 0.001049901114586487 -0.0089589739413077595 0 0.00047801343803683907 -0.0093485468917103159 0 6.5390714924599768e-05 -0.0096479925265481829 0 -0.00019926471349766017 -0.0092979455920808238 0 -0.00043105137789303387 -0.0097965464371584082 0 -0.00071580808785508764 -0.009600092072040569 0 -0.00019926471349766017 -0.0092979455920808238 0 6.5390714924599768e-05 -0.0096479925265481829 0 -0.00043105137789303387 -0.0097965464371584082 0 -0.00019926471349766017 -0.0092979455920808238 0 -0.00043105137789303387 -0.0097965464371584082 0 -0.00071580808785508764 -0.009600092072040569 0 -0.0011523310872746599 -0.0098682630237642427 0 -0.00071580808785508764 -0.009600092072040569 0 -0.0011523310872746599 -0.0098682630237642427 0 -0.0010326978277111728 -0.009416250853588189 0 -0.0017042436452331606 -0.0096137633584078997 0 -0.0011523310872746599 -0.0098682630237642427 0 -0.0010326978277111728 -0.009416250853588189 0 -0.00071580808785508764 -0.009600092072040569 0 -0.0010326978277111728 -0.009416250853588189 0 -0.00019926471349766017 -0.0092979455920808238 0 -0.00027372979943928415 -0.0089501993113469663 0 -0.0010326978277111728 -0.009416250853588189 0 -0.00019926471349766017 -0.0092979455920808238 0 -0.0062490809391236536 -0.014506874110268584 0 -0.006062092903208114 -0.014477845541058481 0 -0.0061211689069980398 -0.014658333674223045 0 -0.006206406880293675 -0.014392905598867895 0 -0.0062490809391236536 -0.014506874110268584 0 -0.006062092903208114 -0.014477845541058481 0 -0.006062092903208114 -0.014477845541058481 0 -0.0058600118033331179 -0.014482562475556777 0 -0.0061154419419994898 -0.014330325390046217 0 -0.006062092903208114 -0.014477845541058481 0 -0.0058600118033331179 -0.014482562475556777 0 -0.0061211689069980398 -0.014658333674223045 0 -0.0047802108676680321 -0.013326861244806519 0 -0.0058121474403935213 -0.012315761567918443 0 -0.0049736715151394249 -0.0098448558156174881 0 -0.0052923921291372893 -0.01003409004072835 0 -0.0049430936491519379 -0.010088894962417411 0 -0.0052923921291372893 -0.01003409004072835 0 -0.0051583195292446834 -0.010195398417179466 0 -0.0049430936491519379 -0.010088894962417411 0 -0.0053303140779360674 -0.010222630899598418 0 -0.0052425495915439813 -0.010348719701691473 0 -0.0051583195292446834 -0.010195398417179466 0 -0.0052923921291372893 -0.01003409004072835 0 -0.0053303140779360674 -0.010222630899598418 0 -0.0051583195292446834 -0.010195398417179466 0 -0.0054041138829244847 -0.010335510630728417 0 -0.0053746755330708043 -0.010451573931866454 0 -0.0052425495915439813 -0.010348719701691473 0 -0.0054041138829244847 -0.010335510630728417 0 -0.0053303140779360674 -0.010222630899598418 0 -0.0052425495915439813 -0.010348719701691473 0 -0.0051205744570683104 -0.010482046326051816 0 -0.0052425495915439813 -0.010348719701691473 0 -0.004968462095912474 -0.010331723945823839 0 -0.0048503204706975903 -0.010539238219472882 0 -0.0051205744570683104 -0.010482046326051816 0 -0.004968462095912474 -0.010331723945823839 0 -0.0052425495915439813 -0.010348719701691473 0 -0.004968462095912474 -0.010331723945823839 0 -0.0051583195292446834 -0.010195398417179466 0 -0.004968462095912474 -0.010331723945823839 0 -0.0051583195292446834 -0.010195398417179466 0 -0.0049430936491519379 -0.010088894962417411 0 -0.004968462095912474 -0.010331723945823839 0 -0.0048019041991039816 -0.010221565764774499 0 -0.0046328539118210112 -0.010408067494137861 0 -0.004968462095912474 -0.010331723945823839 0 -0.0048019041991039816 -0.010221565764774499 0 -0.0049430936491519379 -0.010088894962417411 0 -0.0048503204706975903 -0.010539238219472882 0 -0.004968462095912474 -0.010331723945823839 0 -0.0046328539118210112 -0.010408067494137861 0 -0.0044723744199946852 -0.010620331897206809 0 -0.0048503204706975903 -0.010539238219472882 0 -0.0046328539118210112 -0.010408067494137861 0 -0.0044723744199946852 -0.010620331897206809 0 -0.0046328539118210112 -0.010408067494137861 0 -0.0043166309434674068 -0.010377665066054786 0 -0.0042344482424194092 -0.011664848664455704 0 -0.0040538854160987346 -0.011832364632175022 0 -0.0046328539118210112 -0.010408067494137861 0 -0.0046469286977359374 -0.010060165922003556 0 -0.0043166309434674068 -0.010377665066054786 0 -0.0048019041991039816 -0.010221565764774499 0 -0.0046328539118210112 -0.010408067494137861 0 -0.0046469286977359374 -0.010060165922003556 0 -0.0038026175004345301 -0.013711101526581447 0 -0.0038873942574898655 -0.013921045641867698 0 -0.0038941636605079816 -0.0136492214681625 0 -0.0047802108676680321 -0.013326861244806519 0 -0.0042344482424194092 -0.011664848664455704 0 -0.0049736715151394249 -0.0098448558156174881 0 -0.0046469286977359374 -0.010060165922003556 0 -0.0049430936491519379 -0.010088894962417411 0 -0.0048019041991039816 -0.010221565764774499 0 -0.0046469286977359374 -0.010060165922003556 0 -0.0049430936491519379 -0.010088894962417411 0 -0.0038560923465457203 -0.014064267653387058 0 -0.0039496394092122904 -0.014156289709455592 0 -0.0038873942574898655 -0.013921045641867698 0 -0.0038560923465457203 -0.014064267653387058 0 -0.0038026175004345301 -0.013711101526581447 0 -0.0038873942574898655 -0.013921045641867698 0 -0.0042546146727102897 -0.014480057784413181 0 -0.0039496394092122904 -0.014156289709455592 0 -0.0041637394726728042 -0.014259280638752966 0 -0.0047802108676680321 -0.013326861244806519 0 -0.0041657920012352148 -0.013890886206627057 0 -0.0039496394092122904 -0.014156289709455592 0 -0.0038873942574898655 -0.013921045641867698 0 -0.003913407180637438 -0.014015102361351943 0 -0.0040464177624109565 -0.013825887491434338 0 -0.0038941636605079816 -0.0136492214681625 0 -0.0039257772756826504 -0.013913007497982592 0 -0.0038873942574898655 -0.013921045641867698 0 -0.0038941636605079816 -0.0136492214681625 0 -0.0039257772756826504 -0.013913007497982592 0 -0.0040464177624109565 -0.013825887491434338 0 -0.0038941636605079816 -0.0136492214681625 0 -0.0042664145172641912 -0.01363763275152712 0 -0.0038941636605079816 -0.0136492214681625 0 -0.0039820901637215465 -0.013141631834087703 0 -0.0042664145172641912 -0.01363763275152712 0 -0.0038026175004345301 -0.013711101526581447 0 -0.0038941636605079816 -0.0136492214681625 0 -0.0037711543820320059 -0.013246819069873104 0 -0.0044723744199946852 -0.010620331897206809 0 -0.0043166309434674068 -0.010377665066054786 0 -0.004280377101670476 -0.010699814084817584 0 -0.0043166309434674068 -0.010377665066054786 0 -0.004280377101670476 -0.010699814084817584 0 -0.0041361269461337603 -0.010775130987474946 0 -0.0040538854160987346 -0.011832364632175022 0 -0.0040636021322388747 -0.011619168925083197 0 -0.0038941636605079816 -0.0136492214681625 0 -0.0037711543820320059 -0.013246819069873104 0 -0.0039820901637215465 -0.013141631834087703 0 -0.0037711543820320059 -0.013246819069873104 0 -0.0039820901637215465 -0.013141631834087703 0 -0.0038747208774964586 -0.01253287837631069 0 -0.0039820901637215465 -0.013141631834087703 0 -0.0041263227992482665 -0.012430792703934558 0 -0.0043723049287072383 -0.013112916336501508 0 -0.0042889211267121922 -0.01203078082276143 0 -0.0038747208774964586 -0.01253287837631069 0 -0.0041263227992482665 -0.012430792703934558 0 -0.0039820901637215465 -0.013141631834087703 0 -0.0038747208774964586 -0.01253287837631069 0 -0.0041263227992482665 -0.012430792703934558 0 -0.0041263227992482665 -0.012430792703934558 0 -0.0042668205031931791 -0.012130691743762325 0 -0.0043723049287072383 -0.013112916336501508 0 -0.0042658044211130331 -0.012177301934291434 0 -0.0042714182498741482 -0.012221952343157724 0 -0.0037978031067941076 -0.011911313791544538 0 -0.0042668205031931791 -0.012130691743762325 0 -0.0041843972817926615 -0.011344117038270997 0 -0.0037978031067941076 -0.011911313791544538 0 -0.0040403476132235836 -0.012143678203988711 0 -0.0042668205031931791 -0.012130691743762325 0 -0.0038072901977955452 -0.012369897862891832 0 -0.0037978031067941076 -0.011911313791544538 0 -0.0040403476132235836 -0.012143678203988711 0 -0.0042889211267121922 -0.01203078082276143 0 -0.0041263227992482665 -0.012430792703934558 0 -0.0042668205031931791 -0.012130691743762325 0 -0.0035531928721430099 -0.011453455982351906 0 -0.0037978031067941076 -0.011911313791544538 0 -0.0041843972817926615 -0.011344117038270997 0 -0.0035531928721430099 -0.011453455982351906 0 -0.0034015090242767547 -0.010978321353693256 0 -0.0041843972817926615 -0.011344117038270997 0 -0.0034015090242767547 -0.010978321353693256 0 -0.0034849941181424862 -0.010462982596178028 0 -0.0042465767851214689 -0.010611611898144531 0 -0.0034015090242767547 -0.010978321353693256 0 -0.0041843972817926615 -0.011344117038270997 0 -0.0042465767851214689 -0.010611611898144531 0 -0.0039820901637215465 -0.013141631834087703 0 -0.0043723049287072383 -0.013112916336501508 0 -0.0042664145172641912 -0.01363763275152712 0 -0.0042714182498741482 -0.012221952343157724 0 -0.0042453895732384572 -0.012179654883211205 0 -0.0040464177624109565 -0.013825887491434338 0 -0.0042664145172641912 -0.01363763275152712 0 -0.0041711308475635344 -0.013899718398528323 0 -0.0042453895732384572 -0.012179654883211205 0 -0.0043307679866998313 -0.011618414929315592 0 -0.0034849941181424862 -0.010462982596178028 0 -0.0042465767851214689 -0.010611611898144531 0 -0.0035870681590494157 -0.0099556387537366349 0 -0.0042465767851214689 -0.010611611898144531 0 -0.0035870681590494157 -0.0099556387537366349 0 -0.0043515419893565988 -0.0098823216055116229 0 -0.0035870681590494157 -0.0099556387537366349 0 -0.0043515419893565988 -0.0098823216055116229 0 -0.0038995556779936281 -0.0094878187026028338 0 -0.0035252185467240069 -0.0094824386204007179 0 -0.0035870681590494157 -0.0099556387537366349 0 -0.0038995556779936281 -0.0094878187026028338 0 -0.0043307679866998313 -0.011618414929315592 0 -0.003889288034673631 -0.012866281991581451 0 -0.0041711308475635344 -0.013899718398528323 0 -0.0041079751135035571 -0.014057915147449446 0 -0.0040208663720278631 -0.013945304182174064 0 -0.0043515419893565988 -0.0098823216055116229 0 -0.0038995556779936281 -0.0094878187026028338 0 -0.0044824803177389112 -0.0091626193102896086 0 -0.0038995556779936281 -0.0094878187026028338 0 -0.0035834270961185087 -0.008961360819254768 0 -0.0044824803177389112 -0.0091626193102896086 0 -0.0035252185467240069 -0.0094824386204007179 0 -0.0038995556779936281 -0.0094878187026028338 0 -0.0035834270961185087 -0.008961360819254768 0 -0.003522085561885806 -0.014448049223024069 0 -0.0036969835958970431 -0.01435554009860001 0 -0.0038705206169748238 -0.014543114257101889 0 -0.0035967800504909751 -0.011607445111557958 0 -0.003889288034673631 -0.012866281991581451 0 -0.003522085561885806 -0.014448049223024069 0 -0.0036969835958970431 -0.01435554009860001 0 -0.0035348218150083321 -0.014308760545324753 0 -0.0036969835958970431 -0.01435554009860001 0 -0.0035348218150083321 -0.014308760545324753 0 -0.0036025990742008431 -0.014188548938403744 0 -0.0036969835958970431 -0.01435554009860001 0 -0.0036025990742008431 -0.014188548938403744 0 -0.0038278656801784359 -0.014273791456217912 0 -0.0036025990742008431 -0.014188548938403744 0 -0.0038278656801784359 -0.014273791456217912 0 -0.0039098892991193098 -0.014107170826796023 0 -0.0036969835958970431 -0.01435554009860001 0 -0.0038278656801784359 -0.014273791456217912 0 -0.0039069309527327012 -0.014410199324100027 0 -0.0036969835958970431 -0.01435554009860001 0 -0.0039069309527327012 -0.014410199324100027 0 -0.0038705206169748238 -0.014543114257101889 0 -0.0037706967327830426 -0.014844251351938681 0 -0.003889288034673631 -0.012866281991581451 0 -0.0038679332662093164 -0.014654143002277041 0 -0.0041699772080287401 -0.014494985850093386 0 -0.0043826834411446556 -0.014723537657146728 0 -0.0039069309527327012 -0.014410199324100027 0 -0.0038679332662093164 -0.014654143002277041 0 -0.0041699772080287401 -0.014494985850093386 0 -0.0039069309527327012 -0.014410199324100027 0 -0.0041699772080287401 -0.014494985850093386 0 -0.0040318761719804874 -0.014298605511970947 0 -0.0040318761719804874 -0.014298605511970947 0 -0.0041554140059479024 -0.01419389840124932 0 -0.0039098892991193098 -0.014107170826796023 0 -0.0038278656801784359 -0.014273791456217912 0 -0.0039069309527327012 -0.014410199324100027 0 -0.0040318761719804874 -0.014298605511970947 0 -0.0041699772080287401 -0.014494985850093386 0 -0.0040318761719804874 -0.014298605511970947 0 -0.0042838734135655946 -0.014362669616963891 0 -0.0038278656801784359 -0.014273791456217912 0 -0.0040318761719804874 -0.014298605511970947 0 -0.0039098892991193098 -0.014107170826796023 0 -0.0042838734135655946 -0.014362669616963891 0 -0.0045490365496539337 -0.014504467276785407 0 -0.0045197356296629255 -0.014290681068673578 0 -0.0041554140059479024 -0.01419389840124932 0 -0.0042838734135655946 -0.014362669616963891 0 -0.0045197356296629255 -0.014290681068673578 0 -0.0040318761719804874 -0.014298605511970947 0 -0.0041554140059479024 -0.01419389840124932 0 -0.0042838734135655946 -0.014362669616963891 0 -0.0041699772080287401 -0.014494985850093386 0 -0.0042838734135655946 -0.014362669616963891 0 -0.0045490365496539337 -0.014504467276785407 0 -0.0041699772080287401 -0.014494985850093386 0 -0.0043826834411446556 -0.014723537657146728 0 -0.0045490365496539337 -0.014504467276785407 0 -0.003889288034673631 -0.012866281991581451 0 -0.0041976427762208043 -0.01456317909488861 0 -0.0041079751135035571 -0.014057915147449446 0 -0.0039167490048084919 -0.014007636634769602 0 -0.0040208663720278631 -0.013945304182174064 0 -0.0040464177624109565 -0.013825887491434338 0 -0.0041711308475635344 -0.013899718398528323 0 -0.0040208663720278631 -0.013945304182174064 0 -0.0040464177624109565 -0.013825887491434338 0 -0.0040208663720278631 -0.013945304182174064 0 -0.0039257772756826504 -0.013913007497982592 0 -0.0039167490048084919 -0.014007636634769602 0 -0.0040208663720278631 -0.013945304182174064 0 -0.0039257772756826504 -0.013913007497982592 0 -0.0039167490048084919 -0.014007636634769602 0 -0.0039257772756826504 -0.013913007497982592 0 -0.003913407180637438 -0.014015102361351943 0 -0.0038873942574898655 -0.013921045641867698 0 -0.0039257772756826504 -0.013913007497982592 0 -0.003913407180637438 -0.014015102361351943 0 -0.003913407180637438 -0.014015102361351943 0 -0.0040619552170308836 -0.014142834258235168 0 -0.0040005940431661656 -0.013925375368039788 0 -0.0039496394092122904 -0.014156289709455592 0 -0.003913407180637438 -0.014015102361351943 0 -0.0040619552170308836 -0.014142834258235168 0 -0.0040619552170308836 -0.014142834258235168 0 -0.0040005940431661656 -0.013925375368039788 0 -0.0044257712445295028 -0.014306972915340988 0 -0.0041637394726728042 -0.014259280638752966 0 -0.0040619552170308836 -0.014142834258235168 0 -0.0044257712445295028 -0.014306972915340988 0 -0.0039496394092122904 -0.014156289709455592 0 -0.0041637394726728042 -0.014259280638752966 0 -0.0040619552170308836 -0.014142834258235168 0 -0.0039167490048084919 -0.014007636634769602 0 -0.003913407180637438 -0.014015102361351943 0 -0.0040005940431661656 -0.013925375368039788 0 -0.0043826834411446556 -0.014723537657146728 0 -0.0048263042551677324 -0.014642361567036813 0 -0.0045490365496539337 -0.014504467276785407 0 -0.0041976427762208043 -0.01456317909488861 0 -0.0043933435139060905 -0.014263511813508043 0 -0.0045490365496539337 -0.014504467276785407 0 -0.004714408827347665 -0.014424958562982274 0 -0.0047896036015778543 -0.014505199183503232 0 -0.0045490365496539337 -0.014504467276785407 0 -0.004714408827347665 -0.014424958562982274 0 -0.0045197356296629255 -0.014290681068673578 0 -0.004714408827347665 -0.014424958562982274 0 -0.0045197356296629255 -0.014290681068673578 0 -0.0047731975870235104 -0.014331643737787175 0 -0.004714408827347665 -0.014424958562982274 0 -0.0049016425130360124 -0.014420739919316377 0 -0.0047731975870235104 -0.014331643737787175 0 -0.004714408827347665 -0.014424958562982274 0 -0.0047896036015778543 -0.014505199183503232 0 -0.0049016425130360124 -0.014420739919316377 0 -0.0048263042551677324 -0.014642361567036813 0 -0.0045490365496539337 -0.014504467276785407 0 -0.0047896036015778543 -0.014505199183503232 0 -0.0048263042551677324 -0.014642361567036813 0 -0.0047896036015778543 -0.014505199183503232 0 -0.0048876010718174549 -0.014508885036338402 0 -0.0047896036015778543 -0.014505199183503232 0 -0.0048876010718174549 -0.014508885036338402 0 -0.0049016425130360124 -0.014420739919316377 0 -0.0048876010718174549 -0.014508885036338402 0 -0.0049016425130360124 -0.014420739919316377 0 -0.004967270838132613 -0.014474735880985851 0 -0.0048876010718174549 -0.014508885036338402 0 -0.004967270838132613 -0.014474735880985851 0 -0.0049112942698006923 -0.014489202327062913 0 -0.0049016425130360124 -0.014420739919316377 0 -0.0050163061101341534 -0.014402265555523576 0 -0.004967270838132613 -0.014474735880985851 0 -0.0049016425130360124 -0.014420739919316377 0 -0.0050163061101341534 -0.014402265555523576 0 -0.0049844595414288116 -0.014431308270255568 0 -0.0050163061101341534 -0.014402265555523576 0 -0.005062222773174886 -0.014473352398359368 0 -0.004967270838132613 -0.014474735880985851 0 -0.0051499683207163671 -0.01439803124119363 0 -0.0050163061101341534 -0.014402265555523576 0 -0.005062222773174886 -0.014473352398359368 0 -0.0051626720709682643 -0.014505667437670689 0 -0.005062222773174886 -0.014473352398359368 0 -0.0050331321375070041 -0.014505862995567579 0 -0.005062222773174886 -0.014473352398359368 0 -0.004967270838132613 -0.014474735880985851 0 -0.0050331321375070041 -0.014505862995567579 0 -0.004967270838132613 -0.014474735880985851 0 -0.0050331321375070041 -0.014505862995567579 0 -0.0049112942698006923 -0.014489202327062913 0 -0.0055600992747693841 -0.014402951477486348 0 -0.0049689587636703439 -0.014409713497527224 0 -0.0048339764687480996 -0.014470268255056564 0 -0.0050722527941326583 -0.014517044745666457 0 -0.0050331321375070041 -0.014505862995567579 0 -0.0049533236671175929 -0.014446008781533385 0 -0.0050722527941326583 -0.014517044745666457 0 -0.0049533236671175929 -0.014446008781533385 0 -0.0049689587636703439 -0.014409713497527224 0 -0.0049533236671175929 -0.014446008781533385 0 -0.0048454421570539785 -0.014346910605455763 0 -0.0049689587636703439 -0.014409713497527224 0 -0.0049533236671175929 -0.014446008781533385 0 -0.0048454421570539785 -0.014346910605455763 0 -0.0049112942698006923 -0.014489202327062913 0 -0.0050331321375070041 -0.014505862995567579 0 -0.0049533236671175929 -0.014446008781533385 0 -0.0049112942698006923 -0.014489202327062913 0 -0.0048263042551677324 -0.014642361567036813 0 -0.0048876010718174549 -0.014508885036338402 0 -0.0049112942698006923 -0.014489202327062913 0 -0.0043933435139060905 -0.014263511813508043 0 -0.0048000971347590352 -0.014345342755980104 0 -0.0048263042551677324 -0.014642361567036813 0 -0.0048454421570539785 -0.014346910605455763 0 -0.0049112942698006923 -0.014489202327062913 0 -0.0040005940431661656 -0.013925375368039788 0 -0.0048454421570539785 -0.014346910605455763 0 -0.0044257712445295028 -0.014306972915340988 0 -0.0047802108676680321 -0.013326861244806519 0 -0.0054829154312863856 -0.014557509153766721 0 -0.0042546146727102897 -0.014480057784413181 0 -0.0044257712445295028 -0.014306972915340988 0 -0.0048339764687480996 -0.014470268255056564 0 -0.0042546146727102897 -0.014480057784413181 0 -0.0041637394726728042 -0.014259280638752966 0 -0.0044257712445295028 -0.014306972915340988 0 -0.0048454421570539785 -0.014346910605455763 0 -0.0044257712445295028 -0.014306972915340988 0 -0.0048339764687480996 -0.014470268255056564 0 -0.006206406880293675 -0.014392905598867895 0 -0.006062092903208114 -0.014477845541058481 0 -0.0061154419419994898 -0.014330325390046217 0 -0.006253190942506032 -0.014333094049950782 0 -0.006206406880293675 -0.014392905598867895 0 -0.0061154419419994898 -0.014330325390046217 0 -0.0048454421570539785 -0.014346910605455763 0 -0.0049689587636703439 -0.014409713497527224 0 -0.0048339764687480996 -0.014470268255056564 0 -0.0053217732941277813 -0.014202250193409864 0 -0.0051726876129052721 -0.013566295260570026 0 -0.0051914452893158016 -0.014150301774082637 0 -0.0052927099416980976 -0.014107551967701507 0 -0.0051164319713362973 -0.014207795083538701 0 -0.0055159194281378752 -0.013811947615995916 0 -0.0052927099416980976 -0.014107551967701507 0 -0.0054179559441099989 -0.013336570275893104 0 -0.0051914452893158016 -0.014150301774082637 0 -0.0051726548998622269 -0.014192655782943056 0 -0.0051164319713362973 -0.014207795083538701 0 -0.0051914452893158016 -0.014150301774082637 0 -0.005077548041291291 -0.014229183663736565 0 -0.0051169270673090085 -0.014222231857355713 0 -0.005624038405249848 -0.014048083176928745 0 -0.0055159194281378752 -0.013811947615995916 0 -0.0052927099416980976 -0.014107551967701507 0 -0.005775420510376 -0.013621212422631836 0 -0.0055159194281378752 -0.013811947615995916 0 -0.0055940394634002759 -0.013529857723564619 0 -0.0055159194281378752 -0.013811947615995916 0 -0.0055940394634002759 -0.013529857723564619 0 -0.0054179559441099989 -0.013336570275893104 0 -0.005163408398237322 -0.014236007820494905 0 -0.0050352239420776226 -0.01417711426990907 0 -0.0051914452893158016 -0.014150301774082637 0 -0.0049987243740725494 -0.014273247224204083 0 -0.004933076103869935 -0.014349126833659014 0 -0.0049529421382350867 -0.014353911383346017 0 -0.0049987243740725494 -0.014273247224204083 0 -0.004933076103869935 -0.014349126833659014 0 -0.0049529421382350867 -0.014353911383346017 0 -0.0049987243740725494 -0.014273247224204083 0 -0.0049358554669745201 -0.014380581218547595 0 -0.0049987243740725494 -0.014273247224204083 0 -0.0049302369843151599 -0.014335290906459344 0 -0.0049358554669745201 -0.014380581218547595 0 -0.0049987243740725494 -0.014273247224204083 0 -0.0050139235752222865 -0.014270889689003223 0 -0.0049302369843151599 -0.014335290906459344 0 -0.0051914452893158016 -0.014150301774082637 0 -0.0049987243740725494 -0.014273247224204083 0 -0.005077548041291291 -0.014229183663736565 0 -0.0049987243740725494 -0.014273247224204083 0 -0.005077548041291291 -0.014229183663736565 0 -0.0050139235752222865 -0.014270889689003223 0 -0.005077548041291291 -0.014229183663736565 0 -0.0051169270673090085 -0.014222231857355713 0 -0.0050139235752222865 -0.014270889689003223 0 -0.0051169270673090085 -0.014222231857355713 0 -0.0050007239652234067 -0.014303074741274374 0 -0.0052180872756279213 -0.014261272153530987 0 -0.0051169270673090085 -0.014222231857355713 0 -0.0050139235752222865 -0.014270889689003223 0 -0.0050007239652234067 -0.014303074741274374 0 -0.0050007239652234067 -0.014303074741274374 0 -0.0048961110048008427 -0.014354278018496683 0 -0.0049302369843151599 -0.014335290906459344 0 -0.0050139235752222865 -0.014270889689003223 0 -0.0050007239652234067 -0.014303074741274374 0 -0.0049302369843151599 -0.014335290906459344 0 -0.0050007239652234067 -0.014303074741274374 0 -0.0049260579126928191 -0.014365001903198376 0 -0.0048961110048008427 -0.014354278018496683 0 -0.0050007239652234067 -0.014303074741274374 0 -0.0052180872756279213 -0.014261272153530987 0 -0.005172887292963101 -0.014387824131603708 0 -0.0055820347110061563 -0.014286522101352898 0 -0.0052180872756279213 -0.014261272153530987 0 -0.005172887292963101 -0.014387824131603708 0 -0.0051914452893158016 -0.014150301774082637 0 -0.0051169270673090085 -0.014222231857355713 0 -0.0052927099416980976 -0.014107551967701507 0 -0.0051169270673090085 -0.014222231857355713 0 -0.0052180872756279213 -0.014261272153530987 0 -0.0052927099416980976 -0.014107551967701507 0 -0.0055820347110061563 -0.014286522101352898 0 -0.005624038405249848 -0.014048083176928745 0 -0.0052927099416980976 -0.014107551967701507 0 -0.0055820347110061563 -0.014286522101352898 0 -0.0052180872756279213 -0.014261272153530987 0 -0.0052927099416980976 -0.014107551967701507 0 -0.0057748044295022338 -0.014808082751095979 0 -0.005172887292963101 -0.014387824131603708 0 -0.0049844595414288116 -0.014431308270255568 0 -0.0057748044295022338 -0.014808082751095979 0 -0.0055820347110061563 -0.014286522101352898 0 -0.005172887292963101 -0.014387824131603708 0 -0.0051806939287281544 -0.014129987016306536 0 -0.0050163061101341534 -0.014402265555523576 0 -0.0049844595414288116 -0.014431308270255568 0 -0.0051806939287281544 -0.014129987016306536 0 -0.0051499683207163671 -0.01439803124119363 0 -0.0050163061101341534 -0.014402265555523576 0 -0.0055042036986037192 -0.014442979511733471 0 -0.0050501267237770663 -0.014445814164309111 0 -0.0049016425130360124 -0.014420739919316377 0 -0.0049844595414288116 -0.014431308270255568 0 -0.0048531705690402121 -0.014337957650312292 0 -0.0050007239652234067 -0.014303074741274374 0 -0.005172887292963101 -0.014387824131603708 0 -0.0049260579126928191 -0.014365001903198376 0 -0.0049844595414288116 -0.014431308270255568 0 -0.0049260579126928191 -0.014365001903198376 0 -0.0048531705690402121 -0.014337957650312292 0 -0.005172887292963101 -0.014387824131603708 0 -0.0049844595414288116 -0.014431308270255568 0 -0.0049260579126928191 -0.014365001903198376 0 -0.0049260579126928191 -0.014365001903198376 0 -0.0048151803107637963 -0.014381074789941307 0 -0.0048531705690402121 -0.014337957650312292 0 -0.0048151803107637963 -0.014381074789941307 0 -0.0048531705690402121 -0.014337957650312292 0 -0.0047818276116938611 -0.014235272257921996 0 -0.0049016425130360124 -0.014420739919316377 0 -0.0048531705690402121 -0.014337957650312292 0 -0.0047731975870235104 -0.014331643737787175 0 -0.0048531705690402121 -0.014337957650312292 0 -0.0047731975870235104 -0.014331643737787175 0 -0.0047818276116938611 -0.014235272257921996 0 -0.0045197356296629255 -0.014290681068673578 0 -0.0047731975870235104 -0.014331643737787175 0 -0.0047818276116938611 -0.014235272257921996 0 -0.0045197356296629255 -0.014290681068673578 0 -0.0047818276116938611 -0.014235272257921996 0 -0.004170045296307226 -0.013937109506062775 0 -0.0048151803107637963 -0.014381074789941307 0 -0.0047818276116938611 -0.014235272257921996 0 -0.0047485836257813215 -0.014485146082499057 0 -0.0048151803107637963 -0.014381074789941307 0 -0.0047485836257813215 -0.014485146082499057 0 -0.0047982123977567768 -0.014460298608475999 0 -0.0047485836257813215 -0.014485146082499057 0 -0.0047982123977567768 -0.014460298608475999 0 -0.0047008634422790619 -0.014524539351049071 0 -0.0047982123977567768 -0.014460298608475999 0 -0.0048206936623742197 -0.01449221501090941 0 -0.0047008634422790619 -0.014524539351049071 0 -0.0047982123977567768 -0.014460298608475999 0 -0.004859367750081168 -0.014407495817193951 0 -0.0048206936623742197 -0.01449221501090941 0 -0.0048151803107637963 -0.014381074789941307 0 -0.0047982123977567768 -0.014460298608475999 0 -0.004859367750081168 -0.014407495817193951 0 -0.0049260579126928191 -0.014365001903198376 0 -0.0048151803107637963 -0.014381074789941307 0 -0.0048961110048008427 -0.014354278018496683 0 -0.0048151803107637963 -0.014381074789941307 0 -0.0048961110048008427 -0.014354278018496683 0 -0.004859367750081168 -0.014407495817193951 0 -0.0048961110048008427 -0.014354278018496683 0 -0.004859367750081168 -0.014407495817193951 0 -0.0049302369843151599 -0.014335290906459344 0 -0.004859367750081168 -0.014407495817193951 0 -0.0049302369843151599 -0.014335290906459344 0 -0.0048930562231961627 -0.014434433899145279 0 -0.0049302369843151599 -0.014335290906459344 0 -0.0049358554669745201 -0.014380581218547595 0 -0.0048930562231961627 -0.014434433899145279 0 -0.0049358554669745201 -0.014380581218547595 0 -0.0048930562231961627 -0.014434433899145279 0 -0.0049311142400726496 -0.014487534661410211 0 -0.0048930562231961627 -0.014434433899145279 0 -0.0048206936623742197 -0.01449221501090941 0 -0.0048775859875027456 -0.014540627276933744 0 -0.0048206936623742197 -0.01449221501090941 0 -0.0047314551529931484 -0.014569389327934629 0 -0.0048775859875027456 -0.014540627276933744 0 -0.004859367750081168 -0.014407495817193951 0 -0.0048930562231961627 -0.014434433899145279 0 -0.0048206936623742197 -0.01449221501090941 0 -0.0048206936623742197 -0.01449221501090941 0 -0.0047314551529931484 -0.014569389327934629 0 -0.0047008634422790619 -0.014524539351049071 0 -0.0047314551529931484 -0.014569389327934629 0 -0.0045421732994577928 -0.014558549905413441 0 -0.0047008634422790619 -0.014524539351049071 0 -0.0042579138152649696 -0.014529913719370598 0 -0.0045421732994577928 -0.014558549905413441 0 -0.0043657506460779791 -0.014618963623337521 0 -0.0042579138152649696 -0.014529913719370598 0 -0.0045421732994577928 -0.014558549905413441 0 -0.004503295784521015 -0.014561436166312492 0 -0.004503295784521015 -0.014561436166312492 0 -0.0042604840931678633 -0.01458530393124351 0 -0.0046192259822814725 -0.014679840080661663 0 -0.0042579138152649696 -0.014529913719370598 0 -0.004503295784521015 -0.014561436166312492 0 -0.0042604840931678633 -0.01458530393124351 0 -0.004503295784521015 -0.014561436166312492 0 -0.0046506656731230512 -0.014567396896782747 0 -0.0046192259822814725 -0.014679840080661663 0 -0.0045421732994577928 -0.014558549905413441 0 -0.004503295784521015 -0.014561436166312492 0 -0.0047008634422790619 -0.014524539351049071 0 -0.004503295784521015 -0.014561436166312492 0 -0.0046506656731230512 -0.014567396896782747 0 -0.0047008634422790619 -0.014524539351049071 0 -0.0047485836257813215 -0.014485146082499057 0 -0.0046506656731230512 -0.014567396896782747 0 -0.0047008634422790619 -0.014524539351049071 0 -0.0047818276116938611 -0.014235272257921996 0 -0.0038208553100608539 -0.013312814020841446 0 -0.004170045296307226 -0.013937109506062775 0 -0.0047485836257813215 -0.014485146082499057 0 -0.0046506656731230512 -0.014567396896782747 0 -0.0046192259822814725 -0.014679840080661663 0 -0.0047000946712058775 -0.014191331686909479 0 -0.0041703595988263533 -0.014009076320602287 0 -0.0047818276116938611 -0.014235272257921996 0 -0.0047485836257813215 -0.014485146082499057 0 -0.0046192259822814725 -0.014679840080661663 0 -0.0041554140059479024 -0.01419389840124932 0 -0.0045197356296629255 -0.014290681068673578 0 -0.004170045296307226 -0.013937109506062775 0 -0.0041554140059479024 -0.01419389840124932 0 -0.004170045296307226 -0.013937109506062775 0 -0.0039098892991193098 -0.014107170826796023 0 -0.004170045296307226 -0.013937109506062775 0 -0.0029663373734655613 -0.013753400713611259 0 -0.0030304254909536447 -0.01340544826338512 0 -0.004131797036470479 -0.013904058594098876 0 -0.0035076213001907024 -0.013897726299861531 0 -0.0042604840931678633 -0.01458530393124351 0 -0.0046192259822814725 -0.014679840080661663 0 -0.0040190397957569467 -0.014698432745843848 0 -0.0038208553100608539 -0.013312814020841446 0 -0.0030304254909536447 -0.01340544826338512 0 -0.0024348198752070591 -0.013069711325844812 0 -0.0041703595988263533 -0.014009076320602287 0 -0.0032878542512404991 -0.013888199860437706 0 -0.0038208553100608539 -0.013312814020841446 0 -0.004170045296307226 -0.013937109506062775 0 -0.0030304254909536447 -0.01340544826338512 0 -0.0030304254909536447 -0.01340544826338512 0 -0.0024348198752070591 -0.013069711325844812 0 -0.0023105351679235295 -0.012982944432946515 0 -0.0027802479780318309 -0.014234844061887957 0 -0.0035076213001907024 -0.013897726299861531 0 -0.0029663373734655613 -0.013753400713611259 0 -0.0030304254909536447 -0.01340544826338512 0 -0.0023105351679235295 -0.012982944432946515 0 -0.0021513540386862125 -0.013757122327541556 0 -0.0029663373734655613 -0.013753400713611259 0 -0.0023105351679235295 -0.012982944432946515 0 -0.0021513540386862125 -0.013757122327541556 0 -0.0023105351679235295 -0.012982944432946515 0 -0.0018189031785357881 -0.013540512890358411 0 -0.0022995784856961062 -0.012823203758802521 0 -0.0022663864730894734 -0.012471275864873992 0 -0.0024348198752070591 -0.013069711325844812 0 -0.0023105351679235295 -0.012982944432946515 0 -0.003180530712941586 -0.013904747551105486 0 -0.0032878542512404991 -0.013888199860437706 0 -0.0032397769166021963 -0.013914933933229769 0 -0.0040190397957569467 -0.014698432745843848 0 -0.0038173777078504955 -0.014417501441016342 0 -0.003180530712941586 -0.013904747551105486 0 -0.0038173777078504955 -0.014417501441016342 0 -0.003180530712941586 -0.013904747551105486 0 -0.0036402358040673005 -0.014488792661187888 0 -0.0042604840931678633 -0.01458530393124351 0 -0.0040190397957569467 -0.014698432745843848 0 -0.0038173777078504955 -0.014417501441016342 0 -0.0042579138152649696 -0.014529913719370598 0 -0.0042604840931678633 -0.01458530393124351 0 -0.0038173777078504955 -0.014417501441016342 0 -0.0042579138152649696 -0.014529913719370598 0 -0.0038173777078504955 -0.014417501441016342 0 -0.0041724936908433003 -0.014680569039828275 0 -0.0038173777078504955 -0.014417501441016342 0 -0.0037981823400661144 -0.014667941264788703 0 -0.0036402358040673005 -0.014488792661187888 0 -0.0037981823400661144 -0.014667941264788703 0 -0.0041724936908433003 -0.014680569039828275 0 -0.0039188829235059161 -0.014822540412206682 0 -0.0038173777078504955 -0.014417501441016342 0 -0.0037981823400661144 -0.014667941264788703 0 -0.0041724936908433003 -0.014680569039828275 0 -0.0042579138152649696 -0.014529913719370598 0 -0.0041724936908433003 -0.014680569039828275 0 -0.0043657506460779791 -0.014618963623337521 0 -0.0041724936908433003 -0.014680569039828275 0 -0.0042464858739546304 -0.014927256299081539 0 -0.0047273957555973058 -0.014833069250984297 0 -0.0041724936908433003 -0.014680569039828275 0 -0.0039188829235059161 -0.014822540412206682 0 -0.0042464858739546304 -0.014927256299081539 0 -0.0039188829235059161 -0.014822540412206682 0 -0.0042464858739546304 -0.014927256299081539 0 -0.0037575319936301896 -0.014992192109833123 0 -0.0041893209776260728 -0.014999591977320427 0 -0.0042464858739546304 -0.014927256299081539 0 -0.0037575319936301896 -0.014992192109833123 0 -0.0041893209776260728 -0.014999591977320427 0 -0.0046652785972488104 -0.014974526250150031 0 -0.0050853110039253656 -0.014999523701434427 0 -0.0041893209776260728 -0.014999591977320427 0 -0.0042464858739546304 -0.014927256299081539 0 -0.0046652785972488104 -0.014974526250150031 0 -0.0042464858739546304 -0.014927256299081539 0 -0.0046652785972488104 -0.014974526250150031 0 -0.0047273957555973058 -0.014833069250984297 0 -0.0046652785972488104 -0.014974526250150031 0 -0.005280602680954794 -0.014993228271074256 0 -0.0047273957555973058 -0.014833069250984297 0 -0.0046652785972488104 -0.014974526250150031 0 -0.0050853110039253656 -0.014999523701434427 0 -0.005280602680954794 -0.014993228271074256 0 -0.0050853110039253656 -0.014999523701434427 0 -0.005280602680954794 -0.014993228271074256 0 -0.0059782410092685534 -0.014999732244982278 0 -0.005280602680954794 -0.014993228271074256 0 -0.0047273957555973058 -0.014833069250984297 0 -0.0050587586727337576 -0.014768805877286989 0 -0.0047273957555973058 -0.014833069250984297 0 -0.0048443300116288897 -0.014663705054925622 0 -0.0050587586727337576 -0.014768805877286989 0 -0.0047273957555973058 -0.014833069250984297 0 -0.004619697382399153 -0.014660857009990655 0 -0.0048443300116288897 -0.014663705054925622 0 -0.0041724936908433003 -0.014680569039828275 0 -0.0047273957555973058 -0.014833069250984297 0 -0.004619697382399153 -0.014660857009990655 0 -0.0041724936908433003 -0.014680569039828275 0 -0.004619697382399153 -0.014660857009990655 0 -0.0043657506460779791 -0.014618963623337521 0 -0.0045421732994577928 -0.014558549905413441 0 -0.004619697382399153 -0.014660857009990655 0 -0.0043657506460779791 -0.014618963623337521 0 -0.0047314551529931484 -0.014569389327934629 0 -0.0045421732994577928 -0.014558549905413441 0 -0.004619697382399153 -0.014660857009990655 0 -0.0047314551529931484 -0.014569389327934629 0 -0.004619697382399153 -0.014660857009990655 0 -0.0048443300116288897 -0.014663705054925622 0 -0.0048443300116288897 -0.014663705054925622 0 -0.0049668140872777579 -0.014612218629559273 0 -0.0048775859875027456 -0.014540627276933744 0 -0.0047314551529931484 -0.014569389327934629 0 -0.0048443300116288897 -0.014663705054925622 0 -0.0048775859875027456 -0.014540627276933744 0 -0.0049668140872777579 -0.014612218629559273 0 -0.0048775859875027456 -0.014540627276933744 0 -0.0049311142400726496 -0.014487534661410211 0 -0.0048930562231961627 -0.014434433899145279 0 -0.0048775859875027456 -0.014540627276933744 0 -0.0049311142400726496 -0.014487534661410211 0 -0.0049311142400726496 -0.014487534661410211 0 -0.0049361974482709939 -0.014461066201583933 0 -0.0049610081344075461 -0.014543785131298318 0 -0.0049358554669745201 -0.014380581218547595 0 -0.0049311142400726496 -0.014487534661410211 0 -0.0049361974482709939 -0.014461066201583933 0 -0.0049358554669745201 -0.014380581218547595 0 -0.0049361974482709939 -0.014461066201583933 0 -0.0049309210484898437 -0.014422052824233837 0 -0.0049610081344075461 -0.014543785131298318 0 -0.0048626871471337471 -0.014588406893498588 0 -0.0049120825144355314 -0.014508667027018371 0 -0.0049361974482709939 -0.014461066201583933 0 -0.0049610081344075461 -0.014543785131298318 0 -0.0049120825144355314 -0.014508667027018371 0 -0.0049668140872777579 -0.014612218629559273 0 -0.0049311142400726496 -0.014487534661410211 0 -0.0049610081344075461 -0.014543785131298318 0 -0.0049610081344075461 -0.014543785131298318 0 -0.0050399122222868726 -0.014696730293272805 0 -0.0048626871471337471 -0.014588406893498588 0 -0.0049668140872777579 -0.014612218629559273 0 -0.0049610081344075461 -0.014543785131298318 0 -0.0050399122222868726 -0.014696730293272805 0 -0.0050399122222868726 -0.014696730293272805 0 -0.0051697572278900832 -0.014876928549079451 0 -0.0048626871471337471 -0.014588406893498588 0 -0.0050399122222868726 -0.014696730293272805 0 -0.0050587586727337576 -0.014768805877286989 0 -0.0051697572278900832 -0.014876928549079451 0 -0.0058172470719918207 -0.015311152092347829 0 -0.0056132672693015211 -0.014926497838724975 0 -0.0049668140872777579 -0.014612218629559273 0 -0.0050399122222868726 -0.014696730293272805 0 -0.0050587586727337576 -0.014768805877286989 0 -0.0048443300116288897 -0.014663705054925622 0 -0.0049668140872777579 -0.014612218629559273 0 -0.0050587586727337576 -0.014768805877286989 0 -0.005280602680954794 -0.014993228271074256 0 -0.0050587586727337576 -0.014768805877286989 0 -0.0051697572278900832 -0.014876928549079451 0 -0.005280602680954794 -0.014993228271074256 0 -0.0059782410092685534 -0.014999732244982278 0 -0.0051697572278900832 -0.014876928549079451 0 -0.0059804430490054536 -0.014999820920071303 0 -0.0058172470719918207 -0.015311152092347829 0 -0.0064730473208838932 -0.014999982075042077 0 -0.0063726009004383488 -0.015629839996789241 0 -0.0067000662996534108 -0.015366124645480733 0 -0.0059807303291528743 -0.014999997962530584 0 -0.0064730473208838932 -0.014999982075042077 0 -0.0063726009004383488 -0.015629839996789241 0 -0.0067498195101906204 -0.015706856136856275 0 -0.0069767886354616332 -0.0154565199324798 0 -0.0070083224101043359 -0.015872465198438546 0 -0.0067498195101906204 -0.015706856136856275 0 -0.0067000662996534108 -0.015366124645480733 0 -0.0069767886354616332 -0.0154565199324798 0 -0.0063726009004383488 -0.015629839996789241 0 -0.0067498195101906204 -0.015706856136856275 0 -0.0067000662996534108 -0.015366124645480733 0 -0.0069653921593657965 -0.014999940780402059 0 -0.007036353492898861 -0.015680224778277432 0 -0.006965322916786647 -0.014999998792788757 0 -0.0067000662996534108 -0.015366124645480733 0 -0.0069767886354616332 -0.0154565199324798 0 -0.0064730473208838932 -0.014999982075042077 0 -0.006965322916786647 -0.014999998792788757 0 -0.0067000662996534108 -0.015366124645480733 0 -0.0077304758046957316 -0.014999976488857668 0 -0.006965484058934766 -0.014999992072425611 0 -0.0073908687955796856 -0.015274895957132065 0 -0.006965484058934766 -0.014999992072425611 0 -0.0073908687955796856 -0.015274895957132065 0 -0.0070481198391748904 -0.015470987497834918 0 -0.0074325793527302928 -0.015604222961254171 0 -0.0070481198391748904 -0.015470987497834918 0 -0.0071073273892920388 -0.015913493815870153 0 -0.0057271653755827257 -0.012959427669606361 0 -0.0056796361379928091 -0.012677833791026922 0 -0.0054403284964014585 -0.01288794895533843 0 -0.007036353492898861 -0.015680224778277432 0 -0.0061663377915147687 -0.014626071283610544 0 -0.0073908687955796856 -0.015274895957132065 0 -0.0074325793527302928 -0.015604222961254171 0 -0.0070481198391748904 -0.015470987497834918 0 -0.0066116774704740545 -0.014099147161570806 0 -0.0061663377915147687 -0.014626071283610544 0 -0.0061663377915147687 -0.014626071283610544 0 -0.0051726876129052721 -0.013566295260570026 0 -0.0054403284964014585 -0.01288794895533843 0 -0.0054179559441099989 -0.013336570275893104 0 -0.0056127715928833803 -0.013139113300477213 0 -0.0057271653755827257 -0.012959427669606361 0 -0.0054403284964014585 -0.01288794895533843 0 -0.0056127715928833803 -0.013139113300477213 0 -0.0051494540725967606 -0.014397576764893101 0 -0.0052417143956436825 -0.014295378273768165 0 -0.0051742740875352347 -0.014259302181407602 0 -0.0067498195101906204 -0.015706856136856275 0 -0.0070083224101043359 -0.015872465198438546 0 -0.0066916539926465098 -0.01618415203028277 0 -0.0063726009004383488 -0.015629839996789241 0 -0.0067498195101906204 -0.015706856136856275 0 -0.0066916539926465098 -0.01618415203028277 0 -0.0061663377915147687 -0.014626071283610544 0 -0.0056132672693015211 -0.014926497838724975 0 -0.0052417143956436825 -0.014295378273768165 0 -0.0051742740875352347 -0.014259302181407602 0 -0.0051726548998622269 -0.014192655782943056 0 -0.0056132672693015211 -0.014926497838724975 0 -0.0050352239420776226 -0.01417711426990907 0 -0.0048920070500429744 -0.01452879496949799 0 -0.0049120825144355314 -0.014508667027018371 0 -0.0049309210484898437 -0.014422052824233837 0 -0.0056132672693015211 -0.014926497838724975 0 -0.0053160835563455704 -0.014864780968283847 0 -0.0049529421382350867 -0.014353911383346017 0 -0.0049309210484898437 -0.014422052824233837 0 -0.004933076103869935 -0.014349126833659014 0 -0.0049529421382350867 -0.014353911383346017 0 -0.0049358554669745201 -0.014380581218547595 0 -0.0049309210484898437 -0.014422052824233837 0 -0.0048920070500429744 -0.01452879496949799 0 -0.0049309210484898437 -0.014422052824233837 0 -0.004933076103869935 -0.014349126833659014 0 -0.0049361974482709939 -0.014461066201583933 0 -0.0049120825144355314 -0.014508667027018371 0 -0.0049309210484898437 -0.014422052824233837 0 -0.0051494540725967606 -0.014397576764893101 0 -0.0051742740875352347 -0.014259302181407602 0 -0.0051164319713362973 -0.014207795083538701 0 -0.0051742740875352347 -0.014259302181407602 0 -0.0051726548998622269 -0.014192655782943056 0 -0.0051164319713362973 -0.014207795083538701 0 -0.0056743918768673808 -0.013366104071311179 0 -0.0055940394634002759 -0.013529857723564619 0 -0.0054179559441099989 -0.013336570275893104 0 -0.0056743918768673808 -0.013366104071311179 0 -0.0054179559441099989 -0.013336570275893104 0 -0.0056127715928833803 -0.013139113300477213 0 -0.003583364705333473 -0.013279143848855432 0 -0.0038755549073161331 -0.013680821333233039 0 -0.0040019136365211537 -0.013619094148843384 0 -0.0035255372850632257 -0.012691916010719844 0 -0.003583364705333473 -0.013279143848855432 0 -0.0033719051707360899 -0.011977707903183548 0 -0.0035932054282571992 -0.013219069144498399 0 -0.0034242019524401081 -0.012813071083919186 0 -0.0035255372850632257 -0.012691916010719844 0 -0.003583364705333473 -0.013279143848855432 0 -0.003422906851190983 -0.013466739279359945 0 -0.0015358323770741044 -0.0086835428366519411 0 -0.0015489024824282692 -0.0083541266444876975 0 -0.0017336789617742783 -0.007996751388700471 0 -0.0025988713281594731 -0.01068141084044363 0 -0.0026160918173839783 -0.01051888387165969 0 -0.003583364705333473 -0.013279143848855432 0 -0.0035024526029259618 -0.013687697088571765 0 -0.003422906851190983 -0.013466739279359945 0 -0.003583364705333473 -0.013279143848855432 0 -0.0035024526029259618 -0.013687697088571765 0 -0.0037072144217702211 -0.013825214989787905 0 -0.003583364705333473 -0.013279143848855432 0 -0.0038755549073161331 -0.013680821333233039 0 -0.0037072144217702211 -0.013825214989787905 0 -0.0038755549073161331 -0.013680821333233039 0 -0.0037072144217702211 -0.013825214989787905 0 -0.0039083888231803499 -0.01390566069204314 0 -0.0038755549073161331 -0.013680821333233039 0 -0.0039958741972447682 -0.013759916991118327 0 -0.0040019136365211537 -0.013619094148843384 0 -0.0038755549073161331 -0.013680821333233039 0 -0.0039958741972447682 -0.013759916991118327 0 -0.0039083888231803499 -0.01390566069204314 0 -0.0039958741972447682 -0.013759916991118327 0 -0.0040459848215184035 -0.013738973730869379 0 -0.0040019136365211537 -0.013619094148843384 0 -0.0040459516917459261 -0.013825972918348308 0 -0.0040459848215184035 -0.013738973730869379 0 -0.0040709918703325035 -0.013794151473196617 0 -0.0039958741972447682 -0.013759916991118327 0 -0.0040459516917459261 -0.013825972918348308 0 -0.0040459848215184035 -0.013738973730869379 0 -0.0039958741972447682 -0.013759916991118327 0 -0.0040459516917459261 -0.013825972918348308 0 -0.0040014466446975901 -0.013890680942944758 0 -0.0040459848215184035 -0.013738973730869379 0 -0.0040019136365211537 -0.013619094148843384 0 -0.0040728879072741671 -0.01373988188662722 0 -0.0034242019524401081 -0.012813071083919186 0 -0.0047045578117260968 -0.012618334215678132 0 -0.0033719051707360899 -0.011977707903183548 0 -0.0033282417641472706 -0.011489660777563766 0 -0.0036294633859220724 -0.011140245676502956 0 -0.0035255372850632257 -0.012691916010719844 0 -0.0033719051707360899 -0.011977707903183548 0 -0.0033282417641472706 -0.011489660777563766 0 -0.0015358323770741044 -0.0086835428366519411 0 -0.0023181381714419817 -0.0093219150495173226 0 -0.0018782723576602105 -0.0086615150596039553 0 -0.0025988713281594731 -0.01068141084044363 0 -0.002948922546510534 -0.010388231329648787 0 -0.0023181381714419817 -0.0093219150495173226 0 -0.0018782723576602105 -0.0086615150596039553 0 -0.0029641493225538947 -0.0094894418558941328 0 -0.00087645364998044123 -0.008071900897839792 0 -0.00047900495896096418 -0.0082304743635176047 0 0.00096223298357254626 -0.0077414589206106889 0 0.0018702677780340403 -0.007827469151293228 0 0.0017804894012055563 -0.0069514397177358562 0 0.00096223298357254626 -0.0077414589206106889 0 5.5924260891022621e-05 -0.0073984922758374714 0 0.0017804894012055563 -0.0069514397177358562 0 5.1060557411487026e-05 -0.0085012113638323668 0 0.00096223298357254626 -0.0077414589206106889 0 5.5924260891022621e-05 -0.0073984922758374714 0 -0.00086545572794005611 -0.0086001386964765919 0 5.1060557411487026e-05 -0.0085012113638323668 0 5.5924260891022621e-05 -0.0073984922758374714 0 -0.00086545572794005611 -0.0086001386964765919 0 5.5924260891022621e-05 -0.0073984922758374714 0 -0.0013584614095399606 -0.0082836904969869271 0 -0.00087645364998044123 -0.008071900897839792 0 -0.0012711805950983081 -0.0082287340826945107 0 -0.0015358323770741044 -0.0086835428366519411 0 -0.0018782723576602105 -0.0086615150596039553 0 -0.0013584614095399606 -0.0082836904969869271 0 -0.0015489024824282692 -0.0083541266444876975 0 -0.0013584614095399606 -0.0082836904969869271 0 -0.0017834353078637238 -0.0083787797818289725 0 -0.0015358323770741044 -0.0086835428366519411 0 -0.0015489024824282692 -0.0083541266444876975 0 -0.0013584614095399606 -0.0082836904969869271 0 -0.00086545572794005611 -0.0086001386964765919 0 -0.0013584614095399606 -0.0082836904969869271 0 -0.001535922511211416 -0.0087412343940390363 0 -0.0013584614095399606 -0.0082836904969869271 0 -0.001535922511211416 -0.0087412343940390363 0 -0.0017834353078637238 -0.0083787797818289725 0 -0.001535922511211416 -0.0087412343940390363 0 -0.0020144826087733678 -0.0088940741191092416 0 -0.0017834353078637238 -0.0083787797818289725 0 -0.0033258058071663362 -0.0099622223516536157 0 -0.0024399774451423772 -0.009480895778111573 0 -0.0027682385705382439 -0.0083754295383275112 0 -0.0024399774451423772 -0.009480895778111573 0 -0.0020144826087733678 -0.0088940741191092416 0 -0.0027682385705382439 -0.0083754295383275112 0 -0.0020144826087733678 -0.0088940741191092416 0 -0.0017834353078637238 -0.0083787797818289725 0 -0.0027682385705382439 -0.0083754295383275112 0 -0.0017834353078637238 -0.0083787797818289725 0 -0.0027682385705382439 -0.0083754295383275112 0 -0.0022712683033500633 -0.0080633792641342465 0 -0.0026428216797894023 -0.011391078374404484 0 -0.0033120072859673059 -0.01124702953210934 0 -0.0032204736892483339 -0.01270241325316759 0 -0.0023105351679235295 -0.012982944432946515 0 -0.0026428216797894023 -0.011391078374404484 0 -0.0032204736892483339 -0.01270241325316759 0 -0.0033763212047485378 -0.010184296925667764 0 -0.0036125551160235926 -0.010412009997832986 0 -0.0033258058071663362 -0.0099622223516536157 0 -0.0033120072859673059 -0.01124702953210934 0 -0.0044525918960258417 -0.012921468675627476 0 -0.0033120072859673059 -0.01124702953210934 0 -0.0044525918960258417 -0.012921468675627476 0 -0.0032204736892483339 -0.01270241325316759 0 -0.0044525918960258417 -0.012921468675627476 0 -0.0032204736892483339 -0.01270241325316759 0 -0.003946293090144588 -0.013804032129977955 0 -0.0023105351679235295 -0.012982944432946515 0 -0.0032204736892483339 -0.01270241325316759 0 -0.003180530712941586 -0.013904747551105486 0 -0.0032204736892483339 -0.01270241325316759 0 -0.003180530712941586 -0.013904747551105486 0 -0.003946293090144588 -0.013804032129977955 0 -0.003180530712941586 -0.013904747551105486 0 -0.0036715050305570832 -0.014245529360073221 0 -0.003946293090144588 -0.013804032129977955 0 -0.003180530712941586 -0.013904747551105486 0 -0.0036715050305570832 -0.014245529360073221 0 -0.0036402358040673005 -0.014488792661187888 0 -0.0044525918960258417 -0.012921468675627476 0 -0.003946293090144588 -0.013804032129977955 0 -0.0042139076957536476 -0.014474715987657125 0 -0.0036125551160235926 -0.010412009997832986 0 -0.0029669636345119343 -0.012123477259079165 0 -0.0036715050305570832 -0.014245529360073221 0 -0.003946293090144588 -0.013804032129977955 0 -0.0039069187249169551 -0.01431893029112387 0 -0.003946293090144588 -0.013804032129977955 0 -0.0042139076957536476 -0.014474715987657125 0 -0.0039069187249169551 -0.01431893029112387 0 -0.0040696666552837747 -0.014466914477697356 0 -0.0038378060431712062 -0.014617734859853342 0 -0.0037621416851736072 -0.014702417601109918 0 -0.0029669636345119343 -0.012123477259079165 0 -0.0034782480640643018 -0.014689360111522064 0 -0.0042139076957536476 -0.014474715987657125 0 -0.0040419837501891633 -0.014478444624730418 0 -0.0039069187249169551 -0.01431893029112387 0 -0.0040696666552837747 -0.014466914477697356 0 -0.0040419837501891633 -0.014478444624730418 0 -0.0038378060431712062 -0.014617734859853342 0 -0.0029669636345119343 -0.012123477259079165 0 -0.0031696095212318536 -0.012320713221097927 0 -0.0038378060431712062 -0.014617734859853342 0 -0.0037717883159710561 -0.014497301042621237 0 -0.0037201125707056384 -0.014669288840530315 0 -0.0040419837501891633 -0.014478444624730418 0 -0.0038378060431712062 -0.014617734859853342 0 -0.0037717883159710561 -0.014497301042621237 0 -0.0036715050305570832 -0.014245529360073221 0 -0.0039069187249169551 -0.01431893029112387 0 -0.0037717883159710561 -0.014497301042621237 0 -0.0040419837501891633 -0.014478444624730418 0 -0.0039069187249169551 -0.01431893029112387 0 -0.0037717883159710561 -0.014497301042621237 0 -0.0036715050305570832 -0.014245529360073221 0 -0.0037717883159710561 -0.014497301042621237 0 -0.0036402358040673005 -0.014488792661187888 0 -0.0037717883159710561 -0.014497301042621237 0 -0.0036402358040673005 -0.014488792661187888 0 -0.0037201125707056384 -0.014669288840530315 0 -0.0017834353078637238 -0.0083787797818289725 0 -0.0017336789617742783 -0.007996751388700471 0 -0.0022712683033500633 -0.0080633792641342465 0 -0.0015489024824282692 -0.0083541266444876975 0 -0.0017834353078637238 -0.0083787797818289725 0 -0.0017336789617742783 -0.007996751388700471 0 -0.0025866733378245195 -0.0076643806471434249 0 -0.0017336789617742783 -0.007996751388700471 0 -0.0022712683033500633 -0.0080633792641342465 0 -0.0027682385705382439 -0.0083754295383275112 0 -0.0025866733378245195 -0.0076643806471434249 0 -0.0022712683033500633 -0.0080633792641342465 0 -0.0029669636345119343 -0.012123477259079165 0 -0.0026160918173839783 -0.01051888387165969 0 -0.0030621497950618576 -0.013681332922431528 0 -0.003422906851190983 -0.013466739279359945 0 -0.0033528432180829461 -0.013827991141999436 0 -0.0030621497950618576 -0.013681332922431528 0 -0.0033528432180829461 -0.013827991141999436 0 -0.0031158020570789908 -0.014047045611070411 0 -0.0035024526029259618 -0.013687697088571765 0 -0.003422906851190983 -0.013466739279359945 0 -0.0033528432180829461 -0.013827991141999436 0 -0.0033528432180829461 -0.013827991141999436 0 -0.0035453600959607975 -0.014053778719896918 0 -0.0033930109880282583 -0.014171642056368214 0 -0.0035024526029259618 -0.013687697088571765 0 -0.0033528432180829461 -0.013827991141999436 0 -0.0035453600959607975 -0.014053778719896918 0 -0.0035453600959607975 -0.014053778719896918 0 -0.0033930109880282583 -0.014171642056368214 0 -0.0034848904878572069 -0.014407691994652784 0 -0.0033528432180829461 -0.013827991141999436 0 -0.0033930109880282583 -0.014171642056368214 0 -0.0031158020570789908 -0.014047045611070411 0 -0.0033930109880282583 -0.014171642056368214 0 -0.0031158020570789908 -0.014047045611070411 0 -0.0034083405720545597 -0.014599489439434407 0 -0.0034782480640643018 -0.014689360111522064 0 -0.0034106082511081294 -0.01441081112609008 0 -0.0034083405720545597 -0.014599489439434407 0 -0.0034848904878572069 -0.014407691994652784 0 -0.0034971544021599925 -0.014657221523644846 0 -0.0033930109880282583 -0.014171642056368214 0 -0.0034083405720545597 -0.014599489439434407 0 -0.0034848904878572069 -0.014407691994652784 0 -0.0035453600959607975 -0.014053778719896918 0 -0.0034848904878572069 -0.014407691994652784 0 -0.0036100688722671441 -0.014317305429051307 0 -0.0034848904878572069 -0.014407691994652784 0 -0.0034971544021599925 -0.014657221523644846 0 -0.0036100688722671441 -0.014317305429051307 0 -0.0037201125707056384 -0.014669288840530315 0 -0.0036921736693330746 -0.014724246792965185 0 -0.0036721454087489656 -0.014807899618524236 0 -0.0037981823400661144 -0.014667941264788703 0 -0.0037201125707056384 -0.014669288840530315 0 -0.0036721454087489656 -0.014807899618524236 0 -0.0037981823400661144 -0.014667941264788703 0 -0.0036402358040673005 -0.014488792661187888 0 -0.0037201125707056384 -0.014669288840530315 0 -0.0037621416851736072 -0.014702417601109918 0 -0.0034083405720545597 -0.014599489439434407 0 -0.0036921736693330746 -0.014724246792965185 0 -0.0038378060431712062 -0.014617734859853342 0 -0.0037201125707056384 -0.014669288840530315 0 -0.0036921736693330746 -0.014724246792965185 0 -0.0038378060431712062 -0.014617734859853342 0 -0.0037621416851736072 -0.014702417601109918 0 -0.0036921736693330746 -0.014724246792965185 0 -0.0034083405720545597 -0.014599489439434407 0 -0.0036721454087489656 -0.014807899618524236 0 -0.0032763051966115545 -0.015050039880983822 0 -0.0034083405720545597 -0.014599489439434407 0 -0.0036921736693330746 -0.014724246792965185 0 -0.0036721454087489656 -0.014807899618524236 0 -0.0037981823400661144 -0.014667941264788703 0 -0.0039188829235059161 -0.014822540412206682 0 -0.0036721454087489656 -0.014807899618524236 0 -0.0039188829235059161 -0.014822540412206682 0 -0.0036721454087489656 -0.014807899618524236 0 -0.0037575319936301896 -0.014992192109833123 0 -0.0036721454087489656 -0.014807899618524236 0 -0.0037575319936301896 -0.014992192109833123 0 -0.0032763051966115545 -0.015050039880983822 0 -0.0032763051966115545 -0.015050039880983822 0 -0.0032944807129626891 -0.014999621827148911 0 -0.0023985583334513129 -0.014999708924346924 0 -0.0037575319936301896 -0.014992192109833123 0 -0.0032763051966115545 -0.015050039880983822 0 -0.0032944807129626891 -0.014999621827148911 0 -0.0041893209776260728 -0.014999591977320427 0 -0.0037575319936301896 -0.014992192109833123 0 -0.0032944807129626891 -0.014999621827148911 0 -0.0028853814513326785 -0.015043353360121404 0 -0.0027276582064738775 -0.014925983885168701 0 -0.0034083405720545597 -0.014599489439434407 0 -0.0032763051966115545 -0.015050039880983822 0 -0.0034971544021599925 -0.014657221523644846 0 -0.0032152063043722361 -0.015051479218319714 0 -0.0028853814513326785 -0.015043353360121404 0 -0.0032763051966115545 -0.015050039880983822 0 -0.0023047093774820268 -0.01544730701433379 0 -0.0023985583334513129 -0.014999708924346924 0 -0.0023047093774820268 -0.01544730701433379 0 -0.0023985583334513129 -0.014999708924346924 0 -0.0018875257630623632 -0.015000117193058982 0 -0.0023047093774820268 -0.01544730701433379 0 -0.0018875257630623632 -0.015000117193058982 0 -0.0017164004523071593 -0.015439726455171807 0 -0.0018875257630623632 -0.015000117193058982 0 -0.0014876180004425412 -0.015175966837007079 0 -0.0017164004523071593 -0.015439726455171807 0 -0.0018762312494743443 -0.015012933394548782 0 -0.0012504573628914955 -0.015192274684965892 0 -0.0018871956111478618 -0.015000000204281881 0 -0.0015029022370739143 -0.014999999139728637 0 -0.0010693969086823249 -0.015229110229681844 0 -0.0015029022370739143 -0.014999999139728637 0 -0.0010693969086823249 -0.015229110229681844 0 -0.00060733755682316657 -0.014999998109839112 0 -0.0014876180004425412 -0.015175966837007079 0 -0.0017164004523071593 -0.015439726455171807 0 -0.0013758726825958774 -0.015420527169093156 0 -0.0036975028789603629 -0.014406231591857156 0 -0.0038554055640675623 -0.014126789339797304 0 -0.0039139305949054161 -0.01420447459832286 0 -0.0027276582064738775 -0.014925983885168701 0 -0.0025328807711869441 -0.014815927603527923 0 -0.0034971544021599925 -0.014657221523644846 0 -0.0036975028789603629 -0.014406231591857156 0 -0.0036100688722671441 -0.014317305429051307 0 -0.0035453600959607975 -0.014053778719896918 0 -0.0036100688722671441 -0.014317305429051307 0 -0.0037353711884392186 -0.014106008249902898 0 -0.0036975028789603629 -0.014406231591857156 0 -0.0036100688722671441 -0.014317305429051307 0 -0.0037353711884392186 -0.014106008249902898 0 -0.0036975028789603629 -0.014406231591857156 0 -0.0038554055640675623 -0.014126789339797304 0 -0.0037353711884392186 -0.014106008249902898 0 -0.0038554055640675623 -0.014126789339797304 0 -0.0037353711884392186 -0.014106008249902898 0 -0.0039083888231803499 -0.01390566069204314 0 -0.0037353711884392186 -0.014106008249902898 0 -0.0037072144217702211 -0.013825214989787905 0 -0.0039083888231803499 -0.01390566069204314 0 -0.0035024526029259618 -0.013687697088571765 0 -0.0035453600959607975 -0.014053778719896918 0 -0.0037072144217702211 -0.013825214989787905 0 -0.0035453600959607975 -0.014053778719896918 0 -0.0037353711884392186 -0.014106008249902898 0 -0.0037072144217702211 -0.013825214989787905 0 -0.0040407679881862791 -0.013939028875020491 0 -0.0040014466446975901 -0.013890680942944758 0 -0.0039787183406499067 -0.014020194871604483 0 -0.0040459516917459261 -0.013825972918348308 0 -0.0040407679881862791 -0.013939028875020491 0 -0.0040014466446975901 -0.013890680942944758 0 -0.0039958741972447682 -0.013759916991118327 0 -0.0040014466446975901 -0.013890680942944758 0 -0.0039083888231803499 -0.01390566069204314 0 -0.0040014466446975901 -0.013890680942944758 0 -0.0039083888231803499 -0.01390566069204314 0 -0.0039787183406499067 -0.014020194871604483 0 -0.0038554055640675623 -0.014126789339797304 0 -0.0039083888231803499 -0.01390566069204314 0 -0.0039787183406499067 -0.014020194871604483 0 -0.0038554055640675623 -0.014126789339797304 0 -0.0039787183406499067 -0.014020194871604483 0 -0.0039139305949054161 -0.01420447459832286 0 -0.0039787183406499067 -0.014020194871604483 0 -0.0040406317920983533 -0.014055081039231344 0 -0.0039139305949054161 -0.01420447459832286 0 -0.0040407679881862791 -0.013939028875020491 0 -0.0039787183406499067 -0.014020194871604483 0 -0.0040406317920983533 -0.014055081039231344 0 -0.0010770765517450255 -0.015429370277811884 0 -0.0013758726825958774 -0.015420527169093156 0 -0.0011601453925322736 -0.015256217920297724 0 -0.0030432083083757901 -0.014803244601063045 0 -0.0025328807711869441 -0.014815927603527923 0 -0.0014876180004425412 -0.015175966837007079 0 -0.0013758726825958774 -0.015420527169093156 0 -0.0011601453925322736 -0.015256217920297724 0 -0.0012504573628914955 -0.015192274684965892 0 -0.00086231233302151071 -0.015394459033394956 0 -0.0010693969086823249 -0.015229110229681844 0 -0.00060733755682316657 -0.014999998109839112 0 -0.00025163339149922076 -0.015424992308720804 0 -0.00060733755682316657 -0.014999998109839112 0 -0.00025163339149922076 -0.015424992308720804 0 0.00028819007410403337 -0.014999988586437252 0 -0.00025163339149922076 -0.015424992308720804 0 0.00028819007410403337 -0.014999988586437252 0 0.00055859893741986287 -0.015613615647495532 0 0.00028848079015717702 -0.015000847606931577 0 0.00063312866727330979 -0.014950538796696321 0 0.00028826711994367076 -0.014999924816080663 0 0.00085613982110416037 -0.015352492756758734 0 0.00058522585197862305 -0.015590541055859377 0 0.00028826711994367076 -0.014999924816080663 0 0.00088792647522640145 -0.015000098882909462 0 0.00085613982110416037 -0.015352492756758734 0 0.00085613982110416037 -0.015352492756758734 0 0.00058522585197862305 -0.015590541055859377 0 0.0010642453092130162 -0.01569963327478742 0 0.00063312866727330979 -0.014950538796696321 0 0.0019898707139874689 -0.014575594676062918 0 0.0021454664257405053 -0.013258024912463412 0 0.0027424439901629141 -0.013704797456744055 0 0.0029531260484529343 -0.013454060695507886 0 0.0021454664257405053 -0.013258024912463412 0 0.0027424439901629141 -0.013704797456744055 0 0.0024006063147601984 -0.013830998100658926 0 0.00063312866727330979 -0.014950538796696321 0 -0.0001212933271429364 -0.013926509003107429 0 -0.0010770765517450255 -0.015429370277811884 0 -0.00082195238531376812 -0.015313916407202602 0 -0.00076023963166691898 -0.01544492580679491 0 -0.0010770765517450255 -0.015429370277811884 0 -0.0011601453925322736 -0.015256217920297724 0 -0.00082195238531376812 -0.015313916407202602 0 -0.00086231233302151071 -0.015394459033394956 0 0.00063312866727330979 -0.014950538796696321 0 -0.0030432083083757901 -0.014803244601063045 0 -0.0001212933271429364 -0.013926509003107429 0 0.0019407058112513545 -0.015265078274091938 0 0.0014878418247215566 -0.01499946728042327 0 0.0026371339709076085 -0.014873703742840692 0 0.0019407058112513545 -0.015265078274091938 0 0.0013980319916183531 -0.015300705409798721 0 0.001685551985374945 -0.015508063850618252 0 0.0019407058112513545 -0.015265078274091938 0 0.0014878418247215566 -0.01499946728042327 0 0.0013980319916183531 -0.015300705409798721 0 0.00088792647522640145 -0.015000098882909462 0 0.0013980319916183531 -0.015300705409798721 0 0.0011071508569450079 -0.015388597862161705 0 0.00088792647522640145 -0.015000098882909462 0 0.0014878418247215566 -0.01499946728042327 0 0.0013980319916183531 -0.015300705409798721 0 0.0013980319916183531 -0.015300705409798721 0 0.0011071508569450079 -0.015388597862161705 0 0.001363594680795805 -0.015540466960480569 0 0.00088792647522640145 -0.015000098882909462 0 0.00085613982110416037 -0.015352492756758734 0 0.0011071508569450079 -0.015388597862161705 0 0.0019898707139874689 -0.014575594676062918 0 0.0034694741666708895 -0.014310636974991344 0 0.0010642453092130162 -0.01569963327478742 0 0.001363594680795805 -0.015540466960480569 0 0.0015956255775220977 -0.015828780470855619 0 0.0027424439901629141 -0.013704797456744055 0 0.0029531260484529343 -0.013454060695507886 0 0.0036995129889173125 -0.013649636909391716 0 0.0029548986454644584 -0.013619103659827237 0 0.0034694741666708895 -0.014310636974991344 0 0.0011071508569450079 -0.015388597862161705 0 0.0010642453092130162 -0.01569963327478742 0 0.001363594680795805 -0.015540466960480569 0 0.00085613982110416037 -0.015352492756758734 0 0.0011071508569450079 -0.015388597862161705 0 0.0010642453092130162 -0.01569963327478742 0 0.0034694741666708895 -0.014310636974991344 0 0.0037062819020459744 -0.015071207621771563 0 0.0015956255775220977 -0.015828780470855619 0 0.0020186909437190609 -0.015528629703768381 0 0.0024853157128620403 -0.015714024345380849 0 0.001363594680795805 -0.015540466960480569 0 0.001685551985374945 -0.015508063850618252 0 0.0015956255775220977 -0.015828780470855619 0 0.0013980319916183531 -0.015300705409798721 0 0.001363594680795805 -0.015540466960480569 0 0.001685551985374945 -0.015508063850618252 0 0.001685551985374945 -0.015508063850618252 0 0.0015956255775220977 -0.015828780470855619 0 0.0020186909437190609 -0.015528629703768381 0 0.0019407058112513545 -0.015265078274091938 0 0.001685551985374945 -0.015508063850618252 0 0.0020186909437190609 -0.015528629703768381 0 0.0038369143821764609 -0.013602081429884573 0 0.0039500944036916629 -0.013879304012183277 0 0.0044482023668197751 -0.013832916272854668 0 0.0034694741666708895 -0.014310636974991344 0 0.0048970708411066842 -0.014070194675281098 0 0.0034990213275071574 -0.013643519446155763 0 0.0036293302118688255 -0.014187605940473261 0 0.0041117710986790885 -0.014052497293486482 0 0.0034990213275071574 -0.013643519446155763 0 0.0032605786581231424 -0.014014621815156589 0 0.0036293302118688255 -0.014187605940473261 0 0.0027424439901629141 -0.013704797456744055 0 0.0039500944036916629 -0.013879304012183277 0 0.0024006063147601984 -0.013830998100658926 0 0.0027424439901629141 -0.013704797456744055 0 0.0038369143821764609 -0.013602081429884573 0 0.0039500944036916629 -0.013879304012183277 0 0.0034990213275071574 -0.013643519446155763 0 0.0027488191590524218 -0.013912156577846054 0 0.0020737387440746759 -0.013472607692896885 0 0.0027488191590524218 -0.013912156577846054 0 0.0026426242995356512 -0.014656357378228027 0 0.0020737387440746759 -0.013472607692896885 0 0.0042788345773461401 -0.01375998690543887 0 -0.0001212933271429364 -0.013926509003107429 0 0.0032605786581231424 -0.014014621815156589 0 0.0027488191590524218 -0.013912156577846054 0 0.003275456191241173 -0.014419481606476887 0 0.0034990213275071574 -0.013643519446155763 0 0.0032605786581231424 -0.014014621815156589 0 0.0027488191590524218 -0.013912156577846054 0 0.0027488191590524218 -0.013912156577846054 0 0.0026426242995356512 -0.014656357378228027 0 0.003275456191241173 -0.014419481606476887 0 0.0026426242995356512 -0.014656357378228027 0 0.003275456191241173 -0.014419481606476887 0 0.0031685023424970152 -0.014935135028965429 0 0.0032605786581231424 -0.014014621815156589 0 0.003275456191241173 -0.014419481606476887 0 0.0036293302118688255 -0.014187605940473261 0 0.003275456191241173 -0.014419481606476887 0 0.003649523438861641 -0.014737807784243301 0 0.0036293302118688255 -0.014187605940473261 0 0.003275456191241173 -0.014419481606476887 0 0.0034112477928165672 -0.014819947459238815 0 0.003649523438861641 -0.014737807784243301 0 0.003275456191241173 -0.014419481606476887 0 0.0034112477928165672 -0.014819947459238815 0 0.0031685023424970152 -0.014935135028965429 0 0.003649523438861641 -0.014737807784243301 0 0.0036293302118688255 -0.014187605940473261 0 0.0041080189774346434 -0.014618936531041307 0 -0.0040406317920983533 -0.014055081039231344 0 -0.0040945762256414256 -0.013985270410063852 0 -0.0040816530051821951 -0.013961644062493056 0 -0.0040407679881862791 -0.013939028875020491 0 -0.0040406317920983533 -0.014055081039231344 0 -0.0040694265628704396 -0.013945912370891022 0 -0.0040406317920983533 -0.014055081039231344 0 -0.0040694265628704396 -0.013945912370891022 0 -0.0040816530051821951 -0.013961644062493056 0 -0.0010734494211330854 -0.014365495203053816 0 -0.0001212933271429364 -0.013926509003107429 0 -0.0041112745616948944 -0.013857326321233876 0 -0.0040945762256414256 -0.013985270410063852 0 -0.0040931888376758256 -0.013907682667356085 0 -0.0040945762256414256 -0.013985270410063852 0 -0.0040816530051821951 -0.013961644062493056 0 -0.0040931888376758256 -0.013907682667356085 0 -0.0040694265628704396 -0.013945912370891022 0 -0.0040816530051821951 -0.013961644062493056 0 -0.0040931888376758256 -0.013907682667356085 0 -0.0041112745616948944 -0.013857326321233876 0 -0.0040931888376758256 -0.013907682667356085 0 -0.0040839979821059207 -0.013841762396518392 0 -0.0040931888376758256 -0.013907682667356085 0 -0.0040839979821059207 -0.013841762396518392 0 -0.0040704736192805624 -0.013878805583034087 0 -0.0040694265628704396 -0.013945912370891022 0 -0.0040931888376758256 -0.013907682667356085 0 -0.0040704736192805624 -0.013878805583034087 0 -0.0040407679881862791 -0.013939028875020491 0 -0.0040694265628704396 -0.013945912370891022 0 -0.0040704736192805624 -0.013878805583034087 0 -0.0040459516917459261 -0.013825972918348308 0 -0.0040407679881862791 -0.013939028875020491 0 -0.0040704736192805624 -0.013878805583034087 0 -0.0040459516917459261 -0.013825972918348308 0 -0.0040704736192805624 -0.013878805583034087 0 -0.0040709918703325035 -0.013794151473196617 0 -0.0040709918703325035 -0.013794151473196617 0 -0.0040728879072741671 -0.01373988188662722 0 -0.0040816645877066815 -0.013793755810594076 0 -0.0040839979821059207 -0.013841762396518392 0 -0.0040704736192805624 -0.013878805583034087 0 -0.0040709918703325035 -0.013794151473196617 0 -0.0040839979821059207 -0.013841762396518392 0 -0.0040709918703325035 -0.013794151473196617 0 -0.0040816645877066815 -0.013793755810594076 0 -0.0040459848215184035 -0.013738973730869379 0 -0.0040709918703325035 -0.013794151473196617 0 -0.0040728879072741671 -0.01373988188662722 0 -0.0040728879072741671 -0.01373988188662722 0 -0.0040804360625018039 -0.013775960590451443 0 -0.0040685503839129134 -0.013753791673988517 0 -0.0047045578117260968 -0.012618334215678132 0 -0.00068409117020841134 -0.010907021472107589 0 -0.0040728879072741671 -0.01373988188662722 0 -0.0040816645877066815 -0.013793755810594076 0 -0.0040804360625018039 -0.013775960590451443 0 -0.0041112745616948944 -0.013857326321233876 0 -0.0040839979821059207 -0.013841762396518392 0 -0.0040816645877066815 -0.013793755810594076 0 -0.0041112745616948944 -0.013857326321233876 0 -0.0040816645877066815 -0.013793755810594076 0 -0.0040804360625018039 -0.013775960590451443 0 -0.0010734494211330854 -0.014365495203053816 0 0.0011939214226272393 -0.013621870227105719 0 -0.0041112745616948944 -0.013857326321233876 0 -0.0040804360625018039 -0.013775960590451443 0 -0.0040775582425317423 -0.013768053255679516 0 0.0026426242995356512 -0.014656357378228027 0 0.0031685023424970152 -0.014935135028965429 0 0.0031512877507613593 -0.015737827852429234 0 0.0031685023424970152 -0.014935135028965429 0 0.0035904668944881403 -0.015219782898979559 0 0.0031512877507613593 -0.015737827852429234 0 0.0034112477928165672 -0.014819947459238815 0 0.003649523438861641 -0.014737807784243301 0 0.0035904668944881403 -0.015219782898979559 0 0.003649523438861641 -0.014737807784243301 0 0.0035904668944881403 -0.015219782898979559 0 0.0041080189774346434 -0.014618936531041307 0 0.003559203366305717 -0.013527511615147099 0 0.0044850419191635 -0.01426277982622863 0 0.0034112477928165672 -0.014819947459238815 0 0.0031685023424970152 -0.014935135028965429 0 0.0035904668944881403 -0.015219782898979559 0 0.003559203366305717 -0.013527511615147099 0 0.0011939214226272393 -0.013621870227105719 0 0.0027919269270569079 -0.011400573503067541 0 0.0028701641110255968 -0.012108446831093498 0 0.002311213783916505 -0.011983789954465978 0 0.0017716406358310019 -0.012483295494038598 0 0.0011939214226272393 -0.013621870227105719 0 0.0024896717924155552 -0.012402974535885307 0 0.0028701641110255968 -0.012108446831093498 0 0.002311213783916505 -0.011983789954465978 0 0.0024896717924155552 -0.012402974535885307 0 0.0028701641110255968 -0.012108446831093498 0 0.0031667290696738926 -0.012653200746114269 0 0.0024896717924155552 -0.012402974535885307 0 0.0022816725139972096 -0.011956006118076543 0 0.0018757490642128515 -0.012461377263951589 0 0.0011939214226272393 -0.013621870227105719 0 -0.00068409117020841134 -0.010907021472107589 0 -0.0040804360625018039 -0.013775960590451443 0 -0.0040775582425317423 -0.013768053255679516 0 -0.0040685503839129134 -0.013753791673988517 0 0.0037483128680012375 -0.0065167495781758974 0 0.0034914659133688818 -0.0070588162046081706 0 0.0032868933854327122 -0.0069743542297034536 0 0.0037483128680012375 -0.0065167495781758974 0 0.0037041172704673992 -0.0070343659028289955 0 0.0034914659133688818 -0.0070588162046081706 0 -0.00068409117020841134 -0.010907021472107589 0 -0.00088475326423688558 -0.0086090741188131134 0 0.0037483128680012375 -0.0065167495781758974 0 0.0040714683443676307 -0.0070189959159224664 0 0.0037041172704673992 -0.0070343659028289955 0 -0.00068409117020841134 -0.010907021472107589 0 0.0046971635762922759 -0.0093553804111076028 0 0.0024896717924155552 -0.012402974535885307 0 0.0018757490642128515 -0.012461377263951589 0 0.0031667290696738926 -0.012653200746114269 0 0.0037483128680012375 -0.0065167495781758974 0 0.0040714683443676307 -0.0070189959159224664 0 0.0047447486027373687 -0.0067239846588358163 0 0.0040714683443676307 -0.0070189959159224664 0 0.0044388862479142347 -0.0074059246829439153 0 0.0047447486027373687 -0.0067239846588358163 0 0.0044388862479142347 -0.0074059246829439153 0 0.004951332993318334 -0.0074838876410233401 0 0.0047164079792051724 -0.0080136255198024735 0 0.0044388862479142347 -0.0074059246829439153 0 0.0037319400838188061 -0.0074123437181476846 0 0.004181534980349959 -0.0077822667655024812 0 0.0040714683443676307 -0.0070189959159224664 0 0.0044388862479142347 -0.0074059246829439153 0 0.0037319400838188061 -0.0074123437181476846 0 0.0037041172704673992 -0.0070343659028289955 0 0.0034828565651234648 -0.0071995598658537562 0 0.0037319400838188061 -0.0074123437181476846 0 0.0034828565651234648 -0.0071995598658537562 0 0.0037319400838188061 -0.0074123437181476846 0 0.0033622291782419208 -0.0073300931421738493 0 0.0037041172704673992 -0.0070343659028289955 0 0.0034828565651234648 -0.0071995598658537562 0 0.0034914659133688818 -0.0070588162046081706 0 0.0034828565651234648 -0.0071995598658537562 0 0.0034914659133688818 -0.0070588162046081706 0 0.0033962582212531526 -0.0070812497849333644 0 0.0040714683443676307 -0.0070189959159224664 0 0.0037041172704673992 -0.0070343659028289955 0 0.0037319400838188061 -0.0074123437181476846 0 0.0037319400838188061 -0.0074123437181476846 0 0.0034482903047880274 -0.0076030364461302955 0 0.0033622291782419208 -0.0073300931421738493 0 0.0037319400838188061 -0.0074123437181476846 0 0.0034482903047880274 -0.0076030364461302955 0 0.0037414414261315899 -0.0078650716451923574 0 0.0028981210535596971 -0.0071627844484178794 0 0.0017804894012055563 -0.0069514397177358562 0 0.0032868933854327122 -0.0069743542297034536 0 0.0034482903047880274 -0.0076030364461302955 0 0.0031954457348077783 -0.0075390942153495868 0 0.0031425366693901662 -0.0079327278111627261 0 0.0031954457348077783 -0.0075390942153495868 0 0.0033622291782419208 -0.0073300931421738493 0 0.0031286568784433645 -0.0073025875648959696 0 0.0034482903047880274 -0.0076030364461302955 0 0.0031954457348077783 -0.0075390942153495868 0 0.0033622291782419208 -0.0073300931421738493 0 0.0033622291782419208 -0.0073300931421738493 0 0.0032321192149236898 -0.0071850926390824481 0 0.0033348900407889456 -0.0071499101137299931 0 0.0034828565651234648 -0.0071995598658537562 0 0.0033622291782419208 -0.0073300931421738493 0 0.0033348900407889456 -0.0071499101137299931 0 0.0033622291782419208 -0.0073300931421738493 0 0.0031286568784433645 -0.0073025875648959696 0 0.0032321192149236898 -0.0071850926390824481 0 0.0031286568784433645 -0.0073025875648959696 0 0.0032321192149236898 -0.0071850926390824481 0 0.003146483733093371 -0.0071280783296424613 0 0.003146483733093371 -0.0071280783296424613 0 0.0028981210535596971 -0.0071627844484178794 0 0.0032868933854327122 -0.0069743542297034536 0 0.0032321192149236898 -0.0071850926390824481 0 0.003146483733093371 -0.0071280783296424613 0 0.0032598112794378141 -0.007091524622420701 0 0.003146483733093371 -0.0071280783296424613 0 0.0032598112794378141 -0.007091524622420701 0 0.0032868933854327122 -0.0069743542297034536 0 0.0034914659133688818 -0.0070588162046081706 0 0.0033962582212531526 -0.0070812497849333644 0 0.0032868933854327122 -0.0069743542297034536 0 0.0032598112794378141 -0.007091524622420701 0 0.0033962582212531526 -0.0070812497849333644 0 0.0032868933854327122 -0.0069743542297034536 0 0.0032598112794378141 -0.007091524622420701 0 0.0033962582212531526 -0.0070812497849333644 0 0.0033348900407889456 -0.0071499101137299931 0 0.0034828565651234648 -0.0071995598658537562 0 0.0033962582212531526 -0.0070812497849333644 0 0.0033348900407889456 -0.0071499101137299931 0 0.0032321192149236898 -0.0071850926390824481 0 0.0032598112794378141 -0.007091524622420701 0 0.0033348900407889456 -0.0071499101137299931 0 0.0028981210535596971 -0.0071627844484178794 0 0.0028899150845881796 -0.0075205339968255581 0 0.0024330828465634262 -0.0074392201053899033 0 0.0031286568784433645 -0.0073025875648959696 0 0.003146483733093371 -0.0071280783296424613 0 0.0028981210535596971 -0.0071627844484178794 0 0.0031286568784433645 -0.0073025875648959696 0 0.0028981210535596971 -0.0071627844484178794 0 0.0028899150845881796 -0.0075205339968255581 0 0.0031954457348077783 -0.0075390942153495868 0 0.0028899150845881796 -0.0075205339968255581 0 0.0031425366693901662 -0.0079327278111627261 0 0.0031954457348077783 -0.0075390942153495868 0 0.0031286568784433645 -0.0073025875648959696 0 0.0028899150845881796 -0.0075205339968255581 0 0.0028981210535596971 -0.0071627844484178794 0 0.0024330828465634262 -0.0074392201053899033 0 0.0017804894012055563 -0.0069514397177358562 0 0.0024330828465634262 -0.0074392201053899033 0 0.0018702677780340403 -0.007827469151293228 0 0.0025962653374167178 -0.0077813277726988877 0 0.0028899150845881796 -0.0075205339968255581 0 0.0024330828465634262 -0.0074392201053899033 0 0.0025962653374167178 -0.0077813277726988877 0 0.0024330828465634262 -0.0074392201053899033 0 0.0018702677780340403 -0.007827469151293228 0 0.0017804894012055563 -0.0069514397177358562 0 -0.00047900495896096418 -0.0082304743635176047 0 -0.00088475326423688558 -0.0086090741188131134 0 -0.0029641493225538947 -0.0094894418558941328 0 -0.0037267426589185277 -0.010186102904294801 0 -0.0044419064111508554 -0.010243083826149621 0 -0.0033282417641472706 -0.011489660777563766 0 -0.0036294633859220724 -0.011140245676502956 0 -0.0037267426589185277 -0.010186102904294801 0 -0.002948922546510534 -0.010388231329648787 0 -0.0037752416808558386 -0.010161402698242908 0 -0.0023181381714419817 -0.0093219150495173226 0 -0.0029641493225538947 -0.0094894418558941328 0 -0.0037267426589185277 -0.010186102904294801 0 -0.0036294633859220724 -0.011140245676502956 0 -0.0037267426589185277 -0.010186102904294801 0 -0.0044419064111508554 -0.010243083826149621 0 -0.0036294633859220724 -0.011140245676502956 0 -0.0049100250018965612 -0.010878670018950808 0 -0.0044419064111508554 -0.010243083826149621 0 0.0054591016519890392 -0.010492362518856657 0 0.0044619796088126544 -0.014807177477819389 0 0.0048693847696238066 -0.013553003673541815 0 0.004819489219511806 -0.013620211491327201 0 0.00496076072820811 -0.01352883631002187 0 0.0048273806694303662 -0.013585906431851371 0 0.0048693847696238066 -0.013553003673541815 0 0.004819489219511806 -0.013620211491327201 0 0.0048273806694303662 -0.013585906431851371 0 0.004819489219511806 -0.013620211491327201 0 0.0047741343670109583 -0.013563974170111733 0 0.0054591016519890392 -0.010492362518856657 0 0.0046574497812894976 -0.011848224636637726 0 0.0049642730875882213 -0.012996060941835872 0 0.0046574497812894976 -0.011848224636637726 0 0.0048273806694303662 -0.013585906431851371 0 0.0048216207545541791 -0.013564909394707159 0 0.0048111833283283542 -0.013561238017387338 0 0.0048273806694303662 -0.013585906431851371 0 0.0048216207545541791 -0.013564909394707159 0 0.0048693847696238066 -0.013553003673541815 0 0.0050077237588907518 -0.013743246388705133 0 0.0046824700555301363 -0.013818254910847214 0 0.00496076072820811 -0.01352883631002187 0 0.0050077237588907518 -0.013743246388705133 0 0.0051347918448001488 -0.013609072970661377 0 0.00496076072820811 -0.01352883631002187 0 0.0050077237588907518 -0.013743246388705133 0 0.0046824700555301363 -0.013818254910847214 0 0.0050515331057037847 -0.014334456736105195 0 0.0054591016519890392 -0.010492362518856657 0 0.0062266261779657097 -0.010782738705026914 0 0.0050077237588907518 -0.013743246388705133 0 0.0054808081222096237 -0.01373662526556471 0 0.0050515331057037847 -0.014334456736105195 0 0.0054591016519890392 -0.010492362518856657 0 0.0061568748460359649 -0.0069131570805576106 0 0.0065847690008349977 -0.0066568224797275413 0 0.0061389905389996691 -0.0072247948918159437 0 0.0067464039370053229 -0.0073977735543082901 0 0.0053724630041153921 -0.007247993078890326 0 0.004951332993318334 -0.0074838876410233401 0 0.0055456121113148689 -0.0078095168573458383 0 0.0059594666728065224 -0.0072551847756373265 0 0.0053724630041153921 -0.007247993078890326 0 0.0055456121113148689 -0.0078095168573458383 0 0.0053724630041153921 -0.007247993078890326 0 0.004951332993318334 -0.0074838876410233401 0 0.0047447486027373687 -0.0067239846588358163 0 0.0044388862479142347 -0.0074059246829439153 0 0.004951332993318334 -0.0074838876410233401 0 0.0047447486027373687 -0.0067239846588358163 0 0.0031667290696738926 -0.012653200746114269 0 0.0043960744263114313 -0.012829108102881145 0 0.0035957953293877585 -0.012116019067803126 0 0.0046971635762922759 -0.0093553804111076028 0 0.0046574497812894976 -0.011848224636637726 0 0.0053724630041153921 -0.007247993078890326 0 0.0047447486027373687 -0.0067239846588358163 0 0.0056224809095915818 -0.0069280424849929023 0 0.0059594666728065224 -0.0072551847756373265 0 0.0053724630041153921 -0.007247993078890326 0 0.0056224809095915818 -0.0069280424849929023 0 0.0046574497812894976 -0.011848224636637726 0 0.0042896364523049828 -0.012912119375271626 0 0.0048216207545541791 -0.013564909394707159 0 0.0048111833283283542 -0.013561238017387338 0 0.0048151336125226898 -0.013573694811281232 0 0.0048111833283283542 -0.013561238017387338 0 0.0048151336125226898 -0.013573694811281232 0 0.0048544571291141998 -0.013570591415622025 0 0.0048151336125226898 -0.013573694811281232 0 0.0048544571291141998 -0.013570591415622025 0 0.0047942485082364148 -0.013639802297047369 0 0.0048151336125226898 -0.013573694811281232 0 0.0047942485082364148 -0.013639802297047369 0 0.0048149129106198982 -0.013567461976767736 0 0.0027919269270569079 -0.011400573503067541 0 0.0028701641110255968 -0.012108446831093498 0 0.0035957953293877585 -0.012116019067803126 0 0.003559203366305717 -0.013527511615147099 0 0.0042896364523049828 -0.012912119375271626 0 0.0028701641110255968 -0.012108446831093498 0 0.0031667290696738926 -0.012653200746114269 0 0.0035957953293877585 -0.012116019067803126 0 0.0049885818125877364 -0.013678771763497567 0 0.0048633024006262343 -0.013691859365085223 0 0.0049090600179698719 -0.013823651045933315 0 0.0048544571291141998 -0.013570591415622025 0 0.0048633024006262343 -0.013691859365085223 0 0.0047942485082364148 -0.013639802297047369 0 0.0049885818125877364 -0.013678771763497567 0 0.0048544571291141998 -0.013570591415622025 0 0.0048633024006262343 -0.013691859365085223 0 0.0047942485082364148 -0.013639802297047369 0 0.0047699537036828606 -0.013812186378589341 0 0.0047158187857172353 -0.013778276824711701 0 0.0048633024006262343 -0.013691859365085223 0 0.0047942485082364148 -0.013639802297047369 0 0.0047699537036828606 -0.013812186378589341 0 0.0048025524679763841 -0.01359192576196103 0 0.0048388657239977657 -0.013574578785568102 0 0.0047158187857172353 -0.013778276824711701 0 0.0047942485082364148 -0.013639802297047369 0 0.0048025524679763841 -0.01359192576196103 0 0.0047158187857172353 -0.013778276824711701 0 0.0047942485082364148 -0.013639802297047369 0 0.0048025524679763841 -0.01359192576196103 0 0.0048149129106198982 -0.013567461976767736 0 0.0048025524679763841 -0.01359192576196103 0 0.0048561356378787907 -0.013537637716535296 0 0.004889497318902097 -0.013492914344317682 0 0.0048025524679763841 -0.01359192576196103 0 0.0048149129106198982 -0.013567461976767736 0 0.0048561356378787907 -0.013537637716535296 0 0.0048693847696238066 -0.013553003673541815 0 0.0048149129106198982 -0.013567461976767736 0 0.0048561356378787907 -0.013537637716535296 0 0.0048216207545541791 -0.013564909394707159 0 0.0048693847696238066 -0.013553003673541815 0 0.0048149129106198982 -0.013567461976767736 0 0.0048216207545541791 -0.013564909394707159 0 0.0048151336125226898 -0.013573694811281232 0 0.0048149129106198982 -0.013567461976767736 0 0.0051347918448001488 -0.013609072970661377 0 0.00496076072820811 -0.01352883631002187 0 0.0051007013358167 -0.013477269802536695 0 0.0048693847696238066 -0.013553003673541815 0 0.0048561356378787907 -0.013537637716535296 0 0.00496076072820811 -0.01352883631002187 0 0.0048561356378787907 -0.013537637716535296 0 0.00496076072820811 -0.01352883631002187 0 0.004889497318902097 -0.013492914344317682 0 0.00496076072820811 -0.01352883631002187 0 0.004889497318902097 -0.013492914344317682 0 0.0051007013358167 -0.013477269802536695 0 0.0048025524679763841 -0.01359192576196103 0 0.004889497318902097 -0.013492914344317682 0 0.0048388657239977657 -0.013574578785568102 0 0.004889497318902097 -0.013492914344317682 0 0.0048388657239977657 -0.013574578785568102 0 0.0048250056596001656 -0.013535852531504465 0 0.0041726448453422507 -0.014055703188005692 0 0.0042523332707254165 -0.013827151389019635 0 0.0040414727475264096 -0.013983870497446812 0 0.0041726448453422507 -0.014055703188005692 0 0.0044012493241327496 -0.013966363545959724 0 0.0043147771890428496 -0.014145903058619584 0 0.0041726448453422507 -0.014055703188005692 0 0.0042523332707254165 -0.013827151389019635 0 0.0044012493241327496 -0.013966363545959724 0 0.0042523332707254165 -0.013827151389019635 0 0.0044012493241327496 -0.013966363545959724 0 0.0047158187857172353 -0.013778276824711701 0 0.0045937412505858673 -0.013715204111227666 0 0.0047129267122778019 -0.013767207821272236 0 0.0044012493241327496 -0.013966363545959724 0 0.004581679255375999 -0.014033005434026588 0 0.0047158187857172353 -0.013778276824711701 0 0.0044012493241327496 -0.013966363545959724 0 0.004581679255375999 -0.014033005434026588 0 0.0043147771890428496 -0.014145903058619584 0 0.004581679255375999 -0.014033005434026588 0 0.0044726510358446651 -0.014295105152112875 0 0.0043147771890428496 -0.014145903058619584 0 0.004581679255375999 -0.014033005434026588 0 0.0044726510358446651 -0.014295105152112875 0 0.0047683079450201093 -0.014110432787433215 0 0.0044726510358446651 -0.014295105152112875 0 0.0047683079450201093 -0.014110432787433215 0 0.0047291131692782798 -0.014467180101403158 0 0.0044726510358446651 -0.014295105152112875 0 0.0042332091364713177 -0.014345752399487266 0 0.0043147771890428496 -0.014145903058619584 0 0.0042332091364713177 -0.014345752399487266 0 0.0041045577524427756 -0.01433001221325424 0 0.0043147771890428496 -0.014145903058619584 0 0.0042332091364713177 -0.014345752399487266 0 0.0041045577524427756 -0.01433001221325424 0 0.0040751892614529807 -0.014663242136182751 0 0.0041726448453422507 -0.014055703188005692 0 0.0041045577524427756 -0.01433001221325424 0 0.0043147771890428496 -0.014145903058619584 0 0.0036293302118688255 -0.014187605940473261 0 0.0041080189774346434 -0.014618936531041307 0 0.0041117710986790885 -0.014052497293486482 0 0.0048633024006262343 -0.013691859365085223 0 0.0049090600179698719 -0.013823651045933315 0 0.0047699537036828606 -0.013812186378589341 0 0.0049090600179698719 -0.013823651045933315 0 0.0047699537036828606 -0.013812186378589341 0 0.0046122903162917677 -0.014050070019626524 0 0.0041080189774346434 -0.014618936531041307 0 0.0046122903162917677 -0.014050070019626524 0 0.0041117710986790885 -0.014052497293486482 0 0.0044850419191635 -0.01426277982622863 0 0.0046234077354307054 -0.014048698820269474 0 0.0047699537036828606 -0.013812186378589341 0 0.0047302433375536667 -0.01399543762417297 0 0.0046122903162917677 -0.014050070019626524 0 0.0047699537036828606 -0.013812186378589341 0 0.0047158187857172353 -0.013778276824711701 0 0.0047302433375536667 -0.01399543762417297 0 0.004581679255375999 -0.014033005434026588 0 0.0047158187857172353 -0.013778276824711701 0 0.0047302433375536667 -0.01399543762417297 0 0.0047683079450201093 -0.014110432787433215 0 0.0046789269862231872 -0.013977172924350833 0 0.0044482023668197751 -0.013832916272854668 0 0.0047683079450201093 -0.014110432787433215 0 0.0049052418786446339 -0.014296928859709127 0 0.0050458290262390066 -0.014309949574421714 0 0.0046869482048285151 -0.014087286581945978 0 0.0048970708411066842 -0.014070194675281098 0 0.0047302433375536667 -0.01399543762417297 0 0.0047683079450201093 -0.014110432787433215 0 0.0046789269862231872 -0.013977172924350833 0 0.004581679255375999 -0.014033005434026588 0 0.0047302433375536667 -0.01399543762417297 0 0.0047683079450201093 -0.014110432787433215 0 0.0047683079450201093 -0.014110432787433215 0 0.0049052418786446339 -0.014296928859709127 0 0.0047291131692782798 -0.014467180101403158 0 0.0047302433375536667 -0.01399543762417297 0 0.0046789269862231872 -0.013977172924350833 0 0.0046122903162917677 -0.014050070019626524 0 0.0034990213275071574 -0.013643519446155763 0 0.0046789269862231872 -0.013977172924350833 0 0.0041117710986790885 -0.014052497293486482 0 0.0042788345773461401 -0.01375998690543887 0 0.0043880186287715717 -0.013946456047583792 0 0.0039500944036916629 -0.013879304012183277 0 0.0046789269862231872 -0.013977172924350833 0 0.0044482023668197751 -0.013832916272854668 0 0.0046789269862231872 -0.013977172924350833 0 0.0046122903162917677 -0.014050070019626524 0 0.0041117710986790885 -0.014052497293486482 0 0.0049612318773660574 -0.014310038364050563 0 0.0050458290262390066 -0.014309949574421714 0 0.0050424675641147273 -0.014325707676875722 0 0.0020186909437190609 -0.015528629703768381 0 0.0024853157128620403 -0.015714024345380849 0 0.0024285185677856732 -0.015327271787660421 0 0.0019407058112513545 -0.015265078274091938 0 0.0020186909437190609 -0.015528629703768381 0 0.0024285185677856732 -0.015327271787660421 0 0.0049052418786446339 -0.014296928859709127 0 0.0050458290262390066 -0.014309949574421714 0 0.0050424675641147273 -0.014325707676875722 0 0.0024853157128620403 -0.015714024345380849 0 0.0024285185677856732 -0.015327271787660421 0 0.0029892890081814291 -0.015237142257769374 0 0.0049052418786446339 -0.014296928859709127 0 0.0050424675641147273 -0.014325707676875722 0 0.0047291131692782798 -0.014467180101403158 0 0.0024853157128620403 -0.015714024345380849 0 0.0029892890081814291 -0.015237142257769374 0 0.0035657055075752277 -0.015366209479492479 0 0.0037062819020459744 -0.015071207621771563 0 0.0041016152877890828 -0.014890112362126617 0 0.0029892890081814291 -0.015237142257769374 0 0.0038852037189884858 -0.0148987872219681 0 0.0035657055075752277 -0.015366209479492479 0 0.0029892890081814291 -0.015237142257769374 0 0.0026371339709076085 -0.014873703742840692 0 0.0038852037189884858 -0.0148987872219681 0 0.0023461811652674123 -0.014999998083037378 0 0.0022846960089171033 -0.01524085535751534 0 0.0030831719831552096 -0.015480074357349197 0 0.0024855450857754324 -0.015070241396708815 0 0.0034840943538150234 -0.015184221272428463 0 0.0019407058112513545 -0.015265078274091938 0 0.0024285185677856732 -0.015327271787660421 0 0.0026371339709076085 -0.014873703742840692 0 0.0014879155234872837 -0.014999987331765151 0 0.0024855450857754324 -0.015070241396708815 0 0.0014876636937686295 -0.014999999004305715 0 0.0023461811652674123 -0.014999998083037378 0 0.0022846960089171033 -0.01524085535751534 0 0.0024285185677856732 -0.015327271787660421 0 0.0029892890081814291 -0.015237142257769374 0 0.0026371339709076085 -0.014873703742840692 0 0.0040751892614529807 -0.014663242136182751 0 0.0038852037189884858 -0.0148987872219681 0 0.0040984073399157727 -0.014512424491483631 0 0.0030831719831552096 -0.015480074357349197 0 0.0035577793321491507 -0.015332573503970957 0 0.0038788719479872836 -0.015714895541482074 0 0.0034840943538150234 -0.015184221272428463 0 0.0040202657093977665 -0.015126225871909996 0 0.0041045577524427756 -0.01433001221325424 0 0.0040751892614529807 -0.014663242136182751 0 0.0040984073399157727 -0.014512424491483631 0 0.0044726510358446651 -0.014295105152112875 0 0.0042332091364713177 -0.014345752399487266 0 0.0040751892614529807 -0.014663242136182751 0 0.0040358841581791547 -0.014731999814558189 0 0.0041016152877890828 -0.014890112362126617 0 0.0044726510358446651 -0.014295105152112875 0 0.0040751892614529807 -0.014663242136182751 0 0.0047291131692782798 -0.014467180101403158 0 0.0040751892614529807 -0.014663242136182751 0 0.0038852037189884858 -0.0148987872219681 0 0.0035657055075752277 -0.015366209479492479 0 0.0023461811652674123 -0.014999998083037378 0 0.0030831719831552096 -0.015480074357349197 0 0.0032046992917131537 -0.014999995990745007 0 0.0030831719831552096 -0.015480074357349197 0 0.0032046992917131537 -0.014999995990745007 0 0.0035577793321491507 -0.015332573503970957 0 0.0032046992917131537 -0.014999995990745007 0 0.0035577793321491507 -0.015332573503970957 0 0.0040632085588916417 -0.014999994179497515 0 0.0035577793321491507 -0.015332573503970957 0 0.0040632085588916417 -0.014999994179497515 0 0.0038788719479872836 -0.015714895541482074 0 0.0040632085588916417 -0.014999994179497515 0 0.0038788719479872836 -0.015714895541482074 0 0.0044298296709113288 -0.015457416822878588 0 0.0040984073399157727 -0.014512424491483631 0 0.0039639305099900875 -0.014288651644549592 0 0.0037260059455458835 -0.014323872878136915 0 0.0040202657093977665 -0.015126225871909996 0 0.0040641995231910505 -0.015194907984738481 0 0.0038788719479872836 -0.015714895541482074 0 0.0044298296709113288 -0.015457416822878588 0 0.0046699826778258593 -0.015945123080773706 0 0.0040632085588916417 -0.014999994179497515 0 0.0044298296709113288 -0.015457416822878588 0 0.0049217252644206044 -0.014999990969232694 0 0.0044298296709113288 -0.015457416822878588 0 0.0049217252644206044 -0.014999990969232694 0 0.0051971558273532868 -0.015556343417961662 0 0.0051971558273532868 -0.015556343417961662 0 0.0057801993047788503 -0.014999993008395798 0 0.0058638356435911053 -0.015580615490183039 0 0.0049217252644206044 -0.014999990969232694 0 0.0051971558273532868 -0.015556343417961662 0 0.0057801993047788503 -0.014999993008395798 0 0.0051971558273532868 -0.015556343417961662 0 0.0054562503940615856 -0.016172210912906847 0 0.0058638356435911053 -0.015580615490183039 0 0.0051971558273532868 -0.015556343417961662 0 0.0054562503940615856 -0.016172210912906847 0 0.0046699826778258593 -0.015945123080773706 0 0.0044298296709113288 -0.015457416822878588 0 0.0051971558273532868 -0.015556343417961662 0 0.0046699826778258593 -0.015945123080773706 0 0.0036490355011643883 -0.014162041368368209 0 0.0034307560926070311 -0.014212239924237766 0 0.0037260059455458835 -0.014323872878136915 0 0.0051337709865492357 -0.014623742103876384 0 0.0040641995231910505 -0.015194907984738481 0 0.0036490355011643883 -0.014162041368368209 0 0.0034307560926070311 -0.014212239924237766 0 0.0034786739830495687 -0.014131427563019052 0 0.0067769051462534518 -0.012365587252981414 0 0.0069724988385841281 -0.012297551565888448 0 0.0069516331246086025 -0.01242161342571442 0 0.0049107654982345544 -0.013651009603211183 0 0.0065534237702685825 -0.013940962404598127 0 0.0054133188379806383 -0.013753056551351528 0 0.0051221699982176858 -0.014183717969918496 0 0.0058509758419942569 -0.013885883987829599 0 0.0051337709865492357 -0.014623742103876384 0 0.0049107654982345544 -0.013651009603211183 0 0.0051337709865492357 -0.014623742103876384 0 0.0065534237702685825 -0.013940962404598127 0 0.0067769051462534518 -0.012365587252981414 0 0.0066253761605794808 -0.012794677214000768 0 0.0068601192226697381 -0.012620500540827199 0 0.0067769051462534518 -0.012365587252981414 0 0.0068830423026606958 -0.012489617957743148 0 0.0068601192226697381 -0.012620500540827199 0 0.0068830423026606958 -0.012489617957743148 0 0.0069417464720568775 -0.012542188619592932 0 0.0069516331246086025 -0.01242161342571442 0 0.0067769051462534518 -0.012365587252981414 0 0.0068830423026606958 -0.012489617957743148 0 0.0069516331246086025 -0.01242161342571442 0 0.0069417464720568775 -0.012542188619592932 0 0.0070060667794946893 -0.012586924488799693 0 0.0068601192226697381 -0.012620500540827199 0 0.0068830423026606958 -0.012489617957743148 0 0.0069417464720568775 -0.012542188619592932 0 0.0068601192226697381 -0.012620500540827199 0 0.0037286211861880434 -0.013987223016294023 0 0.0038001211958739733 -0.013968420118700187 0 0.0037584358997969102 -0.013896010516320365 0 0.0036490355011643883 -0.014162041368368209 0 0.0034786739830495687 -0.014131427563019052 0 0.0038001211958739733 -0.013968420118700187 0 0.0049107654982345544 -0.013651009603211183 0 0.0051300412681150901 -0.013248813099682118 0 0.0049107654982345544 -0.013651009603211183 0 0.0032366573525759276 -0.014168775829350616 0 0.0036490355011643883 -0.014162041368368209 0 0.0038001211958739733 -0.013968420118700187 0 0.0038473566116135885 -0.014153633332871236 0 0.0038001211958739733 -0.013968420118700187 0 0.0039157741680937363 -0.014014662361677902 0 0.0038473566116135885 -0.014153633332871236 0 0.0038001211958739733 -0.013968420118700187 0 0.0039157741680937363 -0.014014662361677902 0 0.0039195823107147131 -0.013871018441760103 0 0.0042523332707254165 -0.013827151389019635 0 0.0040414727475264096 -0.013983870497446812 0 0.0039195823107147131 -0.013871018441760103 0 0.0040414727475264096 -0.013983870497446812 0 0.0039157741680937363 -0.014014662361677902 0 0.0039195823107147131 -0.013871018441760103 0 0.0041726448453422507 -0.014055703188005692 0 0.0040414727475264096 -0.013983870497446812 0 0.0040018037561159302 -0.014142081930962338 0 0.0039157741680937363 -0.014014662361677902 0 0.0040018037561159302 -0.014142081930962338 0 0.0038473566116135885 -0.014153633332871236 0 0.0040414727475264096 -0.013983870497446812 0 0.0039157741680937363 -0.014014662361677902 0 0.0040018037561159302 -0.014142081930962338 0 0.0040018037561159302 -0.014142081930962338 0 0.0039639305099900875 -0.014288651644549592 0 0.0038473566116135885 -0.014153633332871236 0 0.0041045577524427756 -0.01433001221325424 0 0.0040018037561159302 -0.014142081930962338 0 0.0039639305099900875 -0.014288651644549592 0 0.0041726448453422507 -0.014055703188005692 0 0.0041045577524427756 -0.01433001221325424 0 0.0040018037561159302 -0.014142081930962338 0 0.0041045577524427756 -0.01433001221325424 0 0.0040984073399157727 -0.014512424491483631 0 0.0039639305099900875 -0.014288651644549592 0 0.0036490355011643883 -0.014162041368368209 0 0.0037260059455458835 -0.014323872878136915 0 0.0038473566116135885 -0.014153633332871236 0 0.0039639305099900875 -0.014288651644549592 0 0.0037260059455458835 -0.014323872878136915 0 0.0038473566116135885 -0.014153633332871236 0 0.0084012781156411389 -0.015534802543196276 0 0.008162067317855513 -0.015297105998909481 0 0.0096878477935546433 -0.015087968692481198 0 0.0091429752993955702 -0.014676610363143017 0 0.008184953885705594 -0.015292730395976074 0 0.0071712068055791896 -0.014999553890867798 0 0.0068313954852963592 -0.015851665249763995 0 0.008184953885705594 -0.015292730395976074 0 0.0071712068055791896 -0.014999553890867798 0 0.0068313954852963592 -0.015851665249763995 0 0.0063966875501174515 -0.015522263880569173 0 0.0071712068055791896 -0.014999553890867798 0 0.0063966875501174515 -0.015522263880569173 0 0.0062750724347095162 -0.015000260472020237 0 0.0068313954852963592 -0.015851665249763995 0 0.0063966875501174515 -0.015522263880569173 0 0.0059937398956168893 -0.016164724063734943 0 0.0063966875501174515 -0.015522263880569173 0 0.0062750724347095162 -0.015000260472020237 0 0.0058940703448180773 -0.015615240348929972 0 0.0057802370739095006 -0.015000145083587638 0 0.0059844221628596594 -0.015569831665018732 0 0.0062753507924847851 -0.015000205985089785 0 0.0059844221628596594 -0.015569831665018732 0 0.0062755060806965182 -0.014999999482859799 0 0.0057802420692373143 -0.014999999059700888 0 0.005878419619567983 -0.015594623438735352 0 0.0051337709865492357 -0.014623742103876384 0 0.0059844221628596594 -0.015569831665018732 0 0.0059844221628596594 -0.015569831665018732 0 0.0075293594010392368 -0.014738537323440144 0 0.0063966875501174515 -0.015522263880569173 0 0.0058940703448180773 -0.015615240348929972 0 0.0059937398956168893 -0.016164724063734943 0 0.0063750791441546479 -0.014792692311692958 0 0.0061747054090627567 -0.015104337374327882 0 0.0062752380662011954 -0.014761558655235932 0 0.0061747054090627567 -0.015104337374327882 0 0.0061327418732680297 -0.014823854016519849 0 0.0062752380662011954 -0.014761558655235932 0 0.010518982828646741 -0.014696845549446964 0 0.010481110888635655 -0.014479376229205733 0 0.01034392213728717 -0.014436913889723556 0 0.0077427646253060622 -0.013815914980115735 0 0.0078241762822046385 -0.014305356990444587 0 0.0070916039041325884 -0.014083860964530929 0 0.0075293594010392368 -0.014738537323440144 0 0.008425724577885341 -0.013856228677127018 0 0.008425724577885341 -0.013856228677127018 0 0.0096065340313400867 -0.014214530397224296 0 0.008425724577885341 -0.013856228677127018 0 0.0065534237702685825 -0.013940962404598127 0 0.0071528231975914605 -0.012356879728688513 0 0.0069724988385841281 -0.012297551565888448 0 0.0070379417790534665 -0.012418933057670297 0 0.0075293594010392368 -0.014738537323440144 0 0.0065534237702685825 -0.013940962404598127 0 0.0069724988385841281 -0.012297551565888448 0 0.0069516331246086025 -0.01242161342571442 0 0.0070379417790534665 -0.012418933057670297 0 0.0070379417790534665 -0.012418933057670297 0 0.0070078431393615168 -0.012510433041993381 0 0.0070844960024109872 -0.012529339257968036 0 0.0069516331246086025 -0.01242161342571442 0 0.0070379417790534665 -0.012418933057670297 0 0.0070078431393615168 -0.012510433041993381 0 0.0069417464720568775 -0.012542188619592932 0 0.0070078431393615168 -0.012510433041993381 0 0.0070060667794946893 -0.012586924488799693 0 0.0069417464720568775 -0.012542188619592932 0 0.0069516331246086025 -0.01242161342571442 0 0.0070078431393615168 -0.012510433041993381 0 0.0070078431393615168 -0.012510433041993381 0 0.0070060667794946893 -0.012586924488799693 0 0.0070844960024109872 -0.012529339257968036 0 0.010467577861498356 -0.014474356664833748 0 0.010397208291521581 -0.014057509048086864 0 0.01034392213728717 -0.014436913889723556 0 0.0071528231975914605 -0.012356879728688513 0 0.007187778068079154 -0.012585460989463133 0 0.0070844960024109872 -0.012529339257968036 0 0.0071528231975914605 -0.012356879728688513 0 0.0070379417790534665 -0.012418933057670297 0 0.0070844960024109872 -0.012529339257968036 0 0.008425724577885341 -0.013856228677127018 0 0.0087887182182155004 -0.013209003908060277 0 0.010223517510941384 -0.014233353623867316 0 0.01034392213728717 -0.014436913889723556 0 0.010098513765622111 -0.014432425825106957 0 0.010397208291521581 -0.014057509048086864 0 0.010223517510941384 -0.014233353623867316 0 0.01034392213728717 -0.014436913889723556 0 0.010397208291521581 -0.014057509048086864 0 0.010223517510941384 -0.014233353623867316 0 0.010027440467377753 -0.014109149107714289 0 0.010223517510941384 -0.014233353623867316 0 0.010027440467377753 -0.014109149107714289 0 0.010098513765622111 -0.014432425825106957 0 0.0096878477935546433 -0.015087968692481198 0 0.010518982828646741 -0.014696845549446964 0 0.0098643433371385474 -0.014621573258469802 0 0.010518982828646741 -0.014696845549446964 0 0.010098513765622111 -0.014432425825106957 0 0.0098643433371385474 -0.014621573258469802 0 0.0084012781156411389 -0.015534802543196276 0 0.0075293594010392368 -0.014738537323440144 0 0.010518982828646741 -0.014696845549446964 0 0.01034392213728717 -0.014436913889723556 0 0.010098513765622111 -0.014432425825106957 0 0.0096878477935546433 -0.015087968692481198 0 0.0098643433371385474 -0.014621573258469802 0 0.0091429752993955702 -0.014676610363143017 0 0.0098643433371385474 -0.014621573258469802 0 0.0097053846216009106 -0.014270970841035329 0 0.0091429752993955702 -0.014676610363143017 0 0.010098513765622111 -0.014432425825106957 0 0.0098643433371385474 -0.014621573258469802 0 0.0097053846216009106 -0.014270970841035329 0 0.010027440467377753 -0.014109149107714289 0 0.010098513765622111 -0.014432425825106957 0 0.0097053846216009106 -0.014270970841035329 0 0.0097053846216009106 -0.014270970841035329 0 0.0093717889289091517 -0.014167147661253371 0 0.0097779074551072737 -0.013953753897070981 0 0.010027440467377753 -0.014109149107714289 0 0.0097053846216009106 -0.014270970841035329 0 0.0097779074551072737 -0.013953753897070981 0 0.0093717889289091517 -0.014167147661253371 0 0.0091429752993955702 -0.014676610363143017 0 0.0089480523257128089 -0.014613345484194793 0 0.0097053846216009106 -0.014270970841035329 0 0.0093717889289091517 -0.014167147661253371 0 0.0091429752993955702 -0.014676610363143017 0 0.0094722594151484957 -0.013630226839858116 0 0.0098723227409753637 -0.013565647582104544 0 0.0098540306945268299 -0.013171424645528427 0 0.0094722594151484957 -0.013630226839858116 0 0.0097779074551072737 -0.013953753897070981 0 0.0098723227409753637 -0.013565647582104544 0 0.0093717889289091517 -0.014167147661253371 0 0.0094722594151484957 -0.013630226839858116 0 0.0097779074551072737 -0.013953753897070981 0 0.0097779074551072737 -0.013953753897070981 0 0.0098723227409753637 -0.013565647582104544 0 0.010030945392264054 -0.013774699599266195 0 0.010027440467377753 -0.014109149107714289 0 0.0097779074551072737 -0.013953753897070981 0 0.010030945392264054 -0.013774699599266195 0 0.0098723227409753637 -0.013565647582104544 0 0.010059137857963307 -0.013554973886021839 0 0.010030945392264054 -0.013774699599266195 0 0.0098723227409753637 -0.013565647582104544 0 0.01000923182925012 -0.013406713878524578 0 0.010059137857963307 -0.013554973886021839 0 0.0098723227409753637 -0.013565647582104544 0 0.01000923182925012 -0.013406713878524578 0 0.0098540306945268299 -0.013171424645528427 0 0.010120540843936978 -0.013443321119255445 0 0.010314024166027912 -0.013685462967593813 0 0.010182175739550763 -0.013343490715749981 0 0.0096395546504817881 -0.013453143561719725 0 0.010255093590748559 -0.01344698911994743 0 0.01000923182925012 -0.013406713878524578 0 0.010120540843936978 -0.013443321119255445 0 0.010126671313292854 -0.013321818542529612 0 0.01000923182925012 -0.013406713878524578 0 0.010120540843936978 -0.013443321119255445 0 0.010059137857963307 -0.013554973886021839 0 0.010120540843936978 -0.013443321119255445 0 0.010059137857963307 -0.013554973886021839 0 0.010314024166027912 -0.013685462967593813 0 0.010027440467377753 -0.014109149107714289 0 0.010030945392264054 -0.013774699599266195 0 0.010314024166027912 -0.013685462967593813 0 0.010397208291521581 -0.014057509048086864 0 0.010027440467377753 -0.014109149107714289 0 0.010328330579933872 -0.01366187155310483 0 0.010163553609564974 -0.014055844118695081 0 0.0096395546504817881 -0.013453143561719725 0 0.010059137857963307 -0.013554973886021839 0 0.010030945392264054 -0.013774699599266195 0 0.010314024166027912 -0.013685462967593813 0 0.0087887182182155004 -0.013209003908060277 0 0.0096395546504817881 -0.013453143561719725 0 0.0072226962169094164 -0.012767219906462115 0 0.0071213754301351672 -0.012689690973424129 0 0.0070789603141703595 -0.012814952842350076 0 0.007187778068079154 -0.012585460989463133 0 0.0070844960024109872 -0.012529339257968036 0 0.0071213754301351672 -0.012689690973424129 0 0.007187778068079154 -0.012585460989463133 0 0.0072226962169094164 -0.012767219906462115 0 0.0071213754301351672 -0.012689690973424129 0 0.0070060667794946893 -0.012586924488799693 0 0.0071213754301351672 -0.012689690973424129 0 0.0068601192226697381 -0.012620500540827199 0 0.0070060667794946893 -0.012586924488799693 0 0.0070844960024109872 -0.012529339257968036 0 0.0071213754301351672 -0.012689690973424129 0 0.0071213754301351672 -0.012689690973424129 0 0.0070789603141703595 -0.012814952842350076 0 0.0069263562299897398 -0.012794196785034156 0 0.010196395686213432 -0.0134859415313697 0 0.010307142269159075 -0.013338020796185278 0 0.010182175739550763 -0.013343490715749981 0 0.0096395546504817881 -0.013453143561719725 0 0.0083751786466317226 -0.013130397323758345 0 0.0072226962169094164 -0.012767219906462115 0 0.0070789603141703595 -0.012814952842350076 0 0.0070447248289613575 -0.013025368734058389 0 0.0070789603141703595 -0.012814952842350076 0 0.0070447248289613575 -0.013025368734058389 0 0.0069263562299897398 -0.012794196785034156 0 0.0084095462447976808 -0.012391865905083765 0 0.009002897415478767 -0.013129312948215611 0 0.0097204741979201176 -0.012687341768290368 0 0.0083751786466317226 -0.013130397323758345 0 0.010094145755258714 -0.012994382238290336 0 0.0084095462447976808 -0.012391865905083765 0 0.0083891553954151977 -0.0130335117481928 0 0.0077466191957112776 -0.013169339961365449 0 0.0084095462447976808 -0.012391865905083765 0 0.0083891553954151977 -0.0130335117481928 0 0.009002897415478767 -0.013129312948215611 0 0.0083891553954151977 -0.0130335117481928 0 0.0082169858351449319 -0.01370238118267016 0 0.009002897415478767 -0.013129312948215611 0 0.0082169858351449319 -0.01370238118267016 0 0.0089758718501059664 -0.013692413977450553 0 0.0085107444977379158 -0.014059668326109212 0 0.0082169858351449319 -0.01370238118267016 0 0.0089758718501059664 -0.013692413977450553 0 0.009002897415478767 -0.013129312948215611 0 0.0089758718501059664 -0.013692413977450553 0 0.010006812047942279 -0.013083661318186409 0 0.0089886837381791419 -0.014380940421952905 0 0.0099905090871710359 -0.013151975826844811 0 0.0097588615409910564 -0.013434958553714004 0 0.0089758718501059664 -0.013692413977450553 0 0.009002897415478767 -0.013129312948215611 0 0.010006812047942279 -0.013083661318186409 0 0.009002897415478767 -0.013129312948215611 0 0.0097204741979201176 -0.012687341768290368 0 0.010006812047942279 -0.013083661318186409 0 0.010307142269159075 -0.013338020796185278 0 0.010182175739550763 -0.013343490715749981 0 0.010126671313292854 -0.013321818542529612 0 0.010120540843936978 -0.013443321119255445 0 0.010182175739550763 -0.013343490715749981 0 0.010126671313292854 -0.013321818542529612 0 0.0097204741979201176 -0.012687341768290368 0 0.010006812047942279 -0.013083661318186409 0 0.0098540306945268299 -0.013171424645528427 0 0.010094145755258714 -0.012994382238290336 0 0.0097460431111330032 -0.013133052818828612 0 0.01000923182925012 -0.013406713878524578 0 0.010126671313292854 -0.013321818542529612 0 0.0098540306945268299 -0.013171424645528427 0 0.010006812047942279 -0.013083661318186409 0 0.0098961382596230042 -0.012865480593964 0 0.010039011827810675 -0.012803756992261984 0 0.010006812047942279 -0.013083661318186409 0 0.010039011827810675 -0.012803756992261984 0 0.010183798243873441 -0.012731626088830328 0 0.010006812047942279 -0.013083661318186409 0 0.0098961382596230042 -0.012865480593964 0 0.0098540306945268299 -0.013171424645528427 0 0.0098961382596230042 -0.012865480593964 0 0.0098540306945268299 -0.013171424645528427 0 0.0095379369654054226 -0.013176391974149305 0 0.0094722594151484957 -0.013630226839858116 0 0.0098540306945268299 -0.013171424645528427 0 0.0095379369654054226 -0.013176391974149305 0 0.0054575220364230081 -0.013403657587756242 0 0.0054668864391325209 -0.013551592336670078 0 0.0056551997653071714 -0.013289856660686016 0 0.0058683276483676404 -0.013216499641594357 0 0.0055551507033774891 -0.013077740765439008 0 0.0054575220364230081 -0.013403657587756242 0 0.0053707645334610463 -0.013453265190515418 0 0.0053305608354232608 -0.013312181462099637 0 0.0061353805883958513 -0.012939660720917578 0 0.0065036559564425091 -0.01290059772699045 0 0.0065563095622419984 -0.013037544915856769 0 0.0054575220364230081 -0.013403657587756242 0 0.0054668864391325209 -0.013551592336670078 0 0.0053707645334610463 -0.013453265190515418 0 0.0054668864391325209 -0.013551592336670078 0 0.0053040230737698727 -0.013547855110177457 0 0.0053707645334610463 -0.013453265190515418 0 0.004889497318902097 -0.013492914344317682 0 0.0051007013358167 -0.013477269802536695 0 0.0053305608354232608 -0.013312181462099637 0 0.0053040230737698727 -0.013547855110177457 0 0.0052781272615799162 -0.013454829940982547 0 0.0053707645334610463 -0.013453265190515418 0 0.0053040230737698727 -0.013547855110177457 0 0.0051007013358167 -0.013477269802536695 0 0.0052781272615799162 -0.013454829940982547 0 0.0051347918448001488 -0.013609072970661377 0 0.0053040230737698727 -0.013547855110177457 0 0.0051007013358167 -0.013477269802536695 0 0.0051007013358167 -0.013477269802536695 0 0.0052781272615799162 -0.013454829940982547 0 0.0053305608354232608 -0.013312181462099637 0 0.0052781272615799162 -0.013454829940982547 0 0.0053707645334610463 -0.013453265190515418 0 0.0053305608354232608 -0.013312181462099637 0 0.0048388657239977657 -0.013574578785568102 0 0.0048250056596001656 -0.013535852531504465 0 0.0047890680686084458 -0.013532847621968996 0 0.0049420787944790476 -0.013468803129036064 0 0.0049839197464759547 -0.013455509947114731 0 0.0047869193869865502 -0.013519467709249434 0 0.0048250056596001656 -0.013535852531504465 0 0.0047890680686084458 -0.013532847621968996 0 0.0045937412505858673 -0.013715204111227666 0 0.0041957904344918657 -0.013724734187573044 0 0.004889497318902097 -0.013492914344317682 0 0.0047869193869865502 -0.013519467709249434 0 0.0048250056596001656 -0.013535852531504465 0 0.0049839197464759547 -0.013455509947114731 0 0.0055551507033774891 -0.013077740765439008 0 0.0047890680686084458 -0.013532847621968996 0 0.0047874931250304993 -0.013521366131596617 0 0.0047876213427628465 -0.013521226173072561 0 0.0041957904344918657 -0.013724734187573044 0 0.0051300412681150901 -0.013248813099682118 0 0.0054575220364230081 -0.013403657587756242 0 0.0053305608354232608 -0.013312181462099637 0 0.0056551997653071714 -0.013289856660686016 0 0.0047869193869865502 -0.013519467709249434 0 0.0047890680686084458 -0.013532847621968996 0 0.0047876213427628465 -0.013521226173072561 0 0.0038001211958739733 -0.013968420118700187 0 0.0039195823107147131 -0.013871018441760103 0 0.0037584358997969102 -0.013896010516320365 0 0.0067769051462534518 -0.012365587252981414 0 0.0066253761605794808 -0.012794677214000768 0 0.0064934783658392725 -0.012772473586908173 0 0.0064575416581415706 -0.012949407092962082 0 0.0051300412681150901 -0.013248813099682118 0 0.0067102207360895715 -0.012631964314836002 0 0.0066426755833482211 -0.012674588059836608 0 0.0065399546608875953 -0.012601958163127442 0 0.0064575416581415706 -0.012949407092962082 0 0.0055551507033774891 -0.013077740765439008 0 0.0067129901184266143 -0.012682795632030666 0 0.0067765324671375284 -0.012731085486418934 0 0.0066978036265715598 -0.012737959259789213 0 0.0067102207360895715 -0.012631964314836002 0 0.0067129901184266143 -0.012682795632030666 0 0.0067765324671375284 -0.012731085486418934 0 0.0067102207360895715 -0.012631964314836002 0 0.0067129901184266143 -0.012682795632030666 0 0.0066426755833482211 -0.012674588059836608 0 0.0067129901184266143 -0.012682795632030666 0 0.0066426755833482211 -0.012674588059836608 0 0.0066978036265715598 -0.012737959259789213 0 0.0066426755833482211 -0.012674588059836608 0 0.0065399546608875953 -0.012601958163127442 0 0.0065610604016301532 -0.012758907125827756 0 0.0062523798401871332 -0.01310140320555013 0 0.0054617916943039179 -0.012949014068748984 0 0.0052906290928106331 -0.013204916792821415 0 0.0051300412681150901 -0.013248813099682118 0 0.0055551507033774891 -0.013077740765439008 0 0.0071213754301351672 -0.012689690973424129 0 0.0067102207360895715 -0.012631964314836002 0 0.0069263562299897398 -0.012794196785034156 0 0.0071866627140322898 -0.012621701983709526 0 0.0064575416581415706 -0.012949407092962082 0 0.0071213754301351672 -0.012689690973424129 0 0.0066253761605794808 -0.012794677214000768 0 0.0068601192226697381 -0.012620500540827199 0 0.0067102207360895715 -0.012631964314836002 0 0.0067765324671375284 -0.012731085486418934 0 0.0069263562299897398 -0.012794196785034156 0 0.0070447248289613575 -0.013025368734058389 0 0.0069263562299897398 -0.012794196785034156 0 0.0068768628909706853 -0.012905000887442064 0 0.0067765324671375284 -0.012731085486418934 0 0.0069263562299897398 -0.012794196785034156 0 0.0067999624230352211 -0.012801105633273732 0 0.0069263562299897398 -0.012794196785034156 0 0.0067999624230352211 -0.012801105633273732 0 0.0068768628909706853 -0.012905000887442064 0 0.0067765324671375284 -0.012731085486418934 0 0.0067999624230352211 -0.012801105633273732 0 0.0066978036265715598 -0.012737959259789213 0 0.0067999624230352211 -0.012801105633273732 0 0.0067957812368448925 -0.012898772382590105 0 0.0066876804940065541 -0.012865403558024313 0 0.0067957812368448925 -0.012898772382590105 0 0.0066876804940065541 -0.012865403558024313 0 0.006817239389494606 -0.013023737342185499 0 0.0067957812368448925 -0.012898772382590105 0 0.0068768628909706853 -0.012905000887442064 0 0.006817239389494606 -0.013023737342185499 0 0.0067999624230352211 -0.012801105633273732 0 0.0067957812368448925 -0.012898772382590105 0 0.0068768628909706853 -0.012905000887442064 0 0.0070447248289613575 -0.013025368734058389 0 0.0068768628909706853 -0.012905000887442064 0 0.006817239389494606 -0.013023737342185499 0 0.0061353805883958513 -0.012939660720917578 0 0.0065399546608875953 -0.012601958163127442 0 0.0065610604016301532 -0.012758907125827756 0 0.0065610604016301532 -0.012758907125827756 0 0.0066876804940065541 -0.012865403558024313 0 0.0065036559564425091 -0.01290059772699045 0 0.0066426755833482211 -0.012674588059836608 0 0.0065610604016301532 -0.012758907125827756 0 0.0066978036265715598 -0.012737959259789213 0 0.0067999624230352211 -0.012801105633273732 0 0.0066978036265715598 -0.012737959259789213 0 0.0066876804940065541 -0.012865403558024313 0 0.0065610604016301532 -0.012758907125827756 0 0.0066978036265715598 -0.012737959259789213 0 0.0066876804940065541 -0.012865403558024313 0 0.0066876804940065541 -0.012865403558024313 0 0.0065563095622419984 -0.013037544915856769 0 0.006817239389494606 -0.013023737342185499 0 0.0061353805883958513 -0.012939660720917578 0 0.0065610604016301532 -0.012758907125827756 0 0.0065036559564425091 -0.01290059772699045 0 0.0066876804940065541 -0.012865403558024313 0 0.0065036559564425091 -0.01290059772699045 0 0.0065563095622419984 -0.013037544915856769 0 0.0065563095622419984 -0.013037544915856769 0 0.0068419014782769407 -0.013488525651771468 0 0.0071723985034993177 -0.013060363557549836 0 0.0066638277590910571 -0.013035490228053753 0 0.0068308950876475403 -0.013034739730238817 0 0.0065563095622419984 -0.013037544915856769 0 0.0068419014782769407 -0.013488525651771468 0 0.0062888887570093296 -0.013386737230359493 0 0.0068419014782769407 -0.013488525651771468 0 0.0063166146910533794 -0.013800372963449371 0 0.0062888887570093296 -0.013386737230359493 0 0.0068419014782769407 -0.013488525651771468 0 0.0071723985034993177 -0.013060363557549836 0 0.0073554420429093326 -0.01363024889026903 0 0.0077348953639342025 -0.013094543499922451 0 0.0071723985034993177 -0.013060363557549836 0 0.0073554420429093326 -0.01363024889026903 0 0.0083751786466317226 -0.013130397323758345 0 0.0068308950876475403 -0.013034739730238817 0 0.0083751786466317226 -0.013130397323758345 0 0.0075572581662905845 -0.013401148905794516 0 0.0068419014782769407 -0.013488525651771468 0 0.0073554420429093326 -0.01363024889026903 0 0.0070778033407726607 -0.014110149994651749 0 0.0082169858351449319 -0.01370238118267016 0 0.0077466191957112776 -0.013169339961365449 0 0.0070778033407726607 -0.014110149994651749 0 0.0083891553954151977 -0.0130335117481928 0 0.0082169858351449319 -0.01370238118267016 0 0.0077466191957112776 -0.013169339961365449 0 0.0075572581662905845 -0.013401148905794516 0 0.0071200927217806896 -0.014038337252350236 0 0.0063166146910533794 -0.013800372963449371 0 0.0060417196230926123 -0.01434353148858915 0 0.0070778033407726607 -0.014110149994651749 0 0.0068419014782769407 -0.013488525651771468 0 0.0063166146910533794 -0.013800372963449371 0 0.0070778033407726607 -0.014110149994651749 0 0.0063166146910533794 -0.013800372963449371 0 0.0062888887570093296 -0.013386737230359493 0 0.0054808081222096237 -0.01373662526556471 0 0.0063166146910533794 -0.013800372963449371 0 0.0054808081222096237 -0.01373662526556471 0 0.0060417196230926123 -0.01434353148858915 0 0.0058683276483676404 -0.013216499641594357 0 0.0054743185294170021 -0.013732777006618596 0 0.0061353805883958513 -0.012939660720917578 0 0.0062888887570093296 -0.013386737230359493 0 0.0054808081222096237 -0.01373662526556471 0 0.0061353805883958513 -0.012939660720917578 0 0.0065563095622419984 -0.013037544915856769 0 0.0062888887570093296 -0.013386737230359493 0 0.0051347918448001488 -0.013609072970661377 0 0.0053040230737698727 -0.013547855110177457 0 0.0054808081222096237 -0.01373662526556471 0 0.0054668864391325209 -0.013551592336670078 0 0.0053040230737698727 -0.013547855110177457 0 0.0054808081222096237 -0.01373662526556471 0 0.0050077237588907518 -0.013743246388705133 0 0.0051347918448001488 -0.013609072970661377 0 0.0054808081222096237 -0.01373662526556471 0 0.0054808081222096237 -0.01373662526556471 0 0.0060417196230926123 -0.01434353148858915 0 0.0050515331057037847 -0.014334456736105195 0 0.0068836986841977208 -0.011617720793985611 0 0.0062266261779657097 -0.010782738705026914 0 0.0058049061257795477 -0.015150697066107957 0 0.0060417196230926123 -0.01434353148858915 0 0.0050515331057037847 -0.014334456736105195 0 0.0080766972564723823 -0.0079490434663639746 0 0.007324332281881802 -0.007302412371587459 0 0.007178992120097042 -0.0080651697278371591 0 0.0058049061257795477 -0.015150697066107957 0 0.0060417196230926123 -0.01434353148858915 0 0.006773903037326617 -0.014978298130701269 0 0.0058049061257795477 -0.015150697066107957 0 0.006773903037326617 -0.014978298130701269 0 0.0067297862993991693 -0.016043464235736295 0 0.0060417196230926123 -0.01434353148858915 0 0.0070778033407726607 -0.014110149994651749 0 0.006773903037326617 -0.014978298130701269 0 0.0082169858351449319 -0.01370238118267016 0 0.0070778033407726607 -0.014110149994651749 0 0.0078707910908829923 -0.014468533424837582 0 0.0070778033407726607 -0.014110149994651749 0 0.0078707910908829923 -0.014468533424837582 0 0.006773903037326617 -0.014978298130701269 0 0.0078707910908829923 -0.014468533424837582 0 0.0077978145386041258 -0.015342458828110295 0 0.006773903037326617 -0.014978298130701269 0 0.0077978145386041258 -0.015342458828110295 0 0.006773903037326617 -0.014978298130701269 0 0.0067297862993991693 -0.016043464235736295 0 0.0077978145386041258 -0.015342458828110295 0 0.0068286211421816805 -0.016129112764056753 0 0.0067297862993991693 -0.016043464235736295 0 0.0087021348100086836 -0.011599771062340296 0 0.0082657034998517825 -0.011836451348858463 0 0.0095573939083010793 -0.013839246440785774 0 0.0087021348100086836 -0.011599771062340296 0 0.011272849921618231 -0.011715955578809919 0 0.011892507284660139 -0.010956931941334095 0 0.011004266011185378 -0.010969761377661983 0 0.0087021348100086836 -0.011599771062340296 0 0.010613429570468633 -0.0096444479504209368 0 0.011892507284660139 -0.010956931941334095 0 0.01117124333137412 -0.010346678530007388 0 0.011004266011185378 -0.010969761377661983 0 0.0089495743050374624 -0.008650857206262904 0 0.0096981196436745649 -0.009273046807300284 0 0.0090491762473459969 -0.0091242652496091054 0 0.0089495743050374624 -0.008650857206262904 0 0.0088641423654299504 -0.0085835840812618011 0 0.0090491762473459969 -0.0091242652496091054 0 0.0088641423654299504 -0.0085835840812618011 0 0.0087109992796956092 -0.0089278846487672505 0 0.0090491762473459969 -0.0091242652496091054 0 0.0087109992796956092 -0.0089278846487672505 0 0.0090491762473459969 -0.0091242652496091054 0 0.0085000477120558589 -0.0092132540302525111 0 0.0085000477120558589 -0.0092132540302525111 0 0.0084332762788181422 -0.0087928151367200301 0 0.0078885795030782992 -0.0087324193215892118 0 0.0087109992796956092 -0.0089278846487672505 0 0.0085000477120558589 -0.0092132540302525111 0 0.0084332762788181422 -0.0087928151367200301 0 0.0088641423654299504 -0.0085835840812618011 0 0.0087109992796956092 -0.0089278846487672505 0 0.0084332762788181422 -0.0087928151367200301 0 0.0085000477120558589 -0.0092132540302525111 0 0.0078885795030782992 -0.0087324193215892118 0 0.0077238612555835355 -0.009644052573631292 0 0.0078885795030782992 -0.0087324193215892118 0 0.0077238612555835355 -0.009644052573631292 0 0.0071890206950023421 -0.0088138978073451415 0 0.0080766972564723823 -0.0079490434663639746 0 0.0078885795030782992 -0.0087324193215892118 0 0.007178992120097042 -0.0080651697278371591 0 0.0080766972564723823 -0.0079490434663639746 0 0.0084332762788181422 -0.0087928151367200301 0 0.0078885795030782992 -0.0087324193215892118 0 0.0068836986841977208 -0.011617720793985611 0 0.0082657034998517825 -0.011836451348858463 0 0.0080766972564723823 -0.0079490434663639746 0 0.0088641423654299504 -0.0085835840812618011 0 0.0084332762788181422 -0.0087928151367200301 0 0.01011709627672068 -0.012565592451689266 0 0.01022505078571408 -0.012506951292309096 0 0.010333299999540307 -0.012471246638045301 0 0.01011709627672068 -0.012565592451689266 0 0.010333299999540307 -0.012471246638045301 0 0.010345545411399525 -0.012495220677850343 0 0.01011709627672068 -0.012565592451689266 0 0.010114066727514229 -0.012624922696818261 0 0.01022505078571408 -0.012506951292309096 0 0.0098961382596230042 -0.012865480593964 0 0.01011709627672068 -0.012565592451689266 0 0.010114066727514229 -0.012624922696818261 0 0.0098961382596230042 -0.012865480593964 0 0.010114066727514229 -0.012624922696818261 0 0.010039011827810675 -0.012803756992261984 0 0.010114066727514229 -0.012624922696818261 0 0.010039011827810675 -0.012803756992261984 0 0.010134061175077468 -0.012665173123391779 0 0.010039011827810675 -0.012803756992261984 0 0.010134061175077468 -0.012665173123391779 0 0.010183798243873441 -0.012731626088830328 0 0.010134061175077468 -0.012665173123391779 0 0.010219445246672631 -0.012508731404660594 0 0.010183798243873441 -0.012731626088830328 0 0.010114066727514229 -0.012624922696818261 0 0.010134061175077468 -0.012665173123391779 0 0.010219445246672631 -0.012508731404660594 0 0.010219445246672631 -0.012508731404660594 0 0.01022505078571408 -0.012506951292309096 0 0.010285553763550651 -0.012465196603005305 0 0.010114066727514229 -0.012624922696818261 0 0.010219445246672631 -0.012508731404660594 0 0.01022505078571408 -0.012506951292309096 0 0.010317131140634211 -0.012356068891578847 0 0.0099770194870982022 -0.011796411939434067 0 0.010219445246672631 -0.012508731404660594 0 0.01033229139737827 -0.012375041387535533 0 0.010285553763550651 -0.012465196603005305 0 0.01033229139737827 -0.012375041387535533 0 0.010577156037692759 -0.011383254865913356 0 0.0096100994524897249 -0.011135890803322952 0 0.010219445246672631 -0.012508731404660594 0 0.010293141039784867 -0.0125637909193332 0 0.010183798243873441 -0.012731626088830328 0 0.010219445246672631 -0.012508731404660594 0 0.010293141039784867 -0.0125637909193332 0 0.01033229139737827 -0.012375041387535533 0 0.010006812047942279 -0.013083661318186409 0 0.010183798243873441 -0.012731626088830328 0 0.010528958565393787 -0.012650002598578201 0 0.010293141039784867 -0.0125637909193332 0 0.010183798243873441 -0.012731626088830328 0 0.010528958565393787 -0.012650002598578201 0 0.010293141039784867 -0.0125637909193332 0 0.01033229139737827 -0.012375041387535533 0 0.010528958565393787 -0.012650002598578201 0 0.0078707910908829923 -0.014468533424837582 0 0.0077978145386041258 -0.015342458828110295 0 0.0089886837381791419 -0.014380940421952905 0 0.0078707910908829923 -0.014468533424837582 0 0.0089886837381791419 -0.014380940421952905 0 0.0085107444977379158 -0.014059668326109212 0 0.0089758718501059664 -0.013692413977450553 0 0.0089886837381791419 -0.014380940421952905 0 0.0085107444977379158 -0.014059668326109212 0 0.0082169858351449319 -0.01370238118267016 0 0.0078707910908829923 -0.014468533424837582 0 0.0085107444977379158 -0.014059668326109212 0 0.0095573939083010793 -0.013839246440785774 0 0.0097588615409910564 -0.013434958553714004 0 0.011272849921618231 -0.011715955578809919 0 0.01033229139737827 -0.012375041387535533 0 0.010577156037692759 -0.011383254865913356 0 0.011272849921618231 -0.011715955578809919 0 0.01033229139737827 -0.012375041387535533 0 0.010528958565393787 -0.012650002598578201 0 0.011272849921618231 -0.011715955578809919 0 0.010577156037692759 -0.011383254865913356 0 0.011004266011185378 -0.010969761377661983 0 0.010577156037692759 -0.011383254865913356 0 0.010526820938815074 -0.010951537486002381 0 0.011004266011185378 -0.010969761377661983 0 0.01117124333137412 -0.010346678530007388 0 0.011004266011185378 -0.010969761377661983 0 0.010588295870109862 -0.01053776966607551 0 0.010526820938815074 -0.010951537486002381 0 0.011004266011185378 -0.010969761377661983 0 0.010588295870109862 -0.01053776966607551 0 0.010065352562613336 -0.010895175191485357 0 0.0096589602093676181 -0.010009858193197203 0 0.010073626892990574 -0.0093412094192748246 0 0.010059458916705529 -0.010807752829833563 0 0.01020896090298457 -0.0098414340899915138 0 0.010526820938815074 -0.010951537486002381 0 0.010588295870109862 -0.01053776966607551 0 0.010065352562613336 -0.010895175191485357 0 0.010588295870109862 -0.01053776966607551 0 0.010065352562613336 -0.010895175191485357 0 0.010247932619011853 -0.010118223294192348 0 0.010577156037692759 -0.011383254865913356 0 0.010065352562613336 -0.010895175191485357 0 0.0096100994524897249 -0.011135890803322952 0 0.010577156037692759 -0.011383254865913356 0 0.010526820938815074 -0.010951537486002381 0 0.010065352562613336 -0.010895175191485357 0 0.010285553763550651 -0.012465196603005305 0 0.01059792575858666 -0.012324632980017533 0 0.010333299999540307 -0.012471246638045301 0 0.010065352562613336 -0.010895175191485357 0 0.0096100994524897249 -0.011135890803322952 0 0.0096589602093676181 -0.010009858193197203 0 0.01022505078571408 -0.012506951292309096 0 0.010285553763550651 -0.012465196603005305 0 0.010333299999540307 -0.012471246638045301 0 0.0096100994524897249 -0.011135890803322952 0 0.0096589602093676181 -0.010009858193197203 0 0.0090680359420664877 -0.0097882103641249562 0 0.0099770194870982022 -0.011796411939434067 0 0.009846702500639801 -0.011050513981154081 0 0.01059792575858666 -0.012324632980017533 0 0.010333299999540307 -0.012471246638045301 0 0.010345545411399525 -0.012495220677850343 0 0.0093224855211638796 -0.0087205003433954015 0 0.0093650690183555898 -0.0091274582680686556 0 0.0090843237447656242 -0.0088459527032038049 0 0.0093224855211638796 -0.0087205003433954015 0 0.0090843237447656242 -0.0088459527032038049 0 0.0093354017040257319 -0.0085207806540668514 0 0.0093224855211638796 -0.0087205003433954015 0 0.0094277913611917757 -0.0086470783063966102 0 0.0093785779032255767 -0.0085553025763697929 0 0.009846702500639801 -0.011050513981154081 0 0.0099894025678764382 -0.010338254180924116 0 0.0090680359420664877 -0.0097882103641249562 0 0.0093650690183555898 -0.0091274582680686556 0 0.0090843237447656242 -0.0088459527032038049 0 0.0093650690183555898 -0.0091274582680686556 0 0.0096776694980226854 -0.008977390504820033 0 0.010073626892990574 -0.0093412094192748246 0 0.0096589602093676181 -0.010009858193197203 0 0.0093650690183555898 -0.0091274582680686556 0 0.010073626892990574 -0.0093412094192748246 0 0.0096589602093676181 -0.010009858193197203 0 0.0090680359420664877 -0.0097882103641249562 0 0.0093650690183555898 -0.0091274582680686556 0 0.0096776694980226854 -0.008977390504820033 0 0.0094826995202261545 -0.0088119755287818062 0 0.0096744387882623413 -0.0087816748299940871 0 0.0093224855211638796 -0.0087205003433954015 0 0.0093650690183555898 -0.0091274582680686556 0 0.0094826995202261545 -0.0088119755287818062 0 0.0093650690183555898 -0.0091274582680686556 0 0.0096776694980226854 -0.008977390504820033 0 0.0094826995202261545 -0.0088119755287818062 0 0.0093224855211638796 -0.0087205003433954015 0 0.0094826995202261545 -0.0088119755287818062 0 0.0094277913611917757 -0.0086470783063966102 0 0.0094826995202261545 -0.0088119755287818062 0 0.0094277913611917757 -0.0086470783063966102 0 0.0095133656753259473 -0.0086316113756105747 0 0.0094826995202261545 -0.0088119755287818062 0 0.0095133656753259473 -0.0086316113756105747 0 0.0096744387882623413 -0.0087816748299940871 0 0.0095133656753259473 -0.0086316113756105747 0 0.0096744387882623413 -0.0087816748299940871 0 0.0095261747208937823 -0.0084987739360652837 0 0.0096744387882623413 -0.0087816748299940871 0 0.010073626892990574 -0.0093412094192748246 0 0.009750718614673224 -0.008524405038647466 0 0.010247932619011853 -0.010118223294192348 0 0.010372917458363575 -0.0099620809747561281 0 0.010475047389993402 -0.010079942606192322 0 0.01020896090298457 -0.0098414340899915138 0 0.0096352537164714237 -0.0090595044308224293 0 0.0096776694980226854 -0.008977390504820033 0 0.0096744387882623413 -0.0087816748299940871 0 0.010073626892990574 -0.0093412094192748246 0 0.010588295870109862 -0.01053776966607551 0 0.010247932619011853 -0.010118223294192348 0 0.010372917458363575 -0.0099620809747561281 0 0.010613429570468633 -0.0096444479504209368 0 0.010349822703359603 -0.009991459555951045 0 0.01117124333137412 -0.010346678530007388 0 0.010588295870109862 -0.01053776966607551 0 0.010372917458363575 -0.0099620809747561281 0 0.0096981196436745649 -0.009273046807300284 0 0.010372917458363575 -0.0099620809747561281 0 0.0098259801418588005 -0.010208920181403671 0 0.0096352537164714237 -0.0090595044308224293 0 0.0093244205059922671 -0.0096384357248059192 0 0.010372917458363575 -0.0099620809747561281 0 0.010475047389993402 -0.010079942606192322 0 0.0098259801418588005 -0.010208920181403671 0 0.0088583326570892996 -0.0090073490011135168 0 0.0089066725621058766 -0.0089846369045496737 0 0.0088087377473400827 -0.008959427357406298 0 0.0088795669393049448 -0.0089995466135002616 0 0.0088583326570892996 -0.0090073490011135168 0 0.0089066725621058766 -0.0089846369045496737 0 0.0088583326570892996 -0.0090073490011135168 0 0.0088818851015544011 -0.0090019666214402223 0 0.008788633036196182 -0.0090541095866443523 0 0.0088795669393049448 -0.0089995466135002616 0 0.0088818851015544011 -0.0090019666214402223 0 0.0088857434026499999 -0.0089876553758496368 0 0.0088795669393049448 -0.0089995466135002616 0 0.0088583326570892996 -0.0090073490011135168 0 0.0088818851015544011 -0.0090019666214402223 0 0.0092067827312281459 -0.0085573465276068735 0 0.0092243777010055285 -0.0086167525345795734 0 0.0089478725547422564 -0.0088576702313996718 0 0.0090697358366197758 -0.0087534950542908965 0 0.0089816648110221109 -0.0088843091259016762 0 0.0088818851015544011 -0.0090019666214402223 0 0.0088857434026499999 -0.0089876553758496368 0 0.0089478725547422564 -0.0088576702313996718 0 0.0092243777010055285 -0.0086167525345795734 0 0.0093731774846705883 -0.0085186107158398104 0 0.009365697593203293 -0.0085203917458462047 0 0.0092067827312281459 -0.0085573465276068735 0 0.0092243777010055285 -0.0086167525345795734 0 0.0093731774846705883 -0.0085186107158398104 0 0.0090697358366197758 -0.0087534950542908965 0 0.0096352537164714237 -0.0090595044308224293 0 0.0092067827312281459 -0.0085573465276068735 0 0.0093731774846705883 -0.0085186107158398104 0 0.0094499437451525288 -0.0084732427024296775 0 0.0088795669393049448 -0.0089995466135002616 0 0.0088857434026499999 -0.0089876553758496368 0 0.0089066725621058766 -0.0089846369045496737 0 0.0093731774846705883 -0.0085186107158398104 0 0.0094499437451525288 -0.0084732427024296775 0 0.0095261747208937823 -0.0084987739360652837 0 0.0096744387882623413 -0.0087816748299940871 0 0.009750718614673224 -0.008524405038647466 0 0.0095261747208937823 -0.0084987739360652837 0 0.0096352537164714237 -0.0090595044308224293 0 0.0095215831819492405 -0.0088872508966900653 0 0.0095133656753259473 -0.0086316113756105747 0 0.0095261747208937823 -0.0084987739360652837 0 0.0094398252477803403 -0.0085240064334821015 0 0.0094277913611917757 -0.0086470783063966102 0 0.0095133656753259473 -0.0086316113756105747 0 0.0094398252477803403 -0.0085240064334821015 0 0.0094277913611917757 -0.0086470783063966102 0 0.0094398252477803403 -0.0085240064334821015 0 0.0093785779032255767 -0.0085553025763697929 0 0.0094398252477803403 -0.0085240064334821015 0 0.009365697593203293 -0.0085203917458462047 0 0.0094089531678685622 -0.0084821062043511867 0 0.0093731774846705883 -0.0085186107158398104 0 0.0095261747208937823 -0.0084987739360652837 0 0.0094398252477803403 -0.0085240064334821015 0 0.0093731774846705883 -0.0085186107158398104 0 0.0094398252477803403 -0.0085240064334821015 0 0.009365697593203293 -0.0085203917458462047 0 0.0092243777010055285 -0.0086167525345795734 0 0.009365697593203293 -0.0085203917458462047 0 0.0093795619449232401 -0.0084987483340113572 0 0.0092243777010055285 -0.0086167525345795734 0 0.0093795619449232401 -0.0084987483340113572 0 0.0091776883896025185 -0.0087057941426943539 0 0.009376152030208201 -0.0085376369889798315 0 0.0093795619449232401 -0.0084987483340113572 0 0.0091776883896025185 -0.0087057941426943539 0 0.009365697593203293 -0.0085203917458462047 0 0.0093795619449232401 -0.0084987483340113572 0 0.0094089531678685622 -0.0084821062043511867 0 0.0093795619449232401 -0.0084987483340113572 0 0.0094536432838224684 -0.0084448565981528594 0 0.0094089531678685622 -0.0084821062043511867 0 0.009376152030208201 -0.0085376369889798315 0 0.0093795619449232401 -0.0084987483340113572 0 0.0094536432838224684 -0.0084448565981528594 0 0.009376152030208201 -0.0085376369889798315 0 0.0094536432838224684 -0.0084448565981528594 0 0.0094307781524930103 -0.0084978359247356045 0 0.0094536432838224684 -0.0084448565981528594 0 0.0094709169174713222 -0.0084503747551904953 0 0.0094307781524930103 -0.0084978359247356045 0 0.0094536432838224684 -0.0084448565981528594 0 0.0095166922455908395 -0.0083882589318843639 0 0.0094709169174713222 -0.0084503747551904953 0 0.0094536432838224684 -0.0084448565981528594 0 0.0094787610650111202 -0.0083816065664411681 0 0.0095166922455908395 -0.0083882589318843639 0 0.0094536432838224684 -0.0084448565981528594 0 0.0094146185929247124 -0.0084547788192843535 0 0.0094787610650111202 -0.0083816065664411681 0 0.0094536432838224684 -0.0084448565981528594 0 0.0094146185929247124 -0.0084547788192843535 0 0.0094089531678685622 -0.0084821062043511867 0 0.0094146185929247124 -0.0084547788192843535 0 0.0093785779032255767 -0.0085553025763697929 0 0.0093354017040257319 -0.0085207806540668514 0 0.0094398252477803403 -0.0085240064334821015 0 0.0094089531678685622 -0.0084821062043511867 0 0.0093785779032255767 -0.0085553025763697929 0 0.0094146185929247124 -0.0084547788192843535 0 0.0094089531678685622 -0.0084821062043511867 0 0.0093785779032255767 -0.0085553025763697929 0 0.0093224855211638796 -0.0087205003433954015 0 0.0093785779032255767 -0.0085553025763697929 0 0.0093354017040257319 -0.0085207806540668514 0 0.0078692452591156807 -0.0090266640685562633 0 0.0084690279612770012 -0.0089517933500228974 0 0.0081083784691823833 -0.0093043188505071255 0 0.0078692452591156807 -0.0090266640685562633 0 0.0081083784691823833 -0.0093043188505071255 0 0.0071722883815318423 -0.0096385455764035257 0 0.0085000477120558589 -0.0092132540302525111 0 0.0077238612555835355 -0.009644052573631292 0 0.008754359659382099 -0.0099717799965727827 0 0.0078011732383369628 -0.0093489606021766956 0 0.008613338039495563 -0.0094564142943649471 0 0.0090491762473459969 -0.0091242652496091054 0 0.0085000477120558589 -0.0092132540302525111 0 0.008754359659382099 -0.0099717799965727827 0 0.0096981196436745649 -0.009273046807300284 0 0.0090491762473459969 -0.0091242652496091054 0 0.008754359659382099 -0.0099717799965727827 0 0.0096981196436745649 -0.009273046807300284 0 0.0098259801418588005 -0.010208920181403671 0 0.008754359659382099 -0.0099717799965727827 0 0.0088087377473400827 -0.008959427357406298 0 0.0084690279612770012 -0.0089517933500228974 0 0.008626381110515358 -0.0091025490990751402 0 0.0093244205059922671 -0.0096384357248059192 0 0.008613338039495563 -0.0094564142943649471 0 0.0088087377473400827 -0.008959427357406298 0 0.008626381110515358 -0.0091025490990751402 0 0.008788633036196182 -0.0090541095866443523 0 0.0088583326570892996 -0.0090073490011135168 0 0.0088087377473400827 -0.008959427357406298 0 0.008788633036196182 -0.0090541095866443523 0 0.0088818851015544011 -0.0090019666214402223 0 0.008788633036196182 -0.0090541095866443523 0 0.0087368824793600721 -0.0091383309665167591 0 0.008626381110515358 -0.0091025490990751402 0 0.0087368824793600721 -0.0091383309665167591 0 0.0084414477898099478 -0.0092340432429032972 0 0.008626381110515358 -0.0091025490990751402 0 0.008788633036196182 -0.0090541095866443523 0 0.0087368824793600721 -0.0091383309665167591 0 0.0084414477898099478 -0.0092340432429032972 0 0.0081453955108124806 -0.0093471207256240509 0 0.0084946766725703601 -0.0092646649880350901 0 0.0087368824793600721 -0.0091383309665167591 0 0.0084414477898099478 -0.0092340432429032972 0 0.0084946766725703601 -0.0092646649880350901 0 0.0084690279612770012 -0.0089517933500228974 0 0.008626381110515358 -0.0091025490990751402 0 0.0081083784691823833 -0.0093043188505071255 0 0.008626381110515358 -0.0091025490990751402 0 0.0084414477898099478 -0.0092340432429032972 0 0.0081083784691823833 -0.0093043188505071255 0 0.0081083784691823833 -0.0093043188505071255 0 0.0081453955108124806 -0.0093471207256240509 0 0.0077621746725191438 -0.0094109856380950024 0 0.0084414477898099478 -0.0092340432429032972 0 0.0081083784691823833 -0.0093043188505071255 0 0.0081453955108124806 -0.0093471207256240509 0 0.0078090489213493153 -0.0094862651370156096 0 0.007412641310599162 -0.0095997596142468854 0 0.0077621746725191438 -0.0094109856380950024 0 0.0081453955108124806 -0.0093471207256240509 0 0.0078090489213493153 -0.0094862651370156096 0 0.0077621746725191438 -0.0094109856380950024 0 0.007412641310599162 -0.0095997596142468854 0 0.0072102751166119227 -0.0096738571091852122 0 0.0075378163181443391 -0.009592821402520893 0 0.0078090489213493153 -0.0094862651370156096 0 0.007412641310599162 -0.0095997596142468854 0 0.0075378163181443391 -0.009592821402520893 0 0.007412641310599162 -0.0095997596142468854 0 0.0072368510044576381 -0.0094881477262971255 0 0.0068528636748551612 -0.0097801895472032427 0 0.0072368510044576381 -0.0094881477262971255 0 0.0077621746725191438 -0.0094109856380950024 0 0.0075886345698150705 -0.0091641577547069194 0 0.007412641310599162 -0.0095997596142468854 0 0.0072368510044576381 -0.0094881477262971255 0 0.0077621746725191438 -0.0094109856380950024 0 0.0080275179937808177 -0.0093385414028654221 0 0.0073651863044048704 -0.0093900411191772479 0 0.0081083784691823833 -0.0093043188505071255 0 0.0077621746725191438 -0.0094109856380950024 0 0.0075886345698150705 -0.0091641577547069194 0 0.0073651863044048704 -0.0093900411191772479 0 0.0063152013930684089 -0.0094618641244659275 0 0.0071722883815318423 -0.0096385455764035257 0 0.006467959679810187 -0.0094337165281017585 0 0.0060981210693587364 -0.0097584343772456374 0 0.0072368510044576381 -0.0094881477262971255 0 0.0075886345698150705 -0.0091641577547069194 0 0.0065559731951247285 -0.0091272687386220533 0 0.0068286882403408838 -0.0092493608174818095 0 0.006467959679810187 -0.0094337165281017585 0 0.006433069584502126 -0.0089612242311651862 0 0.0071722883815318423 -0.0096385455764035257 0 0.0068286882403408838 -0.0092493608174818095 0 0.006467959679810187 -0.0094337165281017585 0 0.0078692452591156807 -0.0090266640685562633 0 0.0071722883815318423 -0.0096385455764035257 0 0.0068286882403408838 -0.0092493608174818095 0 0.0077238612555835355 -0.009644052573631292 0 0.0068286882403408838 -0.0092493608174818095 0 0.0071890206950023421 -0.0088138978073451415 0 0.0078011732383369628 -0.0093489606021766956 0 0.0069171592737167662 -0.0092396861061303098 0 0.005475086182081511 -0.0095036167502943365 0 0.0060981210693587364 -0.0097584343772456374 0 0.0050587175129418495 -0.0095123390264695885 0 0.0063152013930684089 -0.0094618641244659275 0 0.0051938198092272335 -0.0094627124338030732 0 0.0061026056918343742 -0.0090751230078035851 0 0.0047117012679061283 -0.0089730097398170797 0 0.0042219273380761316 -0.008632569047636568 0 0.0061410333612885396 -0.0092670528637715539 0 0.004607806108146882 -0.0091069901242114941 0 0.0065559731951247285 -0.0091272687386220533 0 0.0062319133609443546 -0.0094241068282758869 0 0.0050587175129418495 -0.0095123390264695885 0 0.0062319133609443546 -0.0094241068282758869 0 0.0050587175129418495 -0.0095123390264695885 0 0.004950155143421316 -0.0095956000382800936 0 0.005475086182081511 -0.0095036167502943365 0 0.0050587175129418495 -0.0095123390264695885 0 0.0051772304808546605 -0.0093892369413697534 0 0.005475086182081511 -0.0095036167502943365 0 0.0055614513039587404 -0.0093683458846649265 0 0.0051772304808546605 -0.0093892369413697534 0 0.005475086182081511 -0.0095036167502943365 0 0.0055614513039587404 -0.0093683458846649265 0 0.0060981210693587364 -0.0097584343772456374 0 0.0055614513039587404 -0.0093683458846649265 0 0.0060524377553509709 -0.0092830563867642296 0 0.0060981210693587364 -0.0097584343772456374 0 0.006467959679810187 -0.0094337165281017585 0 0.0060524377553509709 -0.0092830563867642296 0 0.0060981210693587364 -0.0097584343772456374 0 0.0072368510044576381 -0.0094881477262971255 0 0.0065559731951247285 -0.0091272687386220533 0 0.0062319133609443546 -0.0094241068282758869 0 0.0071405802774688028 -0.0095113020591754156 0 0.0061410333612885396 -0.0092670528637715539 0 0.0061026056918343742 -0.0090751230078035851 0 0.0051971559039525805 -0.0091624360532753229 0 0.0054198332496794652 -0.0095016860767842826 0 0.0061026056918343742 -0.0090751230078035851 0 0.0054198332496794652 -0.0095016860767842826 0 0.0064586888489385208 -0.0096404576916391573 0 0.0061026056918343742 -0.0090751230078035851 0 0.0051971559039525805 -0.0091624360532753229 0 0.0047117012679061283 -0.0089730097398170797 0 0.0051971559039525805 -0.0091624360532753229 0 0.004778346890301593 -0.0092752511570285707 0 0.0047117012679061283 -0.0089730097398170797 0 0.0051971559039525805 -0.0091624360532753229 0 0.0054198332496794652 -0.0095016860767842826 0 0.004778346890301593 -0.0092752511570285707 0 0.0054198332496794652 -0.0095016860767842826 0 0.0048955511032236169 -0.0099309520266425838 0 0.0044997040392792433 -0.0095849916500394868 0 0.0062588756722480555 -0.010029870130354704 0 0.0048955511032236169 -0.0099309520266425838 0 0.0043069991634518386 -0.010622244072667106 0 0.0054198332496794652 -0.0095016860767842826 0 0.0062588756722480555 -0.010029870130354704 0 0.0048955511032236169 -0.0099309520266425838 0 0.0054198332496794652 -0.0095016860767842826 0 0.0062588756722480555 -0.010029870130354704 0 0.0064586888489385208 -0.0096404576916391573 0 0.0072368510044576381 -0.0094881477262971255 0 0.0064586888489385208 -0.0096404576916391573 0 0.0068528636748551612 -0.0097801895472032427 0 0.0072368510044576381 -0.0094881477262971255 0 0.0061026056918343742 -0.0090751230078035851 0 0.0064586888489385208 -0.0096404576916391573 0 0.0062588756722480555 -0.010029870130354704 0 0.0064586888489385208 -0.0096404576916391573 0 0.0068528636748551612 -0.0097801895472032427 0 0.0068528636748551612 -0.0097801895472032427 0 0.0068435098078798761 -0.0097482221661238586 0 0.0072102751166119227 -0.0096738571091852122 0 0.0062588756722480555 -0.010029870130354704 0 0.0068528636748551612 -0.0097801895472032427 0 0.0068435098078798761 -0.0097482221661238586 0 0.007412641310599162 -0.0095997596142468854 0 0.0068528636748551612 -0.0097801895472032427 0 0.0072102751166119227 -0.0096738571091852122 0 0.0062588756722480555 -0.010029870130354704 0 0.0068435098078798761 -0.0097482221661238586 0 0.0069686159403916145 -0.0097127826643824966 0 0.0062588756722480555 -0.010029870130354704 0 0.0044516713180768261 -0.011786894142198514 0 0.0043069991634518386 -0.010622244072667106 0 0.0062258101706037317 -0.010070769032222211 0 0.0057975245941234545 -0.010664421303778777 0 0.0044516713180768261 -0.011786894142198514 0 0.0033464434825542012 -0.011295627669750051 0 0.0043069991634518386 -0.010622244072667106 0 0.0033464434825542012 -0.011295627669750051 0 0.0034740214779254716 -0.01059376910934506 0 0.0043069991634518386 -0.010622244072667106 0 0.0044516713180768261 -0.011786894142198514 0 0.0033464434825542012 -0.011295627669750051 0 0.0032161876342649063 -0.012111858079814653 0 0.0033464434825542012 -0.011295627669750051 0 0.0025621116274301124 -0.011411356004156598 0 0.0028258526604153658 -0.011786873062689928 0 0.0033464434825542012 -0.011295627669750051 0 0.0025621116274301124 -0.011411356004156598 0 0.0027177623446374847 -0.010760622098392085 0 0.0033464434825542012 -0.011295627669750051 0 0.0034740214779254716 -0.01059376910934506 0 0.0027177623446374847 -0.010760622098392085 0 0.0034740214779254716 -0.01059376910934506 0 0.0027177623446374847 -0.010760622098392085 0 0.0031523713653260317 -0.010220699204185352 0 0.0027177623446374847 -0.010760622098392085 0 0.0031523713653260317 -0.010220699204185352 0 0.0025113344261202203 -0.010251110537585331 0 0.0031523713653260317 -0.010220699204185352 0 0.0039619416731732334 -0.010096291476835741 0 0.0036365167028788834 -0.009734776618261826 0 0.0034740214779254716 -0.01059376910934506 0 0.0031523713653260317 -0.010220699204185352 0 0.0039619416731732334 -0.010096291476835741 0 0.0039619416731732334 -0.010096291476835741 0 0.0048955511032236169 -0.0099309520266425838 0 0.0044997040392792433 -0.0095849916500394868 0 0.0039619416731732334 -0.010096291476835741 0 0.0048955511032236169 -0.0099309520266425838 0 0.0043069991634518386 -0.010622244072667106 0 0.0034740214779254716 -0.01059376910934506 0 0.0039619416731732334 -0.010096291476835741 0 0.0043069991634518386 -0.010622244072667106 0 0.001027902500475178 -0.011561786954870246 0 0.0012717097973855302 -0.011060384583494665 0 0.0015735572661544873 -0.011308894236936944 0 0.001027902500475178 -0.011561786954870246 0 0.0015735572661544873 -0.011308894236936944 0 0.001474930157459863 -0.011768618057302555 0 0.0015735572661544873 -0.011308894236936944 0 0.0019671815139875553 -0.011621591136330848 0 0.001474930157459863 -0.011768618057302555 0 0.0012717097973855302 -0.011060384583494665 0 0.0015735572661544873 -0.011308894236936944 0 0.0016834649122364155 -0.010834509176781762 0 0.0015735572661544873 -0.011308894236936944 0 0.0020985729815291613 -0.011085836054849212 0 0.0016834649122364155 -0.010834509176781762 0 0.0015735572661544873 -0.011308894236936944 0 0.0020985729815291613 -0.011085836054849212 0 0.0019671815139875553 -0.011621591136330848 0 0.0025621116274301124 -0.011411356004156598 0 0.0020985729815291613 -0.011085836054849212 0 0.0019671815139875553 -0.011621591136330848 0 0.0025621116274301124 -0.011411356004156598 0 0.0019671815139875553 -0.011621591136330848 0 0.0024085943724580818 -0.011828288760567464 0 0.0025621116274301124 -0.011411356004156598 0 0.0027177623446374847 -0.010760622098392085 0 0.0020985729815291613 -0.011085836054849212 0 0.0027177623446374847 -0.010760622098392085 0 0.0020985729815291613 -0.011085836054849212 0 0.0021608391836780883 -0.010592000931377564 0 0.0027177623446374847 -0.010760622098392085 0 0.0025113344261202203 -0.010251110537585331 0 0.0021608391836780883 -0.010592000931377564 0 0.0025113344261202203 -0.010251110537585331 0 0.0021608391836780883 -0.010592000931377564 0 0.0018388073385340784 -0.010352154214808961 0 0.0021608391836780883 -0.010592000931377564 0 0.0016834649122364155 -0.010834509176781762 0 0.0018388073385340784 -0.010352154214808961 0 0.0020985729815291613 -0.011085836054849212 0 0.0021608391836780883 -0.010592000931377564 0 0.0016834649122364155 -0.010834509176781762 0 0.0016834649122364155 -0.010834509176781762 0 0.0018388073385340784 -0.010352154214808961 0 0.0012240916963510481 -0.010593795793356238 0 0.0012717097973855302 -0.011060384583494665 0 0.0016834649122364155 -0.010834509176781762 0 0.0012240916963510481 -0.010593795793356238 0 0.0018388073385340784 -0.010352154214808961 0 0.0012240916963510481 -0.010593795793356238 0 0.001385942342589763 -0.010049057239804324 0 0.0018388073385340784 -0.010352154214808961 0 0.001385942342589763 -0.010049057239804324 0 0.0020966285893029559 -0.0098528293835325343 0 0.001385942342589763 -0.010049057239804324 0 0.0020966285893029559 -0.0098528293835325343 0 0.0016425092583858246 -0.0095443895306188443 0 0.0025113344261202203 -0.010251110537585331 0 0.0018388073385340784 -0.010352154214808961 0 0.0020966285893029559 -0.0098528293835325343 0 0.0025113344261202203 -0.010251110537585331 0 0.0020966285893029559 -0.0098528293835325343 0 0.0027994609484842965 -0.0097930203131241129 0 0.0020966285893029559 -0.0098528293835325343 0 0.0025419606430615825 -0.0092640473504063542 0 0.0027994609484842965 -0.0097930203131241129 0 0.0025419606430615825 -0.0092640473504063542 0 0.0016425092583858246 -0.0095443895306188443 0 0.0017879325990100036 -0.0090171448982465634 0 0.0020966285893029559 -0.0098528293835325343 0 0.0025419606430615825 -0.0092640473504063542 0 0.0016425092583858246 -0.0095443895306188443 0 0.0008794307736283858 -0.0097759174351231513 0 0.0016425092583858246 -0.0095443895306188443 0 0.0012040650812738631 -0.0093232586494763001 0 0.0008794307736283858 -0.0097759174351231513 0 0.001385942342589763 -0.010049057239804324 0 0.0016425092583858246 -0.0095443895306188443 0 0.0016425092583858246 -0.0095443895306188443 0 0.0012040650812738631 -0.0093232586494763001 0 0.0017879325990100036 -0.0090171448982465634 0 0.0041077318942630879 -0.0091738300913532592 0 0.0036365167028788834 -0.009734776618261826 0 0.0033098496577568183 -0.0093702341225060971 0 0.0041077318942630879 -0.0091738300913532592 0 0.004778346890301593 -0.0092752511570285707 0 0.0047117012679061283 -0.0089730097398170797 0 0.0041077318942630879 -0.0091738300913532592 0 0.004778346890301593 -0.0092752511570285707 0 0.0044997040392792433 -0.0095849916500394868 0 0.0054198332496794652 -0.0095016860767842826 0 0.004778346890301593 -0.0092752511570285707 0 0.0044997040392792433 -0.0095849916500394868 0 0.0041077318942630879 -0.0091738300913532592 0 0.0044997040392792433 -0.0095849916500394868 0 0.0036365167028788834 -0.009734776618261826 0 0.0039619416731732334 -0.010096291476835741 0 0.0044997040392792433 -0.0095849916500394868 0 0.0036365167028788834 -0.009734776618261826 0 0.0031523713653260317 -0.010220699204185352 0 0.0036365167028788834 -0.009734776618261826 0 0.0027994609484842965 -0.0097930203131241129 0 0.0031523713653260317 -0.010220699204185352 0 0.0025113344261202203 -0.010251110537585331 0 0.0027994609484842965 -0.0097930203131241129 0 0.0025419606430615825 -0.0092640473504063542 0 0.0027994609484842965 -0.0097930203131241129 0 0.0033098496577568183 -0.0093702341225060971 0 0.0036365167028788834 -0.009734776618261826 0 0.0027994609484842965 -0.0097930203131241129 0 0.0033098496577568183 -0.0093702341225060971 0 0.0025419606430615825 -0.0092640473504063542 0 0.0034672641706511584 -0.0089561823098574227 0 0.0027517566662574175 -0.0085731103774551193 0 0.0025419606430615825 -0.0092640473504063542 0 0.0033098496577568183 -0.0093702341225060971 0 0.0034672641706511584 -0.0089561823098574227 0 0.0034672641706511584 -0.0089561823098574227 0 0.0042219273380761316 -0.008632569047636568 0 0.0027517566662574175 -0.0085731103774551193 0 0.0041077318942630879 -0.0091738300913532592 0 0.0033098496577568183 -0.0093702341225060971 0 0.0034672641706511584 -0.0089561823098574227 0 0.0041077318942630879 -0.0091738300913532592 0 0.0034672641706511584 -0.0089561823098574227 0 0.0040372076906952095 -0.0089144647183020849 0 0.0034672641706511584 -0.0089561823098574227 0 0.0040372076906952095 -0.0089144647183020849 0 0.0042219273380761316 -0.008632569047636568 0 0.0041077318942630879 -0.0091738300913532592 0 0.0040372076906952095 -0.0089144647183020849 0 0.0042680793781841014 -0.0089245763974377303 0 0.0041077318942630879 -0.0091738300913532592 0 0.0047117012679061283 -0.0089730097398170797 0 0.0042680793781841014 -0.0089245763974377303 0 0.0047117012679061283 -0.0089730097398170797 0 0.0042680793781841014 -0.0089245763974377303 0 0.0042219273380761316 -0.008632569047636568 0 0.0040372076906952095 -0.0089144647183020849 0 0.0042680793781841014 -0.0089245763974377303 0 0.0042219273380761316 -0.008632569047636568 0 0.004950155143421316 -0.0095956000382800936 0 0.0049448964169424023 -0.0094082213194176447 0 0.0045655070090961898 -0.0093584731392641618 0 0.0050587175129418495 -0.0095123390264695885 0 0.004950155143421316 -0.0095956000382800936 0 0.0049448964169424023 -0.0094082213194176447 0 0.0050587175129418495 -0.0095123390264695885 0 0.0049448964169424023 -0.0094082213194176447 0 0.0051772304808546605 -0.0093892369413697534 0 0.004950155143421316 -0.0095956000382800936 0 0.0045655070090961898 -0.0093584731392641618 0 0.0039295234539337316 -0.0094525366161347952 0 0.0045655070090961898 -0.0093584731392641618 0 0.0051263778713762651 -0.009197928003428708 0 0.004938467741600009 -0.0087215933259515901 0 0.0049448964169424023 -0.0094082213194176447 0 0.0051772304808546605 -0.0093892369413697534 0 0.0051263778713762651 -0.009197928003428708 0 0.0049448964169424023 -0.0094082213194176447 0 0.0045655070090961898 -0.0093584731392641618 0 0.0051263778713762651 -0.009197928003428708 0 0.004607806108146882 -0.0091069901242114941 0 0.0033575756707211698 -0.0090184978173501705 0 0.0045655070090961898 -0.0093584731392641618 0 0.0039295234539337316 -0.0094525366161347952 0 0.0043511049776776426 -0.0089477739511900373 0 0.0043511049776776426 -0.0089477739511900373 0 0.0044979412278497331 -0.0084797704472086791 0 0.0037736160148410594 -0.0087622238947752777 0 0.0039295234539337316 -0.0094525366161347952 0 0.0043511049776776426 -0.0089477739511900373 0 0.0037736160148410594 -0.0087622238947752777 0 0.0045655070090961898 -0.0093584731392641618 0 0.0043511049776776426 -0.0089477739511900373 0 0.004938467741600009 -0.0087215933259515901 0 0.0043511049776776426 -0.0089477739511900373 0 0.0044979412278497331 -0.0084797704472086791 0 0.004938467741600009 -0.0087215933259515901 0 0.0017879325990100036 -0.0090171448982465634 0 0.001627829000151186 -0.0085694861104753627 0 0.001049901114586487 -0.0089589739413077595 0 0.0012040650812738631 -0.0093232586494763001 0 0.0017879325990100036 -0.0090171448982465634 0 0.001049901114586487 -0.0089589739413077595 0 0.0027517566662574175 -0.0085731103774551193 0 0.0017879325990100036 -0.0090171448982465634 0 0.001627829000151186 -0.0085694861104753627 0 0.0025419606430615825 -0.0092640473504063542 0 0.0027517566662574175 -0.0085731103774551193 0 0.0017879325990100036 -0.0090171448982465634 0 0.0033575756707211698 -0.0090184978173501705 0 0.0022518823652272445 -0.008916411795982038 0 0.0039295234539337316 -0.0094525366161347952 0 0.0028606551766042856 -0.0092609684480722265 0 0.0037736160148410594 -0.0087622238947752777 0 0.00072700536499071579 -0.0085594642842150483 0 0.001627829000151186 -0.0085694861104753627 0 0.001049901114586487 -0.0089589739413077595 0 0.0015993127567969882 -0.0089899920481125752 0 0.0028606551766042856 -0.0092609684480722265 0 0.0030235402607270362 -0.008678567574588094 0 0.0011449701065406994 -0.0087628498220707549 0 0.0022518823652272445 -0.008916411795982038 0 0.0015993127567969882 -0.0089899920481125752 0 0.0030235402607270362 -0.008678567574588094 0 0.0025784714771527289 -0.0081729288869290349 0 0.0028606551766042856 -0.0092609684480722265 0 0.0030235402607270362 -0.008678567574588094 0 0.0037736160148410594 -0.0087622238947752777 0 0.0030235402607270362 -0.008678567574588094 0 0.0037736160148410594 -0.0087622238947752777 0 0.0035501229009378354 -0.008305231108913895 0 0.0030235402607270362 -0.008678567574588094 0 0.0031425366693901662 -0.0079327278111627261 0 0.0035501229009378354 -0.008305231108913895 0 0.0030235402607270362 -0.008678567574588094 0 0.0031425366693901662 -0.0079327278111627261 0 0.0025784714771527289 -0.0081729288869290349 0 0.0031425366693901662 -0.0079327278111627261 0 0.0035501229009378354 -0.008305231108913895 0 0.0037414414261315899 -0.0078650716451923574 0 0.0034482903047880274 -0.0076030364461302955 0 0.0031425366693901662 -0.0079327278111627261 0 0.0037414414261315899 -0.0078650716451923574 0 0.0031425366693901662 -0.0079327278111627261 0 0.0025784714771527289 -0.0081729288869290349 0 0.0025962653374167178 -0.0077813277726988877 0 0.0028899150845881796 -0.0075205339968255581 0 0.0031425366693901662 -0.0079327278111627261 0 0.0025962653374167178 -0.0077813277726988877 0 0.0015993127567969882 -0.0089899920481125752 0 0.0018702677780340403 -0.007827469151293228 0 0.0025784714771527289 -0.0081729288869290349 0 0.0018702677780340403 -0.007827469151293228 0 0.0025784714771527289 -0.0081729288869290349 0 0.0025962653374167178 -0.0077813277726988877 0 0.0044979412278497331 -0.0084797704472086791 0 0.0041022650653884203 -0.0081966025154578438 0 0.0047164079792051724 -0.0080136255198024735 0 0.0044979412278497331 -0.0084797704472086791 0 0.0037736160148410594 -0.0087622238947752777 0 0.0041022650653884203 -0.0081966025154578438 0 0.0037736160148410594 -0.0087622238947752777 0 0.0035501229009378354 -0.008305231108913895 0 0.0041022650653884203 -0.0081966025154578438 0 0.0035501229009378354 -0.008305231108913895 0 0.0041022650653884203 -0.0081966025154578438 0 0.0037414414261315899 -0.0078650716451923574 0 0.0041022650653884203 -0.0081966025154578438 0 0.0037414414261315899 -0.0078650716451923574 0 0.004181534980349959 -0.0077822667655024812 0 0.0037319400838188061 -0.0074123437181476846 0 0.0037414414261315899 -0.0078650716451923574 0 0.004181534980349959 -0.0077822667655024812 0 0.0041022650653884203 -0.0081966025154578438 0 0.0047164079792051724 -0.0080136255198024735 0 0.004181534980349959 -0.0077822667655024812 0 0.0044388862479142347 -0.0074059246829439153 0 0.0047164079792051724 -0.0080136255198024735 0 0.004181534980349959 -0.0077822667655024812 0 0.004951332993318334 -0.0074838876410233401 0 0.0047164079792051724 -0.0080136255198024735 0 0.0055456121113148689 -0.0078095168573458383 0 0.0047164079792051724 -0.0080136255198024735 0 0.0051385986702302518 -0.0083549737235455793 0 0.0055456121113148689 -0.0078095168573458383 0 0.0044979412278497331 -0.0084797704472086791 0 0.0047164079792051724 -0.0080136255198024735 0 0.0051385986702302518 -0.0083549737235455793 0 0.0052919868741350086 -0.008230277220350397 0 0.0050002283333048991 -0.0086270121212354937 0 0.0044979412278497331 -0.0084797704472086791 0 0.0051385986702302518 -0.0083549737235455793 0 0.004938467741600009 -0.0087215933259515901 0 0.0056079114305790509 -0.0078309743527157916 0 0.0061389905389996691 -0.0072247948918159437 0 0.0064076395604754002 -0.0078880935488589016 0 0.0056079114305790509 -0.0078309743527157916 0 0.0064076395604754002 -0.0078880935488589016 0 0.0059928087473253653 -0.0084465139350543318 0 0.0052919868741350086 -0.008230277220350397 0 0.0061568748460359649 -0.0069131570805576106 0 0.0061389905389996691 -0.0072247948918159437 0 0.0067464039370053229 -0.0073977735543082901 0 0.0064076395604754002 -0.0078880935488589016 0 0.0065847690008349977 -0.0066568224797275413 0 0.0067464039370053229 -0.0073977735543082901 0 0.007324332281881802 -0.007302412371587459 0 0.0067464039370053229 -0.0073977735543082901 0 0.007324332281881802 -0.007302412371587459 0 0.007178992120097042 -0.0080651697278371591 0 0.007178992120097042 -0.0080651697278371591 0 0.0064076395604754002 -0.0078880935488589016 0 0.0066815635304579126 -0.0083982749250811929 0 0.0067464039370053229 -0.0073977735543082901 0 0.007178992120097042 -0.0080651697278371591 0 0.0064076395604754002 -0.0078880935488589016 0 0.0066815635304579126 -0.0083982749250811929 0 0.0071890206950023421 -0.0088138978073451415 0 0.006433069584502126 -0.0089612242311651862 0 0.0078885795030782992 -0.0087324193215892118 0 0.007178992120097042 -0.0080651697278371591 0 0.0071890206950023421 -0.0088138978073451415 0 0.007178992120097042 -0.0080651697278371591 0 0.0066815635304579126 -0.0083982749250811929 0 0.0071890206950023421 -0.0088138978073451415 0 0.0068286882403408838 -0.0092493608174818095 0 0.0071890206950023421 -0.0088138978073451415 0 0.006433069584502126 -0.0089612242311651862 0 0.006433069584502126 -0.0089612242311651862 0 0.0056804103156790076 -0.0090183366346839929 0 0.0059928087473253653 -0.0084465139350543318 0 0.006467959679810187 -0.0094337165281017585 0 0.0060524377553509709 -0.0092830563867642296 0 0.006433069584502126 -0.0089612242311651862 0 0.0060524377553509709 -0.0092830563867642296 0 0.006433069584502126 -0.0089612242311651862 0 0.0056804103156790076 -0.0090183366346839929 0 0.0055614513039587404 -0.0093683458846649265 0 0.0060524377553509709 -0.0092830563867642296 0 0.0056804103156790076 -0.0090183366346839929 0 0.0055614513039587404 -0.0093683458846649265 0 0.0051263778713762651 -0.009197928003428708 0 0.0056804103156790076 -0.0090183366346839929 0 0.0051263778713762651 -0.009197928003428708 0 0.0056804103156790076 -0.0090183366346839929 0 0.004938467741600009 -0.0087215933259515901 0 0.0055614513039587404 -0.0093683458846649265 0 0.0051772304808546605 -0.0093892369413697534 0 0.0051263778713762651 -0.009197928003428708 0 0.0056804103156790076 -0.0090183366346839929 0 0.004938467741600009 -0.0087215933259515901 0 0.0059928087473253653 -0.0084465139350543318 0 0.0056079114305790509 -0.0078309743527157916 0 0.004938467741600009 -0.0087215933259515901 0 0.0059928087473253653 -0.0084465139350543318 0 0.0066815635304579126 -0.0083982749250811929 0 0.006433069584502126 -0.0089612242311651862 0 0.0059928087473253653 -0.0084465139350543318 0 0.0064076395604754002 -0.0078880935488589016 0 0.0066815635304579126 -0.0083982749250811929 0 0.0059928087473253653 -0.0084465139350543318 0 0.01530252950950828 -0.012080075423914548 0 0.015606119690514314 -0.012225561500910108 0 0.015348194363301189 -0.012497870719656702 0 0.015307318232078183 -0.011348496205508901 0 0.01537692648933449 -0.011501195734842047 0 0.01530252950950828 -0.012080075423914548 0 0.015389710017056579 -0.011548989256215914 0 0.015606119690514314 -0.012225561500910108 0 0.015245798753518579 -0.011098568897654692 0 0.015237320532155485 -0.01108762658116492 0 0.015225903772329984 -0.011076872052045453 0 0.01530252950950828 -0.012080075423914548 0 0.014999868367776698 -0.011747140373197752 0 0.015389710017056579 -0.011548989256215914 0 0.01530252950950828 -0.012080075423914548 0 0.014999868367776698 -0.011747140373197752 0 0.01499978895426821 -0.012582386427752093 0 0.014999868367776698 -0.011747140373197752 0 0.015389710017056579 -0.011548989256215914 0 0.015000024243504316 -0.010911635232960699 0 0.01524196628032109 -0.011117531919545872 0 0.015248314933874239 -0.011116012623438745 0 0.015168353430985685 -0.010908971129776341 0 0.01524196628032109 -0.011117531919545872 0 0.015245798753518579 -0.011098568897654692 0 0.015225903772329984 -0.011076872052045453 0 0.015260652873527606 -0.01107124680788696 0 0.015248314933874239 -0.011116012623438745 0 0.015238416397243047 -0.011007200099451667 0 0.015260652873527606 -0.01107124680788696 0 0.015248314933874239 -0.011116012623438745 0 0.015258199392773668 -0.011095366201777293 0 0.01524196628032109 -0.011117531919545872 0 0.015248314933874239 -0.011116012623438745 0 0.015245798753518579 -0.011098568897654692 0 0.015248314933874239 -0.011116012623438745 0 0.015245798753518579 -0.011098568897654692 0 0.015258199392773668 -0.011095366201777293 0 0.015245798753518579 -0.011098568897654692 0 0.015249334558168745 -0.011094089361697073 0 0.015237320532155485 -0.01108762658116492 0 0.015245798753518579 -0.011098568897654692 0 0.015259748639242959 -0.011094904023410589 0 0.015258199392773668 -0.011095366201777293 0 0.015245798753518579 -0.011098568897654692 0 0.015249334558168745 -0.011094089361697073 0 0.015259748639242959 -0.011094904023410589 0 0.015249334558168745 -0.011094089361697073 0 0.015259748639242959 -0.011094904023410589 0 0.015250807065021518 -0.011095388785650386 0 0.015259748639242959 -0.011094904023410589 0 0.015269640741176078 -0.011079871791878878 0 0.015272823088919706 -0.011095815727893211 0 0.015269640741176078 -0.011079871791878878 0 0.015272823088919706 -0.011095815727893211 0 0.015306797601137795 -0.011007199464505873 0 0.015260652873527606 -0.01107124680788696 0 0.015258199392773668 -0.011095366201777293 0 0.015269640741176078 -0.011079871791878878 0 0.015259748639242959 -0.011094904023410589 0 0.015258199392773668 -0.011095366201777293 0 0.015269640741176078 -0.011079871791878878 0 0.015260652873527606 -0.01107124680788696 0 0.015269640741176078 -0.011079871791878878 0 0.015275179766978305 -0.011035502053810306 0 0.015272823088919706 -0.011095815727893211 0 0.015245042062906602 -0.011111131415998824 0 0.015250807065021518 -0.011095388785650386 0 0.015259748639242959 -0.011094904023410589 0 0.015272823088919706 -0.011095815727893211 0 0.015250807065021518 -0.011095388785650386 0 0.015245042062906602 -0.011111131415998824 0 0.015212499002743777 -0.011143209278251895 0 0.015281383002353797 -0.011103762861221656 0 0.015272823088919706 -0.011095815727893211 0 0.015245042062906602 -0.011111131415998824 0 0.015281383002353797 -0.011103762861221656 0 0.015212499002743777 -0.011143209278251895 0 0.01509402276360111 -0.011148479133474411 0 0.015144461185989234 -0.011237892037051188 0 0.015195229756751531 -0.011102561042915123 0 0.01509402276360111 -0.011148479133474411 0 0.015156137046450194 -0.011083667616346689 0 0.015212499002743777 -0.011143209278251895 0 0.015195229756751531 -0.011102561042915123 0 0.01509402276360111 -0.011148479133474411 0 0.015245042062906602 -0.011111131415998824 0 0.015212499002743777 -0.011143209278251895 0 0.015195229756751531 -0.011102561042915123 0 0.015245042062906602 -0.011111131415998824 0 0.015195229756751531 -0.011102561042915123 0 0.015226947680007394 -0.011086346257722368 0 0.015195229756751531 -0.011102561042915123 0 0.015195782191080674 -0.011073198129134888 0 0.015226947680007394 -0.011086346257722368 0 0.015195229756751531 -0.011102561042915123 0 0.015195782191080674 -0.011073198129134888 0 0.015156137046450194 -0.011083667616346689 0 0.015195782191080674 -0.011073198129134888 0 0.015156137046450194 -0.011083667616346689 0 0.015170290745808978 -0.011054895906967949 0 0.015195782191080674 -0.011073198129134888 0 0.015226947680007394 -0.011086346257722368 0 0.015216159153268892 -0.011077143621153784 0 0.015237320532155485 -0.01108762658116492 0 0.015226947680007394 -0.011086346257722368 0 0.015216159153268892 -0.011077143621153784 0 0.015237320532155485 -0.01108762658116492 0 0.015250807065021518 -0.011095388785650386 0 0.015226947680007394 -0.011086346257722368 0 0.015249334558168745 -0.011094089361697073 0 0.015237320532155485 -0.01108762658116492 0 0.015250807065021518 -0.011095388785650386 0 0.015245042062906602 -0.011111131415998824 0 0.015250807065021518 -0.011095388785650386 0 0.015226947680007394 -0.011086346257722368 0 0.014478392747977157 -0.012023007589433195 0 0.014598841692546136 -0.011907752521985324 0 0.014530288827546044 -0.012050084645325171 0 0.01509402276360111 -0.011148479133474411 0 0.015135599524202369 -0.011031773843040656 0 0.014966195773455553 -0.011220459857996265 0 0.014733652604034966 -0.012444226637193403 0 0.014790467847089761 -0.011495507661083516 0 0.014478392747977157 -0.012023007589433195 0 0.014454488046620848 -0.012053613615617763 0 0.014326800201743329 -0.012040728191511356 0 0.014478392747977157 -0.012023007589433195 0 0.014454488046620848 -0.012053613615617763 0 0.014530288827546044 -0.012050084645325171 0 0.01509402276360111 -0.011148479133474411 0 0.014966195773455553 -0.011220459857996265 0 0.015144461185989234 -0.011237892037051188 0 0.01509402276360111 -0.011148479133474411 0 0.015156137046450194 -0.011083667616346689 0 0.015135599524202369 -0.011031773843040656 0 0.015156137046450194 -0.011083667616346689 0 0.015170290745808978 -0.011054895906967949 0 0.015135599524202369 -0.011031773843040656 0 0.014805159219604602 -0.012316302198935737 0 0.014733652604034966 -0.012444226637193403 0 0.014478392747977157 -0.012023007589433195 0 0.014598841692546136 -0.011907752521985324 0 0.014326800201743329 -0.012040728191511356 0 0.015198453759769913 -0.011068582571845936 0 0.015207308966129113 -0.011089475701733364 0 0.015214440646414376 -0.011114128294967857 0 0.014733652604034966 -0.012444226637193403 0 0.015286661539520945 -0.012820737030834877 0 0.014920801803246907 -0.014907769332984499 0 0.014645748781594336 -0.014055097190492241 0 0.014378335793902694 -0.014371455126538273 0 0.015198453759769913 -0.011068582571845936 0 0.015200386600815411 -0.011077953362444224 0 0.015207308966129113 -0.011089475701733364 0 0.015198453759769913 -0.011068582571845936 0 0.015188894230876375 -0.011069607730497671 0 0.015200386600815411 -0.011077953362444224 0 0.015170290745808978 -0.011054895906967949 0 0.015198453759769913 -0.011068582571845936 0 0.015188894230876375 -0.011069607730497671 0 0.015170290745808978 -0.011054895906967949 0 0.015188894230876375 -0.011069607730497671 0 0.015197265445623869 -0.011071381110351743 0 0.015216159153268892 -0.011077143621153784 0 0.01520866346019137 -0.011077566977568067 0 0.015225903772329984 -0.011076872052045453 0 0.015237320532155485 -0.01108762658116492 0 0.015216159153268892 -0.011077143621153784 0 0.015225903772329984 -0.011076872052045453 0 0.015195782191080674 -0.011073198129134888 0 0.015216159153268892 -0.011077143621153784 0 0.015197265445623869 -0.011071381110351743 0 0.015195782191080674 -0.011073198129134888 0 0.015170290745808978 -0.011054895906967949 0 0.015197265445623869 -0.011071381110351743 0 0.015188894230876375 -0.011069607730497671 0 0.015200386600815411 -0.011077953362444224 0 0.015197265445623869 -0.011071381110351743 0 0.015200386600815411 -0.011077953362444224 0 0.015197265445623869 -0.011071381110351743 0 0.01520866346019137 -0.011077566977568067 0 0.015216159153268892 -0.011077143621153784 0 0.015197265445623869 -0.011071381110351743 0 0.01520866346019137 -0.011077566977568067 0 0.01520866346019137 -0.011077566977568067 0 0.015207308966129113 -0.011089475701733364 0 0.015225903772329984 -0.011076872052045453 0 0.015200386600815411 -0.011077953362444224 0 0.01520866346019137 -0.011077566977568067 0 0.015207308966129113 -0.011089475701733364 0 0.015207308966129113 -0.011089475701733364 0 0.015225903772329984 -0.011076872052045453 0 0.015214440646414376 -0.011114128294967857 0 0.01537692648933449 -0.011501195734842047 0 0.015286661539520945 -0.012820737030834877 0 0.015606119690514314 -0.012225561500910108 0 0.015472545574118103 -0.012678481823169723 0 0.015671258843497318 -0.012781813155413385 0 0.014920801803246907 -0.014907769332984499 0 0.014645748781594336 -0.014055097190492241 0 0.015060249242698354 -0.013839473870173126 0 0.014645748781594336 -0.014055097190492241 0 0.015060249242698354 -0.013839473870173126 0 0.014969498325452822 -0.013727312593169214 0 0.014645748781594336 -0.014055097190492241 0 0.014969498325452822 -0.013727312593169214 0 0.014496819262068993 -0.013645197077988516 0 0.015286661539520945 -0.012820737030834877 0 0.015323967864276403 -0.013311052557376225 0 0.015093202805751844 -0.013884880109569822 0 0.014969498325452822 -0.013727312593169214 0 0.015305124909643508 -0.013163738310857527 0 0.014969498325452822 -0.013727312593169214 0 0.014744785588550136 -0.013340052758651494 0 0.014496819262068993 -0.013645197077988516 0 0.015286661539520945 -0.012820737030834877 0 0.015362330344776423 -0.013189693050269014 0 0.014969498325452822 -0.013727312593169214 0 0.014744785588550136 -0.013340052758651494 0 0.015305124909643508 -0.013163738310857527 0 0.015472545574118103 -0.012678481823169723 0 0.015671258843497318 -0.012781813155413385 0 0.015423726103103533 -0.012969613926526721 0 0.015671258843497318 -0.012781813155413385 0 0.015423726103103533 -0.012969613926526721 0 0.015305124909643508 -0.013163738310857527 0 0.015423726103103533 -0.012969613926526721 0 0.015331733288709907 -0.01288077337600037 0 0.015377560606888682 -0.013172237344607653 0 0.015472545574118103 -0.012678481823169723 0 0.015423726103103533 -0.012969613926526721 0 0.015331733288709907 -0.01288077337600037 0 0.015472545574118103 -0.012678481823169723 0 0.015331733288709907 -0.01288077337600037 0 0.015348194363301189 -0.012497870719656702 0 0.015606119690514314 -0.012225561500910108 0 0.015472545574118103 -0.012678481823169723 0 0.015348194363301189 -0.012497870719656702 0 0.015331733288709907 -0.01288077337600037 0 0.015348194363301189 -0.012497870719656702 0 0.01499978895426821 -0.012582386427752093 0 0.01530252950950828 -0.012080075423914548 0 0.015348194363301189 -0.012497870719656702 0 0.01499978895426821 -0.012582386427752093 0 0.015331733288709907 -0.01288077337600037 0 0.01499978895426821 -0.012582386427752093 0 0.015000061733431169 -0.013417562500387437 0 0.015000539592845837 -0.014997826775363222 0 0.013493139801337055 -0.015592523786748882 0 0.012125353179165937 -0.015000071371982289 0 0.015331733288709907 -0.01288077337600037 0 0.015000061733431169 -0.013417562500387437 0 0.015377560606888682 -0.013172237344607653 0 0.015000061733431169 -0.013417562500387437 0 0.015377560606888682 -0.013172237344607653 0 0.015431081793115815 -0.0134586872084036 0 0.015000061733431169 -0.013417562500387437 0 0.014999704918181705 -0.014251721453297181 0 0.015431081793115815 -0.0134586872084036 0 0.014999702439878183 -0.014253034500875346 0 0.014771801417815401 -0.014359749526440436 0 0.01499857087238614 -0.014256941238622272 0 0.014304928955834307 -0.015322021511947467 0 0.015000539592845837 -0.014997826775363222 0 0.014304928955834307 -0.015322021511947467 0 0.015000539592845837 -0.014997826775363222 0 0.013493139801337055 -0.015592523786748882 0 0.014771801417815401 -0.014359749526440436 0 0.014197249910300738 -0.014132048692535031 0 0.01497800040641822 -0.012621347486373018 0 0.015272560416290886 -0.01305645846702979 0 0.01476613327817917 -0.012968395330663393 0 0.015377560606888682 -0.013172237344607653 0 0.015431081793115815 -0.0134586872084036 0 0.015272560416290886 -0.01305645846702979 0 0.015431081793115815 -0.0134586872084036 0 0.01497800040641822 -0.012621347486373018 0 0.015272560416290886 -0.01305645846702979 0 0.015423726103103533 -0.012969613926526721 0 0.015377560606888682 -0.013172237344607653 0 0.015305124909643508 -0.013163738310857527 0 0.015377560606888682 -0.013172237344607653 0 0.015272560416290886 -0.01305645846702979 0 0.015305124909643508 -0.013163738310857527 0 0.015272560416290886 -0.01305645846702979 0 0.015305124909643508 -0.013163738310857527 0 0.01476613327817917 -0.012968395330663393 0 0.014744785588550136 -0.013340052758651494 0 0.015305124909643508 -0.013163738310857527 0 0.01476613327817917 -0.012968395330663393 0 0.014744785588550136 -0.013340052758651494 0 0.01476613327817917 -0.012968395330663393 0 0.014130696238665461 -0.013232079902173255 0 0.01476613327817917 -0.012968395330663393 0 0.014130696238665461 -0.013232079902173255 0 0.013806298832637256 -0.012303104815227169 0 0.014130696238665461 -0.013232079902173255 0 0.013258974124216874 -0.012886170881922895 0 0.013806298832637256 -0.012303104815227169 0 0.014130696238665461 -0.013232079902173255 0 0.013258974124216874 -0.012886170881922895 0 0.013540155700803008 -0.013448019581079201 0 0.01497800040641822 -0.012621347486373018 0 0.01476613327817917 -0.012968395330663393 0 0.013806298832637256 -0.012303104815227169 0 0.014197249910300738 -0.014132048692535031 0 0.013175421701262681 -0.014074634490480202 0 0.013493139801337055 -0.015592523786748882 0 0.012570119215041975 -0.015830361731785411 0 0.012125353179165937 -0.015000071371982289 0 0.012125353179165937 -0.015000071371982289 0 0.011680884366625753 -0.015895242574953571 0 0.010585477019287373 -0.015405829226959265 0 0.012570119215041975 -0.015830361731785411 0 0.012125353179165937 -0.015000071371982289 0 0.011680884366625753 -0.015895242574953571 0 0.01213564700703036 -0.014144811356798738 0 0.011200904742795524 -0.014244838125327151 0 0.013258974124216874 -0.012886170881922895 0 0.013806298832637256 -0.012303104815227169 0 0.012569256471000878 -0.012389319676400596 0 0.013175421701262681 -0.014074634490480202 0 0.01213564700703036 -0.014144811356798738 0 0.013258974124216874 -0.012886170881922895 0 0.012569256471000878 -0.012389319676400596 0 0.012410834592658675 -0.013319137034303286 0 0.012569256471000878 -0.012389319676400596 0 0.012410834592658675 -0.013319137034303286 0 0.011571941677857165 -0.012678803856390745 0 0.012410834592658675 -0.013319137034303286 0 0.012681382263255193 -0.014213678173485258 0 0.011680030864675761 -0.013416194405308149 0 0.012410834592658675 -0.013319137034303286 0 0.013271591516241247 -0.013926272937237263 0 0.012681382263255193 -0.014213678173485258 0 0.013258974124216874 -0.012886170881922895 0 0.012410834592658675 -0.013319137034303286 0 0.013540155700803008 -0.013448019581079201 0 0.012410834592658675 -0.013319137034303286 0 0.013540155700803008 -0.013448019581079201 0 0.013271591516241247 -0.013926272937237263 0 0.014130696238665461 -0.013232079902173255 0 0.013540155700803008 -0.013448019581079201 0 0.014030969049670904 -0.013878526503306014 0 0.014130696238665461 -0.013232079902173255 0 0.014496819262068993 -0.013645197077988516 0 0.014030969049670904 -0.013878526503306014 0 0.014744785588550136 -0.013340052758651494 0 0.014130696238665461 -0.013232079902173255 0 0.014496819262068993 -0.013645197077988516 0 0.014030969049670904 -0.013878526503306014 0 0.013843180836345653 -0.014693971249476079 0 0.014378335793902694 -0.014371455126538273 0 0.014645748781594336 -0.014055097190492241 0 0.014496819262068993 -0.013645197077988516 0 0.014030969049670904 -0.013878526503306014 0 0.014645748781594336 -0.014055097190492241 0 0.014030969049670904 -0.013878526503306014 0 0.014378335793902694 -0.014371455126538273 0 0.013540155700803008 -0.013448019581079201 0 0.014030969049670904 -0.013878526503306014 0 0.013271591516241247 -0.013926272937237263 0 0.014030969049670904 -0.013878526503306014 0 0.013271591516241247 -0.013926272937237263 0 0.013843180836345653 -0.014693971249476079 0 0.013271591516241247 -0.013926272937237263 0 0.013843180836345653 -0.014693971249476079 0 0.012681382263255193 -0.014213678173485258 0 0.013957986707415727 -0.01342817778859709 0 0.012764282391635132 -0.013237526009223817 0 0.014920801803246907 -0.014907769332984499 0 0.013843180836345653 -0.014693971249476079 0 0.014378335793902694 -0.014371455126538273 0 0.014733652604034966 -0.012444226637193403 0 0.013957986707415727 -0.01342817778859709 0 0.014598841692546136 -0.011907752521985324 0 0.014012015263358511 -0.011889976430193358 0 0.014326800201743329 -0.012040728191511356 0 0.014454488046620848 -0.012053613615617763 0 0.014326800201743329 -0.012040728191511356 0 0.014464919914430871 -0.012079742974656603 0 0.014326800201743329 -0.012040728191511356 0 0.014034908374536468 -0.012318984826314787 0 0.014464919914430871 -0.012079742974656603 0 0.014012015263358511 -0.011889976430193358 0 0.014326800201743329 -0.012040728191511356 0 0.014034908374536468 -0.012318984826314787 0 0.014012015263358511 -0.011889976430193358 0 0.013155688782723215 -0.012578488286300179 0 0.014034908374536468 -0.012318984826314787 0 0.013155688782723215 -0.012578488286300179 0 0.012257983204788263 -0.012931080628396629 0 0.012753650940080793 -0.01221762169961072 0 0.012257983204788263 -0.012931080628396629 0 0.012753650940080793 -0.01221762169961072 0 0.011772569974409246 -0.0130746740005381 0 0.012753650940080793 -0.01221762169961072 0 0.011772569974409246 -0.0130746740005381 0 0.011680030864675761 -0.013416194405308149 0 0.012764282391635132 -0.013237526009223817 0 0.011842043824567968 -0.013378639343198908 0 0.014012015263358511 -0.011889976430193358 0 0.013155688782723215 -0.012578488286300179 0 0.012753650940080793 -0.01221762169961072 0 0.011178347782405756 -0.0133307032781908 0 0.010880397036137855 -0.013621941869698014 0 0.011680030864675761 -0.013416194405308149 0 0.011772569974409246 -0.0130746740005381 0 0.011178347782405756 -0.0133307032781908 0 0.011680030864675761 -0.013416194405308149 0 0.012257983204788263 -0.012931080628396629 0 0.011772569974409246 -0.0130746740005381 0 0.011408108688497213 -0.013276600035297974 0 0.011772569974409246 -0.0130746740005381 0 0.011178347782405756 -0.0133307032781908 0 0.011408108688497213 -0.013276600035297974 0 0.011178347782405756 -0.0133307032781908 0 0.01087816484471206 -0.013306683937118443 0 0.011408108688497213 -0.013276600035297974 0 0.011178347782405756 -0.0133307032781908 0 0.010780142218581708 -0.013414701361106321 0 0.01087816484471206 -0.013306683937118443 0 0.010780142218581708 -0.013414701361106321 0 0.010663911095238383 -0.013312636220376413 0 0.01087816484471206 -0.013306683937118443 0 0.010780142218581708 -0.013414701361106321 0 0.01076981260347515 -0.013458397051323174 0 0.010663911095238383 -0.013312636220376413 0 0.010780142218581708 -0.013414701361106321 0 0.010670604446157493 -0.013629949743948374 0 0.01076981260347515 -0.013458397051323174 0 0.010780142218581708 -0.013414701361106321 0 0.010670604446157493 -0.013629949743948374 0 0.010880397036137855 -0.013621941869698014 0 0.011178347782405756 -0.0133307032781908 0 0.010780142218581708 -0.013414701361106321 0 0.010880397036137855 -0.013621941869698014 0 0.010880397036137855 -0.013621941869698014 0 0.01041220202702727 -0.014076126611869506 0 0.010974005788361422 -0.013644121025517809 0 0.010670604446157493 -0.013629949743948374 0 0.010880397036137855 -0.013621941869698014 0 0.01041220202702727 -0.014076126611869506 0 0.01041220202702727 -0.014076126611869506 0 0.01031013659345785 -0.013918915629906086 0 0.0096830863068219468 -0.01428867711062462 0 0.01041220202702727 -0.014076126611869506 0 0.01031013659345785 -0.013918915629906086 0 0.010974005788361422 -0.013644121025517809 0 0.010974005788361422 -0.013644121025517809 0 0.011680030864675761 -0.013416194405308149 0 0.011483797922383118 -0.01332008781551024 0 0.010880397036137855 -0.013621941869698014 0 0.010974005788361422 -0.013644121025517809 0 0.011680030864675761 -0.013416194405308149 0 0.012410834592658675 -0.013319137034303286 0 0.011680030864675761 -0.013416194405308149 0 0.011483797922383118 -0.01332008781551024 0 0.012125353179165937 -0.015000071371982289 0 0.010585477019287373 -0.015405829226959265 0 0.0099738208197915762 -0.014999195869165758 0 0.011680884366625753 -0.015895242574953571 0 0.010777245543735985 -0.015826606174041479 0 0.010585477019287373 -0.015405829226959265 0 0.012410834592658675 -0.013319137034303286 0 0.011483797922383118 -0.01332008781551024 0 0.011571941677857165 -0.012678803856390745 0 0.011483797922383118 -0.01332008781551024 0 0.011571941677857165 -0.012678803856390745 0 0.010669409894820183 -0.01322956893769202 0 0.010974005788361422 -0.013644121025517809 0 0.011483797922383118 -0.01332008781551024 0 0.010669409894820183 -0.01322956893769202 0 0.011200904742795524 -0.014244838125327151 0 0.010365546086995804 -0.01432169856019214 0 0.010777245543735985 -0.015826606174041479 0 0.010585477019287373 -0.015405829226959265 0 0.0099222687525451943 -0.015409353170510785 0 0.010585477019287373 -0.015405829226959265 0 0.0099738208197915762 -0.014999195869165758 0 0.0095227749472922459 -0.015091230011942092 0 0.010585477019287373 -0.015405829226959265 0 0.0095227749472922459 -0.015091230011942092 0 0.0099222687525451943 -0.015409353170510785 0 0.010365546086995804 -0.01432169856019214 0 0.0097915800208268327 -0.014429315283021243 0 0.0095227749472922459 -0.015091230011942092 0 0.0099222687525451943 -0.015409353170510785 0 0.0096580892219949727 -0.014458315102082382 0 0.01031013659345785 -0.013918915629906086 0 0.010974005788361422 -0.013644121025517809 0 0.010669409894820183 -0.01322956893769202 0 0.01031013659345785 -0.013918915629906086 0 0.010669409894820183 -0.01322956893769202 0 0.0096580892219949727 -0.014458315102082382 0 0.01031013659345785 -0.013918915629906086 0 0.0096580892219949727 -0.014458315102082382 0 0.0096830863068219468 -0.01428867711062462 0 0.0096580892219949727 -0.014458315102082382 0 0.0092085673134197667 -0.014608255091641632 0 0.0096830863068219468 -0.01428867711062462 0 0.0092085673134197667 -0.014608255091641632 0 0.0092428695189527635 -0.014502335951583711 0 0.0096830863068219468 -0.01428867711062462 0 0.0096580892219949727 -0.014458315102082382 0 0.0092085673134197667 -0.014608255091641632 0 0.0090661880100872012 -0.014916981604102257 0 0.0095227749472922459 -0.015091230011942092 0 0.0096580892219949727 -0.014458315102082382 0 0.0090661880100872012 -0.014916981604102257 0 0.0099738208197915762 -0.014999195869165758 0 0.0095227749472922459 -0.015091230011942092 0 0.0083700119142773848 -0.014999725409219409 0 0.0095227749472922459 -0.015091230011942092 0 0.0090661880100872012 -0.014916981604102257 0 0.0083700119142773848 -0.014999725409219409 0 0.0071712068055791896 -0.014999553890867798 0 0.008184953885705594 -0.015292730395976074 0 0.0083700119142773848 -0.014999725409219409 0 0.008184953885705594 -0.015292730395976074 0 0.0083700119142773848 -0.014999725409219409 0 0.0086470510076486623 -0.014980888610997401 0 0.0090661880100872012 -0.014916981604102257 0 0.0083700119142773848 -0.014999725409219409 0 0.0086470510076486623 -0.014980888610997401 0 0.0091429752993955702 -0.014676610363143017 0 0.008184953885705594 -0.015292730395976074 0 0.0086470510076486623 -0.014980888610997401 0 0.0091429752993955702 -0.014676610363143017 0 0.0086470510076486623 -0.014980888610997401 0 0.0089480523257128089 -0.014613345484194793 0 0.0092085673134197667 -0.014608255091641632 0 0.0090661880100872012 -0.014916981604102257 0 0.0086470510076486623 -0.014980888610997401 0 0.0092085673134197667 -0.014608255091641632 0 0.0086470510076486623 -0.014980888610997401 0 0.0089480523257128089 -0.014613345484194793 0 0.0092085673134197667 -0.014608255091641632 0 0.0089480523257128089 -0.014613345484194793 0 0.0092428695189527635 -0.014502335951583711 0 0.0090025955474894639 -0.01456967866456221 0 0.0091097395702631687 -0.014243194301528719 0 0.0093717889289091517 -0.014167147661253371 0 0.0089480523257128089 -0.014613345484194793 0 0.008997685479549003 -0.013976070379342835 0 0.0093717889289091517 -0.014167147661253371 0 0.0094722594151484957 -0.013630226839858116 0 0.008997685479549003 -0.013976070379342835 0 0.0094722594151484957 -0.013630226839858116 0 0.0090348011359811763 -0.013512190580044625 0 0.0095379369654054226 -0.013176391974149305 0 0.0094722594151484957 -0.013630226839858116 0 0.0090348011359811763 -0.013512190580044625 0 0.008997685479549003 -0.013976070379342835 0 0.0091714342706586752 -0.01411394675837389 0 0.0091097395702631687 -0.014243194301528719 0 0.0094279377599579134 -0.014552439257796238 0 0.0092428695189527635 -0.014502335951583711 0 0.0096830863068219468 -0.01428867711062462 0 0.01041220202702727 -0.014076126611869506 0 0.0096830863068219468 -0.01428867711062462 0 0.0098588838295137968 -0.014630819286472039 0 0.010670604446157493 -0.013629949743948374 0 0.01041220202702727 -0.014076126611869506 0 0.010857873286788309 -0.013685419691913553 0 0.010421313789088078 -0.014074900821035461 0 0.010334894992178302 -0.014209835974877079 0 0.0094279377599579134 -0.014552439257796238 0 0.0096830863068219468 -0.01428867711062462 0 0.0098588838295137968 -0.014630819286472039 0 0.0091714342706586752 -0.01411394675837389 0 0.0099714876211777076 -0.013433982106660853 0 0.0094279377599579134 -0.014552439257796238 0 0.0096077778824797868 -0.014857219799124646 0 0.0098588838295137968 -0.014630819286472039 0 0.0099714876211777076 -0.013433982106660853 0 0.010334894992178302 -0.014209835974877079 0 0.010973065322916468 -0.013499128720034352 0 0.010857873286788309 -0.013685419691913553 0 0.01076981260347515 -0.013458397051323174 0 0.010670604446157493 -0.013629949743948374 0 0.010857873286788309 -0.013685419691913553 0 0.01076981260347515 -0.013458397051323174 0 0.01076981260347515 -0.013458397051323174 0 0.010827622121336597 -0.013294563239564261 0 0.010663911095238383 -0.013312636220376413 0 0.0099714876211777076 -0.013433982106660853 0 0.01063378505104714 -0.012885232561185789 0 0.010311398883530923 -0.012366105016101961 0 0.010168013478897847 -0.012477772805934905 0 0.010402314002998988 -0.012572367229629474 0 0.010973065322916468 -0.013499128720034352 0 0.01076981260347515 -0.013458397051323174 0 0.010827622121336597 -0.013294563239564261 0 0.0089512293480458766 -0.013074860392119577 0 0.0093100433703527056 -0.012807824434043586 0 0.0092716477696032258 -0.013100362216905959 0 0.0099714876211777076 -0.013433982106660853 0 0.0097610798436519198 -0.012614827947244577 0 0.0093100433703527056 -0.012807824434043586 0 0.0096654135423539095 -0.012888114164402088 0 0.0092716477696032258 -0.013100362216905959 0 0.0098961382596230042 -0.012865480593964 0 0.0096654135423539095 -0.012888114164402088 0 0.0099418120607567967 -0.012614995370434723 0 0.0096654135423539095 -0.012888114164402088 0 0.0095379369654054226 -0.013176391974149305 0 0.0092716477696032258 -0.013100362216905959 0 0.0098961382596230042 -0.012865480593964 0 0.0096654135423539095 -0.012888114164402088 0 0.0095379369654054226 -0.013176391974149305 0 0.0090348011359811763 -0.013512190580044625 0 0.0095379369654054226 -0.013176391974149305 0 0.0092716477696032258 -0.013100362216905959 0 0.0090348011359811763 -0.013512190580044625 0 0.0089512293480458766 -0.013074860392119577 0 0.0092716477696032258 -0.013100362216905959 0 0.010206303682547753 -0.012617305648918038 0 0.0099418120607567967 -0.012614995370434723 0 0.010204214245958979 -0.012658904976485728 0 0.010300036222985805 -0.012677867226073062 0 0.010206303682547753 -0.012617305648918038 0 0.010204214245958979 -0.012658904976485728 0 0.010300036222985805 -0.012677867226073062 0 0.010204214245958979 -0.012658904976485728 0 0.010323245930400109 -0.012765464107521425 0 0.01011709627672068 -0.012565592451689266 0 0.010206303682547753 -0.012617305648918038 0 0.010345545411399525 -0.012495220677850343 0 0.01011709627672068 -0.012565592451689266 0 0.010206303682547753 -0.012617305648918038 0 0.0099418120607567967 -0.012614995370434723 0 0.0098961382596230042 -0.012865480593964 0 0.01011709627672068 -0.012565592451689266 0 0.0099418120607567967 -0.012614995370434723 0 0.0093100433703527056 -0.012807824434043586 0 0.0096654135423539095 -0.012888114164402088 0 0.0099418120607567967 -0.012614995370434723 0 0.0097610798436519198 -0.012614827947244577 0 0.0098762861810475482 -0.012628814593163867 0 0.010168013478897847 -0.012477772805934905 0 0.0099418120607567967 -0.012614995370434723 0 0.010204214245958979 -0.012658904976485728 0 0.010204214245958979 -0.012658904976485728 0 0.010402314002998988 -0.012572367229629474 0 0.010323245930400109 -0.012765464107521425 0 0.010168013478897847 -0.012477772805934905 0 0.010204214245958979 -0.012658904976485728 0 0.010402314002998988 -0.012572367229629474 0 0.010827622121336597 -0.013294563239564261 0 0.010594838698703993 -0.013188394885243532 0 0.010478434812722542 -0.012951855835283389 0 0.01063378505104714 -0.012885232561185789 0 0.010514574334018515 -0.012963849042550244 0 0.010827622121336597 -0.013294563239564261 0 0.010594838698703993 -0.013188394885243532 0 0.010663911095238383 -0.013312636220376413 0 0.010594838698703993 -0.013188394885243532 0 0.010433565704644971 -0.013060644554211423 0 0.010474364632936531 -0.013194206561122223 0 0.010594838698703993 -0.013188394885243532 0 0.010478434812722542 -0.012951855835283389 0 0.010433565704644971 -0.013060644554211423 0 0.010478434812722542 -0.012951855835283389 0 0.010340314663124371 -0.012794173084136305 0 0.010307619656649905 -0.012932779799951732 0 0.010478434812722542 -0.012951855835283389 0 0.010433565704644971 -0.013060644554211423 0 0.010307619656649905 -0.012932779799951732 0 0.010402314002998988 -0.012572367229629474 0 0.010478434812722542 -0.012951855835283389 0 0.010323245930400109 -0.012765464107521425 0 0.010300036222985805 -0.012677867226073062 0 0.010323245930400109 -0.012765464107521425 0 0.010340314663124371 -0.012794173084136305 0 0.010478434812722542 -0.012951855835283389 0 0.010323245930400109 -0.012765464107521425 0 0.010340314663124371 -0.012794173084136305 0 0.010300036222985805 -0.012677867226073062 0 0.010340314663124371 -0.012794173084136305 0 0.010354459351069671 -0.012584576450987418 0 0.010340314663124371 -0.012794173084136305 0 0.010354459351069671 -0.012584576450987418 0 0.010269467014558907 -0.012552885346685395 0 0.010340314663124371 -0.012794173084136305 0 0.010307619656649905 -0.012932779799951732 0 0.010172406819475571 -0.012689531907906291 0 0.010340314663124371 -0.012794173084136305 0 0.010172406819475571 -0.012689531907906291 0 0.010269467014558907 -0.012552885346685395 0 0.010172406819475571 -0.012689531907906291 0 0.010269467014558907 -0.012552885346685395 0 0.010008948648581675 -0.012222991582787973 0 0.010172406819475571 -0.012689531907906291 0 0.010008948648581675 -0.012222991582787973 0 0.0095941823291824744 -0.012555765014161061 0 0.010269467014558907 -0.012552885346685395 0 0.010410075080765782 -0.012312419813560091 0 0.010008948648581675 -0.012222991582787973 0 0.010354459351069671 -0.012584576450987418 0 0.010269467014558907 -0.012552885346685395 0 0.010410075080765782 -0.012312419813560091 0 0.010354459351069671 -0.012584576450987418 0 0.010410075080765782 -0.012312419813560091 0 0.010436388090502595 -0.012460209301271957 0 0.010410075080765782 -0.012312419813560091 0 0.010436388090502595 -0.012460209301271957 0 0.010600956210365213 -0.012108346618862658 0 0.010300036222985805 -0.012677867226073062 0 0.010354459351069671 -0.012584576450987418 0 0.010436388090502595 -0.012460209301271957 0 0.010300036222985805 -0.012677867226073062 0 0.010206303682547753 -0.012617305648918038 0 0.010436388090502595 -0.012460209301271957 0 0.010206303682547753 -0.012617305648918038 0 0.010436388090502595 -0.012460209301271957 0 0.010345545411399525 -0.012495220677850343 0 0.01059792575858666 -0.012324632980017533 0 0.010436388090502595 -0.012460209301271957 0 0.010345545411399525 -0.012495220677850343 0 0.01059792575858666 -0.012324632980017533 0 0.010436388090502595 -0.012460209301271957 0 0.010600956210365213 -0.012108346618862658 0 0.01059792575858666 -0.012324632980017533 0 0.010600956210365213 -0.012108346618862658 0 0.010892661564232332 -0.011827994736432423 0 0.010600956210365213 -0.012108346618862658 0 0.010892661564232332 -0.011827994736432423 0 0.010464423495627916 -0.01164117873749889 0 0.010410075080765782 -0.012312419813560091 0 0.010600956210365213 -0.012108346618862658 0 0.010464423495627916 -0.01164117873749889 0 0.010892661564232332 -0.011827994736432423 0 0.010981944783468516 -0.01090652233918587 0 0.010464423495627916 -0.01164117873749889 0 0.0099894025678764382 -0.010338254180924116 0 0.01018743096308615 -0.009650404910522721 0 0.0090843237447656242 -0.0088459527032038049 0 0.0093354017040257319 -0.0085207806540668514 0 0.0094103823608325376 -0.0084120648836396601 0 0.0093354017040257319 -0.0085207806540668514 0 0.0094103823608325376 -0.0084120648836396601 0 0.0094787610650111202 -0.0083816065664411681 0 0.0094146185929247124 -0.0084547788192843535 0 0.0093354017040257319 -0.0085207806540668514 0 0.0094787610650111202 -0.0083816065664411681 0 0.0094103823608325376 -0.0084120648836396601 0 0.0097388351636234285 -0.0081325545447733169 0 0.0096660253024582268 -0.0082030658476842464 0 0.01018743096308615 -0.009650404910522721 0 0.01025785266202818 -0.008781921126412422 0 0.0094787610650111202 -0.0083816065664411681 0 0.0095166922455908395 -0.0083882589318843639 0 0.0096660253024582268 -0.0082030658476842464 0 0.0094103823608325376 -0.0084120648836396601 0 0.0094787610650111202 -0.0083816065664411681 0 0.0096660253024582268 -0.0082030658476842464 0 0.0098817473496241939 -0.0097877273002338044 0 0.0097542289149252816 -0.010791238054983322 0 0.0090824111663551175 -0.0099828059391169552 0 0.010981944783468516 -0.01090652233918587 0 0.010793032894280651 -0.0094831710849326272 0 0.010471031854677511 -0.010566931053349922 0 0.0098817473496241939 -0.0097877273002338044 0 0.010793032894280651 -0.0094831710849326272 0 0.010471031854677511 -0.010566931053349922 0 0.010981944783468516 -0.01090652233918587 0 0.010471031854677511 -0.010566931053349922 0 0.010464423495627916 -0.01164117873749889 0 0.010471031854677511 -0.010566931053349922 0 0.0097542289149252816 -0.010791238054983322 0 0.010464423495627916 -0.01164117873749889 0 0.0098817473496241939 -0.0097877273002338044 0 0.010471031854677511 -0.010566931053349922 0 0.0097542289149252816 -0.010791238054983322 0 0.0097542289149252816 -0.010791238054983322 0 0.0096589020062285494 -0.011567061183814674 0 0.010464423495627916 -0.01164117873749889 0 0.010410075080765782 -0.012312419813560091 0 0.010464423495627916 -0.01164117873749889 0 0.010008948648581675 -0.012222991582787973 0 0.0096589020062285494 -0.011567061183814674 0 0.010464423495627916 -0.01164117873749889 0 0.010008948648581675 -0.012222991582787973 0 0.0099158606369328089 -0.012880752479762498 0 0.01009516076440291 -0.013041425333908745 0 0.0096589020062285494 -0.011567061183814674 0 0.010008948648581675 -0.012222991582787973 0 0.0090533765807238719 -0.011800430875311997 0 0.010008948648581675 -0.012222991582787973 0 0.0090533765807238719 -0.011800430875311997 0 0.0095941823291824744 -0.012555765014161061 0 0.010793558691306245 -0.01418186166309243 0 0.010929898769839843 -0.013832855465366178 0 0.010552113461733462 -0.013552496555962454 0 0.010793558691306245 -0.01418186166309243 0 0.011291445718615827 -0.014316932962826547 0 0.010929898769839843 -0.013832855465366178 0 0.0099158606369328089 -0.012880752479762498 0 0.0097667981837395862 -0.013037859999210798 0 0.010793558691306245 -0.01418186166309243 0 0.011022782458328115 -0.014620832441113249 0 0.011291445718615827 -0.014316932962826547 0 0.0096589020062285494 -0.011567061183814674 0 0.0090533765807238719 -0.011800430875311997 0 0.0085602834485902918 -0.010747840242839863 0 0.0097542289149252816 -0.010791238054983322 0 0.0085602834485902918 -0.010747840242839863 0 0.0090824111663551175 -0.0099828059391169552 0 0.0097542289149252816 -0.010791238054983322 0 0.0096589020062285494 -0.011567061183814674 0 0.0085602834485902918 -0.010747840242839863 0 0.011022782458328115 -0.014620832441113249 0 0.011234708027182074 -0.014759242410598472 0 0.011335319609784747 -0.014623025239540743 0 0.0085602834485902918 -0.010747840242839863 0 0.008176662754634266 -0.0094638239939538772 0 0.0090824111663551175 -0.0099828059391169552 0 0.0097667981837395862 -0.013037859999210798 0 0.010228594258402409 -0.010370706801234917 0 0.011022782458328115 -0.014620832441113249 0 0.011143405668166897 -0.014920255045897401 0 0.011234708027182074 -0.014759242410598472 0 0.008176662754634266 -0.0094638239939538772 0 0.0090824111663551175 -0.0099828059391169552 0 0.0090659177773171635 -0.0090464948629503193 0 0.0098817473496241939 -0.0097877273002338044 0 0.0090824111663551175 -0.0099828059391169552 0 0.0090659177773171635 -0.0090464948629503193 0 0.012610782561272094 -0.0070548490879411875 0 0.013096211259559641 -0.007126759639589266 0 0.012909558004633861 -0.0071750539729847681 0 0.012995421545027204 -0.0097748519385539613 0 0.014644699731251324 -0.0070276309942092522 0 0.010228594258402409 -0.010370706801234917 0 0.012995421545027204 -0.0097748519385539613 0 0.011234708027182074 -0.014759242410598472 0 0.01143054932037973 -0.014857878406643569 0 0.011335319609784747 -0.014623025239540743 0 0.011143405668166897 -0.014920255045897401 0 0.011234708027182074 -0.014759242410598472 0 0.01143054932037973 -0.014857878406643569 0 0.01143054932037973 -0.014857878406643569 0 0.011335319609784747 -0.014623025239540743 0 0.011708077161098278 -0.01450123438654706 0 0.012995421545027204 -0.0097748519385539613 0 0.014078419197848651 -0.011897777362981253 0 0.016816370311951868 -0.0072420088642355324 0 0.016192479729858107 -0.0088243847331303232 0 0.015345855441958215 -0.0076480258511525756 0 0.011708077161098278 -0.01450123438654706 0 0.01180502074322563 -0.014341121877015091 0 0.012013555676338189 -0.014288789414571184 0 0.014078419197848651 -0.011897777362981253 0 0.01373294829039747 -0.0123810587089458 0 0.011708077161098278 -0.01450123438654706 0 0.011291445718615827 -0.014316932962826547 0 0.01180502074322563 -0.014341121877015091 0 0.011335319609784747 -0.014623025239540743 0 0.011708077161098278 -0.01450123438654706 0 0.011291445718615827 -0.014316932962826547 0 0.011022782458328115 -0.014620832441113249 0 0.011335319609784747 -0.014623025239540743 0 0.011291445718615827 -0.014316932962826547 0 0.011291445718615827 -0.014316932962826547 0 0.01180502074322563 -0.014341121877015091 0 0.011345978723295779 -0.013724880955971521 0 0.011291445718615827 -0.014316932962826547 0 0.011345978723295779 -0.013724880955971521 0 0.010929898769839843 -0.013832855465366178 0 0.01180502074322563 -0.014341121877015091 0 0.011927308066905763 -0.014161701675609381 0 0.012013555676338189 -0.014288789414571184 0 0.01177737758212637 -0.014316045040097701 0 0.011438342383467181 -0.013997246384622278 0 0.01180502074322563 -0.014341121877015091 0 0.011927308066905763 -0.014161701675609381 0 0.011554849170795722 -0.014265526010406603 0 0.011927308066905763 -0.014161701675609381 0 0.011778617415386996 -0.013764452982464681 0 0.011554849170795722 -0.014265526010406603 0 0.011778617415386996 -0.013764452982464681 0 0.011554849170795722 -0.014265526010406603 0 0.011362970126472837 -0.013716694726896256 0 0.011554849170795722 -0.014265526010406603 0 0.011013693453753033 -0.013896139277731137 0 0.011362970126472837 -0.013716694726896256 0 0.010929898769839843 -0.013832855465366178 0 0.010552113461733462 -0.013552496555962454 0 0.010733591152863061 -0.013229958711752757 0 0.011345978723295779 -0.013724880955971521 0 0.010929898769839843 -0.013832855465366178 0 0.010733591152863061 -0.013229958711752757 0 0.011438342383467181 -0.013997246384622278 0 0.010882421370439384 -0.013560099477211532 0 0.01009516076440291 -0.013041425333908745 0 0.010339937901425131 -0.013103387739508103 0 0.010552113461733462 -0.013552496555962454 0 0.010733591152863061 -0.013229958711752757 0 0.010417983273245356 -0.013149616972863383 0 0.010307619656649905 -0.012932779799951732 0 0.010172406819475571 -0.012689531907906291 0 0.0095941823291824744 -0.012555765014161061 0 0.010307619656649905 -0.012932779799951732 0 0.0095941823291824744 -0.012555765014161061 0 0.010417983273245356 -0.013149616972863383 0 0.011013693453753033 -0.013896139277731137 0 0.010999272607336005 -0.013440864709100366 0 0.011362970126472837 -0.013716694726896256 0 0.011013693453753033 -0.013896139277731137 0 0.010999272607336005 -0.013440864709100366 0 0.010474364632936531 -0.013194206561122223 0 0.010733591152863061 -0.013229958711752757 0 0.010417983273245356 -0.013149616972863383 0 0.010474364632936531 -0.013194206561122223 0 0.010882421370439384 -0.013560099477211532 0 0.010508592786930258 -0.013221096630234009 0 0.010433565704644971 -0.013060644554211423 0 0.010307619656649905 -0.012932779799951732 0 0.010417983273245356 -0.013149616972863383 0 0.010433565704644971 -0.013060644554211423 0 0.010417983273245356 -0.013149616972863383 0 0.010474364632936531 -0.013194206561122223 0 0.010474364632936531 -0.013194206561122223 0 0.010663911095238383 -0.013312636220376413 0 0.01087816484471206 -0.013306683937118443 0 0.010594838698703993 -0.013188394885243532 0 0.010474364632936531 -0.013194206561122223 0 0.010663911095238383 -0.013312636220376413 0 0.010999272607336005 -0.013440864709100366 0 0.010474364632936531 -0.013194206561122223 0 0.01087816484471206 -0.013306683937118443 0 0.010999272607336005 -0.013440864709100366 0 0.01087816484471206 -0.013306683937118443 0 0.011408108688497213 -0.013276600035297974 0 0.012257983204788263 -0.012931080628396629 0 0.011408108688497213 -0.013276600035297974 0 0.012335985256357644 -0.013309375948525852 0 0.011778617415386996 -0.013764452982464681 0 0.011408108688497213 -0.013276600035297974 0 0.012335985256357644 -0.013309375948525852 0 0.010999272607336005 -0.013440864709100366 0 0.011408108688497213 -0.013276600035297974 0 0.011362970126472837 -0.013716694726896256 0 0.011778617415386996 -0.013764452982464681 0 0.011408108688497213 -0.013276600035297974 0 0.011362970126472837 -0.013716694726896256 0 0.013585352968347049 -0.012823418432918197 0 0.01390195943347009 -0.012306863500794222 0 0.014661159344571619 -0.012004501567950616 0 0.012335985256357644 -0.013309375948525852 0 0.013585352968347049 -0.012823418432918197 0 0.012578343633471149 -0.014033183282526784 0 0.013621639221292904 -0.012795820318949012 0 0.013622500928135382 -0.012967554295594238 0 0.011778617415386996 -0.013764452982464681 0 0.012335985256357644 -0.013309375948525852 0 0.012578343633471149 -0.014033183282526784 0 0.013155688782723215 -0.012578488286300179 0 0.012257983204788263 -0.012931080628396629 0 0.012335985256357644 -0.013309375948525852 0 0.013155688782723215 -0.012578488286300179 0 0.012335985256357644 -0.013309375948525852 0 0.013585352968347049 -0.012823418432918197 0 0.013585352968347049 -0.012823418432918197 0 0.014034908374536468 -0.012318984826314787 0 0.014334875294696042 -0.012219826344924332 0 0.013155688782723215 -0.012578488286300179 0 0.013585352968347049 -0.012823418432918197 0 0.014034908374536468 -0.012318984826314787 0 0.014464919914430871 -0.012079742974656603 0 0.014334875294696042 -0.012219826344924332 0 0.014800136991215329 -0.011731305915050328 0 0.014034908374536468 -0.012318984826314787 0 0.014464919914430871 -0.012079742974656603 0 0.014334875294696042 -0.012219826344924332 0 0.014334875294696042 -0.012219826344924332 0 0.014924914209258016 -0.01164222443662394 0 0.015641961605398502 -0.011018376075690927 0 0.014334875294696042 -0.012219826344924332 0 0.014924914209258016 -0.01164222443662394 0 0.014800136991215329 -0.011731305915050328 0 0.013585352968347049 -0.012823418432918197 0 0.014334875294696042 -0.012219826344924332 0 0.01390195943347009 -0.012306863500794222 0 0.014334875294696042 -0.012219826344924332 0 0.01390195943347009 -0.012306863500794222 0 0.0139123265094154 -0.012067661837040274 0 0.01390195943347009 -0.012306863500794222 0 0.0139123265094154 -0.012067661837040274 0 0.013905779962347516 -0.011837633208850309 0 0.013905779962347516 -0.011837633208850309 0 0.013789771795734328 -0.011882553253721334 0 0.013676727675203419 -0.01132186165570765 0 0.0139123265094154 -0.012067661837040274 0 0.013905779962347516 -0.011837633208850309 0 0.013789771795734328 -0.011882553253721334 0 0.014334875294696042 -0.012219826344924332 0 0.0139123265094154 -0.012067661837040274 0 0.013634926847816694 -0.011853888707558064 0 0.014385221231772802 -0.012045665433144118 0 0.014632131644107649 -0.011368877524555504 0 0.014924914209258016 -0.01164222443662394 0 0.015199272578803687 -0.011254724726588934 0 0.015641961605398502 -0.011018376075690927 0 0.0139123265094154 -0.012067661837040274 0 0.013789771795734328 -0.011882553253721334 0 0.013634926847816694 -0.011853888707558064 0 0.015199272578803687 -0.011254724726588934 0 0.015641961605398502 -0.011018376075690927 0 0.015304283182858834 -0.010953842860195066 0 0.013789771795734328 -0.011882553253721334 0 0.014058776999479836 -0.010928359985786548 0 0.014809702027094248 -0.010019938061979886 0 0.013634926847816694 -0.011853888707558064 0 0.014058776999479836 -0.010928359985786548 0 0.013890103493144554 -0.010062870615161972 0 0.013802213517431236 -0.011705879302406878 0 0.013914552472737105 -0.010192628282895921 0 0.015641961605398502 -0.011018376075690927 0 0.015606834732023282 -0.010516106772669242 0 0.015991870155232089 -0.0097223038078146917 0 0.014632131644107649 -0.011368877524555504 0 0.014927108783684483 -0.0099233825729657492 0 0.015641961605398502 -0.011018376075690927 0 0.015606834732023282 -0.010516106772669242 0 0.015304283182858834 -0.010953842860195066 0 0.013789771795734328 -0.011882553253721334 0 0.013634926847816694 -0.011853888707558064 0 0.014058776999479836 -0.010928359985786548 0 0.013789771795734328 -0.011882553253721334 0 0.013676727675203419 -0.01132186165570765 0 0.013026854636827982 -0.010457396343791127 0 0.013905779962347516 -0.011837633208850309 0 0.013676727675203419 -0.01132186165570765 0 0.014028201003902719 -0.011253057507188077 0 0.013676727675203419 -0.01132186165570765 0 0.01366190545029395 -0.010886975018565176 0 0.013026854636827982 -0.010457396343791127 0 0.013676727675203419 -0.01132186165570765 0 0.01366190545029395 -0.010886975018565176 0 0.014028201003902719 -0.011253057507188077 0 0.01366190545029395 -0.010886975018565176 0 0.014028201003902719 -0.011253057507188077 0 0.013864823544098411 -0.010446864266502142 0 0.014028201003902719 -0.011253057507188077 0 0.014661159344571619 -0.012004501567950616 0 0.014536853858994057 -0.010701239692282824 0 0.01390195943347009 -0.012306863500794222 0 0.013905779962347516 -0.011837633208850309 0 0.014661159344571619 -0.012004501567950616 0 0.013905779962347516 -0.011837633208850309 0 0.014028201003902719 -0.011253057507188077 0 0.014661159344571619 -0.012004501567950616 0 0.011927308066905763 -0.014161701675609381 0 0.011778617415386996 -0.013764452982464681 0 0.012578343633471149 -0.014033183282526784 0 0.011927308066905763 -0.014161701675609381 0 0.012578343633471149 -0.014033183282526784 0 0.012013555676338189 -0.014288789414571184 0 0.013622500928135382 -0.012967554295594238 0 0.01373294829039747 -0.0123810587089458 0 0.014661159344571619 -0.012004501567950616 0 0.015455544580557567 -0.010589351731343738 0 0.014536853858994057 -0.010701239692282824 0 0.015455544580557567 -0.010589351731343738 0 0.014886030197140894 -0.010098860070755035 0 0.014536853858994057 -0.010701239692282824 0 0.015455544580557567 -0.010589351731343738 0 0.014886030197140894 -0.010098860070755035 0 0.015217969757689281 -0.009427652301737862 0 0.014886030197140894 -0.010098860070755035 0 0.014536853858994057 -0.010701239692282824 0 0.014327252994452862 -0.0096588695578385675 0 0.014536853858994057 -0.010701239692282824 0 0.014327252994452862 -0.0096588695578385675 0 0.013864823544098411 -0.010446864266502142 0 0.014028201003902719 -0.011253057507188077 0 0.014536853858994057 -0.010701239692282824 0 0.013864823544098411 -0.010446864266502142 0 0.014327252994452862 -0.0096588695578385675 0 0.013582289710042807 -0.0095392832144670751 0 0.013864823544098411 -0.010446864266502142 0 0.014327252994452862 -0.0096588695578385675 0 0.013776488552662244 -0.0088488338721831924 0 0.013582289710042807 -0.0095392832144670751 0 0.014327252994452862 -0.0096588695578385675 0 0.015217969757689281 -0.009427652301737862 0 0.014606911341417117 -0.0086817951351977653 0 0.014327252994452862 -0.0096588695578385675 0 0.013776488552662244 -0.0088488338721831924 0 0.014606911341417117 -0.0086817951351977653 0 0.016192479729858107 -0.0088243847331303232 0 0.015455544580557567 -0.010589351731343738 0 0.015217969757689281 -0.009427652301737862 0 0.014886030197140894 -0.010098860070755035 0 0.014327252994452862 -0.0096588695578385675 0 0.015217969757689281 -0.009427652301737862 0 0.015217969757689281 -0.009427652301737862 0 0.015365159185123838 -0.0086248736102833221 0 0.014606911341417117 -0.0086817951351977653 0 0.016192479729858107 -0.0088243847331303232 0 0.015217969757689281 -0.009427652301737862 0 0.015365159185123838 -0.0086248736102833221 0 0.015365159185123838 -0.0086248736102833221 0 0.014606911341417117 -0.0086817951351977653 0 0.015345855441958215 -0.0076480258511525756 0 0.016192479729858107 -0.0088243847331303232 0 0.015365159185123838 -0.0086248736102833221 0 0.015345855441958215 -0.0076480258511525756 0 0.014644699731251324 -0.0070276309942092522 0 0.013248029764818994 -0.0080121583463284071 0 0.013340683052521753 -0.0074821651802507152 0 0.013096211259559641 -0.007126759639589266 0 0.013489841719151326 -0.0079377003190007137 0 0.014606911341417117 -0.0086817951351977653 0 0.015345855441958215 -0.0076480258511525756 0 0.013489841719151326 -0.0079377003190007137 0 0.013776488552662244 -0.0088488338721831924 0 0.014606911341417117 -0.0086817951351977653 0 0.013489841719151326 -0.0079377003190007137 0 0.013340683052521753 -0.0074821651802507152 0 0.013279973696607564 -0.007631384283472686 0 0.013489841719151326 -0.0079377003190007137 0 0.013240820018816797 -0.0073183057179289591 0 0.013340683052521753 -0.0074821651802507152 0 0.013269427950554847 -0.0073294736377696327 0 0.013240820018816797 -0.0073183057179289591 0 0.013340683052521753 -0.0074821651802507152 0 0.013096211259559641 -0.007126759639589266 0 0.013240820018816797 -0.0073183057179289591 0 0.013269427950554847 -0.0073294736377696327 0 0.013260416618701414 -0.0073531512626846679 0 0.013240820018816797 -0.0073183057179289591 0 0.013096211259559641 -0.007126759639589266 0 0.012909558004633861 -0.0071750539729847681 0 0.014798499192660528 -0.0078998835298370578 0 0.014844277208044369 -0.0076220531646728163 0 0.014582063933957388 -0.0076172161759539671 0 0.014798499192660528 -0.0078998835298370578 0 0.014844277208044369 -0.0076220531646728163 0 0.015172748020315376 -0.0075745066016249113 0 0.01306809855111416 -0.007111736467798749 0 0.013279973696607564 -0.007631384283472686 0 0.012892458375499847 -0.0083548465992443546 0 0.014798499192660528 -0.0078998835298370578 0 0.015172748020315376 -0.0075745066016249113 0 0.015128231094838678 -0.0084416258373425698 0 0.013888565330050034 -0.007297276824249967 0 0.014046439806377016 -0.0084216419289654659 0 0.01306809855111416 -0.007111736467798749 0 0.013269427950554847 -0.0073294736377696327 0 0.013279973696607564 -0.007631384283472686 0 0.013296925229739916 -0.0073360853589844368 0 0.013269427950554847 -0.0073294736377696327 0 0.013260416618701414 -0.0073531512626846679 0 0.013888565330050034 -0.007297276824249967 0 0.013465839189521142 -0.0071483311301257478 0 0.013340683052521753 -0.0074821651802507152 0 0.013269427950554847 -0.0073294736377696327 0 0.013279973696607564 -0.007631384283472686 0 0.013279973696607564 -0.007631384283472686 0 0.013489841719151326 -0.0079377003190007137 0 0.012892458375499847 -0.0083548465992443546 0 0.013776488552662244 -0.0088488338721831924 0 0.013489841719151326 -0.0079377003190007137 0 0.012892458375499847 -0.0083548465992443546 0 0.014798499192660528 -0.0078998835298370578 0 0.015128231094838678 -0.0084416258373425698 0 0.014168375835282672 -0.0085676758093324347 0 0.015128231094838678 -0.0084416258373425698 0 0.014564032320212011 -0.0091412517708174545 0 0.014168375835282672 -0.0085676758093324347 0 0.015128231094838678 -0.0084416258373425698 0 0.014564032320212011 -0.0091412517708174545 0 0.014809702027094248 -0.010019938061979886 0 0.014564032320212011 -0.0091412517708174545 0 0.013890103493144554 -0.010062870615161972 0 0.014168375835282672 -0.0085676758093324347 0 0.014927108783684483 -0.0099233825729657492 0 0.015083362055123124 -0.0086356544013232867 0 0.012892458375499847 -0.0083548465992443546 0 0.013582289710042807 -0.0095392832144670751 0 0.013026854636827982 -0.010457396343791127 0 0.014046439806377016 -0.0084216419289654659 0 0.013914552472737105 -0.010192628282895921 0 0.013776488552662244 -0.0088488338721831924 0 0.012892458375499847 -0.0083548465992443546 0 0.013582289710042807 -0.0095392832144670751 0 0.013582289710042807 -0.0095392832144670751 0 0.013026854636827982 -0.010457396343791127 0 0.013864823544098411 -0.010446864266502142 0 0.01366190545029395 -0.010886975018565176 0 0.013026854636827982 -0.010457396343791127 0 0.013864823544098411 -0.010446864266502142 0 0.014564032320212011 -0.0091412517708174545 0 0.014809702027094248 -0.010019938061979886 0 0.013890103493144554 -0.010062870615161972 0 0.014058776999479836 -0.010928359985786548 0 0.014809702027094248 -0.010019938061979886 0 0.013890103493144554 -0.010062870615161972 0 0.015991870155232089 -0.0097223038078146917 0 0.015404408387485304 -0.0098026901871037363 0 0.015585069257040595 -0.0091359468485945096 0 0.015991870155232089 -0.0097223038078146917 0 0.015404408387485304 -0.0098026901871037363 0 0.015490613940715225 -0.010364017881954896 0 0.015404408387485304 -0.0098026901871037363 0 0.01519806244973443 -0.0091445163303333996 0 0.014951718804835668 -0.0098693714168195459 0 0.015404408387485304 -0.0098026901871037363 0 0.01519806244973443 -0.0091445163303333996 0 0.015585069257040595 -0.0091359468485945096 0 0.01519806244973443 -0.0091445163303333996 0 0.015585069257040595 -0.0091359468485945096 0 0.015436794455094187 -0.0084329830197018875 0 0.01519806244973443 -0.0091445163303333996 0 0.015436794455094187 -0.0084329830197018875 0 0.015075034021365431 -0.0086144087531807197 0 0.015991870155232089 -0.0097223038078146917 0 0.016000485558716145 -0.0086503298425394601 0 0.015585069257040595 -0.0091359468485945096 0 0.016000485558716145 -0.0086503298425394601 0 0.015585069257040595 -0.0091359468485945096 0 0.015436794455094187 -0.0084329830197018875 0 0.015083362055123124 -0.0086356544013232867 0 0.015200479493480331 -0.0077585067937817375 0 0.016000485558716145 -0.0086503298425394601 0 0.015436794455094187 -0.0084329830197018875 0 0.015817928089276963 -0.0077854918868236781 0 0.014798499192660528 -0.0078998835298370578 0 0.014168375835282672 -0.0085676758093324347 0 0.014582063933957388 -0.0076172161759539671 0 0.015436794455094187 -0.0084329830197018875 0 0.01541596978014146 -0.007823640825193651 0 0.015187033900820584 -0.0080214011631931492 0 0.01541596978014146 -0.007823640825193651 0 0.015817928089276963 -0.0077854918868236781 0 0.015462659068019965 -0.0075172287940423535 0 0.015436794455094187 -0.0084329830197018875 0 0.01541596978014146 -0.007823640825193651 0 0.015817928089276963 -0.0077854918868236781 0 0.015187033900820584 -0.0080214011631931492 0 0.014999940802693065 -0.0080904262485064059 0 0.014999769060853757 -0.0073068132234099066 0 0.015187033900820584 -0.0080214011631931492 0 0.015314803395523614 -0.0074621799226581584 0 0.014999769060853757 -0.0073068132234099066 0 0.01541596978014146 -0.007823640825193651 0 0.015187033900820584 -0.0080214011631931492 0 0.015314803395523614 -0.0074621799226581584 0 0.015436794455094187 -0.0084329830197018875 0 0.015187033900820584 -0.0080214011631931492 0 0.015075034021365431 -0.0086144087531807197 0 0.015187033900820584 -0.0080214011631931492 0 0.014999940802693065 -0.0080904262485064059 0 0.015075034021365431 -0.0086144087531807197 0 0.014998598355615282 -0.0088744419024586046 0 0.015075034021365431 -0.0086144087531807197 0 0.014908931921495384 -0.0092079001963897306 0 0.014999940802693065 -0.0080904262485064059 0 0.014998598355615282 -0.0088744419024586046 0 0.015075034021365431 -0.0086144087531807197 0 0.01519806244973443 -0.0091445163303333996 0 0.015075034021365431 -0.0086144087531807197 0 0.014908931921495384 -0.0092079001963897306 0 0.014908931921495384 -0.0092079001963897306 0 0.014556127645413874 -0.0097361504014200299 0 0.014951718804835668 -0.0098693714168195459 0 0.01519806244973443 -0.0091445163303333996 0 0.014908931921495384 -0.0092079001963897306 0 0.014951718804835668 -0.0098693714168195459 0 0.015000004262196748 -0.0088741040821376307 0 0.015309707067702868 -0.0094849471543375502 0 0.014999962920581636 -0.0096272597908579963 0 0.014998598355615282 -0.0088744419024586046 0 0.014908931921495384 -0.0092079001963897306 0 0.014556127645413874 -0.0097361504014200299 0 0.014999966542980017 -0.0088744373461730527 0 0.014964059989933051 -0.0096488125510787483 0 0.015309707067702868 -0.0094849471543375502 0 0.015198242469451888 -0.010047594945152569 0 0.015488926543488008 -0.010142750636426943 0 0.015309707067702868 -0.0094849471543375502 0 0.014999962920581636 -0.0096272597908579963 0 0.015198242469451888 -0.010047594945152569 0 0.015198242469451888 -0.010047594945152569 0 0.014999707053474604 -0.010380334337188987 0 0.015245770794863254 -0.010540039410815775 0 0.014999962920581636 -0.0096272597908579963 0 0.015198242469451888 -0.010047594945152569 0 0.014999707053474604 -0.010380334337188987 0 0.015198242469451888 -0.010047594945152569 0 0.015488926543488008 -0.010142750636426943 0 0.015245770794863254 -0.010540039410815775 0 0.014556127645413874 -0.0097361504014200299 0 0.014562979405514105 -0.010787867098832544 0 0.014951718804835668 -0.0098693714168195459 0 0.014964059989933051 -0.0096488125510787483 0 0.015041431143578966 -0.010460516089964804 0 0.014562979405514105 -0.010787867098832544 0 0.014951718804835668 -0.0098693714168195459 0 0.014919541641392784 -0.010563969419936521 0 0.015404408387485304 -0.0098026901871037363 0 0.014951718804835668 -0.0098693714168195459 0 0.015176899116679852 -0.010541283652320519 0 0.014951718804835668 -0.0098693714168195459 0 0.015176899116679852 -0.010541283652320519 0 0.014919541641392784 -0.010563969419936521 0 0.015606834732023282 -0.010516106772669242 0 0.015991870155232089 -0.0097223038078146917 0 0.015490613940715225 -0.010364017881954896 0 0.015404408387485304 -0.0098026901871037363 0 0.015176899116679852 -0.010541283652320519 0 0.015490613940715225 -0.010364017881954896 0 0.015176899116679852 -0.010541283652320519 0 0.015490613940715225 -0.010364017881954896 0 0.015304283182858834 -0.010953842860195066 0 0.015606834732023282 -0.010516106772669242 0 0.015490613940715225 -0.010364017881954896 0 0.015304283182858834 -0.010953842860195066 0 0.015176899116679852 -0.010541283652320519 0 0.015304283182858834 -0.010953842860195066 0 0.015071875916752107 -0.011315272253565763 0 0.015199272578803687 -0.011254724726588934 0 0.015304283182858834 -0.010953842860195066 0 0.015071875916752107 -0.011315272253565763 0 0.014924914209258016 -0.01164222443662394 0 0.015199272578803687 -0.011254724726588934 0 0.015071875916752107 -0.011315272253565763 0 0.014562979405514105 -0.010787867098832544 0 0.014919541641392784 -0.010563969419936521 0 0.014950289744480729 -0.011064423374599907 0 0.014562979405514105 -0.010787867098832544 0 0.014950289744480729 -0.011064423374599907 0 0.01489811254768404 -0.01155255898637127 0 0.015176899116679852 -0.010541283652320519 0 0.015071875916752107 -0.011315272253565763 0 0.014950289744480729 -0.011064423374599907 0 0.015176899116679852 -0.010541283652320519 0 0.014919541641392784 -0.010563969419936521 0 0.014950289744480729 -0.011064423374599907 0 0.015071875916752107 -0.011315272253565763 0 0.014950289744480729 -0.011064423374599907 0 0.01494008616390044 -0.011438224070663267 0 0.014950289744480729 -0.011064423374599907 0 0.01494008616390044 -0.011438224070663267 0 0.01489811254768404 -0.01155255898637127 0 0.01494008616390044 -0.011438224070663267 0 0.01489811254768404 -0.01155255898637127 0 0.014800136991215329 -0.011731305915050328 0 0.014924914209258016 -0.01164222443662394 0 0.015071875916752107 -0.011315272253565763 0 0.014800136991215329 -0.011731305915050328 0 0.015071875916752107 -0.011315272253565763 0 0.01494008616390044 -0.011438224070663267 0 0.014800136991215329 -0.011731305915050328 0 0.014464919914430871 -0.012079742974656603 0 0.014800136991215329 -0.011731305915050328 0 0.014530288827546044 -0.012050084645325171 0 0.014800136991215329 -0.011731305915050328 0 0.014966195773455553 -0.011220459857996265 0 0.015144461185989234 -0.011237892037051188 0 0.014772699576365759 -0.011797490463392034 0 0.014790467847089761 -0.011495507661083516 0 0.014454488046620848 -0.012053613615617763 0 0.014464919914430871 -0.012079742974656603 0 0.014530288827546044 -0.012050084645325171 0 0.015504294036615887 -0.010768467668174861 0 0.015144461185989234 -0.011237892037051188 0 0.015281383002353797 -0.011103762861221656 0 0.015504294036615887 -0.010768467668174861 0 0.015281383002353797 -0.011103762861221656 0 0.015306797601137795 -0.011007199464505873 0 0.015181438667282277 -0.011107023457071305 0 0.015134294816801851 -0.011184406313842444 0 0.01489811254768404 -0.01155255898637127 0 0.014800136991215329 -0.011731305915050328 0 0.015144461185989234 -0.011237892037051188 0 0.015212499002743777 -0.011143209278251895 0 0.015144461185989234 -0.011237892037051188 0 0.015281383002353797 -0.011103762861221656 0 0.015272823088919706 -0.011095815727893211 0 0.015281383002353797 -0.011103762861221656 0 0.015306797601137795 -0.011007199464505873 0 0.015269640741176078 -0.011079871791878878 0 0.015306797601137795 -0.011007199464505873 0 0.015275179766978305 -0.011035502053810306 0 0.015306797601137795 -0.011007199464505873 0 0.015275179766978305 -0.011035502053810306 0 0.015238416397243047 -0.011007200099451667 0 0.015248314933874239 -0.011116012623438745 0 0.015238416397243047 -0.011007200099451667 0 0.015103017017316568 -0.010882025811559342 0 0.015504294036615887 -0.010768467668174861 0 0.015306797601137795 -0.011007199464505873 0 0.015266948056229773 -0.01085928465607079 0 0.015266948056229773 -0.01085928465607079 0 0.015238416397243047 -0.011007200099451667 0 0.015103017017316568 -0.010882025811559342 0 0.015306797601137795 -0.011007199464505873 0 0.015266948056229773 -0.01085928465607079 0 0.015238416397243047 -0.011007200099451667 0 0.015260652873527606 -0.01107124680788696 0 0.015275179766978305 -0.011035502053810306 0 0.015238416397243047 -0.011007200099451667 0 0.015237076016549689 -0.011097410585298277 0 0.015145845509611391 -0.010882154248415302 0 0.01524196628032109 -0.011117531919545872 0 0.014999947961115881 -0.010911397075747342 0 0.015168353430985685 -0.010908971129776341 0 0.015307318232078183 -0.011348496205508901 0 0.015000029826742397 -0.010911650150735183 0 0.015145845509611391 -0.010882154248415302 0 0.015000014677732576 -0.01038035005634478 0 0.014999947961115881 -0.010911397075747342 0 0.015168353430985685 -0.010908971129776341 0 0.015000028966505459 -0.010380378852927011 0 0.015103017017316568 -0.010882025811559342 0 0.014999707053474604 -0.010380334337188987 0 0.015245770794863254 -0.010540039410815775 0 0.015266948056229773 -0.01085928465607079 0 0.015103017017316568 -0.010882025811559342 0 0.015245770794863254 -0.010540039410815775 0 0.015488926543488008 -0.010142750636426943 0 0.015504294036615887 -0.010768467668174861 0 0.015245770794863254 -0.010540039410815775 0 0.015041431143578966 -0.010460516089964804 0 0.015181438667282277 -0.011107023457071305 0 0.015504294036615887 -0.010768467668174861 0 0.015266948056229773 -0.01085928465607079 0 0.015245770794863254 -0.010540039410815775 0 0.01467659999253455 -0.0050075130032448158 0 0.014631939934528796 -0.0050084454132678612 0 0.014713465295964047 -0.0048764146779641734 0 0.01467659999253455 -0.0050075130032448158 0 0.014713465295964047 -0.0048764146779641734 0 0.014513660138129394 -0.0050287736429660322 0 0.01467659999253455 -0.0050075130032448158 0 0.014513660138129394 -0.0050287736429660322 0 0.014694273357997091 -0.0049962072454791612 0 0.014999966783368152 -0.0045038297802014416 0 0.015304448929594266 -0.0043454183815279761 0 0.015000023932941735 -0.0048731160177837183 0 0.014958432176050388 -0.004667989814115093 0 0.014999995137496972 -0.0048730651153819273 0 0.01467659999253455 -0.0050075130032448158 0 0.014631939934528796 -0.0050084454132678612 0 0.014998950010444035 -0.0048755442625595669 0 0.015000051506461224 -0.0045036747319542108 0 0.015285705385885162 -0.0041186055417447688 0 0.014999966783368152 -0.0045038297802014416 0 0.015304448929594266 -0.0043454183815279761 0 0.0153023353749799 -0.0041810961932006573 0 0.015304448929594266 -0.0043454183815279761 0 0.0153023353749799 -0.0041810961932006573 0 0.015576006654940192 -0.0038702877797121963 0 0.014999979937689922 -0.0045036672877503498 0 0.015257672282861217 -0.0041018172902884363 0 0.01499990608148654 -0.0037348476262687789 0 0.015257672282861217 -0.0041018172902884363 0 0.015226389054953628 -0.0037797594396702882 0 0.01499990608148654 -0.0037348476262687789 0 0.015257672282861217 -0.0041018172902884363 0 0.015226389054953628 -0.0037797594396702882 0 0.015367660830656639 -0.0037440862015035684 0 0.014631939934528796 -0.0050084454132678612 0 0.01459284075529522 -0.0042705155564364272 0 0.014713465295964047 -0.0048764146779641734 0 0.015285705385885162 -0.0041186055417447688 0 0.015221240756288053 -0.0039091437161041399 0 0.014958432176050388 -0.004667989814115093 0 0.015221240756288053 -0.0039091437161041399 0 0.01459284075529522 -0.0042705155564364272 0 0.014713465295964047 -0.0048764146779641734 0 0.01487498593285373 -0.0043515550994993194 0 0.01459284075529522 -0.0042705155564364272 0 0.014988847256787315 -0.0041109506841253132 0 0.01487498593285373 -0.0043515550994993194 0 0.014988847256787315 -0.0041109506841253132 0 0.01487498593285373 -0.0043515550994993194 0 0.014995680374741418 -0.0040079033811640033 0 0.014628525189465509 -0.0048535336039476681 0 0.014474807017036207 -0.0047452456192474098 0 0.014988847256787315 -0.0041109506841253132 0 0.014995680374741418 -0.0040079033811640033 0 0.014927535115224618 -0.0039941324910707787 0 0.014713465295964047 -0.0048764146779641734 0 0.01487498593285373 -0.0043515550994993194 0 0.014995680374741418 -0.0040079033811640033 0 0.01408224760682637 -0.0054621190149068159 0 0.013344916244775339 -0.0051809135030322752 0 0.013153094469127156 -0.0055654671640517437 0 0.014995680374741418 -0.0040079033811640033 0 0.014365587822148366 -0.0037523899276314943 0 0.014927535115224618 -0.0039941324910707787 0 0.014474807017036207 -0.0047452456192474098 0 0.013767597417058309 -0.0046562569534771255 0 0.01408224760682637 -0.0054621190149068159 0 0.013870897139755919 -0.0049412462218121596 0 0.013344916244775339 -0.0051809135030322752 0 0.014713465295964047 -0.0048764146779641734 0 0.01408224760682637 -0.0054621190149068159 0 0.014513660138129394 -0.0050287736429660322 0 0.01408224760682637 -0.0054621190149068159 0 0.014513660138129394 -0.0050287736429660322 0 0.013870897139755919 -0.0049412462218121596 0 0.0144822817460722 -0.004907426649233263 0 0.013870897139755919 -0.0049412462218121596 0 0.014271076339117681 -0.0045543049152655364 0 0.014513660138129394 -0.0050287736429660322 0 0.0144822817460722 -0.004907426649233263 0 0.013870897139755919 -0.0049412462218121596 0 0.014031705658726223 -0.0055626870301350335 0 0.013142979949975733 -0.0049281749488443655 0 0.012976084000654416 -0.0056303453994831394 0 0.014117214823419962 -0.0050795113247003613 0 0.01317540334280134 -0.005009544341941694 0 0.013870897139755919 -0.0049412462218121596 0 0.014271076339117681 -0.0045543049152655364 0 0.013386969261998867 -0.0043827300479287404 0 0.014031705658726223 -0.0055626870301350335 0 0.014835549396519715 -0.0052686649770562312 0 0.014388099376670457 -0.005088871463203512 0 0.0144822817460722 -0.004907426649233263 0 0.014271076339117681 -0.0045543049152655364 0 0.014835549396519715 -0.0052686649770562312 0 0.014117214823419962 -0.0050795113247003613 0 0.014728411655599591 -0.0052197584454374323 0 0.0144822817460722 -0.004907426649233263 0 0.014835549396519715 -0.0052686649770562312 0 0.014694273357997091 -0.0049962072454791612 0 0.014513660138129394 -0.0050287736429660322 0 0.0144822817460722 -0.004907426649233263 0 0.014694273357997091 -0.0049962072454791612 0 0.014835549396519715 -0.0052686649770562312 0 0.014694273357997091 -0.0049962072454791612 0 0.014998950010444035 -0.0048755442625595669 0 0.01467659999253455 -0.0050075130032448158 0 0.014694273357997091 -0.0049962072454791612 0 0.014998950010444035 -0.0048755442625595669 0 0.014835549396519715 -0.0052686649770562312 0 0.014998950010444035 -0.0048755442625595669 0 0.015000080501410865 -0.00573575304269946 0 0.015000030300051662 -0.005739022317396745 0 0.015112931840487334 -0.005380122117518862 0 0.014835549396519715 -0.0052686649770562312 0 0.015000080501410865 -0.00573575304269946 0 0.014657858133989713 -0.0047443526811630317 0 0.014835549396519715 -0.0052686649770562312 0 0.014657858133989713 -0.0047443526811630317 0 0.014388099376670457 -0.005088871463203512 0 0.015632626338746441 -0.0063005848595919182 0 0.01511087590153261 -0.0065756485945185012 0 0.015674457899953399 -0.0066119506475862695 0 0.014999987175907588 -0.0057389918808475595 0 0.01511087590153261 -0.0065756485945185012 0 0.014999921185275069 -0.0065230703034331794 0 0.014999987175907588 -0.0057389918808475595 0 0.015632626338746441 -0.0063005848595919182 0 0.01511087590153261 -0.0065756485945185012 0 0.014999921185275069 -0.0065230703034331794 0 0.015220089751816801 -0.0070872639429385769 0 0.014999769060853757 -0.0073068132234099066 0 0.01511087590153261 -0.0065756485945185012 0 0.014999921185275069 -0.0065230703034331794 0 0.015220089751816801 -0.0070872639429385769 0 0.01511087590153261 -0.0065756485945185012 0 0.015220089751816801 -0.0070872639429385769 0 0.015384084275971134 -0.0071037480396912685 0 0.01501611540647179 -0.0065977898732659628 0 0.01571848568818875 -0.0069446781172414398 0 0.015384084275971134 -0.0071037480396912685 0 0.015333665027653929 -0.0072318633567739401 0 0.015384995816414438 -0.0073079842039149665 0 0.015220089751816801 -0.0070872639429385769 0 0.015384084275971134 -0.0071037480396912685 0 0.015333665027653929 -0.0072318633567739401 0 0.015220089751816801 -0.0070872639429385769 0 0.015333665027653929 -0.0072318633567739401 0 0.015314803395523614 -0.0074621799226581584 0 0.015333665027653929 -0.0072318633567739401 0 0.015314803395523614 -0.0074621799226581584 0 0.015384995816414438 -0.0073079842039149665 0 0.015220089751816801 -0.0070872639429385769 0 0.015314803395523614 -0.0074621799226581584 0 0.014999769060853757 -0.0073068132234099066 0 0.014582063933957388 -0.0076172161759539671 0 0.015277282434696102 -0.0073657208256420132 0 0.014879441867943231 -0.0074206246265789708 0 0.015817928089276963 -0.0077854918868236781 0 0.015462659068019965 -0.0075172287940423535 0 0.015277282434696102 -0.0073657208256420132 0 0.015200479493480331 -0.0077585067937817375 0 0.015268488063653168 -0.0074451920730448659 0 0.01541596978014146 -0.007823640825193651 0 0.015314803395523614 -0.0074621799226581584 0 0.015462659068019965 -0.0075172287940423535 0 0.015314803395523614 -0.0074621799226581584 0 0.015462659068019965 -0.0075172287940423535 0 0.015384995816414438 -0.0073079842039149665 0 0.015462659068019965 -0.0075172287940423535 0 0.015388101687582673 -0.0073960274792408296 0 0.015277282434696102 -0.0073657208256420132 0 0.015462659068019965 -0.0075172287940423535 0 0.015388101687582673 -0.0073960274792408296 0 0.015384995816414438 -0.0073079842039149665 0 0.015388101687582673 -0.0073960274792408296 0 0.015384995816414438 -0.0073079842039149665 0 0.015333252584096003 -0.0073973947697992884 0 0.015632626338746441 -0.0063005848595919182 0 0.015674457899953399 -0.0066119506475862695 0 0.01611066335980052 -0.0066967620572025016 0 0.01571848568818875 -0.0069446781172414398 0 0.014743495887353996 -0.0060675121413557419 0 0.015384084275971134 -0.0071037480396912685 0 0.015384995816414438 -0.0073079842039149665 0 0.015333252584096003 -0.0073973947697992884 0 0.015333252584096003 -0.0073973947697992884 0 0.015277282434696102 -0.0073657208256420132 0 0.014879441867943231 -0.0074206246265789708 0 0.013723954188042413 -0.003806234544677406 0 0.013180177671526972 -0.0043146885334315781 0 0.012870405416342098 -0.0036293564313913352 0 0.014743495887353996 -0.0060675121413557419 0 0.013188542892720551 -0.0049181670917552616 0 0.014038510262252089 -0.0064278826438477904 0 0.013848390080345635 -0.0064036191524980317 0 0.013858085218830061 -0.0063234777699731409 0 0.014743495887353996 -0.0060675121413557419 0 0.014486447974856115 -0.0069397977215234366 0 0.015388101687582673 -0.0073960274792408296 0 0.015333252584096003 -0.0073973947697992884 0 0.015277282434696102 -0.0073657208256420132 0 0.013180177671526972 -0.0043146885334315781 0 0.013881628247045769 -0.0048045383466077986 0 0.013142979949975733 -0.0049281749488443655 0 0.013180177671526972 -0.0043146885334315781 0 0.013877956095720852 -0.0044142721272389593 0 0.013881628247045769 -0.0048045383466077986 0 0.013723954188042413 -0.003806234544677406 0 0.013180177671526972 -0.0043146885334315781 0 0.013877956095720852 -0.0044142721272389593 0 0.015112931840487334 -0.005380122117518862 0 0.014743495887353996 -0.0060675121413557419 0 0.014657858133989713 -0.0047443526811630317 0 0.013723954188042413 -0.003806234544677406 0 0.013877956095720852 -0.0044142721272389593 0 0.014657858133989713 -0.0047443526811630317 0 0.013877956095720852 -0.0044142721272389593 0 0.013881628247045769 -0.0048045383466077986 0 0.014657858133989713 -0.0047443526811630317 0 0.014388099376670457 -0.005088871463203512 0 0.013881628247045769 -0.0048045383466077986 0 0.014031705658726223 -0.0055626870301350335 0 0.014388099376670457 -0.005088871463203512 0 0.013881628247045769 -0.0048045383466077986 0 0.014031705658726223 -0.0055626870301350335 0 0.013881628247045769 -0.0048045383466077986 0 0.013142979949975733 -0.0049281749488443655 0 0.013142979949975733 -0.0049281749488443655 0 0.012257508613093122 -0.0049941399833872708 0 0.012976084000654416 -0.0056303453994831394 0 0.011601494422093616 -0.004985581896095148 0 0.011746901610841581 -0.0054996754691195348 0 0.012257508613093122 -0.0049941399833872708 0 0.011926730186670557 -0.004478087798023102 0 0.011754137902338974 -0.0054217132966613039 0 0.012257508613093122 -0.0049941399833872708 0 0.011926730186670557 -0.004478087798023102 0 0.012503345534889132 -0.0041713010825319453 0 0.013180177671526972 -0.0043146885334315781 0 0.013142979949975733 -0.0049281749488443655 0 0.012503345534889132 -0.0041713010825319453 0 0.013142979949975733 -0.0049281749488443655 0 0.012257508613093122 -0.0049941399833872708 0 0.012503345534889132 -0.0041713010825319453 0 0.013188542892720551 -0.0049181670917552616 0 0.012697576953937389 -0.0058845309646882943 0 0.012503345534889132 -0.0041713010825319453 0 0.012870405416342098 -0.0036293564313913352 0 0.012061889861386824 -0.0034976221668866032 0 0.013848390080345635 -0.0064036191524980317 0 0.013681671493173023 -0.0063747683847982899 0 0.013858085218830061 -0.0063234777699731409 0 0.013180177671526972 -0.0043146885334315781 0 0.012503345534889132 -0.0041713010825319453 0 0.012870405416342098 -0.0036293564313913352 0 0.011926730186670557 -0.004478087798023102 0 0.012503345534889132 -0.0041713010825319453 0 0.012061889861386824 -0.0034976221668866032 0 0.011601494422093616 -0.004985581896095148 0 0.012697576953937389 -0.0058845309646882943 0 0.013296925229739916 -0.0073360853589844368 0 0.013306918731059566 -0.0074209879791484962 0 0.013260416618701414 -0.0073531512626846679 0 0.013888565330050034 -0.007297276824249967 0 0.012697576953937389 -0.0058845309646882943 0 0.013704060602401955 -0.0062275333260496816 0 0.013681671493173023 -0.0063747683847982899 0 0.013858085218830061 -0.0063234777699731409 0 0.014844277208044369 -0.0076220531646728163 0 0.014582063933957388 -0.0076172161759539671 0 0.014879441867943231 -0.0074206246265789708 0 0.013888565330050034 -0.007297276824249967 0 0.014486447974856115 -0.0069397977215234366 0 0.014844277208044369 -0.0076220531646728163 0 0.015172748020315376 -0.0075745066016249113 0 0.014879441867943231 -0.0074206246265789708 0 0.013136589172766881 -0.0074305684221578064 0 0.012909558004633861 -0.0071750539729847681 0 0.012555104494564101 -0.007017800945129978 0 0.012410529514305354 -0.007114830491743507 0 0.012606168025712038 -0.0070046434300505426 0 0.013240820018816797 -0.0073183057179289591 0 0.013136589172766881 -0.0074305684221578064 0 0.012909558004633861 -0.0071750539729847681 0 0.012697576953937389 -0.0058845309646882943 0 0.012410529514305354 -0.007114830491743507 0 0.013240820018816797 -0.0073183057179289591 0 0.013136589172766881 -0.0074305684221578064 0 0.013260416618701414 -0.0073531512626846679 0 0.013306918731059566 -0.0074209879791484962 0 0.013136589172766881 -0.0074305684221578064 0 0.013260416618701414 -0.0073531512626846679 0 0.011316847831442413 -0.0064047786801574962 0 0.011783514213744857 -0.0065903959330484404 0 0.011747144001836692 -0.006110225802800893 0 0.011444337936522291 -0.0058499723652063662 0 0.011316847831442413 -0.0064047786801574962 0 0.011747144001836692 -0.006110225802800893 0 0.011747144001836692 -0.006110225802800893 0 0.012068384685489845 -0.0058799229474254186 0 0.012148219780012086 -0.0064025821935957093 0 0.011783514213744857 -0.0065903959330484404 0 0.011747144001836692 -0.006110225802800893 0 0.012148219780012086 -0.0064025821935957093 0 0.011747144001836692 -0.006110225802800893 0 0.011802994759616964 -0.0056269734396165302 0 0.012068384685489845 -0.0058799229474254186 0 0.011444337936522291 -0.0058499723652063662 0 0.011747144001836692 -0.006110225802800893 0 0.011802994759616964 -0.0056269734396165302 0 0.011802994759616964 -0.0056269734396165302 0 0.011929516208834237 -0.0051833412457470522 0 0.011754137902338974 -0.0054217132966613039 0 0.011444337936522291 -0.0058499723652063662 0 0.011802994759616964 -0.0056269734396165302 0 0.011754137902338974 -0.0054217132966613039 0 0.011802994759616964 -0.0056269734396165302 0 0.012024082962987216 -0.0054958295926783142 0 0.011929516208834237 -0.0051833412457470522 0 0.011802994759616964 -0.0056269734396165302 0 0.012024082962987216 -0.0054958295926783142 0 0.012068384685489845 -0.0058799229474254186 0 0.011929516208834237 -0.0051833412457470522 0 0.012076435569402915 -0.0050151805744308381 0 0.01199238119745713 -0.0051906133299208139 0 0.012024082962987216 -0.0054958295926783142 0 0.011929516208834237 -0.0051833412457470522 0 0.01199238119745713 -0.0051906133299208139 0 0.012076435569402915 -0.0050151805744308381 0 0.012198314742896187 -0.004962780864702936 0 0.012047139778381214 -0.0049342624033878301 0 0.012076435569402915 -0.0050151805744308381 0 0.012047139778381214 -0.0049342624033878301 0 0.01199238119745713 -0.0051906133299208139 0 0.012076435569402915 -0.0050151805744308381 0 0.012285381882874966 -0.0050113830941292343 0 0.012198314742896187 -0.004962780864702936 0 0.011929516208834237 -0.0051833412457470522 0 0.012076435569402915 -0.0050151805744308381 0 0.012213198769198253 -0.0049446158861113972 0 0.012076435569402915 -0.0050151805744308381 0 0.012285381882874966 -0.0050113830941292343 0 0.012213198769198253 -0.0049446158861113972 0 0.012285381882874966 -0.0050113830941292343 0 0.012213198769198253 -0.0049446158861113972 0 0.012586375146022068 -0.0048655696296069657 0 0.012213198769198253 -0.0049446158861113972 0 0.012294565315757667 -0.0048461815820135985 0 0.012586375146022068 -0.0048655696296069657 0 0.011929516208834237 -0.0051833412457470522 0 0.011754137902338974 -0.0054217132966613039 0 0.011802292668688506 -0.0055045884822873849 0 0.011929516208834237 -0.0051833412457470522 0 0.012294565315757667 -0.0048461815820135985 0 0.012534365742655346 -0.0045245498133764852 0 0.011996346400057584 -0.0051433830332231652 0 0.012228782444547615 -0.0050349795496674454 0 0.011929516208834237 -0.0051833412457470522 0 0.012213198769198253 -0.0049446158861113972 0 0.012294565315757667 -0.0048461815820135985 0 0.012257508613093122 -0.0049941399833872708 0 0.011754137902338974 -0.0054217132966613039 0 0.011802292668688506 -0.0055045884822873849 0 0.012534365742655346 -0.0045245498133764852 0 0.013386969261998867 -0.0043827300479287404 0 0.012586375146022068 -0.0048655696296069657 0 0.012257508613093122 -0.0049941399833872708 0 0.011802292668688506 -0.0055045884822873849 0 0.012976084000654416 -0.0056303453994831394 0 0.012294565315757667 -0.0048461815820135985 0 0.012534365742655346 -0.0045245498133764852 0 0.012586375146022068 -0.0048655696296069657 0 0.012228782444547615 -0.0050349795496674454 0 0.01317540334280134 -0.005009544341941694 0 0.013870897139755919 -0.0049412462218121596 0 0.013386969261998867 -0.0043827300479287404 0 0.013063566421650666 -0.0049372072704641666 0 0.013386969261998867 -0.0043827300479287404 0 0.013063566421650666 -0.0049372072704641666 0 0.012586375146022068 -0.0048655696296069657 0 0.013870897139755919 -0.0049412462218121596 0 0.013063566421650666 -0.0049372072704641666 0 0.013344916244775339 -0.0051809135030322752 0 0.012285381882874966 -0.0050113830941292343 0 0.012586375146022068 -0.0048655696296069657 0 0.012679171620501433 -0.0051237866396830018 0 0.013063566421650666 -0.0049372072704641666 0 0.012586375146022068 -0.0048655696296069657 0 0.012679171620501433 -0.0051237866396830018 0 0.013063566421650666 -0.0049372072704641666 0 0.012679171620501433 -0.0051237866396830018 0 0.013344916244775339 -0.0051809135030322752 0 0.012679171620501433 -0.0051237866396830018 0 0.013344916244775339 -0.0051809135030322752 0 0.013153094469127156 -0.0055654671640517437 0 0.013767597417058309 -0.0046562569534771255 0 0.013000842015830266 -0.0045897302276527189 0 0.012679171620501433 -0.0051237866396830018 0 0.012425590744236307 -0.0052427908883353651 0 0.012312122329294295 -0.0050590032847938424 0 0.012679171620501433 -0.0051237866396830018 0 0.013153094469127156 -0.0055654671640517437 0 0.012425590744236307 -0.0052427908883353651 0 0.014365587822148366 -0.0037523899276314943 0 0.013478298368292329 -0.0039271101202291141 0 0.013956366770790722 -0.0042503755950837122 0 0.012425590744236307 -0.0052427908883353651 0 0.012444151987189202 -0.0045904366983658788 0 0.012312122329294295 -0.0050590032847938424 0 0.013000842015830266 -0.0045897302276527189 0 0.012543098579210123 -0.0045886326679464148 0 0.012444151987189202 -0.0045904366983658788 0 0.012198314742896187 -0.004962780864702936 0 0.012186144125925651 -0.0047826249181137336 0 0.012444151987189202 -0.0045904366983658788 0 0.012198314742896187 -0.004962780864702936 0 0.012312122329294295 -0.0050590032847938424 0 0.012198314742896187 -0.004962780864702936 0 0.012186144125925651 -0.0047826249181137336 0 0.012047139778381214 -0.0049342624033878301 0 0.012285381882874966 -0.0050113830941292343 0 0.012198314742896187 -0.004962780864702936 0 0.012312122329294295 -0.0050590032847938424 0 0.012285381882874966 -0.0050113830941292343 0 0.012679171620501433 -0.0051237866396830018 0 0.012312122329294295 -0.0050590032847938424 0 0.011987516010009561 -0.0047739084515854629 0 0.011721904185244075 -0.004726948758190041 0 0.011946523582950404 -0.0048961783999701691 0 0.011987516010009561 -0.0047739084515854629 0 0.012186144125925651 -0.0047826249181137336 0 0.012047139778381214 -0.0049342624033878301 0 0.011987516010009561 -0.0047739084515854629 0 0.011946523582950404 -0.0048961783999701691 0 0.012047139778381214 -0.0049342624033878301 0 0.011987516010009561 -0.0047739084515854629 0 0.012186144125925651 -0.0047826249181137336 0 0.01211181244293388 -0.004743910685433333 0 0.012444151987189202 -0.0045904366983658788 0 0.012186144125925651 -0.0047826249181137336 0 0.01211181244293388 -0.004743910685433333 0 0.011987516010009561 -0.0047739084515854629 0 0.01171679179073061 -0.0048210501692813219 0 0.01211181244293388 -0.004743910685433333 0 0.011987516010009561 -0.0047739084515854629 0 0.01171679179073061 -0.0048210501692813219 0 0.011721904185244075 -0.004726948758190041 0 0.01171679179073061 -0.0048210501692813219 0 0.011395345908826989 -0.0047842057730393631 0 0.011721904185244075 -0.004726948758190041 0 0.01171679179073061 -0.0048210501692813219 0 0.011395345908826989 -0.0047842057730393631 0 0.011231828905837767 -0.0049558809698419587 0 0.011022317912441197 -0.0048501387380123226 0 0.010744557466938117 -0.0050488637497301614 0 0.011231828905837767 -0.0049558809698419587 0 0.011395345908826989 -0.0047842057730393631 0 0.011022317912441197 -0.0048501387380123226 0 0.011231828905837767 -0.0049558809698419587 0 0.011395345908826989 -0.0047842057730393631 0 0.011022317912441197 -0.0048501387380123226 0 0.011200995801155206 -0.0046953913789625924 0 0.011262017082676049 -0.0045604937489457176 0 0.011476429974634607 -0.004612629643105633 0 0.010945838622134479 -0.0044013728562837615 0 0.011022317912441197 -0.0048501387380123226 0 0.011200995801155206 -0.0046953913789625924 0 0.010953425804955758 -0.0047302508326628372 0 0.011395345908826989 -0.0047842057730393631 0 0.011200995801155206 -0.0046953913789625924 0 0.011422799173862186 -0.0046763919309781689 0 0.011422799173862186 -0.0046763919309781689 0 0.011721904185244075 -0.004726948758190041 0 0.011476429974634607 -0.004612629643105633 0 0.011422799173862186 -0.0046763919309781689 0 0.011262017082676049 -0.0045604937489457176 0 0.011476429974634607 -0.004612629643105633 0 0.011200995801155206 -0.0046953913789625924 0 0.011262017082676049 -0.0045604937489457176 0 0.011074237803519751 -0.0045962247589911758 0 0.011200995801155206 -0.0046953913789625924 0 0.011422799173862186 -0.0046763919309781689 0 0.011262017082676049 -0.0045604937489457176 0 0.011395345908826989 -0.0047842057730393631 0 0.011422799173862186 -0.0046763919309781689 0 0.011721904185244075 -0.004726948758190041 0 0.011721904185244075 -0.004726948758190041 0 0.011823383081085251 -0.0046773730568969362 0 0.011476429974634607 -0.004612629643105633 0 0.011721904185244075 -0.004726948758190041 0 0.011823383081085251 -0.0046773730568969362 0 0.011946523582950404 -0.0048961783999701691 0 0.011823383081085251 -0.0046773730568969362 0 0.011476429974634607 -0.004612629643105633 0 0.010945838622134479 -0.0044013728562837615 0 0.010477572922163633 -0.0070344398220517738 0 0.010240407301795684 -0.0069794504010540406 0 0.010146117288256814 -0.0070933588653010618 0 0.011247180070604042 -0.0058471693051143289 0 0.0099649602674398291 -0.0057075273188843378 0 0.010477572922163633 -0.0070344398220517738 0 0.010240407301795684 -0.0069794504010540406 0 0.010239805207536975 -0.0067651132279398039 0 0.010477572922163633 -0.0070344398220517738 0 0.010239805207536975 -0.0067651132279398039 0 0.010583530702538996 -0.0064330707683930739 0 0.010477572922163633 -0.0070344398220517738 0 0.011463592358659784 -0.0060104541212771872 0 0.010583530702538996 -0.0064330707683930739 0 0.010477572922163633 -0.0070344398220517738 0 0.011463592358659784 -0.0060104541212771872 0 0.011950851279616486 -0.0056715806589259059 0 0.011950851279616486 -0.0056715806589259059 0 0.011946523582950404 -0.0048961783999701691 0 0.011948720079842332 -0.005190487462645171 0 0.011247180070604042 -0.0058471693051143289 0 0.011791502018544221 -0.0057094961002759955 0 0.011463592358659784 -0.0060104541212771872 0 0.011950851279616486 -0.0056715806589259059 0 0.012022842363544003 -0.0056837924881364575 0 0.011823383081085251 -0.0046773730568969362 0 0.011950851279616486 -0.0056715806589259059 0 0.011946523582950404 -0.0048961783999701691 0 0.011946523582950404 -0.0048961783999701691 0 0.012047139778381214 -0.0049342624033878301 0 0.011948720079842332 -0.005190487462645171 0 0.012047139778381214 -0.0049342624033878301 0 0.011948720079842332 -0.005190487462645171 0 0.01199238119745713 -0.0051906133299208139 0 0.012024082962987216 -0.0054958295926783142 0 0.01199238119745713 -0.0051906133299208139 0 0.011996923372066183 -0.0054450182529803279 0 0.011948720079842332 -0.005190487462645171 0 0.01199238119745713 -0.0051906133299208139 0 0.011996923372066183 -0.0054450182529803279 0 0.011950851279616486 -0.0056715806589259059 0 0.011948720079842332 -0.005190487462645171 0 0.011996923372066183 -0.0054450182529803279 0 0.011950851279616486 -0.0056715806589259059 0 0.011996923372066183 -0.0054450182529803279 0 0.012049798879083395 -0.0055918149782076898 0 0.012024082962987216 -0.0054958295926783142 0 0.011996923372066183 -0.0054450182529803279 0 0.012049798879083395 -0.0055918149782076898 0 0.012024082962987216 -0.0054958295926783142 0 0.0121386957248278 -0.0056805139172887683 0 0.012068384685489845 -0.0058799229474254186 0 0.012049798879083395 -0.0055918149782076898 0 0.0121386957248278 -0.0056805139172887683 0 0.012022842363544003 -0.0056837924881364575 0 0.012024082962987216 -0.0054958295926783142 0 0.012049798879083395 -0.0055918149782076898 0 0.0121386957248278 -0.0056805139172887683 0 0.011950851279616486 -0.0056715806589259059 0 0.012049798879083395 -0.0055918149782076898 0 0.012022842363544003 -0.0056837924881364575 0 0.011472667527419706 -0.0061790087372721571 0 0.011496528421839741 -0.0061127126935640467 0 0.011463592358659784 -0.0060104541212771872 0 0.010483010207126584 -0.0065758335925798191 0 0.010583530702538996 -0.0064330707683930739 0 0.011463592358659784 -0.0060104541212771872 0 0.012022842363544003 -0.0056837924881364575 0 0.012378918343343525 -0.0056692802791697815 0 0.0121386957248278 -0.0056805139172887683 0 0.012022842363544003 -0.0056837924881364575 0 0.012378918343343525 -0.0056692802791697815 0 0.012378918343343525 -0.0056692802791697815 0 0.012314367044353835 -0.00590871055845854 0 0.012841739019649096 -0.0063397581985690857 0 0.011496528421839741 -0.0061127126935640467 0 0.01108460289303427 -0.0067475640598968541 0 0.0121386957248278 -0.0056805139172887683 0 0.012378918343343525 -0.0056692802791697815 0 0.012314367044353835 -0.00590871055845854 0 0.012314367044353835 -0.00590871055845854 0 0.012068384685489845 -0.0058799229474254186 0 0.012348291249362634 -0.0062349498441036291 0 0.0121386957248278 -0.0056805139172887683 0 0.012314367044353835 -0.00590871055845854 0 0.012068384685489845 -0.0058799229474254186 0 0.012068384685489845 -0.0058799229474254186 0 0.012148219780012086 -0.0064025821935957093 0 0.012348291249362634 -0.0062349498441036291 0 0.012148219780012086 -0.0064025821935957093 0 0.012348291249362634 -0.0062349498441036291 0 0.012549481061417365 -0.0066261475271398949 0 0.012134386788983273 -0.0074763045149778256 0 0.01108460289303427 -0.0067475640598968541 0 0.012314367044353835 -0.00590871055845854 0 0.012348291249362634 -0.0062349498441036291 0 0.012841739019649096 -0.0063397581985690857 0 0.012549481061417365 -0.0066261475271398949 0 0.012737055924312669 -0.0068945531025083702 0 0.012841739019649096 -0.0063397581985690857 0 0.012348291249362634 -0.0062349498441036291 0 0.012549481061417365 -0.0066261475271398949 0 0.012841739019649096 -0.0063397581985690857 0 0.012995421545027204 -0.0097748519385539613 0 0.012134386788983273 -0.0074763045149778256 0 0.012610782561272094 -0.0070548490879411875 0 0.012737055924312669 -0.0068945531025083702 0 0.012555104494564101 -0.007017800945129978 0 0.012549481061417365 -0.0066261475271398949 0 0.012737055924312669 -0.0068945531025083702 0 0.012555104494564101 -0.007017800945129978 0 0.011968777635235097 -0.0089693608799271286 0 0.011050067820551117 -0.0092647347155027961 0 0.011383974389090249 -0.0084708251907959931 0 0.011783514213744857 -0.0065903959330484404 0 0.012148219780012086 -0.0064025821935957093 0 0.012555104494564101 -0.007017800945129978 0 0.012610782561272094 -0.0070548490879411875 0 0.012909558004633861 -0.0071750539729847681 0 0.012555104494564101 -0.007017800945129978 0 0.012148219780012086 -0.0064025821935957093 0 0.012549481061417365 -0.0066261475271398949 0 0.012555104494564101 -0.007017800945129978 0 0.010228594258402409 -0.010370706801234917 0 0.0094058850539094734 -0.008446344458695949 0 0.0096713145651616886 -0.0080195678990083764 0 0.0099873847506609312 -0.0078926206027709559 0 0.0099123039438513017 -0.0075785732354062291 0 0.0099873847506609312 -0.0078926206027709559 0 0.0099123039438513017 -0.0075785732354062291 0 0.010018496705293124 -0.0076534956084554628 0 0.011968777635235097 -0.0089693608799271286 0 0.011383974389090249 -0.0084708251907959931 0 0.011727358715573915 -0.0076682878471238131 0 0.0096713145651616886 -0.0080195678990083764 0 0.0095787565429884623 -0.0073778432744224867 0 0.0099123039438513017 -0.0075785732354062291 0 0.010228594258402409 -0.010370706801234917 0 0.01108460289303427 -0.0067475640598968541 0 0.0095787565429884623 -0.0073778432744224867 0 0.0099123039438513017 -0.0075785732354062291 0 0.010009888435274211 -0.0071506045074147912 0 0.010035638986177507 -0.0073187464273010792 0 0.0099123039438513017 -0.0075785732354062291 0 0.010009888435274211 -0.0071506045074147912 0 0.010035638986177507 -0.0073187464273010792 0 0.0099123039438513017 -0.0075785732354062291 0 0.010018496705293124 -0.0076534956084554628 0 0.010035638986177507 -0.0073187464273010792 0 0.010018496705293124 -0.0076534956084554628 0 0.010132460781268164 -0.0072027709523380815 0 0.010035638986177507 -0.0073187464273010792 0 0.010172415955579481 -0.0069287575049860033 0 0.010132460781268164 -0.0072027709523380815 0 0.010172415955579481 -0.0069287575049860033 0 0.010009888435274211 -0.0071506045074147912 0 0.010182775063253517 -0.0066764830914581375 0 0.010035638986177507 -0.0073187464273010792 0 0.010172415955579481 -0.0069287575049860033 0 0.010009888435274211 -0.0071506045074147912 0 0.010172415955579481 -0.0069287575049860033 0 0.010182775063253517 -0.0066764830914581375 0 0.01029184768797956 -0.0066528938761183792 0 0.0095787565429884623 -0.0073778432744224867 0 0.010009888435274211 -0.0071506045074147912 0 0.010182775063253517 -0.0066764830914581375 0 0.010483010207126584 -0.0065758335925798191 0 0.010363977591722164 -0.0062864297892670611 0 0.010182775063253517 -0.0066764830914581375 0 0.01108460289303427 -0.0067475640598968541 0 0.0099830995929863324 -0.0068480750568789264 0 0.010182775063253517 -0.0066764830914581375 0 0.010583530702538996 -0.0064330707683930739 0 0.01029184768797956 -0.0066528938761183792 0 0.010483010207126584 -0.0065758335925798191 0 0.010182775063253517 -0.0066764830914581375 0 0.010583530702538996 -0.0064330707683930739 0 0.010239805207536975 -0.0067651132279398039 0 0.01029184768797956 -0.0066528938761183792 0 0.010172035974507637 -0.0068914595653019961 0 0.010172415955579481 -0.0069287575049860033 0 0.01029184768797956 -0.0066528938761183792 0 0.010172035974507637 -0.0068914595653019961 0 0.010239805207536975 -0.0067651132279398039 0 0.010583530702538996 -0.0064330707683930739 0 0.01029184768797956 -0.0066528938761183792 0 0.010172035974507637 -0.0068914595653019961 0 0.010043435140860285 -0.0068537788688429989 0 0.010137451564519952 -0.0068997303459962236 0 0.01010228374770842 -0.0071729814216619356 0 0.010161214252265847 -0.0070960466066334205 0 0.010073222357157574 -0.0071020248603670009 0 0.010154244818174372 -0.0069188632196317216 0 0.010052329341439537 -0.0070055176458541342 0 0.010172035974507637 -0.0068914595653019961 0 0.01010228374770842 -0.0071729814216619356 0 0.010161214252265847 -0.0070960466066334205 0 0.010158149531890792 -0.007324205666864491 0 0.010011770097293841 -0.0069480283919485615 0 0.010073222357157574 -0.0071020248603670009 0 0.010161214252265847 -0.0070960466066334205 0 0.010158149531890792 -0.007324205666864491 0 0.010073222357157574 -0.0071020248603670009 0 0.010172035974507637 -0.0068914595653019961 0 0.010161214252265847 -0.0070960466066334205 0 0.010132460781268164 -0.0072027709523380815 0 0.010172415955579481 -0.0069287575049860033 0 0.010172035974507637 -0.0068914595653019961 0 0.010132460781268164 -0.0072027709523380815 0 0.010161214252265847 -0.0070960466066334205 0 0.010158149531890792 -0.007324205666864491 0 0.010132460781268164 -0.0072027709523380815 0 0.010018496705293124 -0.0076534956084554628 0 0.010132460781268164 -0.0072027709523380815 0 0.010120810220901012 -0.0077151464658567282 0 0.010018496705293124 -0.0076534956084554628 0 0.010120810220901012 -0.0077151464658567282 0 0.010165185143121352 -0.0083419718552063364 0 0.010158149531890792 -0.007324205666864491 0 0.010132460781268164 -0.0072027709523380815 0 0.010120810220901012 -0.0077151464658567282 0 0.010120810220901012 -0.0077151464658567282 0 0.010037909136793914 -0.0077529582628203635 0 0.0099136063843557019 -0.0079426170693771784 0 0.010158149531890792 -0.007324205666864491 0 0.010120810220901012 -0.0077151464658567282 0 0.010037909136793914 -0.0077529582628203635 0 0.010158149531890792 -0.007324205666864491 0 0.010037909136793914 -0.0077529582628203635 0 0.0098966293755157978 -0.0080145892427804667 0 0.010059583648859404 -0.0073485038568720179 0 0.0099216151800945711 -0.0074563161298978184 0 0.010037909136793914 -0.0077529582628203635 0 0.0099136063843557019 -0.0079426170693771784 0 0.0098966293755157978 -0.0080145892427804667 0 0.0097388351636234285 -0.0081325545447733169 0 0.010120810220901012 -0.0077151464658567282 0 0.0099136063843557019 -0.0079426170693771784 0 0.010793032894280651 -0.0094831710849326272 0 0.010120810220901012 -0.0077151464658567282 0 0.010165185143121352 -0.0083419718552063364 0 0.01025785266202818 -0.008781921126412422 0 0.010081949544084147 -0.0078212977275570316 0 0.0098817473496241939 -0.0097877273002338044 0 0.010793032894280651 -0.0094831710849326272 0 0.010165185143121352 -0.0083419718552063364 0 0.0099873847506609312 -0.0078926206027709559 0 0.010018496705293124 -0.0076534956084554628 0 0.010165185143121352 -0.0083419718552063364 0 0.0098817473496241939 -0.0097877273002338044 0 0.0090659177773171635 -0.0090464948629503193 0 0.010165185143121352 -0.0083419718552063364 0 0.0094058850539094734 -0.008446344458695949 0 0.010211863879870558 -0.0083110053552136638 0 0.0095166922455908395 -0.0083882589318843639 0 0.0096660253024582268 -0.0082030658476842464 0 0.0096183866543368916 -0.0082850637518519527 0 0.0099136063843557019 -0.0079426170693771784 0 0.0096660253024582268 -0.0082030658476842464 0 0.0098966293755157978 -0.0080145892427804667 0 0.0096660253024582268 -0.0082030658476842464 0 0.0098966293755157978 -0.0080145892427804667 0 0.0096183866543368916 -0.0082850637518519527 0 0.0097388351636234285 -0.0081325545447733169 0 0.0099136063843557019 -0.0079426170693771784 0 0.0096660253024582268 -0.0082030658476842464 0 0.0099216151800945711 -0.0074563161298978184 0 0.009656196104695312 -0.0074987587871478958 0 0.0097631070000591454 -0.006793897606591724 0 0.0098159368633503139 -0.0070096366193479987 0 0.0096211259827688571 -0.0069071781874284017 0 0.010011770097293841 -0.0069480283919485615 0 0.0097631070000591454 -0.006793897606591724 0 0.0098159368633503139 -0.0070096366193479987 0 0.0098159368633503139 -0.0070096366193479987 0 0.010073222357157574 -0.0071020248603670009 0 0.0099314967223269306 -0.0071320757530029099 0 0.010011770097293841 -0.0069480283919485615 0 0.0098159368633503139 -0.0070096366193479987 0 0.010073222357157574 -0.0071020248603670009 0 0.01010228374770842 -0.0071729814216619356 0 0.010073222357157574 -0.0071020248603670009 0 0.0099314967223269306 -0.0071320757530029099 0 0.01010228374770842 -0.0071729814216619356 0 0.0099314967223269306 -0.0071320757530029099 0 0.0098162339722834852 -0.0072517820922692574 0 0.0098159368633503139 -0.0070096366193479987 0 0.0099314967223269306 -0.0071320757530029099 0 0.009760971110577412 -0.0071226883116037275 0 0.0098159368633503139 -0.0070096366193479987 0 0.009760971110577412 -0.0071226883116037275 0 0.0095583142055799004 -0.0070473060974404374 0 0.0099314967223269306 -0.0071320757530029099 0 0.009760971110577412 -0.0071226883116037275 0 0.0098162339722834852 -0.0072517820922692574 0 0.009760971110577412 -0.0071226883116037275 0 0.0098162339722834852 -0.0072517820922692574 0 0.009620636646853916 -0.0071441110176781201 0 0.0098162339722834852 -0.0072517820922692574 0 0.009620636646853916 -0.0071441110176781201 0 0.0095005663601038792 -0.0072301407078496378 0 0.0098768765078514308 -0.0070649728012770136 0 0.0094399008734118595 -0.0070027339844014533 0 0.0098707289375460586 -0.0068822220887722893 0 0.0098661374513511549 -0.0069858649401294748 0 0.0096928388933697016 -0.0069347591312690308 0 0.009438160427993756 -0.0068285622817148769 0 0.0094399008734118595 -0.0070027339844014533 0 0.0089709884331452584 -0.0066911107156967685 0 0.0090747344377892641 -0.0063058695177378912 0 0.0091516071545430858 -0.0066083090263152925 0 0.0089709884331452584 -0.0066911107156967685 0 0.0087964896169863277 -0.0064483331978032257 0 0.0090747344377892641 -0.0063058695177378912 0 0.0089709884331452584 -0.0066911107156967685 0 0.0087964896169863277 -0.0064483331978032257 0 0.0085063090801656381 -0.0065104396840190452 0 0.009438160427993756 -0.0068285622817148769 0 0.009127080688843171 -0.0068382425474529428 0 0.0098661374513511549 -0.0069858649401294748 0 0.0099700010354337697 -0.0069380406205840845 0 0.010011232804382791 -0.0070215520191080861 0 0.010052329341439537 -0.0070055176458541342 0 0.0098768765078514308 -0.0070649728012770136 0 0.010043435140860285 -0.0068537788688429989 0 0.0098707289375460586 -0.0068822220887722893 0 0.0099700010354337697 -0.0069380406205840845 0 0.0098707289375460586 -0.0068822220887722893 0 0.0098661374513511549 -0.0069858649401294748 0 0.0099700010354337697 -0.0069380406205840845 0 0.010043435140860285 -0.0068537788688429989 0 0.010048655959847228 -0.0069505067124661689 0 0.010137451564519952 -0.0068997303459962236 0 0.010043435140860285 -0.0068537788688429989 0 0.0099700010354337697 -0.0069380406205840845 0 0.010048655959847228 -0.0069505067124661689 0 0.010048655959847228 -0.0069505067124661689 0 0.010137451564519952 -0.0068997303459962236 0 0.010099352600445562 -0.0069970588025672397 0 0.010240407301795684 -0.0069794504010540406 0 0.010239805207536975 -0.0067651132279398039 0 0.010137451564519952 -0.0068997303459962236 0 0.010239805207536975 -0.0067651132279398039 0 0.010172035974507637 -0.0068914595653019961 0 0.010137451564519952 -0.0068997303459962236 0 0.010240407301795684 -0.0069794504010540406 0 0.010137451564519952 -0.0068997303459962236 0 0.010157935416400784 -0.006999530800528374 0 0.010137451564519952 -0.0068997303459962236 0 0.010157935416400784 -0.006999530800528374 0 0.010099352600445562 -0.0069970588025672397 0 0.010157935416400784 -0.006999530800528374 0 0.010099352600445562 -0.0069970588025672397 0 0.010146117288256814 -0.0070933588653010618 0 0.010240407301795684 -0.0069794504010540406 0 0.010157935416400784 -0.006999530800528374 0 0.010146117288256814 -0.0070933588653010618 0 0.010099352600445562 -0.0069970588025672397 0 0.010011232804382791 -0.0070215520191080861 0 0.010146117288256814 -0.0070933588653010618 0 0.009127080688843171 -0.0068382425474529428 0 0.0099649602674398291 -0.0057075273188843378 0 0.0099700010354337697 -0.0069380406205840845 0 0.010048655959847228 -0.0069505067124661689 0 0.010011232804382791 -0.0070215520191080861 0 0.010048655959847228 -0.0069505067124661689 0 0.010099352600445562 -0.0069970588025672397 0 0.010011232804382791 -0.0070215520191080861 0 0.009200722617737524 -0.0053961541453098711 0 0.0099649602674398291 -0.0057075273188843378 0 0.010033283900074507 -0.0047352836461577079 0 0.0107549333533751 -0.0046342465381102793 0 0.010678653373989235 -0.0048555822050050899 0 0.0085063090801656381 -0.0065104396840190452 0 0.0084997495112515819 -0.0060682961171284874 0 0.0080551816126320144 -0.0063382722208298204 0 0.010033283900074507 -0.0047352836461577079 0 0.010875795225615012 -0.0043806926406345309 0 0.0107549333533751 -0.0046342465381102793 0 0.010875795225615012 -0.0043806926406345309 0 0.010938076677988082 -0.004522386091685939 0 0.0107549333533751 -0.0046342465381102793 0 0.011074237803519751 -0.0045962247589911758 0 0.010938076677988082 -0.004522386091685939 0 0.0107549333533751 -0.0046342465381102793 0 0.011262017082676049 -0.0045604937489457176 0 0.011032576810061593 -0.0044653374302870358 0 0.010945838622134479 -0.0044013728562837615 0 0.011074237803519751 -0.0045962247589911758 0 0.011032576810061593 -0.0044653374302870358 0 0.010938076677988082 -0.004522386091685939 0 0.011262017082676049 -0.0045604937489457176 0 0.011074237803519751 -0.0045962247589911758 0 0.011032576810061593 -0.0044653374302870358 0 0.011032576810061593 -0.0044653374302870358 0 0.010875795225615012 -0.0043806926406345309 0 0.010938076677988082 -0.004522386091685939 0 0.010204629514846556 -0.0056199069971938319 0 0.0099649602674398291 -0.0057075273188843378 0 0.011074237803519751 -0.0045962247589911758 0 0.0107549333533751 -0.0046342465381102793 0 0.010953425804955758 -0.0047302508326628372 0 0.0107549333533751 -0.0046342465381102793 0 0.010953425804955758 -0.0047302508326628372 0 0.010678653373989235 -0.0048555822050050899 0 0.011200995801155206 -0.0046953913789625924 0 0.011074237803519751 -0.0045962247589911758 0 0.010953425804955758 -0.0047302508326628372 0 0.011022317912441197 -0.0048501387380123226 0 0.010953425804955758 -0.0047302508326628372 0 0.010678653373989235 -0.0048555822050050899 0 0.010678653373989235 -0.0048555822050050899 0 0.010377407372630388 -0.0050732310505762386 0 0.010744557466938117 -0.0050488637497301614 0 0.011022317912441197 -0.0048501387380123226 0 0.010678653373989235 -0.0048555822050050899 0 0.010744557466938117 -0.0050488637497301614 0 0.010033283900074507 -0.0047352836461577079 0 0.010377407372630388 -0.0050732310505762386 0 0.0099504271823452548 -0.0053515857309832989 0 0.010033283900074507 -0.0047352836461577079 0 0.010678653373989235 -0.0048555822050050899 0 0.010377407372630388 -0.0050732310505762386 0 0.010033283900074507 -0.0047352836461577079 0 0.0092271892736449819 -0.0056145148349721575 0 0.0099504271823452548 -0.0053515857309832989 0 0.009200722617737524 -0.0053961541453098711 0 0.0092708954721348099 -0.0055643578903086643 0 0.0092271892736449819 -0.0056145148349721575 0 0.0090747344377892641 -0.0063058695177378912 0 0.0092421879912427691 -0.0063626045491179603 0 0.0087964896169863277 -0.0064483331978032257 0 0.0084997495112515819 -0.0060682961171284874 0 0.0090747344377892641 -0.0063058695177378912 0 0.0084997495112515819 -0.0060682961171284874 0 0.0092271892736449819 -0.0056145148349721575 0 0.0090747344377892641 -0.0063058695177378912 0 0.0087964896169863277 -0.0064483331978032257 0 0.0085063090801656381 -0.0065104396840190452 0 0.0084997495112515819 -0.0060682961171284874 0 0.0096677317418045489 -0.0055324510875031079 0 0.0099504271823452548 -0.0053515857309832989 0 0.010030972284353772 -0.005462272415658373 0 0.0096677317418045489 -0.0055324510875031079 0 0.010030972284353772 -0.005462272415658373 0 0.0095955193495084919 -0.0055900564138023894 0 0.0094226409536358451 -0.0056406345480483821 0 0.0095955193495084919 -0.0055900564138023894 0 0.009441047962402872 -0.0056552375530291594 0 0.0096677317418045489 -0.0055324510875031079 0 0.0094226409536358451 -0.0056406345480483821 0 0.0095955193495084919 -0.0055900564138023894 0 0.0092271892736449819 -0.0056145148349721575 0 0.0094226409536358451 -0.0056406345480483821 0 0.009311183720286954 -0.0058818163259877357 0 0.0092271892736449819 -0.0056145148349721575 0 0.0096677317418045489 -0.0055324510875031079 0 0.0094226409536358451 -0.0056406345480483821 0 0.0092271892736449819 -0.0056145148349721575 0 0.0096677317418045489 -0.0055324510875031079 0 0.0099504271823452548 -0.0053515857309832989 0 0.0099504271823452548 -0.0053515857309832989 0 0.010388300594787668 -0.0052446196775715465 0 0.010030972284353772 -0.005462272415658373 0 0.010377407372630388 -0.0050732310505762386 0 0.0099504271823452548 -0.0053515857309832989 0 0.010388300594787668 -0.0052446196775715465 0 0.010388300594787668 -0.0052446196775715465 0 0.010476792866032911 -0.005299304852211857 0 0.010850347026470976 -0.0051391313443308042 0 0.010744557466938117 -0.0050488637497301614 0 0.010388300594787668 -0.0052446196775715465 0 0.010850347026470976 -0.0051391313443308042 0 0.010377407372630388 -0.0050732310505762386 0 0.010744557466938117 -0.0050488637497301614 0 0.010388300594787668 -0.0052446196775715465 0 0.010476792866032911 -0.005299304852211857 0 0.010030972284353772 -0.005462272415658373 0 0.010435244974754001 -0.0053886197655119601 0 0.010476792866032911 -0.005299304852211857 0 0.010435244974754001 -0.0053886197655119601 0 0.010874893961252468 -0.0052555705201019001 0 0.010476792866032911 -0.005299304852211857 0 0.010874893961252468 -0.0052555705201019001 0 0.010850347026470976 -0.0051391313443308042 0 0.010388300594787668 -0.0052446196775715465 0 0.010476792866032911 -0.005299304852211857 0 0.010030972284353772 -0.005462272415658373 0 0.010030972284353772 -0.005462272415658373 0 0.01010920799154868 -0.005521301192936273 0 0.0097379698811784991 -0.0055823582204578264 0 0.010030972284353772 -0.005462272415658373 0 0.010435244974754001 -0.0053886197655119601 0 0.01010920799154868 -0.005521301192936273 0 0.010435244974754001 -0.0053886197655119601 0 0.01010920799154868 -0.005521301192936273 0 0.010583363986443736 -0.0054513436021938122 0 0.010435244974754001 -0.0053886197655119601 0 0.010583363986443736 -0.0054513436021938122 0 0.010874893961252468 -0.0052555705201019001 0 0.01010920799154868 -0.005521301192936273 0 0.010216694934812535 -0.0056333891297434208 0 0.010583363986443736 -0.0054513436021938122 0 0.01010920799154868 -0.005521301192936273 0 0.0098084625803680249 -0.0056170917948372492 0 0.010216694934812535 -0.0056333891297434208 0 0.01010920799154868 -0.005521301192936273 0 0.0097379698811784991 -0.0055823582204578264 0 0.0098084625803680249 -0.0056170917948372492 0 0.0097379698811784991 -0.0055823582204578264 0 0.0095276727685047313 -0.0055842360791657549 0 0.0095757188388532373 -0.0054995088233287318 0 0.0097379698811784991 -0.0055823582204578264 0 0.0095955193495084919 -0.0055900564138023894 0 0.0095276727685047313 -0.0055842360791657549 0 0.010030972284353772 -0.005462272415658373 0 0.0097379698811784991 -0.0055823582204578264 0 0.0095955193495084919 -0.0055900564138023894 0 0.0095955193495084919 -0.0055900564138023894 0 0.0095276727685047313 -0.0055842360791657549 0 0.009441047962402872 -0.0056552375530291594 0 0.0095757188388532373 -0.0054995088233287318 0 0.0095380166129187087 -0.005268952614288557 0 0.0095187262961029476 -0.0054653684175171042 0 0.0095276727685047313 -0.0055842360791657549 0 0.0095757188388532373 -0.0054995088233287318 0 0.0095187262961029476 -0.0054653684175171042 0 0.0097379698811784991 -0.0055823582204578264 0 0.0095757188388532373 -0.0054995088233287318 0 0.0098084625803680249 -0.0056170917948372492 0 0.0095757188388532373 -0.0054995088233287318 0 0.0095233614018418507 -0.0049865924404522578 0 0.0095389877131448978 -0.0052470163133007622 0 0.0095757188388532373 -0.0054995088233287318 0 0.0095389877131448978 -0.0052470163133007622 0 0.0096599162046320103 -0.0057607066096401708 0 0.0095757188388532373 -0.0054995088233287318 0 0.0095233614018418507 -0.0049865924404522578 0 0.0095380166129187087 -0.005268952614288557 0 0.0095233614018418507 -0.0049865924404522578 0 0.0095389877131448978 -0.0052470163133007622 0 0.0094453406167698262 -0.0046412031335275501 0 0.0095389877131448978 -0.0052470163133007622 0 0.0093463643851727125 -0.0048028038140601375 0 0.0094453406167698262 -0.0046412031335275501 0 0.0095233614018418507 -0.0049865924404522578 0 0.0095374201758303204 -0.004553888105000823 0 0.0094453406167698262 -0.0046412031335275501 0 0.0091537418984357199 -0.0048738354368291778 0 0.0093463643851727125 -0.0048028038140601375 0 0.0093894705959498333 -0.0051540698345469062 0 0.0091537418984357199 -0.0048738354368291778 0 0.0088962642349035403 -0.0047858944109401688 0 0.0090787109794022991 -0.0045621977989391323 0 0.0091537418984357199 -0.0048738354368291778 0 0.0093463643851727125 -0.0048028038140601375 0 0.0090787109794022991 -0.0045621977989391323 0 0.0095389877131448978 -0.0052470163133007622 0 0.0093463643851727125 -0.0048028038140601375 0 0.0093894705959498333 -0.0051540698345469062 0 0.0095389877131448978 -0.0052470163133007622 0 0.0093894705959498333 -0.0051540698345469062 0 0.0096599162046320103 -0.0057607066096401708 0 0.0091537418984357199 -0.0048738354368291778 0 0.0093894705959498333 -0.0051540698345469062 0 0.0089302587835431418 -0.0051467125549901011 0 0.0096377333374093044 -0.0057257490179480541 0 0.0097147806008500114 -0.0061641645458256665 0 0.0093894705959498333 -0.0051540698345469062 0 0.0096599162046320103 -0.0057607066096401708 0 0.0089302587835431418 -0.0051467125549901011 0 0.0096599162046320103 -0.0057607066096401708 0 0.010216694934812535 -0.0056333891297434208 0 0.0105405690931705 -0.005941579988699857 0 0.0096599162046320103 -0.0057607066096401708 0 0.0105405690931705 -0.005941579988699857 0 0.01049780110613216 -0.0068084049194215568 0 0.0095757188388532373 -0.0054995088233287318 0 0.0096599162046320103 -0.0057607066096401708 0 0.0098084625803680249 -0.0056170917948372492 0 0.0096599162046320103 -0.0057607066096401708 0 0.0098084625803680249 -0.0056170917948372492 0 0.010216694934812535 -0.0056333891297434208 0 0.010216694934812535 -0.0056333891297434208 0 0.010887368936774949 -0.0056271505295414255 0 0.0105405690931705 -0.005941579988699857 0 0.010887368936774949 -0.0056271505295414255 0 0.011089979207407528 -0.0059904606371528665 0 0.0105405690931705 -0.005941579988699857 0 0.010887368936774949 -0.0056271505295414255 0 0.011358566410077752 -0.0057886833208321969 0 0.011089979207407528 -0.0059904606371528665 0 0.011358566410077752 -0.0057886833208321969 0 0.011643154460636813 -0.0055759573678504058 0 0.011282877820316048 -0.0054897908920222577 0 0.010887368936774949 -0.0056271505295414255 0 0.011358566410077752 -0.0057886833208321969 0 0.011282877820316048 -0.0054897908920222577 0 0.011089979207407528 -0.0059904606371528665 0 0.011298017683759537 -0.0063234308597596321 0 0.011591498326514122 -0.0061341877142653345 0 0.011358566410077752 -0.0057886833208321969 0 0.011089979207407528 -0.0059904606371528665 0 0.011591498326514122 -0.0061341877142653345 0 0.011089979207407528 -0.0059904606371528665 0 0.011298017683759537 -0.0063234308597596321 0 0.010916324101902138 -0.0063609307199871644 0 0.011298017683759537 -0.0063234308597596321 0 0.011506932146149869 -0.0066186852556176469 0 0.011591498326514122 -0.0061341877142653345 0 0.0105405690931705 -0.005941579988699857 0 0.010916324101902138 -0.0063609307199871644 0 0.01049780110613216 -0.0068084049194215568 0 0.011089979207407528 -0.0059904606371528665 0 0.0105405690931705 -0.005941579988699857 0 0.010916324101902138 -0.0063609307199871644 0 0.010916324101902138 -0.0063609307199871644 0 0.01049780110613216 -0.0068084049194215568 0 0.011101308039236864 -0.0067770156001156568 0 0.011298017683759537 -0.0063234308597596321 0 0.010916324101902138 -0.0063609307199871644 0 0.011101308039236864 -0.0067770156001156568 0 0.011298017683759537 -0.0063234308597596321 0 0.011506932146149869 -0.0066186852556176469 0 0.011101308039236864 -0.0067770156001156568 0 0.011506932146149869 -0.0066186852556176469 0 0.011101308039236864 -0.0067770156001156568 0 0.011391606700599868 -0.0070994343460146778 0 0.011101308039236864 -0.0067770156001156568 0 0.011391606700599868 -0.0070994343460146778 0 0.01120752134822485 -0.0074827071526884755 0 0.011391606700599868 -0.0070994343460146778 0 0.01120752134822485 -0.0074827071526884755 0 0.011997441307308527 -0.0076372552486808709 0 0.0097147806008500114 -0.0061641645458256665 0 0.010427940458288532 -0.0047981190344758432 0 0.010427940458288532 -0.0047981190344758432 0 0.0084182070280448759 -0.004645980570642666 0 0.0089302587835431418 -0.0051467125549901011 0 0.008632153966606413 -0.0047183132101098419 0 0.0088962642349035403 -0.0047858944109401688 0 0.0087698995717275501 -0.004695655218923611 0 0.0088962642349035403 -0.0047858944109401688 0 0.0088667519137979062 -0.0045812433387640607 0 0.01049780110613216 -0.0068084049194215568 0 0.011101308039236864 -0.0067770156001156568 0 0.01120752134822485 -0.0074827071526884755 0 0.0091537418984357199 -0.0048738354368291778 0 0.0089302587835431418 -0.0051467125549901011 0 0.0088962642349035403 -0.0047858944109401688 0 0.012479255271358337 -0.0074187870906317725 0 0.012792333432116972 -0.0070890740138643523 0 0.012801925787497876 -0.0077875817028976091 0 0.01225994551005141 -0.0071266222441846612 0 0.012479255271358337 -0.0074187870906317725 0 0.012792333432116972 -0.0070890740138643523 0 0.01225994551005141 -0.0071266222441846612 0 0.012421532275267225 -0.0068420874370533763 0 0.012792333432116972 -0.0070890740138643523 0 0.01225994551005141 -0.0071266222441846612 0 0.012479255271358337 -0.0074187870906317725 0 0.011997441307308527 -0.0076372552486808709 0 0.011391606700599868 -0.0070994343460146778 0 0.011782396774475618 -0.0069460132480945068 0 0.011997441307308527 -0.0076372552486808709 0 0.010427940458288532 -0.0047981190344758432 0 0.012155159394719757 -0.0050840465734279736 0 0.01225994551005141 -0.0071266222441846612 0 0.011782396774475618 -0.0069460132480945068 0 0.011997441307308527 -0.0076372552486808709 0 0.01225994551005141 -0.0071266222441846612 0 0.012119051658578493 -0.0067903886398325911 0 0.011782396774475618 -0.0069460132480945068 0 0.012119051658578493 -0.0067903886398325911 0 0.011782396774475618 -0.0069460132480945068 0 0.01192001227086081 -0.0064808393553975668 0 0.011506932146149869 -0.0066186852556176469 0 0.011391606700599868 -0.0070994343460146778 0 0.011782396774475618 -0.0069460132480945068 0 0.011506932146149869 -0.0066186852556176469 0 0.011782396774475618 -0.0069460132480945068 0 0.01192001227086081 -0.0064808393553975668 0 0.012119051658578493 -0.0067903886398325911 0 0.01192001227086081 -0.0064808393553975668 0 0.012315787853513002 -0.0065586871162758428 0 0.01225994551005141 -0.0071266222441846612 0 0.012119051658578493 -0.0067903886398325911 0 0.012421532275267225 -0.0068420874370533763 0 0.012119051658578493 -0.0067903886398325911 0 0.012315787853513002 -0.0065586871162758428 0 0.012421532275267225 -0.0068420874370533763 0 0.012421532275267225 -0.0068420874370533763 0 0.012686970048979604 -0.0066531781338237343 0 0.012792333432116972 -0.0070890740138643523 0 0.012315787853513002 -0.0065586871162758428 0 0.012686970048979604 -0.0066531781338237343 0 0.012575239752354913 -0.0061967035353279144 0 0.012315787853513002 -0.0065586871162758428 0 0.012421532275267225 -0.0068420874370533763 0 0.012686970048979604 -0.0066531781338237343 0 0.012315787853513002 -0.0065586871162758428 0 0.012575239752354913 -0.0061967035353279144 0 0.012215202101683526 -0.0062235060732919456 0 0.01192001227086081 -0.0064808393553975668 0 0.012315787853513002 -0.0065586871162758428 0 0.012215202101683526 -0.0062235060732919456 0 0.012215202101683526 -0.0062235060732919456 0 0.012046358673858042 -0.0059267417313358592 0 0.012373139168990563 -0.0058600456774502135 0 0.012575239752354913 -0.0061967035353279144 0 0.012215202101683526 -0.0062235060732919456 0 0.012373139168990563 -0.0058600456774502135 0 0.012575239752354913 -0.0061967035353279144 0 0.012373139168990563 -0.0058600456774502135 0 0.012940361684925846 -0.0057516522935097993 0 0.011506932146149869 -0.0066186852556176469 0 0.01192001227086081 -0.0064808393553975668 0 0.011591498326514122 -0.0061341877142653345 0 0.01192001227086081 -0.0064808393553975668 0 0.011933879691641509 -0.0061315562552497925 0 0.011591498326514122 -0.0061341877142653345 0 0.01192001227086081 -0.0064808393553975668 0 0.012215202101683526 -0.0062235060732919456 0 0.011933879691641509 -0.0061315562552497925 0 0.012215202101683526 -0.0062235060732919456 0 0.011933879691641509 -0.0061315562552497925 0 0.012046358673858042 -0.0059267417313358592 0 0.011933879691641509 -0.0061315562552497925 0 0.011749476996272084 -0.0058627361907376274 0 0.012046358673858042 -0.0059267417313358592 0 0.011933879691641509 -0.0061315562552497925 0 0.011591498326514122 -0.0061341877142653345 0 0.011749476996272084 -0.0058627361907376274 0 0.011358566410077752 -0.0057886833208321969 0 0.011591498326514122 -0.0061341877142653345 0 0.011749476996272084 -0.0058627361907376274 0 0.011749476996272084 -0.0058627361907376274 0 0.012046358673858042 -0.0059267417313358592 0 0.012029259161989667 -0.0056779632852414705 0 0.011749476996272084 -0.0058627361907376274 0 0.012029259161989667 -0.0056779632852414705 0 0.011643154460636813 -0.0055759573678504058 0 0.011358566410077752 -0.0057886833208321969 0 0.011749476996272084 -0.0058627361907376274 0 0.011643154460636813 -0.0055759573678504058 0 0.012373139168990563 -0.0058600456774502135 0 0.012473264190852209 -0.0054879389890717684 0 0.012940361684925846 -0.0057516522935097993 0 0.012046358673858042 -0.0059267417313358592 0 0.012029259161989667 -0.0056779632852414705 0 0.012373139168990563 -0.0058600456774502135 0 0.012029259161989667 -0.0056779632852414705 0 0.012373139168990563 -0.0058600456774502135 0 0.012473264190852209 -0.0054879389890717684 0 0.012029259161989667 -0.0056779632852414705 0 0.012473264190852209 -0.0054879389890717684 0 0.012004928998305957 -0.0054046790294548707 0 0.012473264190852209 -0.0054879389890717684 0 0.012372999544756076 -0.005239218444070352 0 0.013038233127673547 -0.0051437304541966768 0 0.012473264190852209 -0.0054879389890717684 0 0.012372999544756076 -0.005239218444070352 0 0.012004928998305957 -0.0054046790294548707 0 0.012372999544756076 -0.005239218444070352 0 0.011955646095758825 -0.0051809085497159547 0 0.012004928998305957 -0.0054046790294548707 0 0.012447959611490421 -0.0049952250236895944 0 0.011955646095758825 -0.0051809085497159547 0 0.012023731551627713 -0.0050033622806689368 0 0.012372999544756076 -0.005239218444070352 0 0.012447959611490421 -0.0049952250236895944 0 0.013038233127673547 -0.0051437304541966768 0 0.012372999544756076 -0.005239218444070352 0 0.012447959611490421 -0.0049952250236895944 0 0.011955646095758825 -0.0051809085497159547 0 0.011955646095758825 -0.0051809085497159547 0 0.011592507316018736 -0.0053339035941648277 0 0.011509930692773881 -0.0051139974300222447 0 0.011955646095758825 -0.0051809085497159547 0 0.011509930692773881 -0.0051139974300222447 0 0.012023731551627713 -0.0050033622806689368 0 0.011955646095758825 -0.0051809085497159547 0 0.011592507316018736 -0.0053339035941648277 0 0.012004928998305957 -0.0054046790294548707 0 0.012029259161989667 -0.0056779632852414705 0 0.011643154460636813 -0.0055759573678504058 0 0.012004928998305957 -0.0054046790294548707 0 0.011643154460636813 -0.0055759573678504058 0 0.011592507316018736 -0.0053339035941648277 0 0.012004928998305957 -0.0054046790294548707 0 0.011643154460636813 -0.0055759573678504058 0 0.011592507316018736 -0.0053339035941648277 0 0.011282877820316048 -0.0054897908920222577 0 0.011592507316018736 -0.0053339035941648277 0 0.011282877820316048 -0.0054897908920222577 0 0.01109379916132772 -0.0053489319927196004 0 0.010887368936774949 -0.0056271505295414255 0 0.011282877820316048 -0.0054897908920222577 0 0.01109379916132772 -0.0053489319927196004 0 0.010216694934812535 -0.0056333891297434208 0 0.010887368936774949 -0.0056271505295414255 0 0.010583363986443736 -0.0054513436021938122 0 0.010887368936774949 -0.0056271505295414255 0 0.010583363986443736 -0.0054513436021938122 0 0.01109379916132772 -0.0053489319927196004 0 0.010583363986443736 -0.0054513436021938122 0 0.01109379916132772 -0.0053489319927196004 0 0.010874893961252468 -0.0052555705201019001 0 0.01109379916132772 -0.0053489319927196004 0 0.011509930692773881 -0.0051139974300222447 0 0.010874893961252468 -0.0052555705201019001 0 0.011592507316018736 -0.0053339035941648277 0 0.01109379916132772 -0.0053489319927196004 0 0.011509930692773881 -0.0051139974300222447 0 0.011509930692773881 -0.0051139974300222447 0 0.011513631372801142 -0.0049686085104208473 0 0.01187272429019764 -0.0048901082789615585 0 0.011509930692773881 -0.0051139974300222447 0 0.010874893961252468 -0.0052555705201019001 0 0.011192997131482824 -0.0050833803578189413 0 0.011509930692773881 -0.0051139974300222447 0 0.011192997131482824 -0.0050833803578189413 0 0.011513631372801142 -0.0049686085104208473 0 0.010874893961252468 -0.0052555705201019001 0 0.011192997131482824 -0.0050833803578189413 0 0.010850347026470976 -0.0051391313443308042 0 0.010744557466938117 -0.0050488637497301614 0 0.010850347026470976 -0.0051391313443308042 0 0.011231828905837767 -0.0049558809698419587 0 0.011192997131482824 -0.0050833803578189413 0 0.010850347026470976 -0.0051391313443308042 0 0.011231828905837767 -0.0049558809698419587 0 0.01171679179073061 -0.0048210501692813219 0 0.011231828905837767 -0.0049558809698419587 0 0.011513631372801142 -0.0049686085104208473 0 0.011192997131482824 -0.0050833803578189413 0 0.011231828905837767 -0.0049558809698419587 0 0.011513631372801142 -0.0049686085104208473 0 0.01171679179073061 -0.0048210501692813219 0 0.01211181244293388 -0.004743910685433333 0 0.01187272429019764 -0.0048901082789615585 0 0.01171679179073061 -0.0048210501692813219 0 0.011513631372801142 -0.0049686085104208473 0 0.01187272429019764 -0.0048901082789615585 0 0.012444151987189202 -0.0045904366983658788 0 0.01211181244293388 -0.004743910685433333 0 0.012295631084095284 -0.0048046069155442371 0 0.01211181244293388 -0.004743910685433333 0 0.012295631084095284 -0.0048046069155442371 0 0.01187272429019764 -0.0048901082789615585 0 0.012447959611490421 -0.0049952250236895944 0 0.012295631084095284 -0.0048046069155442371 0 0.012023731551627713 -0.0050033622806689368 0 0.012295631084095284 -0.0048046069155442371 0 0.012023731551627713 -0.0050033622806689368 0 0.01187272429019764 -0.0048901082789615585 0 0.011509930692773881 -0.0051139974300222447 0 0.012023731551627713 -0.0050033622806689368 0 0.01187272429019764 -0.0048901082789615585 0 0.013383473586451502 -0.0045683108051728354 0 0.012813684154344375 -0.00480442746837614 0 0.013424807418627368 -0.0048780613729125528 0 0.012447959611490421 -0.0049952250236895944 0 0.012295631084095284 -0.0048046069155442371 0 0.012813684154344375 -0.00480442746837614 0 0.012444151987189202 -0.0045904366983658788 0 0.012295631084095284 -0.0048046069155442371 0 0.012813684154344375 -0.00480442746837614 0 0.013478298368292329 -0.0039271101202291141 0 0.012444151987189202 -0.0045904366983658788 0 0.013383473586451502 -0.0045683108051728354 0 0.012444151987189202 -0.0045904366983658788 0 0.013383473586451502 -0.0045683108051728354 0 0.012813684154344375 -0.00480442746837614 0 0.013478298368292329 -0.0039271101202291141 0 0.013383473586451502 -0.0045683108051728354 0 0.013956366770790722 -0.0042503755950837122 0 0.014365587822148366 -0.0037523899276314943 0 0.013956366770790722 -0.0042503755950837122 0 0.014505384661067456 -0.0041848746960516849 0 0.013956366770790722 -0.0042503755950837122 0 0.014505384661067456 -0.0041848746960516849 0 0.013962462762367744 -0.004742461487109384 0 0.014505384661067456 -0.0041848746960516849 0 0.013962462762367744 -0.004742461487109384 0 0.014533125848442806 -0.0045121850767983621 0 0.013383473586451502 -0.0045683108051728354 0 0.013956366770790722 -0.0042503755950837122 0 0.013962462762367744 -0.004742461487109384 0 0.013383473586451502 -0.0045683108051728354 0 0.013962462762367744 -0.004742461487109384 0 0.013424807418627368 -0.0048780613729125528 0 0.013962462762367744 -0.004742461487109384 0 0.013879338675593334 -0.0051580070235207878 0 0.013424807418627368 -0.0048780613729125528 0 0.013962462762367744 -0.004742461487109384 0 0.014239872208045363 -0.0051423046457345018 0 0.014533125848442806 -0.0045121850767983621 0 0.013962462762367744 -0.004742461487109384 0 0.014239872208045363 -0.0051423046457345018 0 0.013879338675593334 -0.0051580070235207878 0 0.013879338675593334 -0.0051580070235207878 0 0.013424807418627368 -0.0048780613729125528 0 0.013038233127673547 -0.0051437304541966768 0 0.013879338675593334 -0.0051580070235207878 0 0.013038233127673547 -0.0051437304541966768 0 0.013554837174039717 -0.0053914462110592589 0 0.012813684154344375 -0.00480442746837614 0 0.013424807418627368 -0.0048780613729125528 0 0.013038233127673547 -0.0051437304541966768 0 0.012447959611490421 -0.0049952250236895944 0 0.012813684154344375 -0.00480442746837614 0 0.013038233127673547 -0.0051437304541966768 0 0.012473264190852209 -0.0054879389890717684 0 0.013038233127673547 -0.0051437304541966768 0 0.012995087004488048 -0.0054176870383019528 0 0.013038233127673547 -0.0051437304541966768 0 0.012995087004488048 -0.0054176870383019528 0 0.013554837174039717 -0.0053914462110592589 0 0.012473264190852209 -0.0054879389890717684 0 0.012995087004488048 -0.0054176870383019528 0 0.012940361684925846 -0.0057516522935097993 0 0.012995087004488048 -0.0054176870383019528 0 0.012940361684925846 -0.0057516522935097993 0 0.013554837174039717 -0.0053914462110592589 0 0.012940361684925846 -0.0057516522935097993 0 0.013554837174039717 -0.0053914462110592589 0 0.013475024954697981 -0.0057990253658682395 0 0.013554837174039717 -0.0053914462110592589 0 0.013475024954697981 -0.0057990253658682395 0 0.014525330768960593 -0.0053555856071323396 0 0.013879338675593334 -0.0051580070235207878 0 0.013554837174039717 -0.0053914462110592589 0 0.014525330768960593 -0.0053555856071323396 0 0.015287403899776309 -0.0051577630425813457 0 0.014637494824678495 -0.0052320540254647656 0 0.013475024954697981 -0.0057990253658682395 0 0.013447497757585991 -0.0062613724441149196 0 0.014525330768960593 -0.0053555856071323396 0 0.013447497757585991 -0.0062613724441149196 0 0.013535521520501081 -0.0069331624290380825 0 0.014525330768960593 -0.0053555856071323396 0 0.012575239752354913 -0.0061967035353279144 0 0.012940361684925846 -0.0057516522935097993 0 0.012989056374478126 -0.0062854808087475077 0 0.012940361684925846 -0.0057516522935097993 0 0.013475024954697981 -0.0057990253658682395 0 0.012989056374478126 -0.0062854808087475077 0 0.013475024954697981 -0.0057990253658682395 0 0.013447497757585991 -0.0062613724441149196 0 0.012989056374478126 -0.0062854808087475077 0 0.012686970048979604 -0.0066531781338237343 0 0.012575239752354913 -0.0061967035353279144 0 0.012989056374478126 -0.0062854808087475077 0 0.012686970048979604 -0.0066531781338237343 0 0.012989056374478126 -0.0062854808087475077 0 0.01306151934543617 -0.0066953238804229979 0 0.01306151934543617 -0.0066953238804229979 0 0.013535521520501081 -0.0069331624290380825 0 0.012792333432116972 -0.0070890740138643523 0 0.012686970048979604 -0.0066531781338237343 0 0.01306151934543617 -0.0066953238804229979 0 0.012792333432116972 -0.0070890740138643523 0 0.013447497757585991 -0.0062613724441149196 0 0.012989056374478126 -0.0062854808087475077 0 0.01306151934543617 -0.0066953238804229979 0 0.013447497757585991 -0.0062613724441149196 0 0.01306151934543617 -0.0066953238804229979 0 0.013535521520501081 -0.0069331624290380825 0 0.017093400071031294 -0.0028803129558258866 0 0.017081576332927784 -0.0027275355421027777 0 0.014840731619642226 -0.0031798450368067618 0 0.017093400071031294 -0.0028803129558258866 0 0.014840731619642226 -0.0031798450368067618 0 0.014525330768960593 -0.0053555856071323396 0 0.017081576332927784 -0.0027275355421027777 0 0.016825023134259865 -0.0013372680120208391 0 0.017546525206240851 -0.0013700285061085341 0 0.017074416143081313 -0.0026935245515608132 0 0.015796231808126067 -0.0023496497223864507 0 0.017081576332927784 -0.0027275355421027777 0 0.016825023134259865 -0.0013372680120208391 0 0.016428790182021657 -0.0014364557953093656 0 0.017093400071031294 -0.0028803129558258866 0 0.017081576332927784 -0.0027275355421027777 0 0.017546525206240851 -0.0013700285061085341 0 0.017093400071031294 -0.0028803129558258866 0 0.017546525206240851 -0.0013700285061085341 0 0.01865200308077861 -0.00071233149864510217 0 0.013535521520501081 -0.0069331624290380825 0 0.012792333432116972 -0.0070890740138643523 0 0.012801925787497876 -0.0077875817028976091 0 0.015287403899776309 -0.0051577630425813457 0 0.015370107774441109 -0.0028573253215096982 0 0.016039785682890589 -0.00082882650641975483 0 0.016428790182021657 -0.0014364557953093656 0 0.016486853339052112 -0.00077582991069947667 0 0.015031771243301425 -0.0022066247512041101 0 0.015796231808126067 -0.0023496497223864507 0 0.016039785682890589 -0.00082882650641975483 0 0.016024978859055704 -0.00020727773918969707 0 0.016486853339052112 -0.00077582991069947667 0 0.016825023134259865 -0.0013372680120208391 0 0.016428790182021657 -0.0014364557953093656 0 0.016486853339052112 -0.00077582991069947667 0 0.014840731619642226 -0.0031798450368067618 0 0.014041221008069564 -0.0045612126547758189 0 0.014525330768960593 -0.0053555856071323396 0 0.014148746547269209 -0.003493821425516306 0 0.014840731619642226 -0.0031798450368067618 0 0.014041221008069564 -0.0045612126547758189 0 0.014239872208045363 -0.0051423046457345018 0 0.014041221008069564 -0.0045612126547758189 0 0.014525330768960593 -0.0053555856071323396 0 0.014239872208045363 -0.0051423046457345018 0 0.013879338675593334 -0.0051580070235207878 0 0.014525330768960593 -0.0053555856071323396 0 0.014239872208045363 -0.0051423046457345018 0 0.014041221008069564 -0.0045612126547758189 0 0.014053241321682028 -0.0049259198420503712 0 0.016118976647972908 -0.0016480816876238784 0 0.016162515127068532 -0.0008930772937295172 0 0.015565835778140018 -0.0011965135346442134 0 0.015095081600462523 -0.0032265673659167219 0 0.014888318248509858 -0.0027217949800316501 0 0.014041221008069564 -0.0045612126547758189 0 0.014053241321682028 -0.0049259198420503712 0 0.013625331499890982 -0.0043444974249241342 0 0.014148746547269209 -0.003493821425516306 0 0.014041221008069564 -0.0045612126547758189 0 0.013808112170063539 -0.0039834041004420265 0 0.014041221008069564 -0.0045612126547758189 0 0.013808112170063539 -0.0039834041004420265 0 0.013625331499890982 -0.0043444974249241342 0 0.016162515127068532 -0.0008930772937295172 0 0.016180953544854382 -0.0001988368392010227 0 0.015691566340199359 -0.00059756403009796858 0 0.014888318248509858 -0.0027217949800316501 0 0.015014547284361598 -0.0012715721974900214 0 0.013808112170063539 -0.0039834041004420265 0 0.013625331499890982 -0.0043444974249241342 0 0.013474048206632165 -0.0035049521488106309 0 0.015014547284361598 -0.0012715721974900214 0 0.015622637283184602 5.0867709756945971e-05 0 0.015031771243301425 -0.0022066247512041101 0 0.015014547284361598 -0.0012715721974900214 0 0.016039785682890589 -0.00082882650641975483 0 0.016024978859055704 -0.00020727773918969707 0 0.015809395811461669 -0.00037115617764472828 0 0.016039785682890589 -0.00082882650641975483 0 0.015522884767356507 -0.00050394487582293543 0 0.015809395811461669 -0.00037115617764472828 0 0.014148746547269209 -0.003493821425516306 0 0.013808112170063539 -0.0039834041004420265 0 0.013474048206632165 -0.0035049521488106309 0 0.015582592334061441 -5.9211017168150893e-05 0 0.014999964877197356 -0.00065962779643928299 0 0.0149999776161853 0.00010914225019042322 0 0.015582592334061441 -5.9211017168150893e-05 0 0.015691566340199359 -0.00059756403009796858 0 0.014999964877197356 -0.00065962779643928299 0 0.016180953544854382 -0.0001988368392010227 0 0.015582592334061441 -5.9211017168150893e-05 0 0.015691566340199359 -0.00059756403009796858 0 0.015691566340199359 -0.00059756403009796858 0 0.014999964877197356 -0.00065962779643928299 0 0.015565835778140018 -0.0011965135346442134 0 0.016162515127068532 -0.0008930772937295172 0 0.015691566340199359 -0.00059756403009796858 0 0.015565835778140018 -0.0011965135346442134 0 0.014999964877197356 -0.00065962779643928299 0 0.015565835778140018 -0.0011965135346442134 0 0.014999910578597994 -0.0014285332990102073 0 0.016118976647972908 -0.0016480816876238784 0 0.015565835778140018 -0.0011965135346442134 0 0.015408587045481918 -0.0021069539850407043 0 0.015565835778140018 -0.0011965135346442134 0 0.014999910578597994 -0.0014285332990102073 0 0.015408587045481918 -0.0021069539850407043 0 0.014999910578597994 -0.0014285332990102073 0 0.014999753367846171 -0.0021975794782423462 0 0.015408587045481918 -0.0021069539850407043 0 0.014999753367846171 -0.0021975794782423462 0 0.015182125740557474 -0.0027643541476824666 0 0.015408587045481918 -0.0021069539850407043 0 0.014999753367846171 -0.0021975794782423462 0 0.015182125740557474 -0.0027643541476824666 0 0.014999873077401169 -0.0029666013555425183 0 0.015182125740557474 -0.0027643541476824666 0 0.015401484155504814 -0.0030494704074795179 0 0.015408587045481918 -0.0021069539850407043 0 0.015182125740557474 -0.0027643541476824666 0 0.015401484155504814 -0.0030494704074795179 0 0.015275573510711923 -0.0033092578682861079 0 0.015401484155504814 -0.0030494704074795179 0 0.015408587045481918 -0.0021069539850407043 0 0.015998583159180051 -0.0025373778093037312 0 0.015095081600462523 -0.0032265673659167219 0 0.015295056759464494 -0.0036710068877773955 0 0.016118976647972908 -0.0016480816876238784 0 0.015408587045481918 -0.0021069539850407043 0 0.015998583159180051 -0.0025373778093037312 0 0.014239872208045363 -0.0051423046457345018 0 0.014053241321682028 -0.0049259198420503712 0 0.014648893624040853 -0.0049136354241448204 0 0.014239872208045363 -0.0051423046457345018 0 0.014648893624040853 -0.0049136354241448204 0 0.014533125848442806 -0.0045121850767983621 0 0.014648893624040853 -0.0049136354241448204 0 0.014533125848442806 -0.0045121850767983621 0 0.015301602180845893 -0.0038726337771586372 0 0.015401484155504814 -0.0030494704074795179 0 0.015998583159180051 -0.0025373778093037312 0 0.015301602180845893 -0.0038726337771586372 0 0.015295056759464494 -0.0036710068877773955 0 0.015313465310086784 -0.0037896361743044392 0 0.015301602180845893 -0.0038726337771586372 0 0.014930090960885326 -0.0039882719661523437 0 0.01512395161858939 -0.0037808927391660072 0 0.015301602180845893 -0.0038726337771586372 0 0.01512395161858939 -0.0037808927391660072 0 0.015293560966347968 -0.0036157110951237567 0 0.014533125848442806 -0.0045121850767983621 0 0.015301602180845893 -0.0038726337771586372 0 0.014930090960885326 -0.0039882719661523437 0 0.014505384661067456 -0.0041848746960516849 0 0.014533125848442806 -0.0045121850767983621 0 0.014930090960885326 -0.0039882719661523437 0 0.014365587822148366 -0.0037523899276314943 0 0.014505384661067456 -0.0041848746960516849 0 0.014927535115224618 -0.0039941324910707787 0 0.014505384661067456 -0.0041848746960516849 0 0.014930090960885326 -0.0039882719661523437 0 0.014927535115224618 -0.0039941324910707787 0 0.014930090960885326 -0.0039882719661523437 0 0.014927535115224618 -0.0039941324910707787 0 0.01512395161858939 -0.0037808927391660072 0 0.014988847256787315 -0.0041109506841253132 0 0.014927535115224618 -0.0039941324910707787 0 0.01512395161858939 -0.0037808927391660072 0 0.01459284075529522 -0.0042705155564364272 0 0.014988847256787315 -0.0041109506841253132 0 0.01512395161858939 -0.0037808927391660072 0 0.015221240756288053 -0.0039091437161041399 0 0.015068450256663592 -0.0038036928447675034 0 0.015437981181314953 -0.0034465379178532382 0 0.01512395161858939 -0.0037808927391660072 0 0.01533029743053867 -0.0036208204040020365 0 0.015221240756288053 -0.0039091437161041399 0 0.015368809521695909 -0.0036254744758918633 0 0.01512395161858939 -0.0037808927391660072 0 0.01533029743053867 -0.0036208204040020365 0 0.015293560966347968 -0.0036157110951237567 0 0.01533029743053867 -0.0036208204040020365 0 0.015262854859539245 -0.0035448642884159244 0 0.015293560966347968 -0.0036157110951237567 0 0.015367660830656639 -0.0037440862015035684 0 0.01533029743053867 -0.0036208204040020365 0 0.015262854859539245 -0.0035448642884159244 0 0.015226389054953628 -0.0037797594396702882 0 0.015367660830656639 -0.0037440862015035684 0 0.015262854859539245 -0.0035448642884159244 0 0.015226389054953628 -0.0037797594396702882 0 0.01499990608148654 -0.0037348476262687789 0 0.015262854859539245 -0.0035448642884159244 0 0.01499990608148654 -0.0037348476262687789 0 0.015262854859539245 -0.0035448642884159244 0 0.014999873077401169 -0.0029666013555425183 0 0.015182125740557474 -0.0027643541476824666 0 0.014999873077401169 -0.0029666013555425183 0 0.015275573510711923 -0.0033092578682861079 0 0.015262854859539245 -0.0035448642884159244 0 0.014999873077401169 -0.0029666013555425183 0 0.015275573510711923 -0.0033092578682861079 0 0.015401484155504814 -0.0030494704074795179 0 0.015301602180845893 -0.0038726337771586372 0 0.015275573510711923 -0.0033092578682861079 0 0.015301602180845893 -0.0038726337771586372 0 0.015275573510711923 -0.0033092578682861079 0 0.015293560966347968 -0.0036157110951237567 0 0.015262854859539245 -0.0035448642884159244 0 0.015275573510711923 -0.0033092578682861079 0 0.015293560966347968 -0.0036157110951237567 0 0.0087328684352803044 -0.0069631964487418315 0 0.0085628691350306645 -0.0064908435820063915 0 0.0089991419172851927 -0.006476756420795338 0 0.0092975969999986984 -0.0070353977080211492 0 0.0087328684352803044 -0.0069631964487418315 0 0.0089991419172851927 -0.006476756420795338 0 0.0092975969999986984 -0.0070353977080211492 0 0.0089991419172851927 -0.006476756420795338 0 0.0096422206500445338 -0.0064333738504276589 0 0.0092975969999986984 -0.0070353977080211492 0 0.0096422206500445338 -0.0064333738504276589 0 0.0099049168455049141 -0.0072024042174324921 0 0.0092975969999986984 -0.0070353977080211492 0 0.0089155919371925896 -0.0075032660202753558 0 0.0095600864489864042 -0.0078371208268656536 0 0.0092975969999986984 -0.0070353977080211492 0 0.0099049168455049141 -0.0072024042174324921 0 0.0095600864489864042 -0.0078371208268656536 0 0.0087328684352803044 -0.0069631964487418315 0 0.0089155919371925896 -0.0075032660202753558 0 0.0082652955490609536 -0.0074752587416805783 0 0.0092975969999986984 -0.0070353977080211492 0 0.0087328684352803044 -0.0069631964487418315 0 0.0089155919371925896 -0.0075032660202753558 0 0.0087328684352803044 -0.0069631964487418315 0 0.0083736465106182458 -0.0068169175973852676 0 0.0082652955490609536 -0.0074752587416805783 0 0.0076269057251024137 -0.0091527005377933322 0 0.0079765487552133918 -0.0073100218215943497 0 0.0083736465106182458 -0.0068169175973852676 0 0.0082652955490609536 -0.0074752587416805783 0 0.008135821602811193 -0.0067162763573391663 0 0.0079683075857334106 -0.0071722619082394629 0 0.0079765487552133918 -0.0073100218215943497 0 0.0083395613900167746 -0.0064810454694864206 0 0.0083736465106182458 -0.0068169175973852676 0 0.008135821602811193 -0.0067162763573391663 0 0.0083395613900167746 -0.0064810454694864206 0 0.0085628691350306645 -0.0064908435820063915 0 0.0084278125424977774 -0.0062405926077429294 0 0.0087328684352803044 -0.0069631964487418315 0 0.0083736465106182458 -0.0068169175973852676 0 0.0085628691350306645 -0.0064908435820063915 0 0.0083395613900167746 -0.0064810454694864206 0 0.0083736465106182458 -0.0068169175973852676 0 0.0085628691350306645 -0.0064908435820063915 0 0.0085628691350306645 -0.0064908435820063915 0 0.0086899159773215322 -0.0061331704543217723 0 0.0089991419172851927 -0.006476756420795338 0 0.0085628691350306645 -0.0064908435820063915 0 0.0086899159773215322 -0.0061331704543217723 0 0.0084278125424977774 -0.0062405926077429294 0 0.0083395613900167746 -0.0064810454694864206 0 0.0084278125424977774 -0.0062405926077429294 0 0.0083855652387060976 -0.0061863769086193936 0 0.0084278125424977774 -0.0062405926077429294 0 0.0083753812671874626 -0.0059627808045918367 0 0.0083855652387060976 -0.0061863769086193936 0 0.0085132253325937435 -0.0059446600445017331 0 0.0083930003861349516 -0.0061653973243798316 0 0.0086899159773215322 -0.0061331704543217723 0 0.0083753812671874626 -0.0059627808045918367 0 0.0087716972229761377 -0.0057937386702470962 0 0.0086899159773215322 -0.0061331704543217723 0 0.0084278125424977774 -0.0062405926077429294 0 0.0083753812671874626 -0.0059627808045918367 0 0.0086899159773215322 -0.0061331704543217723 0 0.0087716972229761377 -0.0057937386702470962 0 0.0091780315228030419 -0.0059489093702690303 0 0.0087716972229761377 -0.0057937386702470962 0 0.0091780315228030419 -0.0059489093702690303 0 0.0090709482877400511 -0.005609519620980441 0 0.0086899159773215322 -0.0061331704543217723 0 0.0091780315228030419 -0.0059489093702690303 0 0.0089991419172851927 -0.006476756420795338 0 0.0091780315228030419 -0.0059489093702690303 0 0.0089991419172851927 -0.006476756420795338 0 0.0096422206500445338 -0.0064333738504276589 0 0.0091780315228030419 -0.0059489093702690303 0 0.0097385806694382741 -0.0058619631885798796 0 0.0096422206500445338 -0.0064333738504276589 0 0.0091780315228030419 -0.0059489093702690303 0 0.0097385806694382741 -0.0058619631885798796 0 0.0094105332497315553 -0.0055462831717273979 0 0.0097385806694382741 -0.0058619631885798796 0 0.010122317290667593 -0.0060630748450610505 0 0.0099455257820702508 -0.0055420356214707723 0 0.0097385806694382741 -0.0058619631885798796 0 0.010122317290667593 -0.0060630748450610505 0 0.0096422206500445338 -0.0064333738504276589 0 0.0045327082295984165 -0.0086892983445652581 0 0.0041584908690106611 -0.0089126359401690211 0 0.0043683332257008134 -0.0090297130706516876 0 0.0074990761642385528 -0.0079522207308927971 0 0.0057692984301774978 -0.0047278885684588559 0 0.0045327082295984165 -0.0086892983445652581 0 0.0041057329137959833 -0.0085031741720193194 0 0.0044886910405228814 -0.0081556191574672973 0 0.0074990761642385528 -0.0079522207308927971 0 0.0073443658613297959 -0.0073913555866085912 0 0.010122317290667593 -0.0060630748450610505 0 0.0096422206500445338 -0.0064333738504276589 0 0.010248486078601527 -0.0067829117218019463 0 0.0034435964633293035 -0.0088374385142776096 0 0.0037969226616756608 -0.008819147841357948 0 0.0036086161157691489 -0.0084728985894999501 0 0.0034435964633293035 -0.0088374385142776096 0 0.0037969226616756608 -0.008819147841357948 0 0.003605321065790115 -0.009092814489546559 0 0.0037969226616756608 -0.008819147841357948 0 0.003605321065790115 -0.009092814489546559 0 0.0039313444985079465 -0.009091695438586074 0 0.0045327082295984165 -0.0086892983445652581 0 0.0041584908690106611 -0.0089126359401690211 0 0.0041057329137959833 -0.0085031741720193194 0 0.0037969226616756608 -0.008819147841357948 0 0.0041584908690106611 -0.0089126359401690211 0 0.0041057329137959833 -0.0085031741720193194 0 0.0037969226616756608 -0.008819147841357948 0 0.0041584908690106611 -0.0089126359401690211 0 0.0039313444985079465 -0.009091695438586074 0 0.0037969226616756608 -0.008819147841357948 0 0.0041057329137959833 -0.0085031741720193194 0 0.0036086161157691489 -0.0084728985894999501 0 0.0034734057594284083 -0.0080147171644480205 0 0.0036086161157691489 -0.0084728985894999501 0 0.0040372283536904011 -0.0079867075934090988 0 0.0041057329137959833 -0.0085031741720193194 0 0.0040372283536904011 -0.0079867075934090988 0 0.0044886910405228814 -0.0081556191574672973 0 0.0041057329137959833 -0.0085031741720193194 0 0.0036086161157691489 -0.0084728985894999501 0 0.0040372283536904011 -0.0079867075934090988 0 0.0034734057594284083 -0.0080147171644480205 0 0.0040372283536904011 -0.0079867075934090988 0 0.0038678102216345191 -0.0076383587151553798 0 0.0022471554793575717 -0.0098405104349044686 0 0.0025408564529475004 -0.0097922981802623394 0 0.00099904090914237627 -0.011661097453012394 0 0.0011982653199797378 -0.012158581435001047 0 0.0012067288171504417 -0.012280305217231615 0 0.0096422206500445338 -0.0064333738504276589 0 0.010248486078601527 -0.0067829117218019463 0 0.0099049168455049141 -0.0072024042174324921 0 0.0040372283536904011 -0.0079867075934090988 0 0.0044886910405228814 -0.0081556191574672973 0 0.0044577479036857675 -0.0076885752402083432 0 0.0040372283536904011 -0.0079867075934090988 0 0.0044577479036857675 -0.0076885752402083432 0 0.0041845791936152583 -0.007560602509597808 0 0.0073443658613297959 -0.0073913555866085912 0 0.0074919953243123352 -0.0075746586593022991 0 0.010248486078601527 -0.0067829117218019463 0 0.0099049168455049141 -0.0072024042174324921 0 0.010395948689401718 -0.0077054092009129407 0 0.0099049168455049141 -0.0072024042174324921 0 0.010395948689401718 -0.0077054092009129407 0 0.0095600864489864042 -0.0078371208268656536 0 0.010395948689401718 -0.0077054092009129407 0 0.0099613429795089234 -0.0083130363052477552 0 0.0095600864489864042 -0.0078371208268656536 0 0.0074919953243123352 -0.0075746586593022991 0 0.0068611408468107976 -0.008718331683885033 0 0.0044577479036857675 -0.0076885752402083432 0 0.004455009640891688 -0.0072665247837077254 0 0.0041845791936152583 -0.007560602509597808 0 0.004455009640891688 -0.0072665247837077254 0 0.0041845791936152583 -0.007560602509597808 0 0.0042038469324855972 -0.0072912966937175236 0 0.0068611408468107976 -0.008718331683885033 0 0.0030770436905794042 -0.010803995321728169 0 0.010437709043345875 -0.0087485813941573006 0 0.0099613429795089234 -0.0083130363052477552 0 0.0094008069045965949 -0.0090021874579759575 0 0.010395948689401718 -0.0077054092009129407 0 0.010437709043345875 -0.0087485813941573006 0 0.0099613429795089234 -0.0083130363052477552 0 0.0068611408468107976 -0.008718331683885033 0 0.0086257476457092287 -0.0095213205202319962 0 0.0011982653199797378 -0.012158581435001047 0 0.0012067288171504417 -0.012280305217231615 0 0.0012736173356292099 -0.012443432343746784 0 0.0040372283536904011 -0.0079867075934090988 0 0.0038678102216345191 -0.0076383587151553798 0 0.0041845791936152583 -0.007560602509597808 0 0.0038678102216345191 -0.0076383587151553798 0 0.0041845791936152583 -0.007560602509597808 0 0.0042038469324855972 -0.0072912966937175236 0 0.0025408564529475004 -0.0097922981802623394 0 0.0030770436905794042 -0.010803995321728169 0 0.0012067288171504417 -0.012280305217231615 0 0.001418955354232283 -0.012635016203919365 0 0.0014926121063053273 -0.01261504048056993 0 0.0021937010837339323 -0.012808555448357547 0 0.0014926121063053273 -0.01261504048056993 0 0.0018836448404498849 -0.012492669164517325 0 0.0030770436905794042 -0.010803995321728169 0 0.0012297236314472713 -0.012309617049976582 0 0.0012067288171504417 -0.012280305217231615 0 0.0014926121063053273 -0.01261504048056993 0 0.0012736173356292099 -0.012443432343746784 0 0.0014926121063053273 -0.01261504048056993 0 0.0013734282718109616 -0.01251530159810043 0 0.0012736173356292099 -0.012443432343746784 0 0.0014926121063053273 -0.01261504048056993 0 0.0013734282718109616 -0.01251530159810043 0 0.0015822941617191159 -0.012394279263190599 0 0.0011715301825991117 -0.012523157393033287 0 0.0013734282718109616 -0.01251530159810043 0 0.0012736173356292099 -0.012443432343746784 0 0.0013214927755221203 -0.012181653953457839 0 0.0015822941617191159 -0.012394279263190599 0 0.0019362099385039468 -0.012128308057530922 0 0.0011715301825991117 -0.012523157393033287 0 0.0013734282718109616 -0.01251530159810043 0 0.0015822941617191159 -0.012394279263190599 0 0.0011715301825991117 -0.012523157393033287 0 0.0013214927755221203 -0.012181653953457839 0 0.0015822941617191159 -0.012394279263190599 0 0.0015822941617191159 -0.012394279263190599 0 0.0018836448404498849 -0.012492669164517325 0 0.0019362099385039468 -0.012128308057530922 0 0.0014926121063053273 -0.01261504048056993 0 0.0015822941617191159 -0.012394279263190599 0 0.0018836448404498849 -0.012492669164517325 0 0.0021937010837339323 -0.012808555448357547 0 0.0018836448404498849 -0.012492669164517325 0 0.0023208570621411511 -0.012384424115643269 0 0.0023208570621411511 -0.012384424115643269 0 0.0019362099385039468 -0.012128308057530922 0 0.0026877537995241528 -0.012163888599220985 0 0.0018836448404498849 -0.012492669164517325 0 0.0023208570621411511 -0.012384424115643269 0 0.0019362099385039468 -0.012128308057530922 0 0.0024085943724580818 -0.011828288760567464 0 0.0019362099385039468 -0.012128308057530922 0 0.0026877537995241528 -0.012163888599220985 0 0.0019671815139875553 -0.011621591136330848 0 0.0024085943724580818 -0.011828288760567464 0 0.0019362099385039468 -0.012128308057530922 0 0.0019671815139875553 -0.011621591136330848 0 0.0019362099385039468 -0.012128308057530922 0 0.001474930157459863 -0.011768618057302555 0 0.0013214927755221203 -0.012181653953457839 0 0.0019362099385039468 -0.012128308057530922 0 0.001474930157459863 -0.011768618057302555 0 0.0010042898568411436 -0.011972639387320341 0 0.0013214927755221203 -0.012181653953457839 0 0.001474930157459863 -0.011768618057302555 0 0.0067979119579983224 -0.0099196606825331188 0 0.0069445916749368789 -0.009764684692227979 0 0.0068142629407044603 -0.0097855775892067721 0 0.0067979119579983224 -0.0099196606825331188 0 0.0069445916749368789 -0.009764684692227979 0 0.0070730369437477904 -0.0099183401725340559 0 0.0021937010837339323 -0.012808555448357547 0 0.0023208570621411511 -0.012384424115643269 0 0.0029714021816805423 -0.012352013376623339 0 0.0030770436905794042 -0.010803995321728169 0 0.0044414636216835281 -0.011300037718952879 0 0.0047206257234904854 -0.01035270313637306 0 0.004635708193352104 -0.010362337406694727 0 0.0047212847839800008 -0.010272116077135008 0 0.0068611408468107976 -0.008718331683885033 0 0.0044414636216835281 -0.011300037718952879 0 0.0023208570621411511 -0.012384424115643269 0 0.0029714021816805423 -0.012352013376623339 0 0.0026877537995241528 -0.012163888599220985 0 0.0029714021816805423 -0.012352013376623339 0 0.0026877537995241528 -0.012163888599220985 0 0.0032161876342649063 -0.012111858079814653 0 0.0044414636216835281 -0.011300037718952879 0 0.0036025586777142637 -0.01237392064634333 0 0.0024085943724580818 -0.011828288760567464 0 0.0026877537995241528 -0.012163888599220985 0 0.0028258526604153658 -0.011786873062689928 0 0.0025621116274301124 -0.011411356004156598 0 0.0024085943724580818 -0.011828288760567464 0 0.0028258526604153658 -0.011786873062689928 0 0.0026877537995241528 -0.012163888599220985 0 0.0028258526604153658 -0.011786873062689928 0 0.0032161876342649063 -0.012111858079814653 0 0.0033464434825542012 -0.011295627669750051 0 0.0028258526604153658 -0.011786873062689928 0 0.0032161876342649063 -0.012111858079814653 0 0.0057975245941234545 -0.010664421303778777 0 0.0044414636216835281 -0.011300037718952879 0 0.0069686159403916145 -0.0097127826643824966 0 0.0069445916749368789 -0.009764684692227979 0 0.0068142629407044603 -0.0097855775892067721 0 0.0044516713180768261 -0.011786894142198514 0 0.0031574914793799889 -0.012779622027293663 0 0.0032161876342649063 -0.012111858079814653 0 0.0068435098078798761 -0.0097482221661238586 0 0.0069820281969881328 -0.0096939683324269825 0 0.0072149530420309357 -0.0096720139416570216 0 0.0069686159403916145 -0.0097127826643824966 0 0.0069445916749368789 -0.009764684692227979 0 0.0069820281969881328 -0.0096939683324269825 0 0.0068435098078798761 -0.0097482221661238586 0 0.0069686159403916145 -0.0097127826643824966 0 0.0069820281969881328 -0.0096939683324269825 0 0.0069445916749368789 -0.009764684692227979 0 0.0069820281969881328 -0.0096939683324269825 0 0.0072149530420309357 -0.0096720139416570216 0 0.0068435098078798761 -0.0097482221661238586 0 0.0072102751166119227 -0.0096738571091852122 0 0.0072149530420309357 -0.0096720139416570216 0 0.0072149530420309357 -0.0096720139416570216 0 0.0076233275015423806 -0.0095945652979961306 0 0.0074686760648133392 -0.0096246631870617726 0 0.0072102751166119227 -0.0096738571091852122 0 0.0072149530420309357 -0.0096720139416570216 0 0.0074686760648133392 -0.0096246631870617726 0 0.0072149530420309357 -0.0096720139416570216 0 0.0078541761397383364 -0.0095065855169955502 0 0.0076233275015423806 -0.0095945652979961306 0 0.0072149530420309357 -0.0096720139416570216 0 0.0070730369437477904 -0.0099183401725340559 0 0.0078541761397383364 -0.0095065855169955502 0 0.0086257476457092287 -0.0095213205202319962 0 0.0076633091214579376 -0.0094993726736217199 0 0.0069445916749368789 -0.009764684692227979 0 0.0072149530420309357 -0.0096720139416570216 0 0.0070730369437477904 -0.0099183401725340559 0 0.0094008069045965949 -0.0090021874579759575 0 0.0086911786567281709 -0.0083947299495251634 0 0.0095600864489864042 -0.0078371208268656536 0 0.0099613429795089234 -0.0083130363052477552 0 0.0094008069045965949 -0.0090021874579759575 0 0.0095600864489864042 -0.0078371208268656536 0 0.0094008069045965949 -0.0090021874579759575 0 0.0086911786567281709 -0.0083947299495251634 0 0.0078541761397383364 -0.0095065855169955502 0 0.0089155919371925896 -0.0075032660202753558 0 0.0086911786567281709 -0.0083947299495251634 0 0.0082652955490609536 -0.0074752587416805783 0 0.0089155919371925896 -0.0075032660202753558 0 0.0086911786567281709 -0.0083947299495251634 0 0.0095600864489864042 -0.0078371208268656536 0 0.0072018776898149636 -0.0081804400442591144 0 0.0082652955490609536 -0.0074752587416805783 0 0.0065201524058056473 -0.0065440401036250999 0 0.0072018776898149636 -0.0081804400442591144 0 0.0082652955490609536 -0.0074752587416805783 0 0.0079290187747286297 -0.0086554923111948415 0 0.0086911786567281709 -0.0083947299495251634 0 0.0082652955490609536 -0.0074752587416805783 0 0.0079290187747286297 -0.0086554923111948415 0 0.0079290187747286297 -0.0086554923111948415 0 0.0078541761397383364 -0.0095065855169955502 0 0.007739822137506922 -0.009586797139896552 0 0.0086911786567281709 -0.0083947299495251634 0 0.0079290187747286297 -0.0086554923111948415 0 0.0078541761397383364 -0.0095065855169955502 0 0.0072018776898149636 -0.0081804400442591144 0 0.0079290187747286297 -0.0086554923111948415 0 0.007739822137506922 -0.009586797139896552 0 0.0081461036245949556 -0.0097294397198768104 0 0.0080934802406073866 -0.0095321318923101677 0 0.007739822137506922 -0.009586797139896552 0 0.0081461036245949556 -0.0097294397198768104 0 0.0080934802406073866 -0.0095321318923101677 0 0.0087476927521924173 -0.0093235785483219806 0 0.0076269057251024137 -0.0091527005377933322 0 0.0077512666857074411 -0.0094565591518066434 0 0.0080934802406073866 -0.0095321318923101677 0 0.007930111239028325 -0.0095050534315106808 0 0.0082371682863771022 -0.0094260030136901467 0 0.0080934802406073866 -0.0095321318923101677 0 0.007930111239028325 -0.0095050534315106808 0 0.007739822137506922 -0.009586797139896552 0 0.007930111239028325 -0.0095050534315106808 0 0.0081377707052252106 -0.0094052928034273637 0 0.0082371682863771022 -0.0094260030136901467 0 0.0078541761397383364 -0.0095065855169955502 0 0.007739822137506922 -0.009586797139896552 0 0.0076233275015423806 -0.0095945652979961306 0 0.007930111239028325 -0.0095050534315106808 0 0.007739822137506922 -0.009586797139896552 0 0.0076839555321786511 -0.009571512990696418 0 0.007739822137506922 -0.009586797139896552 0 0.0076839555321786511 -0.009571512990696418 0 0.0076233275015423806 -0.0095945652979961306 0 0.0076839555321786511 -0.009571512990696418 0 0.0076233275015423806 -0.0095945652979961306 0 0.0074686760648133392 -0.0096246631870617726 0 0.0076839555321786511 -0.009571512990696418 0 0.0074686760648133392 -0.0096246631870617726 0 0.0075378163181443391 -0.009592821402520893 0 0.0076839555321786511 -0.009571512990696418 0 0.0075378163181443391 -0.009592821402520893 0 0.0077998748779527982 -0.0095222435344542878 0 0.0078090489213493153 -0.0094862651370156096 0 0.0075378163181443391 -0.009592821402520893 0 0.0077998748779527982 -0.0095222435344542878 0 0.0072102751166119227 -0.0096738571091852122 0 0.0074686760648133392 -0.0096246631870617726 0 0.0075378163181443391 -0.009592821402520893 0 0.0081453955108124806 -0.0093471207256240509 0 0.0078090489213493153 -0.0094862651370156096 0 0.0081377707052252106 -0.0094052928034273637 0 0.007930111239028325 -0.0095050534315106808 0 0.0076839555321786511 -0.009571512990696418 0 0.0077998748779527982 -0.0095222435344542878 0 0.007930111239028325 -0.0095050534315106808 0 0.0077998748779527982 -0.0095222435344542878 0 0.0081377707052252106 -0.0094052928034273637 0 0.0078090489213493153 -0.0094862651370156096 0 0.0077998748779527982 -0.0095222435344542878 0 0.0081377707052252106 -0.0094052928034273637 0 0.0081453955108124806 -0.0093471207256240509 0 0.0081377707052252106 -0.0094052928034273637 0 0.0084946766725703601 -0.0092646649880350901 0 0.0081377707052252106 -0.0094052928034273637 0 0.0085120039664810139 -0.0093125591976549703 0 0.0084946766725703601 -0.0092646649880350901 0 0.0080934802406073866 -0.0095321318923101677 0 0.0082371682863771022 -0.0094260030136901467 0 0.0087476927521924173 -0.0093235785483219806 0 0.0082371682863771022 -0.0094260030136901467 0 0.0085120039664810139 -0.0093125591976549703 0 0.0087476927521924173 -0.0093235785483219806 0 0.0081377707052252106 -0.0094052928034273637 0 0.0082371682863771022 -0.0094260030136901467 0 0.0085120039664810139 -0.0093125591976549703 0 0.0085120039664810139 -0.0093125591976549703 0 0.0088240162745616465 -0.0091463254552637315 0 0.0087476927521924173 -0.0093235785483219806 0 0.0085120039664810139 -0.0093125591976549703 0 0.0084946766725703601 -0.0092646649880350901 0 0.0088240162745616465 -0.0091463254552637315 0 0.0087368824793600721 -0.0091383309665167591 0 0.0084946766725703601 -0.0092646649880350901 0 0.0088240162745616465 -0.0091463254552637315 0 0.0088818851015544011 -0.0090019666214402223 0 0.0087368824793600721 -0.0091383309665167591 0 0.0088880502168249692 -0.0090021792102599838 0 0.0087368824793600721 -0.0091383309665167591 0 0.0088880502168249692 -0.0090021792102599838 0 0.0088240162745616465 -0.0091463254552637315 0 0.0088880502168249692 -0.0090021792102599838 0 0.0088240162745616465 -0.0091463254552637315 0 0.0089969055501131281 -0.0088465830017603678 0 0.0089857618654099521 -0.0090343657109521556 0 0.0089969055501131281 -0.0088465830017603678 0 0.0091485323659151845 -0.0086493583547742336 0 0.0088240162745616465 -0.0091463254552637315 0 0.0089857618654099521 -0.0090343657109521556 0 0.0089969055501131281 -0.0088465830017603678 0 0.0091131793961322337 -0.0085076889019521443 0 0.0090253979239178737 -0.0084261708336419924 0 0.0092802450490995971 -0.0080054749651538963 0 0.0091131793961322337 -0.0085076889019521443 0 0.0091485323659151845 -0.0086493583547742336 0 0.0092802450490995971 -0.0080054749651538963 0 0.0089969055501131281 -0.0088465830017603678 0 0.0091131793961322337 -0.0085076889019521443 0 0.0090253979239178737 -0.0084261708336419924 0 0.0089969055501131281 -0.0088465830017603678 0 0.0091131793961322337 -0.0085076889019521443 0 0.0091485323659151845 -0.0086493583547742336 0 0.0089857618654099521 -0.0090343657109521556 0 0.0091485323659151845 -0.0086493583547742336 0 0.0095382005003430189 -0.0083832428501280625 0 0.0089857618654099521 -0.0090343657109521556 0 0.0087476927521924173 -0.0093235785483219806 0 0.0095382005003430189 -0.0083832428501280625 0 0.0087609278265789944 -0.0091030851639050652 0 0.0092127056384341179 -0.0094458375385967318 0 0.0081461036245949556 -0.0097294397198768104 0 0.008511869084413223 -0.0098088481484487518 0 0.0087476927521924173 -0.0093235785483219806 0 0.0081461036245949556 -0.0097294397198768104 0 0.008511869084413223 -0.0098088481484487518 0 0.0084455670249587982 -0.010050920152297024 0 0.008511869084413223 -0.0098088481484487518 0 0.0087476927521924173 -0.0093235785483219806 0 0.0087919818309077549 -0.0099089453281992739 0 0.0088240162745616465 -0.0091463254552637315 0 0.0089857618654099521 -0.0090343657109521556 0 0.0087476927521924173 -0.0093235785483219806 0 0.0096211259827688571 -0.0069071781874284017 0 0.0095582648562595653 -0.0067203169949759936 0 0.0094403960042510095 -0.0069371015717844264 0 0.0097631070000591454 -0.006793897606591724 0 0.0096211259827688571 -0.0069071781874284017 0 0.0095582648562595653 -0.0067203169949759936 0 0.009656196104695312 -0.0074987587871478958 0 0.009491642414087181 -0.0080759633483936458 0 0.0095166922455908395 -0.0083882589318843639 0 0.0096183866543368916 -0.0082850637518519527 0 0.0094541845971976707 -0.0085022722558645777 0 0.0095166922455908395 -0.0083882589318843639 0 0.0094582831490817396 -0.0085044413629689619 0 0.0094541845971976707 -0.0085022722558645777 0 0.0095166922455908395 -0.0083882589318843639 0 0.0094709169174713222 -0.0084503747551904953 0 0.0094582831490817396 -0.0085044413629689619 0 0.0094307781524930103 -0.0084978359247356045 0 0.0094582831490817396 -0.0085044413629689619 0 0.0094530796643538355 -0.008535765556408649 0 0.009376152030208201 -0.0085376369889798315 0 0.0094307781524930103 -0.0084978359247356045 0 0.0094530796643538355 -0.008535765556408649 0 0.0094709169174713222 -0.0084503747551904953 0 0.0094307781524930103 -0.0084978359247356045 0 0.0094582831490817396 -0.0085044413629689619 0 0.0094634142943746963 -0.0081610263415043127 0 0.009491642414087181 -0.0080759633483936458 0 0.0091193023969243538 -0.0087839440795925861 0 0.0091776883896025185 -0.0087057941426943539 0 0.0090136400397244233 -0.0088250203987518833 0 0.009376152030208201 -0.0085376369889798315 0 0.0094530796643538355 -0.008535765556408649 0 0.0091776883896025185 -0.0087057941426943539 0 0.009491642414087181 -0.0080759633483936458 0 0.0091834362566712603 -0.0086473680126874231 0 0.0091193023969243538 -0.0087839440795925861 0 0.0090136400397244233 -0.0088250203987518833 0 0.0088502307300976843 -0.0088052790847538073 0 0.009491642414087181 -0.0080759633483936458 0 0.0091349386031909282 -0.0077872952118205789 0 0.0090136400397244233 -0.0088250203987518833 0 0.008901008157243857 -0.0088678632399186302 0 0.0088502307300976843 -0.0088052790847538073 0 0.0090136400397244233 -0.0088250203987518833 0 0.008901008157243857 -0.0088678632399186302 0 0.0089478725547422564 -0.0088576702313996718 0 0.0092243777010055285 -0.0086167525345795734 0 0.0091776883896025185 -0.0087057941426943539 0 0.0089478725547422564 -0.0088576702313996718 0 0.0091776883896025185 -0.0087057941426943539 0 0.0090136400397244233 -0.0088250203987518833 0 0.0089478725547422564 -0.0088576702313996718 0 0.0088880502168249692 -0.0090021792102599838 0 0.008901008157243857 -0.0088678632399186302 0 0.0089478725547422564 -0.0088576702313996718 0 0.0088818851015544011 -0.0090019666214402223 0 0.0088880502168249692 -0.0090021792102599838 0 0.0089478725547422564 -0.0088576702313996718 0 0.0088880502168249692 -0.0090021792102599838 0 0.0089969055501131281 -0.0088465830017603678 0 0.008901008157243857 -0.0088678632399186302 0 0.0089969055501131281 -0.0088465830017603678 0 0.0090253979239178737 -0.0084261708336419924 0 0.0088485316556458291 -0.0086667053067087298 0 0.0089969055501131281 -0.0088465830017603678 0 0.008901008157243857 -0.0088678632399186302 0 0.0088485316556458291 -0.0086667053067087298 0 0.0090253979239178737 -0.0084261708336419924 0 0.0086255713704583865 -0.0083596169796962636 0 0.0091069071466175645 -0.0078908694216146824 0 0.0090253979239178737 -0.0084261708336419924 0 0.0086255713704583865 -0.0083596169796962636 0 0.0088485316556458291 -0.0086667053067087298 0 0.0086255713704583865 -0.0083596169796962636 0 0.0088485316556458291 -0.0086667053067087298 0 0.0088502307300976843 -0.0088052790847538073 0 0.008901008157243857 -0.0088678632399186302 0 0.0088485316556458291 -0.0086667053067087298 0 0.0088502307300976843 -0.0088052790847538073 0 0.0089925157839165024 -0.0076967877998408308 0 0.0091349386031909282 -0.0077872952118205789 0 0.0094403960042510095 -0.0069371015717844264 0 0.0094242794487475173 -0.0070494985060059806 0 0.0095583142055799004 -0.0070473060974404374 0 0.0093250564455483794 -0.0070381280061750052 0 0.0094403960042510095 -0.0069371015717844264 0 0.0094242794487475173 -0.0070494985060059806 0 0.0093250564455483794 -0.0070381280061750052 0 0.0094242794487475173 -0.0070494985060059806 0 0.009334003842586619 -0.0070755386741956292 0 0.009760971110577412 -0.0071226883116037275 0 0.009620636646853916 -0.0071441110176781201 0 0.0095583142055799004 -0.0070473060974404374 0 0.0094242794487475173 -0.0070494985060059806 0 0.0095583142055799004 -0.0070473060974404374 0 0.0094699748840971799 -0.0071030066123633296 0 0.009620636646853916 -0.0071441110176781201 0 0.0095583142055799004 -0.0070473060974404374 0 0.0094699748840971799 -0.0071030066123633296 0 0.0096211259827688571 -0.0069071781874284017 0 0.0094403960042510095 -0.0069371015717844264 0 0.0095583142055799004 -0.0070473060974404374 0 0.0098159368633503139 -0.0070096366193479987 0 0.0096211259827688571 -0.0069071781874284017 0 0.0095583142055799004 -0.0070473060974404374 0 0.0091516071545430858 -0.0066083090263152925 0 0.0092231928952563307 -0.0067550169566690781 0 0.0092421879912427691 -0.0063626045491179603 0 0.0089709884331452584 -0.0066911107156967685 0 0.0091516071545430858 -0.0066083090263152925 0 0.0092059909678255114 -0.0068590625953770298 0 0.0091516071545430858 -0.0066083090263152925 0 0.0092231928952563307 -0.0067550169566690781 0 0.0092059909678255114 -0.0068590625953770298 0 0.0094699748840971799 -0.0071030066123633296 0 0.0095005663601038792 -0.0072301407078496378 0 0.009334003842586619 -0.0070755386741956292 0 0.009620636646853916 -0.0071441110176781201 0 0.0094699748840971799 -0.0071030066123633296 0 0.0095005663601038792 -0.0072301407078496378 0 0.0094399008734118595 -0.0070027339844014533 0 0.009369682155482147 -0.0070638980771252262 0 0.0094399008734118595 -0.0070027339844014533 0 0.0092637463879210527 -0.0069981402058019665 0 0.0093250564455483794 -0.0070381280061750052 0 0.009334003842586619 -0.0070755386741956292 0 0.0092986022323739079 -0.0070002845542130659 0 0.0093250564455483794 -0.0070381280061750052 0 0.0092986022323739079 -0.0070002845542130659 0 0.009226258462082592 -0.0070432219284301007 0 0.0092856155461441599 -0.0070609797065453233 0 0.009334003842586619 -0.0070755386741956292 0 0.0092986022323739079 -0.0070002845542130659 0 0.0094242794487475173 -0.0070494985060059806 0 0.0094699748840971799 -0.0071030066123633296 0 0.009334003842586619 -0.0070755386741956292 0 0.0092231928952563307 -0.0067550169566690781 0 0.0092534011337963816 -0.0068085511038471803 0 0.0092421879912427691 -0.0063626045491179603 0 0.0092986022323739079 -0.0070002845542130659 0 0.0092534011337963816 -0.0068085511038471803 0 0.009226258462082592 -0.0070432219284301007 0 0.0092534011337963816 -0.0068085511038471803 0 0.009226258462082592 -0.0070432219284301007 0 0.0092562349953918197 -0.0066819189722343809 0 0.0092231928952563307 -0.0067550169566690781 0 0.0092059909678255114 -0.0068590625953770298 0 0.0092986022323739079 -0.0070002845542130659 0 0.0092231928952563307 -0.0067550169566690781 0 0.0092986022323739079 -0.0070002845542130659 0 0.0092534011337963816 -0.0068085511038471803 0 0.0090904551434550229 -0.0072054524146007923 0 0.009226258462082592 -0.0070432219284301007 0 0.0092562349953918197 -0.0066819189722343809 0 0.0090904551434550229 -0.0072054524146007923 0 0.0092764208107076994 -0.006882259582836836 0 0.0092562349953918197 -0.0066819189722343809 0 0.0093250564455483794 -0.0070381280061750052 0 0.0090904551434550229 -0.0072054524146007923 0 0.009226258462082592 -0.0070432219284301007 0 0.0086255713704583865 -0.0083596169796962636 0 0.0090904551434550229 -0.0072054524146007923 0 0.0091069071466175645 -0.0078908694216146824 0 0.0089925157839165024 -0.0076967877998408308 0 0.0090875881492635882 -0.0072421360619872996 0 0.0090253979239178737 -0.0084261708336419924 0 0.0091069071466175645 -0.0078908694216146824 0 0.0092802450490995971 -0.0080054749651538963 0 0.0091069071466175645 -0.0078908694216146824 0 0.0092812330367581988 -0.0073681234398106105 0 0.0092802450490995971 -0.0080054749651538963 0 0.0090904551434550229 -0.0072054524146007923 0 0.0091069071466175645 -0.0078908694216146824 0 0.0092812330367581988 -0.0073681234398106105 0 0.0090904551434550229 -0.0072054524146007923 0 0.0092812330367581988 -0.0073681234398106105 0 0.0092764208107076994 -0.006882259582836836 0 0.0093781739898659931 -0.0060801267363022769 0 0.0092020916606080898 -0.0058307364184166923 0 0.0092031068908868755 -0.0059270569475037213 0 0.0092812330367581988 -0.0073681234398106105 0 0.0092764208107076994 -0.006882259582836836 0 0.0094473876306706284 -0.0068869561850313224 0 0.0092764208107076994 -0.006882259582836836 0 0.0093781739898659931 -0.0060801267363022769 0 0.0094473876306706284 -0.0068869561850313224 0 0.0093240284470424532 -0.0061427368994662708 0 0.0093402053012621826 -0.0061992657778812419 0 0.0092764208107076994 -0.006882259582836836 0 0.0093781739898659931 -0.0060801267363022769 0 0.0092562349953918197 -0.0066819189722343809 0 0.0092562349953918197 -0.0066819189722343809 0 0.0092771140591674552 -0.0062481083962426503 0 0.0092421879912427691 -0.0063626045491179603 0 0.0092534011337963816 -0.0068085511038471803 0 0.0092562349953918197 -0.0066819189722343809 0 0.0092421879912427691 -0.0063626045491179603 0 0.0093781739898659931 -0.0060801267363022769 0 0.0092562349953918197 -0.0066819189722343809 0 0.0092771140591674552 -0.0062481083962426503 0 0.0092771140591674552 -0.0062481083962426503 0 0.0092421879912427691 -0.0063626045491179603 0 0.009311183720286954 -0.0058818163259877357 0 0.0093781739898659931 -0.0060801267363022769 0 0.0092771140591674552 -0.0062481083962426503 0 0.009311183720286954 -0.0058818163259877357 0 0.0092271892736449819 -0.0056145148349721575 0 0.0092421879912427691 -0.0063626045491179603 0 0.009311183720286954 -0.0058818163259877357 0 0.0090747344377892641 -0.0063058695177378912 0 0.0091516071545430858 -0.0066083090263152925 0 0.0092421879912427691 -0.0063626045491179603 0 0.0092127056384341179 -0.0094458375385967318 0 0.0089652776470046935 -0.0074344423225312902 0 0.008684987363413681 -0.010126352881285839 0 0.0087919818309077549 -0.0099089453281992739 0 0.0088513061686012716 -0.01019243265922431 0 0.0085502496143138231 -0.0057617410530103452 0 0.0087637101832155305 -0.0058365011831707477 0 0.0086552501350730133 -0.0059292353086882708 0 0.0087206262157017815 -0.0080085083546799236 0 0.0089652776470046935 -0.0074344423225312902 0 0.008135821602811193 -0.0067162763573391663 0 0.0083855652387060976 -0.0061863769086193936 0 0.0084457640989737039 -0.0060326260954661984 0 0.0085502496143138231 -0.0057617410530103452 0 0.0082929326182283342 -0.0056389157912757381 0 0.0084457640989737039 -0.0060326260954661984 0 0.0083395613900167746 -0.0064810454694864206 0 0.008135821602811193 -0.0067162763573391663 0 0.0083855652387060976 -0.0061863769086193936 0 0.0079765487552133918 -0.0073100218215943497 0 0.0084069010721515673 -0.0056551887623649934 0 0.0087206262157017815 -0.0080085083546799236 0 0.0079765487552133918 -0.0073100218215943497 0 0.008684987363413681 -0.010126352881285839 0 0.0084455670249587982 -0.010050920152297024 0 0.0087919818309077549 -0.0099089453281992739 0 0.008511869084413223 -0.0098088481484487518 0 0.0084455670249587982 -0.010050920152297024 0 0.0087919818309077549 -0.0099089453281992739 0 0.0095382005003430189 -0.0083832428501280625 0 0.009440612211814867 -0.0079967611306380262 0 0.0097096473502575279 -0.007468541969834307 0 0.0091485323659151845 -0.0086493583547742336 0 0.009440612211814867 -0.0079967611306380262 0 0.0092802450490995971 -0.0080054749651538963 0 0.0091485323659151845 -0.0086493583547742336 0 0.0095382005003430189 -0.0083832428501280625 0 0.009440612211814867 -0.0079967611306380262 0 0.009440612211814867 -0.0079967611306380262 0 0.0092802450490995971 -0.0080054749651538963 0 0.0094291406901456966 -0.0075532576273996937 0 0.0092812330367581988 -0.0073681234398106105 0 0.0094291406901456966 -0.0075532576273996937 0 0.0094473876306706284 -0.0068869561850313224 0 0.0092812330367581988 -0.0073681234398106105 0 0.0092802450490995971 -0.0080054749651538963 0 0.0094291406901456966 -0.0075532576273996937 0 0.009440612211814867 -0.0079967611306380262 0 0.0094291406901456966 -0.0075532576273996937 0 0.0097096473502575279 -0.007468541969834307 0 0.0089652776470046935 -0.0074344423225312902 0 0.0093402053012621826 -0.0061992657778812419 0 0.0087637101832155305 -0.0058365011831707477 0 0.0089259917159712973 -0.005871836160928014 0 0.0086552501350730133 -0.0059292353086882708 0 0.0088521160539912908 -0.0056571202412049127 0 0.0092020916606080898 -0.0058307364184166923 0 0.0089259917159712973 -0.005871836160928014 0 0.0089652776470046935 -0.0074344423225312902 0 0.0087437159835353651 -0.0052984259079461148 0 0.0094291406901456966 -0.0075532576273996937 0 0.0097096473502575279 -0.007468541969834307 0 0.0094473876306706284 -0.0068869561850313224 0 0.0092020916606080898 -0.0058307364184166923 0 0.0089259917159712973 -0.005871836160928014 0 0.0092031068908868755 -0.0059270569475037213 0 0.0089259917159712973 -0.005871836160928014 0 0.0088795665454301925 -0.0059256058703106903 0 0.0092031068908868755 -0.0059270569475037213 0 0.0089259917159712973 -0.005871836160928014 0 0.0087033850462422332 -0.0059227856503975039 0 0.0088795665454301925 -0.0059256058703106903 0 0.0087033850462422332 -0.0059227856503975039 0 0.0085767392852168466 -0.0058944461600917413 0 0.0088795665454301925 -0.0059256058703106903 0 0.0089259917159712973 -0.005871836160928014 0 0.0087033850462422332 -0.0059227856503975039 0 0.0086552501350730133 -0.0059292353086882708 0 0.0085502496143138231 -0.0057617410530103452 0 0.0086552501350730133 -0.0059292353086882708 0 0.0084457640989737039 -0.0060326260954661984 0 0.0087033850462422332 -0.0059227856503975039 0 0.0086552501350730133 -0.0059292353086882708 0 0.0084978753863635126 -0.0059964128578304677 0 0.0086552501350730133 -0.0059292353086882708 0 0.0084457640989737039 -0.0060326260954661984 0 0.0084978753863635126 -0.0059964128578304677 0 0.0086374304659029809 -0.0059397740551812937 0 0.0083855652387060976 -0.0061863769086193936 0 0.0084978753863635126 -0.0059964128578304677 0 0.0083855652387060976 -0.0061863769086193936 0 0.0084457640989737039 -0.0060326260954661984 0 0.0084978753863635126 -0.0059964128578304677 0 0.0086374304659029809 -0.0059397740551812937 0 0.0084978753863635126 -0.0059964128578304677 0 0.0085767392852168466 -0.0058944461600917413 0 0.0087033850462422332 -0.0059227856503975039 0 0.0084978753863635126 -0.0059964128578304677 0 0.0085767392852168466 -0.0058944461600917413 0 0.0085767392852168466 -0.0058944461600917413 0 0.0086301974455140189 -0.0058832667137166082 0 0.0085166491725121429 -0.0057579334179257407 0 0.0086110348672283621 -0.0058920430872213938 0 0.0085940962879793997 -0.0059331370184715721 0 0.0085166491725121429 -0.0057579334179257407 0 0.0086301974455140189 -0.0058832667137166082 0 0.0086110348672283621 -0.0058920430872213938 0 0.0085166491725121429 -0.0057579334179257407 0 0.0086301974455140189 -0.0058832667137166082 0 0.0086110348672283621 -0.0058920430872213938 0 0.0086556062428601883 -0.0059188458154469815 0 0.0086301974455140189 -0.0058832667137166082 0 0.0086556062428601883 -0.0059188458154469815 0 0.0088795665454301925 -0.0059256058703106903 0 0.0088881480557292149 -0.0059096005974715541 0 0.0088923869625998162 -0.0058955012178743679 0 0.0091225893772900746 -0.0059093801776623168 0 0.0088795665454301925 -0.0059256058703106903 0 0.0091163558712160312 -0.0059196431750772717 0 0.0085767392852168466 -0.0058944461600917413 0 0.0086301974455140189 -0.0058832667137166082 0 0.0088795665454301925 -0.0059256058703106903 0 0.0088795665454301925 -0.0059256058703106903 0 0.0092031068908868755 -0.0059270569475037213 0 0.0091163558712160312 -0.0059196431750772717 0 0.0092031068908868755 -0.0059270569475037213 0 0.0093097381020173335 -0.0058771964764654698 0 0.0094110710465024044 -0.0058791481805666795 0 0.0092031068908868755 -0.0059270569475037213 0 0.0093097381020173335 -0.0058771964764654698 0 0.0091163558712160312 -0.0059196431750772717 0 0.0092063421283019344 -0.00590077739775476 0 0.0095999288602944214 -0.0057466223760377268 0 0.00930269036232435 -0.00599567945689395 0 0.0091225893772900746 -0.0059093801776623168 0 0.0091163558712160312 -0.0059196431750772717 0 0.0092063421283019344 -0.00590077739775476 0 0.0093097381020173335 -0.0058771964764654698 0 0.0091163558712160312 -0.0059196431750772717 0 0.0092063421283019344 -0.00590077739775476 0 0.0093097381020173335 -0.0058771964764654698 0 0.0092063421283019344 -0.00590077739775476 0 0.0095999288602944214 -0.0057466223760377268 0 0.0096170399686289001 -0.0057499817372741943 0 0.0097025647996754061 -0.0057022808221488426 0 0.0092063421283019344 -0.00590077739775476 0 0.0091825018704200356 -0.0059637158236920864 0 0.00930269036232435 -0.00599567945689395 0 0.0092063421283019344 -0.00590077739775476 0 0.0091825018704200356 -0.0059637158236920864 0 0.0091429608627716149 -0.0059262036338867015 0 0.0091825018704200356 -0.0059637158236920864 0 0.0091429608627716149 -0.0059262036338867015 0 0.009134103527925163 -0.0059872539471454893 0 0.0085940600733513464 -0.0059224271206191597 0 0.0086422513591681415 -0.0058465436235278301 0 0.0085940962879793997 -0.0059331370184715721 0 0.0085940600733513464 -0.0059224271206191597 0 0.0085974469116187422 -0.0058190449641668 0 0.0086422513591681415 -0.0058465436235278301 0 0.0088833978380922166 -0.0058854360479025187 0 0.0088075859817258149 -0.00607571524999608 0 0.0086110348672283621 -0.0058920430872213938 0 0.0085940600733513464 -0.0059224271206191597 0 0.0085940962879793997 -0.0059331370184715721 0 0.0086110348672283621 -0.0058920430872213938 0 0.0086556062428601883 -0.0059188458154469815 0 0.0085940600733513464 -0.0059224271206191597 0 0.0088881480557292149 -0.0059096005974715541 0 0.0088833978380922166 -0.0058854360479025187 0 0.0091225893772900746 -0.0059093801776623168 0 0.0092063421283019344 -0.00590077739775476 0 0.0091429608627716149 -0.0059262036338867015 0 0.009311183720286954 -0.0058818163259877357 0 0.0094303591735513462 -0.0057594638860920134 0 0.009441047962402872 -0.0056552375530291594 0 0.0093781739898659931 -0.0060801267363022769 0 0.009311183720286954 -0.0058818163259877357 0 0.0094303591735513462 -0.0057594638860920134 0 0.0094226409536358451 -0.0056406345480483821 0 0.009311183720286954 -0.0058818163259877357 0 0.009441047962402872 -0.0056552375530291594 0 0.0093781739898659931 -0.0060801267363022769 0 0.0094303591735513462 -0.0057594638860920134 0 0.0094110710465024044 -0.0058791481805666795 0 0.0093781739898659931 -0.0060801267363022769 0 0.0092031068908868755 -0.0059270569475037213 0 0.0094110710465024044 -0.0058791481805666795 0 0.0094303591735513462 -0.0057594638860920134 0 0.0094110710465024044 -0.0058791481805666795 0 0.0095999288602944214 -0.0057466223760377268 0 0.0093097381020173335 -0.0058771964764654698 0 0.0094110710465024044 -0.0058791481805666795 0 0.0095999288602944214 -0.0057466223760377268 0 0.0095999288602944214 -0.0057466223760377268 0 0.0094939910074200284 -0.005590779877849208 0 0.0096113208642390827 -0.0053898669468247151 0 0.0094303591735513462 -0.0057594638860920134 0 0.0095999288602944214 -0.0057466223760377268 0 0.0094939910074200284 -0.005590779877849208 0 0.0094303591735513462 -0.0057594638860920134 0 0.0094939910074200284 -0.005590779877849208 0 0.009441047962402872 -0.0056552375530291594 0 0.0095276727685047313 -0.0055842360791657549 0 0.0094939910074200284 -0.005590779877849208 0 0.0095187262961029476 -0.0054653684175171042 0 0.0095276727685047313 -0.0055842360791657549 0 0.0094939910074200284 -0.005590779877849208 0 0.009441047962402872 -0.0056552375530291594 0 0.0095380166129187087 -0.005268952614288557 0 0.0095603572448297279 -0.0053121766366438262 0 0.0095933600731648895 -0.0048326771830469921 0 0.0095380166129187087 -0.005268952614288557 0 0.0095187262961029476 -0.0054653684175171042 0 0.0095603572448297279 -0.0053121766366438262 0 0.0094939910074200284 -0.005590779877849208 0 0.0095187262961029476 -0.0054653684175171042 0 0.0095603572448297279 -0.0053121766366438262 0 0.0094939910074200284 -0.005590779877849208 0 0.0095603572448297279 -0.0053121766366438262 0 0.0096113208642390827 -0.0053898669468247151 0 0.0095603572448297279 -0.0053121766366438262 0 0.0096569252097734558 -0.0049853043212560342 0 0.0095933600731648895 -0.0048326771830469921 0 0.0095999288602944214 -0.0057466223760377268 0 0.0096113208642390827 -0.0053898669468247151 0 0.0098356956558791394 -0.0051079869095604852 0 0.0095999288602944214 -0.0057466223760377268 0 0.0098356956558791394 -0.0051079869095604852 0 0.01017881388198015 -0.0054200319670809575 0 0.0096113208642390827 -0.0053898669468247151 0 0.0098356956558791394 -0.0051079869095604852 0 0.0096569252097734558 -0.0049853043212560342 0 0.0095603572448297279 -0.0053121766366438262 0 0.0096113208642390827 -0.0053898669468247151 0 0.0096569252097734558 -0.0049853043212560342 0 0.0098356956558791394 -0.0051079869095604852 0 0.0097297388486585687 -0.004535570375082747 0 0.010092551575343965 -0.0045447959600725604 0 0.0097297388486585687 -0.004535570375082747 0 0.00946241243258766 -0.0038942849104687902 0 0.0096022550330373373 -0.0041264410184178807 0 0.0096979708618410536 -0.0045015572485454895 0 0.0097376039039526463 -0.0042063146165932765 0 0.0097297388486585687 -0.004535570375082747 0 0.0096377436083797726 -0.0044615788903899006 0 0.0096875651863228499 -0.0043021842691386876 0 0.0098356956558791394 -0.0051079869095604852 0 0.0097297388486585687 -0.004535570375082747 0 0.0096569252097734558 -0.0049853043212560342 0 0.0097297388486585687 -0.004535570375082747 0 0.0096569252097734558 -0.0049853043212560342 0 0.0095933600731648895 -0.0048326771830469921 0 0.0097297388486585687 -0.004535570375082747 0 0.0095933600731648895 -0.0048326771830469921 0 0.0096377436083797726 -0.0044615788903899006 0 0.0095933600731648895 -0.0048326771830469921 0 0.0095374201758303204 -0.004553888105000823 0 0.0096377436083797726 -0.0044615788903899006 0 0.0095233614018418507 -0.0049865924404522578 0 0.0095933600731648895 -0.0048326771830469921 0 0.0095374201758303204 -0.004553888105000823 0 0.0095233614018418507 -0.0049865924404522578 0 0.0095380166129187087 -0.005268952614288557 0 0.0095933600731648895 -0.0048326771830469921 0 0.010523664029809776 -0.0051484197085005729 0 0.010373038046905437 -0.0048226398165898748 0 0.010594523297020359 -0.0049322874667932807 0 0.0099988585401522938 -0.0056241641583326075 0 0.009169014937792706 -0.0050132207782207705 0 0.010523664029809776 -0.0051484197085005729 0 0.010594523297020359 -0.0049322874667932807 0 0.010818963913300606 -0.0049269769935405758 0 0.0091763923088665125 -0.0060150108245449682 0 0.009134103527925163 -0.0059872539471454893 0 0.0091257744766977938 -0.006017245853447986 0 0.0088075859817258149 -0.00607571524999608 0 0.009169014937792706 -0.0050132207782207705 0 0.0085974469116187422 -0.0058190449641668 0 0.0086719350008159449 -0.0056297930456449992 0 0.0086422513591681415 -0.0058465436235278301 0 0.0091825018704200356 -0.0059637158236920864 0 0.0091763923088665125 -0.0060150108245449682 0 0.009134103527925163 -0.0059872539471454893 0 0.0091825018704200356 -0.0059637158236920864 0 0.0091763923088665125 -0.0060150108245449682 0 0.00930269036232435 -0.00599567945689395 0 0.0099988585401522938 -0.0056241641583326075 0 0.0097025647996754061 -0.0057022808221488426 0 0.0098356956558791394 -0.0051079869095604852 0 0.01017881388198015 -0.0054200319670809575 0 0.010161845036333951 -0.0050481733260899714 0 0.010523664029809776 -0.0051484197085005729 0 0.010161845036333951 -0.0050481733260899714 0 0.010373038046905437 -0.0048226398165898748 0 0.010523664029809776 -0.0051484197085005729 0 0.01017881388198015 -0.0054200319670809575 0 0.010161845036333951 -0.0050481733260899714 0 0.0098356956558791394 -0.0051079869095604852 0 0.010161845036333951 -0.0050481733260899714 0 0.010092551575343965 -0.0045447959600725604 0 0.010161845036333951 -0.0050481733260899714 0 0.010373038046905437 -0.0048226398165898748 0 0.010092551575343965 -0.0045447959600725604 0 0.010373038046905437 -0.0048226398165898748 0 0.010092551575343965 -0.0045447959600725604 0 0.010453119609813774 -0.0045054217143485819 0 0.0097376039039526463 -0.0042063146165932765 0 0.0097203210642951773 -0.0043219202063445291 0 0.010373038046905437 -0.0048226398165898748 0 0.010576873374277294 -0.0046162005686784437 0 0.010453119609813774 -0.0045054217143485819 0 0.010373038046905437 -0.0048226398165898748 0 0.010594523297020359 -0.0049322874667932807 0 0.010629399540680285 -0.0047710110225533866 0 0.010373038046905437 -0.0048226398165898748 0 0.010576873374277294 -0.0046162005686784437 0 0.010629399540680285 -0.0047710110225533866 0 0.010594523297020359 -0.0049322874667932807 0 0.010711248895792003 -0.0048620204331875343 0 0.010818963913300606 -0.0049269769935405758 0 0.010711248895792003 -0.0048620204331875343 0 0.010817758202279667 -0.0047907940982048706 0 0.010818963913300606 -0.0049269769935405758 0 0.010594523297020359 -0.0049322874667932807 0 0.010711248895792003 -0.0048620204331875343 0 0.010629399540680285 -0.0047710110225533866 0 0.010711248895792003 -0.0048620204331875343 0 0.010629399540680285 -0.0047710110225533866 0 0.010817758202279667 -0.0047907940982048706 0 0.010629399540680285 -0.0047710110225533866 0 0.010694914516577246 -0.0046425289698612277 0 0.010786206401868522 -0.0047576600194988612 0 0.011341990009325344 -0.0046157015625611919 0 0.0086808299586835381 -0.0023268301372722836 0 0.010576873374277294 -0.0046162005686784437 0 0.01078473335596181 -0.0044337461439275467 0 0.010453119609813774 -0.0045054217143485819 0 0.010576873374277294 -0.0046162005686784437 0 0.010694914516577246 -0.0046425289698612277 0 0.01078473335596181 -0.0044337461439275467 0 0.010694914516577246 -0.0046425289698612277 0 0.010786206401868522 -0.0047576600194988612 0 0.01078473335596181 -0.0044337461439275467 0 0.010576873374277294 -0.0046162005686784437 0 0.010629399540680285 -0.0047710110225533866 0 0.010694914516577246 -0.0046425289698612277 0 0.0086808299586835381 -0.0023268301372722836 0 0.0090901869794613836 -0.0022828942410844343 0 0.0069211384142505361 0.0014263950648467497 0 0.0068943478332356431 0.0013275910947128874 0 0.0069012902769762987 0.0013914910784203803 0 0.0075329952949708696 -0.00081547013684341236 0 0.0086808299586835381 -0.0023268301372722836 0 0.0069211384142505361 0.0014263950648467497 0 0.0069556999487964408 0.0013409801373435587 0 0.0068943478332356431 0.0013275910947128874 0 0.008245060870136104 -0.0033753629135420968 0 0.0083586843732380237 -0.0036552920918710642 0 0.0085002351829918943 -0.0036764933434855602 0 0.0088660171341617914 -0.0034359713537457886 0 0.008245060870136104 -0.0033753629135420968 0 0.0085002351829918943 -0.0036764933434855602 0 0.008245060870136104 -0.0033753629135420968 0 0.0082424408139545897 -0.0036197891440210329 0 0.0083586843732380237 -0.0036552920918710642 0 0.0086808299586835381 -0.0023268301372722836 0 0.009169014937792706 -0.0050132207782207705 0 0.0070202043509355874 0.0014509157681890923 0 0.0070823140874714773 0.0013481185704107763 0 0.0071097686628456792 0.0014889678299277636 0 0.0069211384142505361 0.0014263950648467497 0 0.0069556999487964408 0.0013409801373435587 0 0.0070202043509355874 0.0014509157681890923 0 0.0075329952949708696 -0.00081547013684341236 0 0.008859058699164285 -0.0015106456973134278 0 0.0069556999487964408 0.0013409801373435587 0 0.0070202043509355874 0.0014509157681890923 0 0.0070823140874714773 0.0013481185704107763 0 0.0094537181505691993 -0.0034802979625597578 0 0.0091175657157272789 -0.0038646536483903661 0 0.0096291000744369425 -0.0039270916868766031 0 0.0088660171341617914 -0.0034359713537457886 0 0.0094537181505691993 -0.0034802979625597578 0 0.0091175657157272789 -0.0038646536483903661 0 0.0091175657157272789 -0.0038646536483903661 0 0.0089358948974288463 -0.0042859883085987066 0 0.0086945946557913188 -0.0039486498681561349 0 0.0091175657157272789 -0.0038646536483903661 0 0.0089358948974288463 -0.0042859883085987066 0 0.0092985338748045147 -0.0042791058978513827 0 0.0092985338748045147 -0.0042791058978513827 0 0.0096651497172381261 -0.0045859134864138706 0 0.0096291000744369425 -0.0039270916868766031 0 0.0091175657157272789 -0.0038646536483903661 0 0.0092985338748045147 -0.0042791058978513827 0 0.0096291000744369425 -0.0039270916868766031 0 0.0084290975844461373 -0.0038947507893950829 0 0.0082424408139545897 -0.0036197891440210329 0 0.0082411244665261882 -0.0042712045786217831 0 0.009169014937792706 -0.0050132207782207705 0 0.0083553730857599505 -0.0049673984121049904 0 0.0084290975844461373 -0.0038947507893950829 0 0.0085002351829918943 -0.0036764933434855602 0 0.0086945946557913188 -0.0039486498681561349 0 0.0084290975844461373 -0.0038947507893950829 0 0.0082424408139545897 -0.0036197891440210329 0 0.0083586843732380237 -0.0036552920918710642 0 0.0084290975844461373 -0.0038947507893950829 0 0.0083586843732380237 -0.0036552920918710642 0 0.0085002351829918943 -0.0036764933434855602 0 0.0088660171341617914 -0.0034359713537457886 0 0.0091175657157272789 -0.0038646536483903661 0 0.0086945946557913188 -0.0039486498681561349 0 0.0088660171341617914 -0.0034359713537457886 0 0.0085002351829918943 -0.0036764933434855602 0 0.0086945946557913188 -0.0039486498681561349 0 0.0089358948974288463 -0.0042859883085987066 0 0.0086945946557913188 -0.0039486498681561349 0 0.0085911754687939962 -0.0042362426172766502 0 0.0084290975844461373 -0.0038947507893950829 0 0.0086945946557913188 -0.0039486498681561349 0 0.0085911754687939962 -0.0042362426172766502 0 0.0085911754687939962 -0.0042362426172766502 0 0.0082411244665261882 -0.0042712045786217831 0 0.0084602428901040614 -0.0045191942968972592 0 0.0084290975844461373 -0.0038947507893950829 0 0.0085911754687939962 -0.0042362426172766502 0 0.0082411244665261882 -0.0042712045786217831 0 0.0084602428901040614 -0.0045191942968972592 0 0.0082879447828304916 -0.0049627281567709621 0 0.008714507004445371 -0.0046124225031141022 0 0.0082411244665261882 -0.0042712045786217831 0 0.0084602428901040614 -0.0045191942968972592 0 0.0082879447828304916 -0.0049627281567709621 0 0.0083553730857599505 -0.0049673984121049904 0 0.0084595776217999633 -0.0054599891386897421 0 0.0082879447828304916 -0.0049627281567709621 0 0.0087348986503354258 -0.0051078443664101568 0 0.008714507004445371 -0.0046124225031141022 0 0.0087348986503354258 -0.0051078443664101568 0 0.008714507004445371 -0.0046124225031141022 0 0.0091414563990798951 -0.004868923885125785 0 0.0089358948974288463 -0.0042859883085987066 0 0.008714507004445371 -0.0046124225031141022 0 0.0091414563990798951 -0.004868923885125785 0 0.0089358948974288463 -0.0042859883085987066 0 0.0085911754687939962 -0.0042362426172766502 0 0.008714507004445371 -0.0046124225031141022 0 0.0085911754687939962 -0.0042362426172766502 0 0.0084602428901040614 -0.0045191942968972592 0 0.008714507004445371 -0.0046124225031141022 0 0.0089358948974288463 -0.0042859883085987066 0 0.0092985338748045147 -0.0042791058978513827 0 0.0091414563990798951 -0.004868923885125785 0 0.0092985338748045147 -0.0042791058978513827 0 0.0091414563990798951 -0.004868923885125785 0 0.0096651497172381261 -0.0045859134864138706 0 0.0091414563990798951 -0.004868923885125785 0 0.0095428447822354934 -0.0051516827112437664 0 0.0096651497172381261 -0.0045859134864138706 0 0.0091414563990798951 -0.004868923885125785 0 0.0091801114816394153 -0.0052994373912709078 0 0.0087193090467416121 -0.0053564762355426095 0 0.0091201666222725641 -0.0049183589991300299 0 0.0087942115061420811 -0.0054760297820444677 0 0.0091414563990798951 -0.004868923885125785 0 0.0091801114816394153 -0.0052994373912709078 0 0.0095428447822354934 -0.0051516827112437664 0 0.0091801114816394153 -0.0052994373912709078 0 0.0095428447822354934 -0.0051516827112437664 0 0.0094105332497315553 -0.0055462831717273979 0 0.0095428447822354934 -0.0051516827112437664 0 0.0094105332497315553 -0.0055462831717273979 0 0.00969125664785438 -0.0054802523615751445 0 0.0091780315228030419 -0.0059489093702690303 0 0.0094105332497315553 -0.0055462831717273979 0 0.0090709482877400511 -0.005609519620980441 0 0.0091801114816394153 -0.0052994373912709078 0 0.0090709482877400511 -0.005609519620980441 0 0.0087193090467416121 -0.0053564762355426095 0 0.0091801114816394153 -0.0052994373912709078 0 0.0094105332497315553 -0.0055462831717273979 0 0.0090709482877400511 -0.005609519620980441 0 0.0085132253325937435 -0.0059446600445017331 0 0.0087942115061420811 -0.0054760297820444677 0 0.0087716972229761377 -0.0057937386702470962 0 0.0090709482877400511 -0.005609519620980441 0 0.0087193090467416121 -0.0053564762355426095 0 0.0083753812671874626 -0.0059627808045918367 0 0.0087716972229761377 -0.0057937386702470962 0 0.0087193090467416121 -0.0053564762355426095 0 0.0086374304659029809 -0.0059397740551812937 0 0.0085166491725121429 -0.0057579334179257407 0 0.0088688982682611217 -0.0056108040875413505 0 0.0086374304659029809 -0.0059397740551812937 0 0.0085767392852168466 -0.0058944461600917413 0 0.0085166491725121429 -0.0057579334179257407 0 0.0082879447828304916 -0.0049627281567709621 0 0.0087348986503354258 -0.0051078443664101568 0 0.0085166491725121429 -0.0057579334179257407 0 0.0084595776217999633 -0.0054599891386897421 0 0.00849838028077308 -0.0057146108923941509 0 0.0087348986503354258 -0.0051078443664101568 0 0.0091414563990798951 -0.004868923885125785 0 0.0088688982682611217 -0.0056108040875413505 0 0.0087348986503354258 -0.0051078443664101568 0 0.0085166491725121429 -0.0057579334179257407 0 0.0088688982682611217 -0.0056108040875413505 0 0.0042092690416193068 -0.0096596878470795663 0 0.0038768422263804761 -0.0093730707023107259 0 0.0042051598109374587 -0.0092673801359100579 0 0.0042092690416193068 -0.0096596878470795663 0 0.003823681216885551 -0.009611229489506495 0 0.0038768422263804761 -0.0093730707023107259 0 0.0042092690416193068 -0.0096596878470795663 0 0.003823681216885551 -0.009611229489506495 0 0.0038529257981966695 -0.0098201815656350049 0 0.003823681216885551 -0.009611229489506495 0 0.0036328294140495817 -0.0097352119420021054 0 0.0038529257981966695 -0.0098201815656350049 0 0.0035234312296890963 -0.0094588110403683902 0 0.003823681216885551 -0.009611229489506495 0 0.0036328294140495817 -0.0097352119420021054 0 0.0035234312296890963 -0.0094588110403683902 0 0.003823681216885551 -0.009611229489506495 0 0.0038768422263804761 -0.0093730707023107259 0 0.0035234312296890963 -0.0094588110403683902 0 0.0038768422263804761 -0.0093730707023107259 0 0.003605321065790115 -0.009092814489546559 0 0.0038768422263804761 -0.0093730707023107259 0 0.003605321065790115 -0.009092814489546559 0 0.0039313444985079465 -0.009091695438586074 0 0.0041584908690106611 -0.0089126359401690211 0 0.0039313444985079465 -0.009091695438586074 0 0.0042051598109374587 -0.0092673801359100579 0 0.0038768422263804761 -0.0093730707023107259 0 0.0039313444985079465 -0.009091695438586074 0 0.0042051598109374587 -0.0092673801359100579 0 0.0041584908690106611 -0.0089126359401690211 0 0.0042051598109374587 -0.0092673801359100579 0 0.0043683332257008134 -0.0090297130706516876 0 0.010122317290667593 -0.0060630748450610505 0 0.010040448186104502 -0.005432895128766658 0 0.0099455257820702508 -0.0055420356214707723 0 0.0045327082295984165 -0.0086892983445652581 0 0.0043683332257008134 -0.0090297130706516876 0 0.0045682195866100983 -0.0092580462384957898 0 0.0057692984301774978 -0.0047278885684588559 0 0.008041271819290265 -0.0041774805650812361 0 0.0042051598109374587 -0.0092673801359100579 0 0.0043683332257008134 -0.0090297130706516876 0 0.0045682195866100983 -0.0092580462384957898 0 0.0097385806694382741 -0.0058619631885798796 0 0.0094105332497315553 -0.0055462831717273979 0 0.00969125664785438 -0.0054802523615751445 0 0.0097385806694382741 -0.0058619631885798796 0 0.0099455257820702508 -0.0055420356214707723 0 0.00969125664785438 -0.0054802523615751445 0 0.0099455257820702508 -0.0055420356214707723 0 0.00969125664785438 -0.0054802523615751445 0 0.0098216391368136178 -0.0053142348828330317 0 0.010038654549215048 -0.0054350081994768533 0 0.0099455257820702508 -0.0055420356214707723 0 0.0098216391368136178 -0.0053142348828330317 0 0.010038654549215048 -0.0054350081994768533 0 0.0098216391368136178 -0.0053142348828330317 0 0.009818202794415528 -0.0050496535174080611 0 0.0095428447822354934 -0.0051516827112437664 0 0.00969125664785438 -0.0054802523615751445 0 0.0098216391368136178 -0.0053142348828330317 0 0.0095428447822354934 -0.0051516827112437664 0 0.0098216391368136178 -0.0053142348828330317 0 0.009818202794415528 -0.0050496535174080611 0 0.002985451946602255 0.0025716497999304978 0 0.0019708600246898314 0.0014746072554875328 0 0.0020166928690180585 0.0033730613951522491 0 0.0042092690416193068 -0.0096596878470795663 0 0.0042051598109374587 -0.0092673801359100579 0 0.0045682195866100983 -0.0092580462384957898 0 0.0057692984301774978 -0.0047278885684588559 0 0.0060702535130703391 -5.1961447985854053e-05 0 0.0032973870834200792 -0.0035388935949666259 0 0.0057692984301774978 -0.0047278885684588559 0 0.010038654549215048 -0.0054350081994768533 0 0.009818202794415528 -0.0050496535174080611 0 0.010032905100454579 -0.0047806088611000398 0 0.002985451946602255 0.0025716497999304978 0 0.0020166928690180585 0.0033730613951522491 0 0.0028581389186980105 0.0034982534428777282 0 0.0020166928690180585 0.0033730613951522491 0 0.0027225014747220204 0.004088158502448788 0 0.0028581389186980105 0.0034982534428777282 0 0.009818202794415528 -0.0050496535174080611 0 0.010032905100454579 -0.0047806088611000398 0 0.0096651497172381261 -0.0045859134864138706 0 0.0095428447822354934 -0.0051516827112437664 0 0.009818202794415528 -0.0050496535174080611 0 0.0096651497172381261 -0.0045859134864138706 0 0.010032905100454579 -0.0047806088611000398 0 0.0096651497172381261 -0.0045859134864138706 0 0.010035976621864819 -0.0041338052906623951 0 0.0060702535130703391 -5.1961447985854053e-05 0 0.0061191378207352282 3.5350224233706695e-05 0 0.0020166928690180585 0.0033730613951522491 0 0.0027225014747220204 0.004088158502448788 0 0.0022558323723118382 0.0048920945755742008 0 0.0032344341375471152 0.0046317627082110629 0 0.0027225014747220204 0.004088158502448788 0 0.0022558323723118382 0.0048920945755742008 0 0.0032344341375471152 0.0046317627082110629 0 0.0032291466041140487 0.0039627014462320078 0 0.0035816516122790997 0.0043255479174026876 0 0.0032344341375471152 0.0046317627082110629 0 0.0032291466041140487 0.0039627014462320078 0 0.0027225014747220204 0.004088158502448788 0 0.0032291466041140487 0.0039627014462320078 0 0.0027225014747220204 0.004088158502448788 0 0.0028581389186980105 0.0034982534428777282 0 0.002985451946602255 0.0025716497999304978 0 0.0033065714695261691 0.0035016393011200859 0 0.0037313533458121417 0.0036383896190561758 0 0.0042092690416193068 -0.0096596878470795663 0 0.0038529257981966695 -0.0098201815656350049 0 0.0038339524301043496 -0.010121461594339933 0 0.0032973870834200792 -0.0035388935949666259 0 0.0037960644929485332 -0.0036703880321723222 0 0.0032291466041140487 0.0039627014462320078 0 0.0028581389186980105 0.0034982534428777282 0 0.0033065714695261691 0.0035016393011200859 0 0.0032291466041140487 0.0039627014462320078 0 0.0033065714695261691 0.0035016393011200859 0 0.0036895285635133168 0.0037412480328933451 0 0.002985451946602255 0.0025716497999304978 0 0.0028581389186980105 0.0034982534428777282 0 0.0033065714695261691 0.0035016393011200859 0 0.0036328294140495817 -0.0097352119420021054 0 0.00373461896387537 -0.0099396649920131998 0 0.0038529257981966695 -0.0098201815656350049 0 0.00373461896387537 -0.0099396649920131998 0 0.0036267473308767449 -0.010004730393710958 0 0.0036753820797235113 -0.010075852411833758 0 0.0035375736489754606 -0.0099077435554887783 0 0.00373461896387537 -0.0099396649920131998 0 0.0036267473308767449 -0.010004730393710958 0 0.003537019775900188 -0.010064698476102692 0 0.0035375736489754606 -0.0099077435554887783 0 0.0036267473308767449 -0.010004730393710958 0 0.0035375736489754606 -0.0099077435554887783 0 0.0036328294140495817 -0.0097352119420021054 0 0.00373461896387537 -0.0099396649920131998 0 0.00373461896387537 -0.0099396649920131998 0 0.0038529257981966695 -0.0098201815656350049 0 0.0038339524301043496 -0.010121461594339933 0 0.0033065714695261691 0.0035016393011200859 0 0.0037313533458121417 0.0036383896190561758 0 0.0036895285635133168 0.0037412480328933451 0 0.0035088788020515476 -0.010344991736425698 0 0.0038339524301043496 -0.010121461594339933 0 0.0036031592073482665 -0.010196144821419154 0 0.0038339524301043496 -0.010121461594339933 0 0.0036753820797235113 -0.010075852411833758 0 0.0036031592073482665 -0.010196144821419154 0 0.00373461896387537 -0.0099396649920131998 0 0.0038339524301043496 -0.010121461594339933 0 0.0036753820797235113 -0.010075852411833758 0 0.003537019775900188 -0.010064698476102692 0 0.0036267473308767449 -0.010004730393710958 0 0.0036753820797235113 -0.010075852411833758 0 0.003537019775900188 -0.010064698476102692 0 0.0036753820797235113 -0.010075852411833758 0 0.0036031592073482665 -0.010196144821419154 0 0.0020538211058731969 0.00041440014863692936 0 0.0037960644929485332 -0.0036703880321723222 0 0.0042722852180150954 0.0045606280469713675 0 0.0036895285635133168 0.0037412480328933451 0 0.0040327493421693584 0.0044961013123988539 0 0.0034027728087210212 -0.010636438110079027 0 0.0035088788020515476 -0.010344991736425698 0 0.0038339524301043496 -0.010121461594339933 0 0.0035145113184833236 0.0032333909533800984 0 0.0039536890585802811 0.0040142514830614337 0 0.0038167553901091926 0.0038393552968825112 0 0.0037313533458121417 0.0036383896190561758 0 0.0036895285635133168 0.0037412480328933451 0 0.0038601867381753158 0.0038475077074805498 0 0.0038167553901091926 0.0038393552968825112 0 0.0037313533458121417 0.0036383896190561758 0 0.0032291466041140487 0.0039627014462320078 0 0.0036895285635133168 0.0037412480328933451 0 0.0035816516122790997 0.0043255479174026876 0 0.0036895285635133168 0.0037412480328933451 0 0.0035816516122790997 0.0043255479174026876 0 0.0040327493421693584 0.0044961013123988539 0 0.0035816516122790997 0.0043255479174026876 0 0.0037495863000317035 0.0047428797488669513 0 0.0040327493421693584 0.0044961013123988539 0 0.0032344341375471152 0.0046317627082110629 0 0.0035816516122790997 0.0043255479174026876 0 0.0037495863000317035 0.0047428797488669513 0 0.0035145113184833236 0.0032333909533800984 0 0.0038742486112279609 0.003502261527196399 0 0.0041892191060655583 0.0046084007968210357 0 0.0040327493421693584 0.0044961013123988539 0 0.0040520002944400731 0.004775888173501993 0 0.0037495863000317035 0.0047428797488669513 0 0.0040327493421693584 0.0044961013123988539 0 0.0040520002944400731 0.004775888173501993 0 0.0037495863000317035 0.0047428797488669513 0 0.0039803643779414291 0.0050448815399775932 0 0.0037001349978170775 0.005388554230122136 0 0.0037495863000317035 0.0047428797488669513 0 0.0040520002944400731 0.004775888173501993 0 0.0039803643779414291 0.0050448815399775932 0 0.0041130809330021979 0.0053422471448510882 0 0.0039803643779414291 0.0050448815399775932 0 0.0037001349978170775 0.005388554230122136 0 0.0041130809330021979 0.0053422471448510882 0 0.0041719420599541117 0.0057993565946933912 0 0.0037001349978170775 0.005388554230122136 0 0.0032344341375471152 0.0046317627082110629 0 0.0037495863000317035 0.0047428797488669513 0 0.0037001349978170775 0.005388554230122136 0 0.0032344341375471152 0.0046317627082110629 0 0.0037001349978170775 0.005388554230122136 0 0.0030166801678249322 0.0053364793457205189 0 0.0032344341375471152 0.0046317627082110629 0 0.0030166801678249322 0.0053364793457205189 0 0.0022558323723118382 0.0048920945755742008 0 0.0037001349978170775 0.005388554230122136 0 0.003096315584198673 0.0059130062533109557 0 0.0031668335208625406 0.0059561712575493071 0 0.0030166801678249322 0.0053364793457205189 0 0.003096315584198673 0.0059130062533109557 0 0.0024428190608022809 0.0059919625901169544 0 0.0037001349978170775 0.005388554230122136 0 0.0030166801678249322 0.0053364793457205189 0 0.003096315584198673 0.0059130062533109557 0 0.0036845106395356243 0.005442152136282334 0 0.0034949868008707376 0.0060420646828215118 0 0.0037001349978170775 0.005388554230122136 0 0.0038884690668958481 0.0060188164527139347 0 0.0036898011434440573 0.0063597097207695507 0 0.0041719420599541117 0.0057993565946933912 0 0.0041083276515521223 0.0062102606715574698 0 0.0038884690668958481 0.0060188164527139347 0 0.0041719420599541117 0.0057993565946933912 0 0.0037001349978170775 0.005388554230122136 0 0.0038884690668958481 0.0060188164527139347 0 0.0096651497172381261 -0.0045859134864138706 0 0.0096291000744369425 -0.0039270916868766031 0 0.010035976621864819 -0.0041338052906623951 0 0.0030166801678249322 0.0053364793457205189 0 0.0022558323723118382 0.0048920945755742008 0 0.0024428190608022809 0.0059919625901169544 0 0.0061191378207352282 3.5350224233706695e-05 0 0.0063592352381434281 0.0021130128216445246 0 0.0096291000744369425 -0.0039270916868766031 0 0.010035976621864819 -0.0041338052906623951 0 0.010020466398227148 -0.0034878632178317612 0 0.0094537181505691993 -0.0034802979625597578 0 0.0096291000744369425 -0.0039270916868766031 0 0.010020466398227148 -0.0034878632178317612 0 0.008859058699164285 -0.0015106456973134278 0 0.0063592352381434281 0.0021130128216445246 0 0.0070823140874714773 0.0013481185704107763 0 0.0072137761234461186 0.0013540524472819603 0 0.0071097686628456792 0.0014889678299277636 0 0.0034264061736269157 0.0059234782772490729 0 0.0033441434645753209 0.0056632180372758207 0 0.0034567949733243608 0.0055262972967783696 0 0.0034264061736269157 0.0059234782772490729 0 0.0032772796148281759 0.005744365100522438 0 0.0033441434645753209 0.0056632180372758207 0 0.0063592352381434281 0.0021130128216445246 0 0.005256899421200314 0.0034414430086350573 0 0.0018671550547939425 0.0059385027180078338 0 0.0063592352381434281 0.0021130128216445246 0 0.0034264061736269157 0.0059234782772490729 0 0.0032772796148281759 0.005744365100522438 0 0.0031953429464565428 0.0058528411805088077 0 0.0032772796148281759 0.005744365100522438 0 0.0033441434645753209 0.0056632180372758207 0 0.0032187324244578224 0.0055034373962173566 0 0.0033441434645753209 0.0056632180372758207 0 0.0034567949733243608 0.0055262972967783696 0 0.0032187324244578224 0.0055034373962173566 0 0.0072137761234461186 0.0013540524472819603 0 0.0072141162631885903 0.0015026107424745369 0 0.0071097686628456792 0.0014889678299277636 0 0.0039094800530580804 0.0065177551296799023 0 0.0040232712208080144 0.0064282252147760937 0 0.0039062302434832402 0.0063088135215303666 0 0.0039094800530580804 0.0065177551296799023 0 0.0040232712208080144 0.0064282252147760937 0 0.0040169340016885146 0.0065958817782926088 0 0.0040232712208080144 0.0064282252147760937 0 0.0041201591443964115 0.0066351258788898328 0 0.0040169340016885146 0.0065958817782926088 0 0.0041794533090821987 0.0065229759659699103 0 0.0040232712208080144 0.0064282252147760937 0 0.0041201591443964115 0.0066351258788898328 0 0.0041083276515521223 0.0062102606715574698 0 0.0038884690668958481 0.0060188164527139347 0 0.0039062302434832402 0.0063088135215303666 0 0.0041083276515521223 0.0062102606715574698 0 0.0040232712208080144 0.0064282252147760937 0 0.0039062302434832402 0.0063088135215303666 0 0.0041419310774649179 0.0063809825458852063 0 0.0041083276515521223 0.0062102606715574698 0 0.0040232712208080144 0.0064282252147760937 0 0.0038884690668958481 0.0060188164527139347 0 0.0039062302434832402 0.0063088135215303666 0 0.0036898011434440573 0.0063597097207695507 0 0.0039094800530580804 0.0065177551296799023 0 0.0039062302434832402 0.0063088135215303666 0 0.0036898011434440573 0.0063597097207695507 0 0.003096315584198673 0.0059130062533109557 0 0.0034264061736269157 0.0059234782772490729 0 0.0031953429464565428 0.0058528411805088077 0 0.0031668335208625406 0.0059561712575493071 0 0.0031953429464565428 0.0058528411805088077 0 0.0032187324244578224 0.0055034373962173566 0 0.003096315584198673 0.0059130062533109557 0 0.0031668335208625406 0.0059561712575493071 0 0.0031953429464565428 0.0058528411805088077 0 0.0039094800530580804 0.0065177551296799023 0 0.0036898011434440573 0.0063597097207695507 0 0.003888733922702853 0.0066589832707560906 0 0.0032772796148281759 0.005744365100522438 0 0.0031953429464565428 0.0058528411805088077 0 0.0032187324244578224 0.0055034373962173566 0 0.0034949868008707376 0.0060420646828215118 0 0.0033597673521391907 0.0064089605695296405 0 0.0036898011434440573 0.0063597097207695507 0 0.003888733922702853 0.0066589832707560906 0 0.0038834749125102961 0.0068703564452331908 0 0.0038834749125102961 0.0068703564452331908 0 0.0040076376705869658 0.0068438677610636964 0 0.0040279941472053347 0.0069934147690151856 0 0.003888733922702853 0.0066589832707560906 0 0.0038834749125102961 0.0068703564452331908 0 0.0040076376705869658 0.0068438677610636964 0 0.0040076376705869658 0.0068438677610636964 0 0.0039842608197997635 0.0067020220483334468 0 0.0040806738359892994 0.0067421332470495839 0 0.0040076376705869658 0.0068438677610636964 0 0.0040806738359892994 0.0067421332470495839 0 0.0041223765302885393 0.0068908684947733695 0 0.003888733922702853 0.0066589832707560906 0 0.0040076376705869658 0.0068438677610636964 0 0.0039842608197997635 0.0067020220483334468 0 0.0039094800530580804 0.0065177551296799023 0 0.0039842608197997635 0.0067020220483334468 0 0.0040169340016885146 0.0065958817782926088 0 0.0039094800530580804 0.0065177551296799023 0 0.003888733922702853 0.0066589832707560906 0 0.0039842608197997635 0.0067020220483334468 0 0.0039842608197997635 0.0067020220483334468 0 0.0040169340016885146 0.0065958817782926088 0 0.0040806738359892994 0.0067421332470495839 0 0.004165281320759457 0.0067909579558911694 0 0.0041201591443964115 0.0066351258788898328 0 0.0040806738359892994 0.0067421332470495839 0 0.0041201591443964115 0.0066351258788898328 0 0.0040169340016885146 0.0065958817782926088 0 0.0040806738359892994 0.0067421332470495839 0 0.004165281320759457 0.0067909579558911694 0 0.0040806738359892994 0.0067421332470495839 0 0.0041223765302885393 0.0068908684947733695 0 0.004165281320759457 0.0067909579558911694 0 0.0041223765302885393 0.0068908684947733695 0 0.0041975120076940082 0.0069443453633775375 0 0.0041223765302885393 0.0068908684947733695 0 0.0041632160403224684 0.0070093327395143023 0 0.0041975120076940082 0.0069443453633775375 0 0.0042040453802796845 0.0070797674765765263 0 0.0042357974186406659 0.0070631099685932262 0 0.0041975120076940082 0.0069443453633775375 0 0.0041632160403224684 0.0070093327395143023 0 0.0042040453802796845 0.0070797674765765263 0 0.0041975120076940082 0.0069443453633775375 0 0.0041632160403224684 0.0070093327395143023 0 0.0042040453802796845 0.0070797674765765263 0 0.0041785407136934512 0.0071077072887016585 0 0.0041785407136934512 0.0071077072887016585 0 0.0041046315653525019 0.0070166209902106187 0 0.0041540253902326981 0.0071349176508125603 0 0.0041632160403224684 0.0070093327395143023 0 0.0041785407136934512 0.0071077072887016585 0 0.0041046315653525019 0.0070166209902106187 0 0.0040076376705869658 0.0068438677610636964 0 0.0041223765302885393 0.0068908684947733695 0 0.0041046315653525019 0.0070166209902106187 0 0.0041223765302885393 0.0068908684947733695 0 0.0041632160403224684 0.0070093327395143023 0 0.0041046315653525019 0.0070166209902106187 0 0.0038834749125102961 0.0068703564452331908 0 0.0040432149263835652 0.0071131096617038135 0 0.0040624538353920617 0.0071931713851079784 0 0.0040076376705869658 0.0068438677610636964 0 0.0041046315653525019 0.0070166209902106187 0 0.0040279941472053347 0.0069934147690151856 0 0.0041046315653525019 0.0070166209902106187 0 0.0040279941472053347 0.0069934147690151856 0 0.0040956479534023614 0.0071069045986415997 0 0.0038834749125102961 0.0068703564452331908 0 0.0040279941472053347 0.0069934147690151856 0 0.0040432149263835652 0.0071131096617038135 0 0.0040279941472053347 0.0069934147690151856 0 0.0040432149263835652 0.0071131096617038135 0 0.0040956479534023614 0.0071069045986415997 0 0.0040432149263835652 0.0071131096617038135 0 0.0041181748736256775 0.0071954464756703038 0 0.0040956479534023614 0.0071069045986415997 0 0.0040432149263835652 0.0071131096617038135 0 0.0041081252874228666 0.0072295870860988017 0 0.0040624538353920617 0.0071931713851079784 0 0.0040432149263835652 0.0071131096617038135 0 0.0041181748736256775 0.0071954464756703038 0 0.0041081252874228666 0.0072295870860988017 0 0.0041046315653525019 0.0070166209902106187 0 0.0040956479534023614 0.0071069045986415997 0 0.0041540253902326981 0.0071349176508125603 0 0.0041181748736256775 0.0071954464756703038 0 0.0040956479534023614 0.0071069045986415997 0 0.0041494628625592606 0.0071864991904322982 0 0.0040956479534023614 0.0071069045986415997 0 0.0041540253902326981 0.0071349176508125603 0 0.0041494628625592606 0.0071864991904322982 0 0.0041540253902326981 0.0071349176508125603 0 0.0041494628625592606 0.0071864991904322982 0 0.0042009926998777545 0.0072225923144465078 0 0.0041494628625592606 0.0071864991904322982 0 0.0041883313508298877 0.0072650931936721818 0 0.0042009926998777545 0.0072225923144465078 0 0.0041494628625592606 0.0071864991904322982 0 0.0041883313508298877 0.0072650931936721818 0 0.0041663288216613904 0.0072685072312455761 0 0.0041883313508298877 0.0072650931936721818 0 0.0042172219045199305 0.0073459391136407402 0 0.0042222463073634808 0.0072978579342749036 0 0.0041883313508298877 0.0072650931936721818 0 0.0042222463073634808 0.0072978579342749036 0 0.0042009926998777545 0.0072225923144465078 0 0.0041181748736256775 0.0071954464756703038 0 0.0041081252874228666 0.0072295870860988017 0 0.0041433731731012179 0.007263876003793795 0 0.0041081252874228666 0.0072295870860988017 0 0.0041433731731012179 0.007263876003793795 0 0.0041440534832117674 0.0073035675126183848 0 0.0041181748736256775 0.0071954464756703038 0 0.0041494628625592606 0.0071864991904322982 0 0.0041663288216613904 0.0072685072312455761 0 0.0041181748736256775 0.0071954464756703038 0 0.0041433731731012179 0.007263876003793795 0 0.0041663288216613904 0.0072685072312455761 0 0.0041663288216613904 0.0072685072312455761 0 0.0041780187215779982 0.0073208714491522367 0 0.0042172219045199305 0.0073459391136407402 0 0.0041883313508298877 0.0072650931936721818 0 0.0041663288216613904 0.0072685072312455761 0 0.0042172219045199305 0.0073459391136407402 0 0.0041433731731012179 0.007263876003793795 0 0.0041663288216613904 0.0072685072312455761 0 0.0041780187215779982 0.0073208714491522367 0 0.0041780187215779982 0.0073208714491522367 0 0.0042159116591614964 0.0073810094045708144 0 0.0041939910744576954 0.0073773850945833622 0 0.0041433731731012179 0.007263876003793795 0 0.0041780187215779982 0.0073208714491522367 0 0.0041440534832117674 0.0073035675126183848 0 0.0041780187215779982 0.0073208714491522367 0 0.0041440534832117674 0.0073035675126183848 0 0.0041939910744576954 0.0073773850945833622 0 0.0042159116591614964 0.0073810094045708144 0 0.0042172219045199305 0.0073459391136407402 0 0.0042536185833144252 0.0074256447631569729 0 0.0042159116591614964 0.0073810094045708144 0 0.0042536185833144252 0.0074256447631569729 0 0.0042444023140799829 0.0074514401675548061 0 0.0041780187215779982 0.0073208714491522367 0 0.0042159116591614964 0.0073810094045708144 0 0.0042172219045199305 0.0073459391136407402 0 0.0042172219045199305 0.0073459391136407402 0 0.0042680739668334482 0.0074141298614176163 0 0.0042536185833144252 0.0074256447631569729 0 0.0042172219045199305 0.0073459391136407402 0 0.0042680739668334482 0.0074141298614176163 0 0.0042449262954036967 0.0073578806033914304 0 0.0042680739668334482 0.0074141298614176163 0 0.0042536185833144252 0.0074256447631569729 0 0.0043046691202854323 0.0074730118383564787 0 0.0042536185833144252 0.0074256447631569729 0 0.0042886093003157997 0.007487435574824044 0 0.0043046691202854323 0.0074730118383564787 0 0.0042222463073634808 0.0072978579342749036 0 0.004245259159897867 0.007299867070587357 0 0.0042009926998777545 0.0072225923144465078 0 0.0042222463073634808 0.0072978579342749036 0 0.0042642200492246842 0.0073573607946181485 0 0.004245259159897867 0.007299867070587357 0 0.0042172219045199305 0.0073459391136407402 0 0.0042222463073634808 0.0072978579342749036 0 0.0042449262954036967 0.0073578806033914304 0 0.0042680739668334482 0.0074141298614176163 0 0.0042449262954036967 0.0073578806033914304 0 0.004292701741756084 0.0074160872181465755 0 0.0042449262954036967 0.0073578806033914304 0 0.0042642200492246842 0.0073573607946181485 0 0.004292701741756084 0.0074160872181465755 0 0.0042222463073634808 0.0072978579342749036 0 0.0042449262954036967 0.0073578806033914304 0 0.0042642200492246842 0.0073573607946181485 0 0.004245259159897867 0.007299867070587357 0 0.0042622120704254533 0.0072986366542862717 0 0.0042843188447197677 0.0073608198368461959 0 0.0042642200492246842 0.0073573607946181485 0 0.004245259159897867 0.007299867070587357 0 0.0042843188447197677 0.0073608198368461959 0 0.004245259159897867 0.007299867070587357 0 0.0042283961979788041 0.0072381621032786853 0 0.0042009926998777545 0.0072225923144465078 0 0.004245259159897867 0.007299867070587357 0 0.0042283961979788041 0.0072381621032786853 0 0.0042622120704254533 0.0072986366542862717 0 0.0042283961979788041 0.0072381621032786853 0 0.0042622120704254533 0.0072986366542862717 0 0.0042500332831392909 0.0072403366683723991 0 0.0042622120704254533 0.0072986366542862717 0 0.0042500332831392909 0.0072403366683723991 0 0.0042764554951095508 0.0073021721680955375 0 0.0042672770679868721 0.007235952043171243 0 0.0042500332831392909 0.0072403366683723991 0 0.0042764554951095508 0.0073021721680955375 0 0.0042672770679868721 0.007235952043171243 0 0.0042388051876099181 0.0071678287450463929 0 0.0042551137160324942 0.0071590254536377761 0 0.0042672770679868721 0.007235952043171243 0 0.0042500332831392909 0.0072403366683723991 0 0.0042388051876099181 0.0071678287450463929 0 0.0042500332831392909 0.0072403366683723991 0 0.0042388051876099181 0.0071678287450463929 0 0.0042153242539282139 0.0071727800596600106 0 0.0042040453802796845 0.0070797674765765263 0 0.0042388051876099181 0.0071678287450463929 0 0.0042357974186406659 0.0070631099685932262 0 0.0042040453802796845 0.0070797674765765263 0 0.0041785407136934512 0.0071077072887016585 0 0.0042153242539282139 0.0071727800596600106 0 0.0042040453802796845 0.0070797674765765263 0 0.0042388051876099181 0.0071678287450463929 0 0.0042153242539282139 0.0071727800596600106 0 0.0041785407136934512 0.0071077072887016585 0 0.0042009926998777545 0.0072225923144465078 0 0.0042153242539282139 0.0071727800596600106 0 0.0041785407136934512 0.0071077072887016585 0 0.0041540253902326981 0.0071349176508125603 0 0.0042009926998777545 0.0072225923144465078 0 0.0042283961979788041 0.0072381621032786853 0 0.0042009926998777545 0.0072225923144465078 0 0.0042153242539282139 0.0071727800596600106 0 0.0042283961979788041 0.0072381621032786853 0 0.0042500332831392909 0.0072403366683723991 0 0.0042153242539282139 0.0071727800596600106 0 0.0071097686628456792 0.0014889678299277636 0 0.0072109793931986214 0.0016771075300914141 0 0.0070840019166790386 0.0016137076007353109 0 0.0072141162631885903 0.0015026107424745369 0 0.0071097686628456792 0.0014889678299277636 0 0.0072109793931986214 0.0016771075300914141 0 0.005256899421200314 0.0034414430086350573 0 0.0050778142656852663 0.0052605132317272846 0 0.0038834749125102961 0.0068703564452331908 0 0.0040624538353920617 0.0071931713851079784 0 0.004076579171490285 0.0073240377664202209 0 0.0034567949733243608 0.0055262972967783696 0 0.0032187324244578224 0.0055034373962173566 0 0.0034589495699047759 0.0050159796719216549 0 0.0033597673521391907 0.0064089605695296405 0 0.0050778142656852663 0.0052605132317272846 0 0.0040624538353920617 0.0071931713851079784 0 0.0041440534832117674 0.0073035675126183848 0 0.004142099439885992 0.0073512710439690154 0 0.0041081252874228666 0.0072295870860988017 0 0.0040624538353920617 0.0071931713851079784 0 0.0041440534832117674 0.0073035675126183848 0 0.0040624538353920617 0.0071931713851079784 0 0.004142099439885992 0.0073512710439690154 0 0.004076579171490285 0.0073240377664202209 0 0.0048331992463899629 0.0054755732506826934 0 0.0050778142656852663 0.0052605132317272846 0 0.004142099439885992 0.0073512710439690154 0 0.0041877967490423357 0.0073927196967480211 0 0.0041830799630648997 0.0073849185373728319 0 0.004142099439885992 0.0073512710439690154 0 0.0041877967490423357 0.0073927196967480211 0 0.0042030205620353766 0.0074101365039872125 0 0.004142099439885992 0.0073512710439690154 0 0.0041939910744576954 0.0073773850945833622 0 0.0042030205620353766 0.0074101365039872125 0 0.0041440534832117674 0.0073035675126183848 0 0.004142099439885992 0.0073512710439690154 0 0.0041939910744576954 0.0073773850945833622 0 0.0042159116591614964 0.0073810094045708144 0 0.0041939910744576954 0.0073773850945833622 0 0.0042444023140799829 0.0074514401675548061 0 0.0041939910744576954 0.0073773850945833622 0 0.0042444023140799829 0.0074514401675548061 0 0.0042030205620353766 0.0074101365039872125 0 0.0042536185833144252 0.0074256447631569729 0 0.0042444023140799829 0.0074514401675548061 0 0.0042886093003157997 0.007487435574824044 0 0.0042444023140799829 0.0074514401675548061 0 0.0042886093003157997 0.007487435574824044 0 0.00430964626117803 0.0075410519686084582 0 0.00430964626117803 0.0075410519686084582 0 0.0042541104248719121 0.0074876161738537846 0 0.0043322975207155372 0.0075996108141701468 0 0.0042444023140799829 0.0074514401675548061 0 0.00430964626117803 0.0075410519686084582 0 0.0042541104248719121 0.0074876161738537846 0 0.0042444023140799829 0.0074514401675548061 0 0.0042541104248719121 0.0074876161738537846 0 0.0042030205620353766 0.0074101365039872125 0 0.0041877967490423357 0.0073927196967480211 0 0.0042541104248719121 0.0074876161738537846 0 0.0042030205620353766 0.0074101365039872125 0 0.0041877967490423357 0.0073927196967480211 0 0.0042541104248719121 0.0074876161738537846 0 0.0041712472761049023 0.0074111586992256645 0 0.0044801395169738901 0.0077365056266524655 0 0.004355821410164884 0.0078303601308127111 0 0.004613238661322152 0.0077741666209737515 0 0.0045203560499094625 0.007311319638663322 0 0.004605957674463766 0.0066282653493680366 0 0.0042541104248719121 0.0074876161738537846 0 0.0043322975207155372 0.0075996108141701468 0 0.0041712472761049023 0.0074111586992256645 0 0.0043322975207155372 0.0075996108141701468 0 0.0044801395169738901 0.0077365056266524655 0 0.0043675855246699744 0.0077802241685913064 0 0.0043322975207155372 0.0075996108141701468 0 0.0044801395169738901 0.0077365056266524655 0 0.0045742073274303166 0.0076701427759747493 0 0.0044801395169738901 0.0077365056266524655 0 0.0043675855246699744 0.0077802241685913064 0 0.004355821410164884 0.0078303601308127111 0 0.0041877967490423357 0.0073927196967480211 0 0.0041712472761049023 0.0074111586992256645 0 0.0041830799630648997 0.0073849185373728319 0 0.004605957674463766 0.0066282653493680366 0 0.0050778142656852663 0.0052605132317272846 0 0.004355821410164884 0.0078303601308127111 0 0.004613238661322152 0.0077741666209737515 0 0.0047603339931646385 0.0079342340019080849 0 0.0050778142656852663 0.0052605132317272846 0 0.0060593077684947122 0.0046986036953686151 0 0.0044801395169738901 0.0077365056266524655 0 0.004613238661322152 0.0077741666209737515 0 0.0045742073274303166 0.0076701427759747493 0 0.0046589401386226935 0.0076705269785185539 0 0.0045742073274303166 0.0076701427759747493 0 0.0048116620754241526 0.0077593984485671138 0 0.004613238661322152 0.0077741666209737515 0 0.0045742073274303166 0.0076701427759747493 0 0.0048116620754241526 0.0077593984485671138 0 0.0046589401386226935 0.0076705269785185539 0 0.0045742073274303166 0.0076701427759747493 0 0.0044383990819961156 0.0075873081237779394 0 0.0046589401386226935 0.0076705269785185539 0 0.0044383990819961156 0.0075873081237779394 0 0.004532447785819251 0.0076137470425813964 0 0.00430964626117803 0.0075410519686084582 0 0.0043322975207155372 0.0075996108141701468 0 0.0044383990819961156 0.0075873081237779394 0 0.0043322975207155372 0.0075996108141701468 0 0.0045742073274303166 0.0076701427759747493 0 0.0044383990819961156 0.0075873081237779394 0 0.0044383990819961156 0.0075873081237779394 0 0.0043366185561215581 0.0075258241052375136 0 0.0043853722760238299 0.00753365227413686 0 0.00430964626117803 0.0075410519686084582 0 0.0044383990819961156 0.0075873081237779394 0 0.0043366185561215581 0.0075258241052375136 0 0.0042886093003157997 0.007487435574824044 0 0.0043366185561215581 0.0075258241052375136 0 0.0043046691202854323 0.0074730118383564787 0 0.0042886093003157997 0.007487435574824044 0 0.00430964626117803 0.0075410519686084582 0 0.0043366185561215581 0.0075258241052375136 0 0.0044383990819961156 0.0075873081237779394 0 0.0043853722760238299 0.00753365227413686 0 0.004532447785819251 0.0076137470425813964 0 0.0045962093813174607 0.0076537377571457618 0 0.0044674998262629823 0.007568182899941653 0 0.0045750097718630905 0.0076348456011701609 0 0.0045962093813174607 0.0076537377571457618 0 0.004532447785819251 0.0076137470425813964 0 0.0044674998262629823 0.007568182899941653 0 0.0043853722760238299 0.00753365227413686 0 0.004532447785819251 0.0076137470425813964 0 0.0044674998262629823 0.007568182899941653 0 0.0045962093813174607 0.0076537377571457618 0 0.004532447785819251 0.0076137470425813964 0 0.0046904225177600133 0.0077019755503876493 0 0.0046904225177600133 0.0077019755503876493 0 0.0048073749872205558 0.0079120857607543338 0 0.0047849094284969527 0.0077246148017681678 0 0.0046589401386226935 0.0076705269785185539 0 0.004532447785819251 0.0076137470425813964 0 0.0046904225177600133 0.0077019755503876493 0 0.0046589401386226935 0.0076705269785185539 0 0.0046904225177600133 0.0077019755503876493 0 0.0047849094284969527 0.0077246148017681678 0 0.0043413821956190257 0.007434044311345667 0 0.0043202127826816004 0.0073845481847072221 0 0.0043048297460720015 0.0073721089040617799 0 0.0043413821956190257 0.007434044311345667 0 0.0043048297460720015 0.0073721089040617799 0 0.0043200496451373718 0.0074265798799003357 0 0.0043413821956190257 0.007434044311345667 0 0.0043202127826816004 0.0073845481847072221 0 0.0043483774454984806 0.0074291117301178832 0 0.0043202127826816004 0.0073845481847072221 0 0.0043143848988045951 0.0073590257371085217 0 0.0042949332790133557 0.0073210234053432688 0 0.0043202127826816004 0.0073845481847072221 0 0.0042949332790133557 0.0073210234053432688 0 0.0043048297460720015 0.0073721089040617799 0 0.0042949332790133557 0.0073210234053432688 0 0.0042764554951095508 0.0073021721680955375 0 0.0043048297460720015 0.0073721089040617799 0 0.0042672770679868721 0.007235952043171243 0 0.0042949332790133557 0.0073210234053432688 0 0.0042764554951095508 0.0073021721680955375 0 0.0042622120704254533 0.0072986366542862717 0 0.0042764554951095508 0.0073021721680955375 0 0.0042843188447197677 0.0073608198368461959 0 0.0042764554951095508 0.0073021721680955375 0 0.0043048297460720015 0.0073721089040617799 0 0.0042843188447197677 0.0073608198368461959 0 0.0043048297460720015 0.0073721089040617799 0 0.0042843188447197677 0.0073608198368461959 0 0.0043200496451373718 0.0074265798799003357 0 0.0042642200492246842 0.0073573607946181485 0 0.0042843188447197677 0.0073608198368461959 0 0.004292701741756084 0.0074160872181465755 0 0.004292701741756084 0.0074160872181465755 0 0.0043325900151439563 0.0074704509490433179 0 0.0043200496451373718 0.0074265798799003357 0 0.0042843188447197677 0.0073608198368461959 0 0.004292701741756084 0.0074160872181465755 0 0.0043200496451373718 0.0074265798799003357 0 0.0042680739668334482 0.0074141298614176163 0 0.004292701741756084 0.0074160872181465755 0 0.0043046691202854323 0.0074730118383564787 0 0.004292701741756084 0.0074160872181465755 0 0.0043046691202854323 0.0074730118383564787 0 0.0043325900151439563 0.0074704509490433179 0 0.0043853722760238299 0.00753365227413686 0 0.0043046691202854323 0.0074730118383564787 0 0.0043325900151439563 0.0074704509490433179 0 0.0043366185561215581 0.0075258241052375136 0 0.0043853722760238299 0.00753365227413686 0 0.0043046691202854323 0.0074730118383564787 0 0.0043853722760238299 0.00753365227413686 0 0.0043736721669828437 0.0074947067295134812 0 0.0044674998262629823 0.007568182899941653 0 0.0043853722760238299 0.00753365227413686 0 0.0043325900151439563 0.0074704509490433179 0 0.0043736721669828437 0.0074947067295134812 0 0.0043413821956190257 0.007434044311345667 0 0.0043200496451373718 0.0074265798799003357 0 0.0043736721669828437 0.0074947067295134812 0 0.0043325900151439563 0.0074704509490433179 0 0.0043200496451373718 0.0074265798799003357 0 0.0043736721669828437 0.0074947067295134812 0 0.0043413821956190257 0.007434044311345667 0 0.0043736721669828437 0.0074947067295134812 0 0.0044149451727376514 0.0075167112901502083 0 0.0043736721669828437 0.0074947067295134812 0 0.0044149451727376514 0.0075167112901502083 0 0.0044674998262629823 0.007568182899941653 0 0.0044149451727376514 0.0075167112901502083 0 0.0044674998262629823 0.007568182899941653 0 0.0045750097718630905 0.0076348456011701609 0 0.0044149451727376514 0.0075167112901502083 0 0.0044504301566515485 0.0075459642522155588 0 0.0045750097718630905 0.0076348456011701609 0 0.0044149451727376514 0.0075167112901502083 0 0.0043704116381954941 0.0074548623027285979 0 0.0044504301566515485 0.0075459642522155588 0 0.0044149451727376514 0.0075167112901502083 0 0.0043483774454984806 0.0074291117301178832 0 0.0043704116381954941 0.0074548623027285979 0 0.0043413821956190257 0.007434044311345667 0 0.0044149451727376514 0.0075167112901502083 0 0.0043483774454984806 0.0074291117301178832 0 0.0043143848988045951 0.0073590257371085217 0 0.0043483774454984806 0.0074291117301178832 0 0.0043358278670689553 0.0074001320181794131 0 0.0043202127826816004 0.0073845481847072221 0 0.0043143848988045951 0.0073590257371085217 0 0.0043483774454984806 0.0074291117301178832 0 0.0043358278670689553 0.0074001320181794131 0 0.0043704116381954941 0.0074548623027285979 0 0.0043132687421371741 0.0073610222281592971 0 0.0043483774454984806 0.0074291117301178832 0 0.0043358278670689553 0.0074001320181794131 0 0.0043704116381954941 0.0074548623027285979 0 0.0044620470248826751 0.0075616308334979085 0 0.004361779388085919 0.0074344848695653588 0 0.0043263472872179399 0.0074042028464557982 0 0.0043704116381954941 0.0074548623027285979 0 0.0044620470248826751 0.0075616308334979085 0 0.0044504301566515485 0.0075459642522155588 0 0.0043704116381954941 0.0074548623027285979 0 0.0044620470248826751 0.0075616308334979085 0 0.0043263472872179399 0.0074042028464557982 0 0.0044620470248826751 0.0075616308334979085 0 0.0045281205416157844 0.0073712882171515677 0 0.004361779388085919 0.0074344848695653588 0 0.0047724296914842127 0.0077791500636986404 0 0.0048809427107091539 0.0078527533971770556 0 0.0044620470248826751 0.0075616308334979085 0 0.0047908125956920358 0.0077734882148405415 0 0.0045281205416157844 0.0073712882171515677 0 0.0044620470248826751 0.0075616308334979085 0 0.0045750097718630905 0.0076348456011701609 0 0.0047908125956920358 0.0077734882148405415 0 0.0044620470248826751 0.0075616308334979085 0 0.0044504301566515485 0.0075459642522155588 0 0.0045750097718630905 0.0076348456011701609 0 0.0045962093813174607 0.0076537377571457618 0 0.0045750097718630905 0.0076348456011701609 0 0.0047191001835874963 0.0077652373505955165 0 0.0045750097718630905 0.0076348456011701609 0 0.0047191001835874963 0.0077652373505955165 0 0.0047908125956920358 0.0077734882148405415 0 0.0045962093813174607 0.0076537377571457618 0 0.0046904225177600133 0.0077019755503876493 0 0.0047191001835874963 0.0077652373505955165 0 0.0046904225177600133 0.0077019755503876493 0 0.0047191001835874963 0.0077652373505955165 0 0.0048073749872205558 0.0079120857607543338 0 0.0047191001835874963 0.0077652373505955165 0 0.0047766433066252865 0.0080338364205156231 0 0.0048073749872205558 0.0079120857607543338 0 0.0047766433066252865 0.0080338364205156231 0 0.0048163674062881058 0.0084070862698849592 0 0.0048310300008556342 0.0082439407146767379 0 0.0047766433066252865 0.0080338364205156231 0 0.0047908125956920358 0.0077734882148405415 0 0.0048332978802576448 0.0082721070939881722 0 0.0047191001835874963 0.0077652373505955165 0 0.0047766433066252865 0.0080338364205156231 0 0.0047908125956920358 0.0077734882148405415 0 0.0048332978802576448 0.0082721070939881722 0 0.0048575530889887076 0.0086950584108804966 0 0.0051287540450513864 0.008392372236659694 0 0.0048332978802576448 0.0082721070939881722 0 0.0048163674062881058 0.0084070862698849592 0 0.0048575530889887076 0.0086950584108804966 0 0.0047766433066252865 0.0080338364205156231 0 0.0048332978802576448 0.0082721070939881722 0 0.0048163674062881058 0.0084070862698849592 0 0.0048634743627928734 0.0087198557292893896 0 0.0048575530889887076 0.0086950584108804966 0 0.0048618169957633647 0.0088992570550762394 0 0.0048163674062881058 0.0084070862698849592 0 0.0048634743627928734 0.0087198557292893896 0 0.0048575530889887076 0.0086950584108804966 0 0.0048163674062881058 0.0084070862698849592 0 0.0048634743627928734 0.0087198557292893896 0 0.0048687849434236813 0.008571384150999636 0 0.0045281205416157844 0.0073712882171515677 0 0.004361779388085919 0.0074344848695653588 0 0.0043051970458787099 0.0073779137740120349 0 0.004429633419768716 0.0072541453971767473 0 0.0045281205416157844 0.0073712882171515677 0 0.0043051970458787099 0.0073779137740120349 0 0.0048575530889887076 0.0086950584108804966 0 0.0049645203635490442 0.0088309085374994739 0 0.0051287540450513864 0.008392372236659694 0 0.0049645203635490442 0.0088309085374994739 0 0.0053202579165644234 0.0087971699022892213 0 0.0051287540450513864 0.008392372236659694 0 0.0042955695567661115 0.0083745708044528442 0 0.0048809427107091539 0.0078527533971770556 0 0.0047908125956920358 0.0077734882148405415 0 0.0048332978802576448 0.0082721070939881722 0 0.0051287540450513864 0.008392372236659694 0 0.0049001143835213697 0.0085352424528675041 0 0.0048716493048747197 0.0083478865437792028 0 0.0048567186643223648 0.0083908522774951769 0 0.0049001143835213697 0.0085352424528675041 0 0.004916018649888834 0.0086008497800010991 0 0.0048567186643223648 0.0083908522774951769 0 0.0049140939825526265 0.0086109541419319563 0 0.0048567186643223648 0.0083908522774951769 0 0.004875562242376584 0.0084748202421253555 0 0.0049140939825526265 0.0086109541419319563 0 0.004916018649888834 0.0086008497800010991 0 0.0048567186643223648 0.0083908522774951769 0 0.004916018649888834 0.0086008497800010991 0 0.0049448910032109331 0.0087145803243636449 0 0.0049514031128796484 0.0087248516944424294 0 0.0049140939825526265 0.0086109541419319563 0 0.004916018649888834 0.0086008497800010991 0 0.0049448910032109331 0.0087145803243636449 0 0.0049140939825526265 0.0086109541419319563 0 0.0049448910032109331 0.0087145803243636449 0 0.0049573607250843719 0.0087813289554420845 0 0.0049448910032109331 0.0087145803243636449 0 0.0049573607250843719 0.0087813289554420845 0 0.0049814855745163675 0.0088422323052578539 0 0.0049573607250843719 0.0087813289554420845 0 0.0049891538794782772 0.0089010646790855207 0 0.0049814855745163675 0.0088422323052578539 0 0.0049448910032109331 0.0087145803243636449 0 0.0049514031128796484 0.0087248516944424294 0 0.0049814855745163675 0.0088422323052578539 0 0.0049514031128796484 0.0087248516944424294 0 0.0049977974365222853 0.0088785210456004283 0 0.0049814855745163675 0.0088422323052578539 0 0.0049001143835213697 0.0085352424528675041 0 0.004916018649888834 0.0086008497800010991 0 0.0049514031128796484 0.0087248516944424294 0 0.0049001143835213697 0.0085352424528675041 0 0.0049514031128796484 0.0087248516944424294 0 0.0049261553208827351 0.0086569456251508175 0 0.0049514031128796484 0.0087248516944424294 0 0.0049651776734377547 0.0087788859207066847 0 0.0049977974365222853 0.0088785210456004283 0 0.0049514031128796484 0.0087248516944424294 0 0.0049651776734377547 0.0087788859207066847 0 0.0049261553208827351 0.0086569456251508175 0 0.0049651776734377547 0.0087788859207066847 0 0.0049325600230465229 0.0087291651432413794 0 0.0049948427784720509 0.0088817257036288514 0 0.0049651776734377547 0.0087788859207066847 0 0.0049325600230465229 0.0087291651432413794 0 0.0049261553208827351 0.0086569456251508175 0 0.0049325600230465229 0.0087291651432413794 0 0.0048687849434236813 0.008571384150999636 0 0.0048827954673416182 0.0085068004229829769 0 0.0049325600230465229 0.0087291651432413794 0 0.0049261553208827351 0.0086569456251508175 0 0.0048827954673416182 0.0085068004229829769 0 0.0048634743627928734 0.0087198557292893896 0 0.0048687849434236813 0.008571384150999636 0 0.0049276561420628917 0.0088214107315141028 0 0.0049325600230465229 0.0087291651432413794 0 0.0048687849434236813 0.008571384150999636 0 0.0049276561420628917 0.0088214107315141028 0 0.0048163674062881058 0.0084070862698849592 0 0.0048687849434236813 0.008571384150999636 0 0.0048310300008556342 0.0082439407146767379 0 0.0048687849434236813 0.008571384150999636 0 0.0048827954673416182 0.0085068004229829769 0 0.0048310300008556342 0.0082439407146767379 0 0.0048827954673416182 0.0085068004229829769 0 0.0048716493048747197 0.0083478865437792028 0 0.0048310300008556342 0.0082439407146767379 0 0.0049001143835213697 0.0085352424528675041 0 0.0049261553208827351 0.0086569456251508175 0 0.0048827954673416182 0.0085068004229829769 0 0.0049001143835213697 0.0085352424528675041 0 0.0048827954673416182 0.0085068004229829769 0 0.0048716493048747197 0.0083478865437792028 0 0.0048716493048747197 0.0083478865437792028 0 0.0048310300008556342 0.0082439407146767379 0 0.0048594374628381041 0.0081387740991305715 0 0.0048310300008556342 0.0082439407146767379 0 0.0048073749872205558 0.0079120857607543338 0 0.0048594374628381041 0.0081387740991305715 0 0.0047766433066252865 0.0080338364205156231 0 0.0048310300008556342 0.0082439407146767379 0 0.0048073749872205558 0.0079120857607543338 0 0.0048073749872205558 0.0079120857607543338 0 0.0048594374628381041 0.0081387740991305715 0 0.0049259793540890121 0.0077262675096219334 0 0.0048594374628381041 0.0081387740991305715 0 0.0048567186643223648 0.0083908522774951769 0 0.0047867076954669395 0.0081607714589488761 0 0.0048594374628381041 0.0081387740991305715 0 0.0047867076954669395 0.0081607714589488761 0 0.0049259793540890121 0.0077262675096219334 0 0.0048716493048747197 0.0083478865437792028 0 0.0048594374628381041 0.0081387740991305715 0 0.0048567186643223648 0.0083908522774951769 0 0.0048567186643223648 0.0083908522774951769 0 0.0048419984560605792 0.0083778257919092328 0 0.004875562242376584 0.0084748202421253555 0 0.0048567186643223648 0.0083908522774951769 0 0.0047867076954669395 0.0081607714589488761 0 0.0048419984560605792 0.0083778257919092328 0 0.0055526718930939897 0.0073719661913460794 0 0.0052858731926374667 0.0077232536054779397 0 0.0055894952675023439 0.0075736369401732829 0 0.0055526718930939897 0.0073719661913460794 0 0.0055894952675023439 0.0075736369401732829 0 0.0057199572989156018 0.0074407834182556266 0 0.0051792037447693975 0.0077763934836701564 0 0.0049654394594955409 0.0077278822189461695 0 0.0055526718930939897 0.0073719661913460794 0 0.0052858731926374667 0.0077232536054779397 0 0.0049259793540890121 0.0077262675096219334 0 0.0052858731926374667 0.0077232536054779397 0 0.0049259793540890121 0.0077262675096219334 0 0.0050420843274763894 0.0078068208721846395 0 0.0055894952675023439 0.0075736369401732829 0 0.0054450885877169765 0.0078010249437490721 0 0.0057489285836048948 0.0077352720697825136 0 0.0052858731926374667 0.0077232536054779397 0 0.0055894952675023439 0.0075736369401732829 0 0.0054450885877169765 0.0078010249437490721 0 0.0048073749872205558 0.0079120857607543338 0 0.0047849094284969527 0.0077246148017681678 0 0.0049259793540890121 0.0077262675096219334 0 0.0049259793540890121 0.0077262675096219334 0 0.0048116620754241526 0.0077593984485671138 0 0.0050420843274763894 0.0078068208721846395 0 0.0047849094284969527 0.0077246148017681678 0 0.0049259793540890121 0.0077262675096219334 0 0.0048116620754241526 0.0077593984485671138 0 0.0046589401386226935 0.0076705269785185539 0 0.0047849094284969527 0.0077246148017681678 0 0.0048116620754241526 0.0077593984485671138 0 0.0048116620754241526 0.0077593984485671138 0 0.0050303556849310201 0.0080057487170223582 0 0.0047603339931646385 0.0079342340019080849 0 0.004613238661322152 0.0077741666209737515 0 0.0048116620754241526 0.0077593984485671138 0 0.0047603339931646385 0.0079342340019080849 0 0.0050420843274763894 0.0078068208721846395 0 0.0050303556849310201 0.0080057487170223582 0 0.0052363841001338233 0.0078989347352979768 0 0.0048116620754241526 0.0077593984485671138 0 0.0050420843274763894 0.0078068208721846395 0 0.0050303556849310201 0.0080057487170223582 0 0.0069211384142505361 0.0014263950648467497 0 0.0070202043509355874 0.0014509157681890923 0 0.0069817469881372357 0.0015509130962216631 0 0.0060074302672492906 0.0050968917344676032 0 0.0060593077684947122 0.0046986036953686151 0 0.0070202043509355874 0.0014509157681890923 0 0.0069817469881372357 0.0015509130962216631 0 0.0070840019166790386 0.0016137076007353109 0 0.0070202043509355874 0.0014509157681890923 0 0.0071097686628456792 0.0014889678299277636 0 0.0070840019166790386 0.0016137076007353109 0 0.0062981729544490678 0.0015500057185678111 0 0.0072857985165234868 0.001503348236639519 0 0.0054450885877169765 0.0078010249437490721 0 0.0052363841001338233 0.0078989347352979768 0 0.0053862559461558468 0.0080670202416077766 0 0.0054450885877169765 0.0078010249437490721 0 0.0053862559461558468 0.0080670202416077766 0 0.0057489285836048948 0.0077352720697825136 0 0.0052858731926374667 0.0077232536054779397 0 0.0050420843274763894 0.0078068208721846395 0 0.0052363841001338233 0.0078989347352979768 0 0.0052858731926374667 0.0077232536054779397 0 0.0054450885877169765 0.0078010249437490721 0 0.0052363841001338233 0.0078989347352979768 0 0.0050303556849310201 0.0080057487170223582 0 0.0052363841001338233 0.0078989347352979768 0 0.0053862559461558468 0.0080670202416077766 0 0.0060074302672492906 0.0050968917344676032 0 0.0062981729544490678 0.0015500057185678111 0 0.0069211384142505361 0.0014263950648467497 0 0.0069817469881372357 0.0015509130962216631 0 0.0068397246699456798 0.0015041600663025431 0 0.0069788658994851312 0.0013062973724471134 0 0.0062981729544490678 0.0015500057185678111 0 0.0080364235029224927 -0.0035858312469310744 0 0.0082526068056853093 -0.0036863168299277613 0 0.0084190992917334995 -0.0039643070293386524 0 0.0062981729544490678 0.0015500057185678111 0 0.0090901869794613836 -0.0022828942410844343 0 0.0069211384142505361 0.0014263950648467497 0 0.0069097537031887115 0.0014075048500332623 0 0.0069012902769762987 0.0013914910784203803 0 0.0080364235029224927 -0.0035858312469310744 0 0.0082526068056853093 -0.0036863168299277613 0 0.0082552131689836595 -0.0035518311347679577 0 0.0088294863392769461 -0.0033317040553867087 0 0.0090901869794613836 -0.0022828942410844343 0 0.0082604639605827444 -0.0035754625118896767 0 0.008595394237404819 -0.0037635145607089718 0 0.0088616511244978755 -0.0036422850098405536 0 0.0082526068056853093 -0.0036863168299277613 0 0.0082604639605827444 -0.0035754625118896767 0 0.008595394237404819 -0.0037635145607089718 0 0.0090901869794613836 -0.0022828942410844343 0 0.0097203210642951773 -0.0043219202063445291 0 0.008595394237404819 -0.0037635145607089718 0 0.0084190992917334995 -0.0039643070293386524 0 0.0087422941836120503 -0.0040426990537538012 0 0.0082526068056853093 -0.0036863168299277613 0 0.008595394237404819 -0.0037635145607089718 0 0.0084190992917334995 -0.0039643070293386524 0 0.0087422941836120503 -0.0040426990537538012 0 0.0089769744367775035 -0.00399072001939485 0 0.008934337292213471 -0.0041766576607553422 0 0.008595394237404819 -0.0037635145607089718 0 0.0087422941836120503 -0.0040426990537538012 0 0.0089769744367775035 -0.00399072001939485 0 0.008595394237404819 -0.0037635145607089718 0 0.0088616511244978755 -0.0036422850098405536 0 0.0089769744367775035 -0.00399072001939485 0 0.0088616511244978755 -0.0036422850098405536 0 0.0091916329353672662 -0.0039264177503221713 0 0.0089769744367775035 -0.00399072001939485 0 0.00946241243258766 -0.0038942849104687902 0 0.0088616511244978755 -0.0036422850098405536 0 0.0091916329353672662 -0.0039264177503221713 0 0.00946241243258766 -0.0038942849104687902 0 0.0094228881414382976 -0.0040306239796813539 0 0.0096022550330373373 -0.0041264410184178807 0 0.00946241243258766 -0.0038942849104687902 0 0.0091916329353672662 -0.0039264177503221713 0 0.0094228881414382976 -0.0040306239796813539 0 0.0091916329353672662 -0.0039264177503221713 0 0.0094228881414382976 -0.0040306239796813539 0 0.0092384619512359198 -0.0040667468937727533 0 0.0094228881414382976 -0.0040306239796813539 0 0.0094156290172594317 -0.0041412579361233036 0 0.0095551877788681103 -0.0041363590657000461 0 0.0094228881414382976 -0.0040306239796813539 0 0.0092384619512359198 -0.0040667468937727533 0 0.0094156290172594317 -0.0041412579361233036 0 0.0092384619512359198 -0.0040667468937727533 0 0.0094156290172594317 -0.0041412579361233036 0 0.0092663941326671401 -0.0041867874364761313 0 0.0094156290172594317 -0.0041412579361233036 0 0.0094629866769954576 -0.004256038073617993 0 0.0094882596113612383 -0.0041860998432786938 0 0.0089769744367775035 -0.00399072001939485 0 0.0091131673913050788 -0.0041401867101296796 0 0.008934337292213471 -0.0041766576607553422 0 0.0091916329353672662 -0.0039264177503221713 0 0.0092384619512359198 -0.0040667468937727533 0 0.0089769744367775035 -0.00399072001939485 0 0.0092384619512359198 -0.0040667468937727533 0 0.0091131673913050788 -0.0041401867101296796 0 0.0092663941326671401 -0.0041867874364761313 0 0.0092384619512359198 -0.0040667468937727533 0 0.0089769744367775035 -0.00399072001939485 0 0.0091131673913050788 -0.0041401867101296796 0 0.008934337292213471 -0.0041766576607553422 0 0.0091400938018302569 -0.0042999646611875672 0 0.008772180411052816 -0.0042784744292230087 0 0.0069648472892331502 0.0012538327489472645 0 0.0071808605289657053 0.0042792667787465164 0 0.0091131673913050788 -0.0041401867101296796 0 0.0091400938018302569 -0.0042999646611875672 0 0.0092663941326671401 -0.0041867874364761313 0 0.0091131673913050788 -0.0041401867101296796 0 0.008934337292213471 -0.0041766576607553422 0 0.0091400938018302569 -0.0042999646611875672 0 0.0050602912857413964 0.0068626650631546868 0 0.004480246246912449 0.006669370745311075 0 0.0046503789199011511 0.0069088738460578777 0 0.0069648472892331502 0.0012538327489472645 0 0.0075451088686726252 -0.00050098783158115988 0 0.0091400938018302569 -0.0042999646611875672 0 0.0093983692450204052 -0.004254904804094105 0 0.0092663941326671401 -0.0041867874364761313 0 0.0094156290172594317 -0.0041412579361233036 0 0.0093983692450204052 -0.004254904804094105 0 0.0092663941326671401 -0.0041867874364761313 0 0.0094629866769954576 -0.004256038073617993 0 0.0094882596113612383 -0.0041860998432786938 0 0.0094782493893594711 -0.0042509053339430955 0 0.0093894415090281461 -0.0051622222909718561 0 0.0075451088686726252 -0.00050098783158115988 0 0.0075451088686726252 -0.00050098783158115988 0 0.0085556078277090417 -0.00086227265634042935 0 0.0050602912857413964 0.0068626650631546868 0 0.0046503789199011511 0.0069088738460578777 0 0.0047863657010536499 0.0070210565148130545 0 0.004480246246912449 0.006669370745311075 0 0.0046503789199011511 0.0069088738460578777 0 0.0044183542055065885 0.0069521395590434508 0 0.0083033195454823312 -0.00055134046709434626 0 0.007559895816713221 0.0034910146467776347 0 0.0072855883559488346 -0.00079631014465560601 0 0.0069009677007428986 0.0041003402939985634 0 0.0085556078277090417 -0.00086227265634042935 0 0.0075451088686726252 -0.00050098783158115988 0 0.0069009677007428986 0.0041003402939985634 0 0.0044183542055065885 0.0069521395590434508 0 0.0046731767911205131 0.0072688206188579619 0 0.0044890548173908487 0.0078087910436693223 0 0.0069009677007428986 0.0041003402939985634 0 0.004827924773850403 0.0075621586924017169 0 0.0046503789199011511 0.0069088738460578777 0 0.0044183542055065885 0.0069521395590434508 0 0.0046731767911205131 0.0072688206188579619 0 0.0050602912857413964 0.0068626650631546868 0 0.0047863657010536499 0.0070210565148130545 0 0.0048883639184994368 0.0072347827035527572 0 0.0046503789199011511 0.0069088738460578777 0 0.0046731767911205131 0.0072688206188579619 0 0.0047863657010536499 0.0070210565148130545 0 0.0046731767911205131 0.0072688206188579619 0 0.0048883639184994368 0.0072347827035527572 0 0.0047678713609277633 0.0073865647206737351 0 0.0046731767911205131 0.0072688206188579619 0 0.0047863657010536499 0.0070210565148130545 0 0.0048883639184994368 0.0072347827035527572 0 0.0046731767911205131 0.0072688206188579619 0 0.0046994571159167308 0.0075930859321403036 0 0.0047678713609277633 0.0073865647206737351 0 0.0048883639184994368 0.0072347827035527572 0 0.0048985163788258209 0.0075279709759124057 0 0.0047678713609277633 0.0073865647206737351 0 0.0048985163788258209 0.0075279709759124057 0 0.0046994571159167308 0.0075930859321403036 0 0.0047678713609277633 0.0073865647206737351 0 0.0046731767911205131 0.0072688206188579619 0 0.0046994571159167308 0.0075930859321403036 0 0.0044890548173908487 0.0078087910436693223 0 0.0050602912857413964 0.0068626650631546868 0 0.0053937144961975648 0.0072951993774091617 0 0.005665962849438059 0.0070275655026598499 0 0.0050602912857413964 0.0068626650631546868 0 0.0053937144961975648 0.0072951993774091617 0 0.0051228693641819801 0.0073842027385797515 0 0.0050602912857413964 0.0068626650631546868 0 0.0048883639184994368 0.0072347827035527572 0 0.0051228693641819801 0.0073842027385797515 0 0.0048985163788258209 0.0075279709759124057 0 0.0051228693641819801 0.0073842027385797515 0 0.0050261685697678337 0.0076748440035639166 0 0.0048883639184994368 0.0072347827035527572 0 0.0048985163788258209 0.0075279709759124057 0 0.0051228693641819801 0.0073842027385797515 0 0.0053937144961975648 0.0072951993774091617 0 0.0051228693641819801 0.0073842027385797515 0 0.005296638941908024 0.0076628294150133938 0 0.0053937144961975648 0.0072951993774091617 0 0.0056490074624399251 0.0074420928786425511 0 0.005296638941908024 0.0076628294150133938 0 0.0053937144961975648 0.0072951993774091617 0 0.0056490074624399251 0.0074420928786425511 0 0.0055650958836325273 0.0072206140722466889 0 0.0050329130916990962 0.0070791912785361467 0 0.0071808605289657053 0.0042792667787465164 0 0.005828956076179964 0.0066196553324138268 0 0.0071808605289657053 0.0042792667787465164 0 0.0056490074624399251 0.0074420928786425511 0 0.0057804601272760572 0.007381680811304062 0 0.0055650958836325273 0.0072206140722466889 0 0.0056490074624399251 0.0074420928786425511 0 0.0057199572989156018 0.0074407834182556266 0 0.0057574255073841113 0.0076743851349069334 0 0.0056490074624399251 0.0074420928786425511 0 0.0057199572989156018 0.0074407834182556266 0 0.0057804601272760572 0.007381680811304062 0 0.0057199572989156018 0.0074407834182556266 0 0.0057804601272760572 0.007381680811304062 0 0.0057453420997781585 0.0075134754408951896 0 0.0055894952675023439 0.0075736369401732829 0 0.0057489285836048948 0.0077352720697825136 0 0.0057453420997781585 0.0075134754408951896 0 0.0057489285836048948 0.0077352720697825136 0 0.0057453420997781585 0.0075134754408951896 0 0.0060922953715148581 0.0073433727240166677 0 0.0055894952675023439 0.0075736369401732829 0 0.0057199572989156018 0.0074407834182556266 0 0.0057453420997781585 0.0075134754408951896 0 0.0057804601272760572 0.007381680811304062 0 0.0057453420997781585 0.0075134754408951896 0 0.0060922953715148581 0.0073433727240166677 0 0.0087422941836120503 -0.0040426990537538012 0 0.008934337292213471 -0.0041766576607553422 0 0.008772180411052816 -0.0042784744292230087 0 0.0072857985165234868 0.001503348236639519 0 0.0071808605289657053 0.0042792667787465164 0 0.0084190992917334995 -0.0039643070293386524 0 0.0087422941836120503 -0.0040426990537538012 0 0.008772180411052816 -0.0042784744292230087 0 0.0095116753202500025 -0.0038756481824159289 0 0.0094808029156018062 -0.0043317177046033606 0 0.0094110423889712108 -0.0041867108590181558 0 0.0095116753202500025 -0.0038756481824159289 0 0.0094619936582027338 -0.0037820438659167807 0 0.0094110423889712108 -0.0041867108590181558 0 0.0095116753202500025 -0.0038756481824159289 0 0.0094808029156018062 -0.0043317177046033606 0 0.0095892971246230238 -0.0042741569051308178 0 0.0095116753202500025 -0.0038756481824159289 0 0.0095892971246230238 -0.0042741569051308178 0 0.0096245800733635728 -0.0041335162115059268 0 0.0094808029156018062 -0.0043317177046033606 0 0.0095374201758303204 -0.004553888105000823 0 0.0095892971246230238 -0.0042741569051308178 0 0.0095374201758303204 -0.004553888105000823 0 0.0095892971246230238 -0.0042741569051308178 0 0.0096377436083797726 -0.0044615788903899006 0 0.0095892971246230238 -0.0042741569051308178 0 0.0096377436083797726 -0.0044615788903899006 0 0.00966692841029697 -0.0042301274625570129 0 0.0095892971246230238 -0.0042741569051308178 0 0.00966692841029697 -0.0042301274625570129 0 0.0096245800733635728 -0.0041335162115059268 0 0.0096377436083797726 -0.0044615788903899006 0 0.00966692841029697 -0.0042301274625570129 0 0.0096875651863228499 -0.0043021842691386876 0 0.0095116753202500025 -0.0038756481824159289 0 0.0096754077122967394 -0.0041306382508713175 0 0.0097245354324517943 -0.0041801519643763947 0 0.0095116753202500025 -0.0038756481824159289 0 0.0094996029488970905 -0.0017899637480852913 0 0.0094811535697739771 -0.0018308057713622356 0 0.00966692841029697 -0.0042301274625570129 0 0.0096754077122967394 -0.0041306382508713175 0 0.0096965666656222884 -0.0041814404582251165 0 0.00966692841029697 -0.0042301274625570129 0 0.0096754077122967394 -0.0041306382508713175 0 0.0096245800733635728 -0.0041335162115059268 0 0.0095116753202500025 -0.0038756481824159289 0 0.0096754077122967394 -0.0041306382508713175 0 0.0096245800733635728 -0.0041335162115059268 0 0.0093186607907692412 -0.0037615934906080374 0 0.0096710600770624593 -0.0030301829046275592 0 0.0096443723531644005 -0.0041835901560794645 0 0.0095698216672149353 -0.0042194932976303062 0 0.0097245354324517943 -0.0041801519643763947 0 0.0096754077122967394 -0.0041306382508713175 0 0.0096989012695200584 -0.0041620434756627902 0 0.0097245354324517943 -0.0041801519643763947 0 0.0096989012695200584 -0.0041620434756627902 0 0.0096811879196449617 -0.0041708400393290282 0 0.0096965666656222884 -0.0041814404582251165 0 0.0096989012695200584 -0.0041620434756627902 0 0.0096811879196449617 -0.0041708400393290282 0 0.0097245354324517943 -0.0041801519643763947 0 0.0096443723531644005 -0.0041835901560794645 0 0.0096811879196449617 -0.0041708400393290282 0 0.0097245354324517943 -0.0041801519643763947 0 0.0096443723531644005 -0.0041835901560794645 0 0.0096811879196449617 -0.0041708400393290282 0 0.0096385777215816874 -0.0041698865680079638 0 0.0096965666656222884 -0.0041814404582251165 0 0.0096656405597387463 -0.0041779492170916947 0 0.0096385777215816874 -0.0041698865680079638 0 0.0096811879196449617 -0.0041708400393290282 0 0.0096965666656222884 -0.0041814404582251165 0 0.0096385777215816874 -0.0041698865680079638 0 0.0096754077122967394 -0.0041306382508713175 0 0.0096989012695200584 -0.0041620434756627902 0 0.0096965666656222884 -0.0041814404582251165 0 0.00966692841029697 -0.0042301274625570129 0 0.0096965666656222884 -0.0041814404582251165 0 0.0096875651863228499 -0.0043021842691386876 0 0.0097297388486585687 -0.004535570375082747 0 0.0096875651863228499 -0.0043021842691386876 0 0.0096656405597387463 -0.0041779492170916947 0 0.0096965666656222884 -0.0041814404582251165 0 0.0096875651863228499 -0.0043021842691386876 0 0.0096656405597387463 -0.0041779492170916947 0 0.0096656405597387463 -0.0041779492170916947 0 0.0096022550330373373 -0.0041264410184178807 0 0.0095551877788681103 -0.0041363590657000461 0 0.0097297388486585687 -0.004535570375082747 0 0.0096656405597387463 -0.0041779492170916947 0 0.0096022550330373373 -0.0041264410184178807 0 0.0094228881414382976 -0.0040306239796813539 0 0.0096022550330373373 -0.0041264410184178807 0 0.0095551877788681103 -0.0041363590657000461 0 0.0095551877788681103 -0.0041363590657000461 0 0.0096385777215816874 -0.0041698865680079638 0 0.0095662406699999029 -0.0041764456604943823 0 0.0096656405597387463 -0.0041779492170916947 0 0.0095551877788681103 -0.0041363590657000461 0 0.0096385777215816874 -0.0041698865680079638 0 0.0096443723531644005 -0.0041835901560794645 0 0.0096058673461525655 -0.0041887469419283124 0 0.0095698216672149353 -0.0042194932976303062 0 0.0096385777215816874 -0.0041698865680079638 0 0.0096058673461525655 -0.0041887469419283124 0 0.0095662406699999029 -0.0041764456604943823 0 0.0096443723531644005 -0.0041835901560794645 0 0.0096385777215816874 -0.0041698865680079638 0 0.0096058673461525655 -0.0041887469419283124 0 0.0096058673461525655 -0.0041887469419283124 0 0.0095662406699999029 -0.0041764456604943823 0 0.0095698216672149353 -0.0042194932976303062 0 0.0094156290172594317 -0.0041412579361233036 0 0.0095551877788681103 -0.0041363590657000461 0 0.0094882596113612383 -0.0041860998432786938 0 0.0094882596113612383 -0.0041860998432786938 0 0.0095662406699999029 -0.0041764456604943823 0 0.0095698216672149353 -0.0042194932976303062 0 0.0095551877788681103 -0.0041363590657000461 0 0.0094882596113612383 -0.0041860998432786938 0 0.0095662406699999029 -0.0041764456604943823 0 0.0085556078277090417 -0.00086227265634042935 0 0.0096710600770624593 -0.0030301829046275592 0 0.0098618575558316393 0.0014297517644564852 0 0.0094035792777903329 0.00060363886206455102 0 0.0092853119272827273 0.0022554184733362755 0 0.0096468040043840124 0.001568034759222551 0 0.0089457237141179063 0.0029003918538069214 0 0.0094982463117690655 -0.0042641057097544425 0 0.0095698216672149353 -0.0042194932976303062 0 0.0097245354324517943 -0.0041801519643763947 0 0.0097142931536625798 0.0014440619446355865 0 0.0096468040043840124 0.001568034759222551 0 0.0094996029488970905 -0.0017899637480852913 0 0.0089050840970244585 -0.0041326878150820595 0 0.0085556078277090417 -0.00086227265634042935 0 0.0094882596113612383 -0.0041860998432786938 0 0.0094982463117690655 -0.0042641057097544425 0 0.0095698216672149353 -0.0042194932976303062 0 0.0092853119272827273 0.0022554184733362755 0 0.0094148708264977059 0.0020906414555006319 0 0.0096468040043840124 0.001568034759222551 0 0.0093086955541422534 0.0022667700695134072 0 0.0092490311821258591 0.0024186347674148745 0 0.0092122837266973932 0.0024148404975832833 0 0.0092853119272827273 0.0022554184733362755 0 0.0093086955541422534 0.0022667700695134072 0 0.0092122837266973932 0.0024148404975832833 0 0.0093086955541422534 0.0022667700695134072 0 0.0093851932210652078 0.0022539354207077424 0 0.0092490311821258591 0.0024186347674148745 0 0.0092853119272827273 0.0022554184733362755 0 0.0093086955541422534 0.0022667700695134072 0 0.0094148708264977059 0.0020906414555006319 0 0.0093086955541422534 0.0022667700695134072 0 0.0094148708264977059 0.0020906414555006319 0 0.0093851932210652078 0.0022539354207077424 0 0.0094148708264977059 0.0020906414555006319 0 0.0093851932210652078 0.0022539354207077424 0 0.0095226279788109131 0.0021023289200488744 0 0.0094148708264977059 0.0020906414555006319 0 0.0095226279788109131 0.0021023289200488744 0 0.0096468040043840124 0.001568034759222551 0 0.0097779006453426014 0.0021399487514213705 0 0.0097142931536625798 0.0014440619446355865 0 0.0096468040043840124 0.001568034759222551 0 0.0097779006453426014 0.0021399487514213705 0 0.0095226279788109131 0.0021023289200488744 0 0.0096468040043840124 0.001568034759222551 0 0.0053707466762422549 0.0050219804737103918 0 0.0050532381870412278 0.0067337258617734628 0 0.005444128540189384 0.006596685588240175 0 0.0097779006453426014 0.0021399487514213705 0 0.0095226279788109131 0.0021023289200488744 0 0.0094619712521099332 0.0023686350297917416 0 0.0097779006453426014 0.0021399487514213705 0 0.0094619712521099332 0.0023686350297917416 0 0.0092805931779579697 0.0026408369348078155 0 0.0097779006453426014 0.0021399487514213705 0 0.0092805931779579697 0.0026408369348078155 0 0.0091678497801736102 0.0028812621815248259 0 0.0069009677007428986 0.0041003402939985634 0 0.0072209744296236212 0.0046414528730896413 0 0.0093851932210652078 0.0022539354207077424 0 0.0095226279788109131 0.0021023289200488744 0 0.0094619712521099332 0.0023686350297917416 0 0.0094619712521099332 0.0023686350297917416 0 0.0093163679384230067 0.0025440550958949447 0 0.0092718588058292983 0.0025091163411252088 0 0.0094619712521099332 0.0023686350297917416 0 0.0093163679384230067 0.0025440550958949447 0 0.0092805931779579697 0.0026408369348078155 0 0.009206964891312763 0.0026576580647570541 0 0.0091536952085326303 0.0026503838580218147 0 0.0091061926246242143 0.0027433071325747246 0 0.009206964891312763 0.0026576580647570541 0 0.0091442091905019878 0.0027507992737386684 0 0.0091061926246242143 0.0027433071325747246 0 0.0093163679384230067 0.0025440550958949447 0 0.0092805931779579697 0.0026408369348078155 0 0.009206964891312763 0.0026576580647570541 0 0.0092805931779579697 0.0026408369348078155 0 0.009206964891312763 0.0026576580647570541 0 0.0091442091905019878 0.0027507992737386684 0 0.0093163679384230067 0.0025440550958949447 0 0.009206964891312763 0.0026576580647570541 0 0.0092718588058292983 0.0025091163411252088 0 0.009206964891312763 0.0026576580647570541 0 0.0091536952085326303 0.0026503838580218147 0 0.0092718588058292983 0.0025091163411252088 0 0.0091536952085326303 0.0026503838580218147 0 0.0091827268223091951 0.0025591042545123474 0 0.0092718588058292983 0.0025091163411252088 0 0.0091827268223091951 0.0025591042545123474 0 0.0092718588058292983 0.0025091163411252088 0 0.0092490311821258591 0.0024186347674148745 0 0.0093851932210652078 0.0022539354207077424 0 0.0092718588058292983 0.0025091163411252088 0 0.0092490311821258591 0.0024186347674148745 0 0.0093851932210652078 0.0022539354207077424 0 0.0094619712521099332 0.0023686350297917416 0 0.0092718588058292983 0.0025091163411252088 0 0.0092490311821258591 0.0024186347674148745 0 0.0091579915390709171 0.0025405223056247915 0 0.0092122837266973932 0.0024148404975832833 0 0.0091827268223091951 0.0025591042545123474 0 0.0092490311821258591 0.0024186347674148745 0 0.0091579915390709171 0.0025405223056247915 0 0.0090772504931134566 0.0026761152394646085 0 0.0090507438155987795 0.0027108115331921775 0 0.0091180447567142265 0.0025714236206021645 0 0.0091579915390709171 0.0025405223056247915 0 0.0090772504931134566 0.0026761152394646085 0 0.0091180447567142265 0.0025714236206021645 0 0.0090772504931134566 0.0026761152394646085 0 0.0091110201396501431 0.0026552663291123484 0 0.0090598004156929347 0.0027610857453087001 0 0.0091827268223091951 0.0025591042545123474 0 0.0091579915390709171 0.0025405223056247915 0 0.0091110201396501431 0.0026552663291123484 0 0.0091579915390709171 0.0025405223056247915 0 0.0090772504931134566 0.0026761152394646085 0 0.0091110201396501431 0.0026552663291123484 0 0.0091536952085326303 0.0026503838580218147 0 0.0091827268223091951 0.0025591042545123474 0 0.0091110201396501431 0.0026552663291123484 0 0.0091536952085326303 0.0026503838580218147 0 0.0091110201396501431 0.0026552663291123484 0 0.0090790285752326994 0.0027394187661701178 0 0.0091110201396501431 0.0026552663291123484 0 0.0090790285752326994 0.0027394187661701178 0 0.0090598004156929347 0.0027610857453087001 0 0.0090790285752326994 0.0027394187661701178 0 0.009050859813439666 0.0028030811305393634 0 0.0090598004156929347 0.0027610857453087001 0 0.0090790285752326994 0.0027394187661701178 0 0.009050859813439666 0.0028030811305393634 0 0.0090440813405130958 0.0028031780278935628 0 0.0091536952085326303 0.0026503838580218147 0 0.0090790285752326994 0.0027394187661701178 0 0.0091061926246242143 0.0027433071325747246 0 0.0090598004156929347 0.0027610857453087001 0 0.0090619394780794265 0.0028076649086188556 0 0.0090848446344330442 0.002855216847570436 0 0.009050859813439666 0.0028030811305393634 0 0.0090598004156929347 0.0027610857453087001 0 0.0090848446344330442 0.002855216847570436 0 0.0090772504931134566 0.0026761152394646085 0 0.0090598004156929347 0.0027610857453087001 0 0.0090619394780794265 0.0028076649086188556 0 0.0090772504931134566 0.0026761152394646085 0 0.0090619394780794265 0.0028076649086188556 0 0.0090507438155987795 0.0027108115331921775 0 0.0096468040043840124 0.001568034759222551 0 0.0094996029488970905 -0.0017899637480852913 0 0.0094811535697739771 -0.0018308057713622356 0 0.0090619394780794265 0.0028076649086188556 0 0.0090449720999658412 0.002851652301378843 0 0.0090507438155987795 0.0027108115331921775 0 0.0090449720999658412 0.002851652301378843 0 0.0090186167114757309 0.0027752215758583177 0 0.0090507438155987795 0.0027108115331921775 0 0.0090449720999658412 0.002851652301378843 0 0.0090186167114757309 0.0027752215758583177 0 0.0089457237141179063 0.0029003918538069214 0 0.0090186167114757309 0.0027752215758583177 0 0.0090507438155987795 0.0027108115331921775 0 0.0090893621949262315 0.0026124114454458493 0 0.0090186167114757309 0.0027752215758583177 0 0.0090893621949262315 0.0026124114454458493 0 0.0089457237141179063 0.0029003918538069214 0 0.0090507438155987795 0.0027108115331921775 0 0.0091180447567142265 0.0025714236206021645 0 0.0090893621949262315 0.0026124114454458493 0 0.0092853119272827273 0.0022554184733362755 0 0.0091763902691417865 0.0024592170098805166 0 0.0090893621949262315 0.0026124114454458493 0 0.0092853119272827273 0.0022554184733362755 0 0.0090893621949262315 0.0026124114454458493 0 0.0089457237141179063 0.0029003918538069214 0 0.0091180447567142265 0.0025714236206021645 0 0.0091763902691417865 0.0024592170098805166 0 0.0090893621949262315 0.0026124114454458493 0 0.0091180447567142265 0.0025714236206021645 0 0.0091763902691417865 0.0024592170098805166 0 0.0092122837266973932 0.0024148404975832833 0 0.0091579915390709171 0.0025405223056247915 0 0.0091180447567142265 0.0025714236206021645 0 0.0092122837266973932 0.0024148404975832833 0 0.0092853119272827273 0.0022554184733362755 0 0.0091763902691417865 0.0024592170098805166 0 0.0092122837266973932 0.0024148404975832833 0 0.0089457237141179063 0.0029003918538069214 0 0.0093300899486483315 0.0032216872849171194 0 0.0095648638129201512 0.0036289925253973712 0 0.0089457237141179063 0.0029003918538069214 0 0.0093300899486483315 0.0032216872849171194 0 0.0091555653121131626 0.0030040578918138334 0 0.0094035792777903329 0.00060363886206455102 0 0.0095700473623237543 -2.8126259796885242e-05 0 0.0095116753202500025 -0.0038756481824159289 0 0.0094811535697739771 -0.0018308057713622356 0 0.0094619936582027338 -0.0037820438659167807 0 0.0093300899486483315 0.0032216872849171194 0 0.0091555653121131626 0.0030040578918138334 0 0.0092882770375221253 0.0030595980372962656 0 0.0090449720999658412 0.002851652301378843 0 0.0091555653121131626 0.0030040578918138334 0 0.0091387379366302604 0.0029277683098437434 0 0.0090449720999658412 0.002851652301378843 0 0.0089457237141179063 0.0029003918538069214 0 0.0091555653121131626 0.0030040578918138334 0 0.0090619394780794265 0.0028076649086188556 0 0.0091387379366302604 0.0029277683098437434 0 0.0090848446344330442 0.002855216847570436 0 0.0090619394780794265 0.0028076649086188556 0 0.0090449720999658412 0.002851652301378843 0 0.0091387379366302604 0.0029277683098437434 0 0.0091387379366302604 0.0029277683098437434 0 0.0090848446344330442 0.002855216847570436 0 0.0092331620497073212 0.0029469225640589582 0 0.0091555653121131626 0.0030040578918138334 0 0.0091387379366302604 0.0029277683098437434 0 0.0092882770375221253 0.0030595980372962656 0 0.0091387379366302604 0.0029277683098437434 0 0.0092331620497073212 0.0029469225640589582 0 0.0092882770375221253 0.0030595980372962656 0 0.0092882770375221253 0.0030595980372962656 0 0.009460571623781203 0.0032075205726277058 0 0.0094845088130834053 0.0030993340735631873 0 0.0092331620497073212 0.0029469225640589582 0 0.0094845088130834053 0.0030993340735631873 0 0.0095867593561619786 0.0029974870511526109 0 0.0092331620497073212 0.0029469225640589582 0 0.0092882770375221253 0.0030595980372962656 0 0.0094845088130834053 0.0030993340735631873 0 0.0094845088130834053 0.0030993340735631873 0 0.0095867593561619786 0.0029974870511526109 0 0.0097271778208764242 0.0031147458370680619 0 0.0094845088130834053 0.0030993340735631873 0 0.0097268206219696812 0.0032844415301456521 0 0.0097271778208764242 0.0031147458370680619 0 0.009460571623781203 0.0032075205726277058 0 0.0094845088130834053 0.0030993340735631873 0 0.0097268206219696812 0.0032844415301456521 0 0.009460571623781203 0.0032075205726277058 0 0.0095211666117898369 0.0033540917684876351 0 0.0097268206219696812 0.0032844415301456521 0 0.0095211666117898369 0.0033540917684876351 0 0.0095648638129201512 0.0036289925253973712 0 0.0097268206219696812 0.0032844415301456521 0 0.0093300899486483315 0.0032216872849171194 0 0.0092882770375221253 0.0030595980372962656 0 0.009460571623781203 0.0032075205726277058 0 0.0093300899486483315 0.0032216872849171194 0 0.009460571623781203 0.0032075205726277058 0 0.0095211666117898369 0.0033540917684876351 0 0.0093300899486483315 0.0032216872849171194 0 0.0095211666117898369 0.0033540917684876351 0 0.0095648638129201512 0.0036289925253973712 0 0.0094156586315393004 0.0026733896455013442 0 0.0093585735727095172 0.0028598567842854669 0 0.0098214069768994324 0.0027890408302488731 0 0.009703096067067719 0.0025341940856312634 0 0.0094156586315393004 0.0026733896455013442 0 0.0098214069768994324 0.0027890408302488731 0 0.0095867593561619786 0.0029974870511526109 0 0.0093585735727095172 0.0028598567842854669 0 0.0098214069768994324 0.0027890408302488731 0 0.0092331620497073212 0.0029469225640589582 0 0.0095867593561619786 0.0029974870511526109 0 0.0093585735727095172 0.0028598567842854669 0 0.0093585735727095172 0.0028598567842854669 0 0.0091389931036696438 0.0028633901944195941 0 0.0090875138148565019 0.0028089716699795991 0 0.0092331620497073212 0.0029469225640589582 0 0.0093585735727095172 0.0028598567842854669 0 0.0091389931036696438 0.0028633901944195941 0 0.0090848446344330442 0.002855216847570436 0 0.0092331620497073212 0.0029469225640589582 0 0.0091389931036696438 0.0028633901944195941 0 0.0090848446344330442 0.002855216847570436 0 0.0091389931036696438 0.0028633901944195941 0 0.0090296857110721898 0.0028379326201031828 0 0.0091389931036696438 0.0028633901944195941 0 0.0090875138148565019 0.0028089716699795991 0 0.0090296857110721898 0.0028379326201031828 0 0.0094156586315393004 0.0026733896455013442 0 0.0093585735727095172 0.0028598567842854669 0 0.0090875138148565019 0.0028089716699795991 0 0.0094156586315393004 0.0026733896455013442 0 0.0090875138148565019 0.0028089716699795991 0 0.0090916822810606403 0.0026640110697395167 0 0.0090916822810606403 0.0026640110697395167 0 0.0089083531894452572 0.0027851456066896219 0 0.0087915275246646524 0.0027368494234691564 0 0.0090875138148565019 0.0028089716699795991 0 0.0090916822810606403 0.0026640110697395167 0 0.0089083531894452572 0.0027851456066896219 0 0.0089083531894452572 0.0027851456066896219 0 0.0087686212001281214 0.0028273955562408818 0 0.0087915275246646524 0.0027368494234691564 0 0.0089083531894452572 0.0027851456066896219 0 0.0087686212001281214 0.0028273955562408818 0 0.0089309901092068412 0.0028212575750422462 0 0.008831231246032854 0.0027916131858412535 0 0.0087686212001281214 0.0028273955562408818 0 0.0083651934001255888 0.00294047305413507 0 0.008831231246032854 0.0027916131858412535 0 0.0087686212001281214 0.0028273955562408818 0 0.0089221730577144099 0.0028126011495884853 0 0.008831231246032854 0.0027916131858412535 0 0.0089221730577144099 0.0028126011495884853 0 0.0090215343197897861 0.0028152046133248102 0 0.0087686212001281214 0.0028273955562408818 0 0.0089221730577144099 0.0028126011495884853 0 0.0089309901092068412 0.0028212575750422462 0 0.0089221730577144099 0.0028126011495884853 0 0.0089309901092068412 0.0028212575750422462 0 0.0089976094285358459 0.0028188119480199395 0 0.0090875138148565019 0.0028089716699795991 0 0.0089083531894452572 0.0027851456066896219 0 0.0089309901092068412 0.0028212575750422462 0 0.0089309901092068412 0.0028212575750422462 0 0.0090296857110721898 0.0028379326201031828 0 0.0089976094285358459 0.0028188119480199395 0 0.0090875138148565019 0.0028089716699795991 0 0.0089309901092068412 0.0028212575750422462 0 0.0090296857110721898 0.0028379326201031828 0 0.009050859813439666 0.0028030811305393634 0 0.0090848446344330442 0.002855216847570436 0 0.0090296857110721898 0.0028379326201031828 0 0.009050859813439666 0.0028030811305393634 0 0.0090296857110721898 0.0028379326201031828 0 0.0090440813405130958 0.0028031780278935628 0 0.0090296857110721898 0.0028379326201031828 0 0.0090440813405130958 0.0028031780278935628 0 0.0089976094285358459 0.0028188119480199395 0 0.0090790285752326994 0.0027394187661701178 0 0.0090440813405130958 0.0028031780278935628 0 0.0091061926246242143 0.0027433071325747246 0 0.0090440813405130958 0.0028031780278935628 0 0.0090662424407447831 0.0028089405610440036 0 0.0091061926246242143 0.0027433071325747246 0 0.0090440813405130958 0.0028031780278935628 0 0.0089976094285358459 0.0028188119480199395 0 0.0090662424407447831 0.0028089405610440036 0 0.0089976094285358459 0.0028188119480199395 0 0.0090215343197897861 0.0028152046133248102 0 0.0090662424407447831 0.0028089405610440036 0 0.0089221730577144099 0.0028126011495884853 0 0.0089976094285358459 0.0028188119480199395 0 0.0090215343197897861 0.0028152046133248102 0 0.0090215343197897861 0.0028152046133248102 0 0.0090662424407447831 0.0028089405610440036 0 0.0091199857149520096 0.002829371171169924 0 0.0090215343197897861 0.0028152046133248102 0 0.0091199857149520096 0.002829371171169924 0 0.0091678497801736102 0.0028812621815248259 0 0.0090662424407447831 0.0028089405610440036 0 0.0091199857149520096 0.002829371171169924 0 0.0091442091905019878 0.0027507992737386684 0 0.0092805931779579697 0.0026408369348078155 0 0.0091199857149520096 0.002829371171169924 0 0.0091442091905019878 0.0027507992737386684 0 0.0090662424407447831 0.0028089405610440036 0 0.0091442091905019878 0.0027507992737386684 0 0.0091061926246242143 0.0027433071325747246 0 0.0092805931779579697 0.0026408369348078155 0 0.0091199857149520096 0.002829371171169924 0 0.0091678497801736102 0.0028812621815248259 0 0.008831231246032854 0.0027916131858412535 0 0.0090215343197897861 0.0028152046133248102 0 0.009066062648466185 0.0027927700028897101 0 0.0050532381870412278 0.0067337258617734628 0 0.0048369871280974199 0.0081879269346844634 0 0.005447678270721585 0.0079756034200903075 0 0.0090215343197897861 0.0028152046133248102 0 0.0091678497801736102 0.0028812621815248259 0 0.009066062648466185 0.0027927700028897101 0 0.0072209744296236212 0.0046414528730896413 0 0.0069386401016294777 0.0055522833721080855 0 0.008831231246032854 0.0027916131858412535 0 0.009066062648466185 0.0027927700028897101 0 0.0083651934001255888 0.00294047305413507 0 0.009066062648466185 0.0027927700028897101 0 0.0078953483536338773 0.0047373002273987611 0 0.007976649534868617 0.003859012285382326 0 0.009066062648466185 0.0027927700028897101 0 0.0083230300391820868 0.0056697223501485658 0 0.0078953483536338773 0.0047373002273987611 0 0.0069386401016294777 0.0055522833721080855 0 0.0065926782702264725 0.0072929428939848134 0 0.0048369871280974199 0.0081879269346844634 0 0.0051358029200206214 0.0084745516608748551 0 0.0050725615921967298 0.0087807060926077072 0 0.0048369871280974199 0.0081879269346844634 0 0.0050725615921967298 0.0087807060926077072 0 0.0049008782818406611 0.0090431497981062602 0 0.0048369871280974199 0.0081879269346844634 0 0.0051358029200206214 0.0084745516608748551 0 0.005447678270721585 0.0079756034200903075 0 0.009066062648466185 0.0027927700028897101 0 0.007976649534868617 0.003859012285382326 0 0.0083651934001255888 0.00294047305413507 0 0.0051358029200206214 0.0084745516608748551 0 0.0050725615921967298 0.0087807060926077072 0 0.0052276416431248128 0.0088808910169344835 0 0.0050725615921967298 0.0087807060926077072 0 0.0051590349317390538 0.0091650266163850486 0 0.0052276416431248128 0.0088808910169344835 0 0.0050725615921967298 0.0087807060926077072 0 0.0051590349317390538 0.0091650266163850486 0 0.0049008782818406611 0.0090431497981062602 0 0.0066549575328388394 0.0062483086171617073 0 0.0067399475231490176 0.0045446076909514523 0 0.0052788353059283095 0.0071511888448980007 0 0.0083230300391820868 0.0056697223501485658 0 0.0078953483536338773 0.0047373002273987611 0 0.0073047979574133344 0.0052124052921020221 0 0.0078953483536338773 0.0047373002273987611 0 0.0074884060134919033 0.0045346482418915464 0 0.0073047979574133344 0.0052124052921020221 0 0.0074884060134919033 0.0045346482418915464 0 0.0073047979574133344 0.0052124052921020221 0 0.0067399475231490176 0.0045446076909514523 0 0.0083230300391820868 0.0056697223501485658 0 0.0073047979574133344 0.0052124052921020221 0 0.0066549575328388394 0.0062483086171617073 0 0.0073047979574133344 0.0052124052921020221 0 0.0066549575328388394 0.0062483086171617073 0 0.0067399475231490176 0.0045446076909514523 0 0.0087891217204612813 0.0023960034561257798 0 0.0088103111982210502 0.0023133826149039235 0 0.0089174000084092583 0.002425416265549572 0 0.0087891217204612813 0.0023960034561257798 0 0.0087035170417878397 0.0025751350473237496 0 0.0089174000084092583 0.002425416265549572 0 0.0087472636986180245 0.002239499785565726 0 0.0087891217204612813 0.0023960034561257798 0 0.0087035170417878397 0.0025751350473237496 0 0.0087472636986180245 0.002239499785565726 0 0.0087891217204612813 0.0023960034561257798 0 0.0088103111982210502 0.0023133826149039235 0 0.006875060700119142 0.0045264930659507131 0 0.007976649534868617 0.003859012285382326 0 0.0083651934001255888 0.00294047305413507 0 0.0087472636986180245 0.002239499785565726 0 0.0087035170417878397 0.0025751350473237496 0 0.0083651934001255888 0.00294047305413507 0 0.0081719047318438657 0.0041673569496034112 0 0.0083344594719219154 0.0029310854869112717 0 0.0074884060134919033 0.0045346482418915464 0 0.0067399475231490176 0.0045446076909514523 0 0.007976649534868617 0.003859012285382326 0 0.0081719047318438657 0.0041673569496034112 0 0.0077104164176584992 0.0042583462868062754 0 0.0078953483536338773 0.0047373002273987611 0 0.0074884060134919033 0.0045346482418915464 0 0.007976649534868617 0.003859012285382326 0 0.0087686212001281214 0.0028273955562408818 0 0.0083651934001255888 0.00294047305413507 0 0.0087915275246646524 0.0027368494234691564 0 0.0087035170417878397 0.0025751350473237496 0 0.0083651934001255888 0.00294047305413507 0 0.0087915275246646524 0.0027368494234691564 0 0.0087035170417878397 0.0025751350473237496 0 0.0087915275246646524 0.0027368494234691564 0 0.0089174000084092583 0.002425416265549572 0 0.0088103111982210502 0.0023133826149039235 0 0.0089174000084092583 0.002425416265549572 0 0.0094670311255400236 0.0023205100712322397 0 0.0094156586315393004 0.0026733896455013442 0 0.0090916822810606403 0.0026640110697395167 0 0.0094670311255400236 0.0023205100712322397 0 0.0090916822810606403 0.0026640110697395167 0 0.0089174000084092583 0.002425416265549572 0 0.0094670311255400236 0.0023205100712322397 0 0.0087472636986180245 0.002239499785565726 0 0.0088103111982210502 0.0023133826149039235 0 0.0094670311255400236 0.0023205100712322397 0 0.0081719047318438657 0.0041673569496034112 0 0.010123015348111433 0.0022828282358263513 0 0.0090916822810606403 0.0026640110697395167 0 0.0087915275246646524 0.0027368494234691564 0 0.0089174000084092583 0.002425416265549572 0 0.0081719047318438657 0.0041673569496034112 0 0.0081507076045012668 0.0049605444673453611 0 0.0072771056607918456 0.0061105414032013548 0 0.0057886077418219072 0.0074214632960646265 0 0.0064927999840099209 0.0075400327463042193 0 0.010025943696115886 0.002628833313473427 0 0.010314832619613608 0.0026453653305648101 0 0.010285015665932129 0.0024541868574264828 0 0.0081719047318438657 0.0041673569496034112 0 0.005723182422775459 0.0075920903151698877 0 0.010314832619613608 0.0026453653305648101 0 0.010285015665932129 0.0024541868574264828 0 0.010415642772122136 0.0025133421117526913 0 0.009703096067067719 0.0025341940856312634 0 0.0094156586315393004 0.0026733896455013442 0 0.0094670311255400236 0.0023205100712322397 0 0.0048785148825456334 0.0084575238975196886 0 0.0048562861538474344 0.0083892216040362313 0 0.0049102199138161473 0.0084488790985210119 0 0.0048785148825456334 0.0084575238975196886 0 0.0048419984560605792 0.0083778257919092328 0 0.004875562242376584 0.0084748202421253555 0 0.0048785148825456334 0.0084575238975196886 0 0.0048419984560605792 0.0083778257919092328 0 0.0048562861538474344 0.0083892216040362313 0 0.0047867076954669395 0.0081607714589488761 0 0.0048419984560605792 0.0083778257919092328 0 0.0048562861538474344 0.0083892216040362313 0 0.0051792037447693975 0.0077763934836701564 0 0.0052772133056599568 0.0080316319294325856 0 0.0055526718930939897 0.0073719661913460794 0 0.0057199572989156018 0.0074407834182556266 0 0.0057574255073841113 0.0076743851349069334 0 0.0052772133056599568 0.0080316319294325856 0 0.0049574143456678843 0.0082966088022274152 0 0.0056490074624399251 0.0074420928786425511 0 0.0057574255073841113 0.0076743851349069334 0 0.005296638941908024 0.0076628294150133938 0 0.0057574255073841113 0.0076743851349069334 0 0.005296638941908024 0.0076628294150133938 0 0.004956617302140651 0.0083179299485190185 0 0.005296638941908024 0.0076628294150133938 0 0.0049412946019463302 0.0079354510880387408 0 0.004956617302140651 0.0083179299485190185 0 0.005296638941908024 0.0076628294150133938 0 0.0050261685697678337 0.0076748440035639166 0 0.0049412946019463302 0.0079354510880387408 0 0.0051228693641819801 0.0073842027385797515 0 0.005296638941908024 0.0076628294150133938 0 0.0050261685697678337 0.0076748440035639166 0 0.0044890548173908487 0.0078087910436693223 0 0.0046476531068805494 0.0080394743525483616 0 0.0047011388993922643 0.0084460263891177004 0 0.0050532381870412278 0.0067337258617734628 0 0.005444128540189384 0.006596685588240175 0 0.005447678270721585 0.0079756034200903075 0 0.0046994571159167308 0.0075930859321403036 0 0.0044890548173908487 0.0078087910436693223 0 0.0047760535422361593 0.0078318229194813734 0 0.0048985163788258209 0.0075279709759124057 0 0.0046994571159167308 0.0075930859321403036 0 0.0047760535422361593 0.0078318229194813734 0 0.0050261685697678337 0.0076748440035639166 0 0.0049412946019463302 0.0079354510880387408 0 0.0047760535422361593 0.0078318229194813734 0 0.0048985163788258209 0.0075279709759124057 0 0.0050261685697678337 0.0076748440035639166 0 0.0047760535422361593 0.0078318229194813734 0 0.0047760535422361593 0.0078318229194813734 0 0.0046476531068805494 0.0080394743525483616 0 0.0047286329094215337 0.0081508813959369243 0 0.0049412946019463302 0.0079354510880387408 0 0.0047760535422361593 0.0078318229194813734 0 0.0047286329094215337 0.0081508813959369243 0 0.0044890548173908487 0.0078087910436693223 0 0.0047760535422361593 0.0078318229194813734 0 0.0046476531068805494 0.0080394743525483616 0 0.004827924773850403 0.0075621586924017169 0 0.0050898753731590798 0.0081014013850393262 0 0.0047286329094215337 0.0081508813959369243 0 0.0048168010942429102 0.0083528752865272716 0 0.0047011388993922643 0.0084460263891177004 0 0.0046476531068805494 0.0080394743525483616 0 0.0047286329094215337 0.0081508813959369243 0 0.0047011388993922643 0.0084460263891177004 0 0.0047286329094215337 0.0081508813959369243 0 0.0048168010942429102 0.0083528752865272716 0 0.004956617302140651 0.0083179299485190185 0 0.0049412946019463302 0.0079354510880387408 0 0.0047286329094215337 0.0081508813959369243 0 0.004956617302140651 0.0083179299485190185 0 0.004844689247370808 0.0084522784988792978 0 0.0048954947019875178 0.0084210796785657432 0 0.0048737651760787917 0.0084914151953033937 0 0.004844689247370808 0.0084522784988792978 0 0.0048168010942429102 0.0083528752865272716 0 0.0048954947019875178 0.0084210796785657432 0 0.0048168010942429102 0.0083528752865272716 0 0.004956617302140651 0.0083179299485190185 0 0.0048954947019875178 0.0084210796785657432 0 0.004844689247370808 0.0084522784988792978 0 0.0048168010942429102 0.0083528752865272716 0 0.0047011388993922643 0.0084460263891177004 0 0.0048562861538474344 0.0083892216040362313 0 0.004956617302140651 0.0083179299485190185 0 0.0049102199138161473 0.0084488790985210119 0 0.004956617302140651 0.0083179299485190185 0 0.0048954947019875178 0.0084210796785657432 0 0.0049102199138161473 0.0084488790985210119 0 0.0048954947019875178 0.0084210796785657432 0 0.0049102199138161473 0.0084488790985210119 0 0.0048737651760787917 0.0084914151953033937 0 0.0049102199138161473 0.0084488790985210119 0 0.0048768237803313401 0.0085489767400387991 0 0.0048737651760787917 0.0084914151953033937 0 0.0049102199138161473 0.0084488790985210119 0 0.0048768237803313401 0.0085489767400387991 0 0.004897185270655178 0.0085621241869908195 0 0.0048768237803313401 0.0085489767400387991 0 0.0048737651760787917 0.0084914151953033937 0 0.0048250919255365633 0.0085978512219736479 0 0.004844689247370808 0.0084522784988792978 0 0.0048737651760787917 0.0084914151953033937 0 0.0048250919255365633 0.0085978512219736479 0 0.0048768237803313401 0.0085489767400387991 0 0.0048250919255365633 0.0085978512219736479 0 0.0048660741354651649 0.0086504792689571699 0 0.0048768237803313401 0.0085489767400387991 0 0.0048660741354651649 0.0086504792689571699 0 0.004897185270655178 0.0085621241869908195 0 0.0050898753731590798 0.0081014013850393262 0 0.005194930599709777 0.0088184418318787393 0 0.0048820302203269996 0.0085155245814895145 0 0.0050105421622374802 0.0088923370445627859 0 0.004844689247370808 0.0084522784988792978 0 0.0047011388993922643 0.0084460263891177004 0 0.0052276416431248128 0.0088808910169344835 0 0.0051358029200206214 0.0084745516608748551 0 0.005447678270721585 0.0079756034200903075 0 0.0052276416431248128 0.0088808910169344835 0 0.004844689247370808 0.0084522784988792978 0 0.0048250919255365633 0.0085978512219736479 0 0.0046853637166700936 0.0087626676827319023 0 0.004844689247370808 0.0084522784988792978 0 0.0052276416431248128 0.0088808910169344835 0 0.0053754235451520674 0.0089986783771969781 0 0.0051590349317390538 0.0091650266163850486 0 0.0052276416431248128 0.0088808910169344835 0 0.0053754235451520674 0.0089986783771969781 0 0.0048660741354651649 0.0086504792689571699 0 0.0048638302874102601 0.0087932392729502176 0 0.0049031044113290161 0.008715095071903118 0 0.0048660741354651649 0.0086504792689571699 0 0.0048046230964669014 0.0087213248293282215 0 0.0048638302874102601 0.0087932392729502176 0 0.0048250919255365633 0.0085978512219736479 0 0.0046853637166700936 0.0087626676827319023 0 0.0048046230964669014 0.0087213248293282215 0 0.0048250919255365633 0.0085978512219736479 0 0.0048660741354651649 0.0086504792689571699 0 0.0048046230964669014 0.0087213248293282215 0 0.0048046230964669014 0.0087213248293282215 0 0.0048638302874102601 0.0087932392729502176 0 0.0048387740603700611 0.0089357701330188919 0 0.0046853637166700936 0.0087626676827319023 0 0.0048046230964669014 0.0087213248293282215 0 0.0048387740603700611 0.0089357701330188919 0 0.0049302926949214157 0.0087582226012545682 0 0.0049031044113290161 0.008715095071903118 0 0.0049307235824237999 0.0089026548825914906 0 0.0048638302874102601 0.0087932392729502176 0 0.0049031044113290161 0.008715095071903118 0 0.0049307235824237999 0.0089026548825914906 0 0.0049302926949214157 0.0087582226012545682 0 0.0049660285115665833 0.008864125770296355 0 0.0049307235824237999 0.0089026548825914906 0 0.0049302926949214157 0.0087582226012545682 0 0.0049031044113290161 0.008715095071903118 0 0.0049101125811226191 0.0086059461093049554 0 0.0049031044113290161 0.008715095071903118 0 0.004897185270655178 0.0085621241869908195 0 0.0049101125811226191 0.0086059461093049554 0 0.0048785148825456334 0.0084575238975196886 0 0.0049102199138161473 0.0084488790985210119 0 0.004897185270655178 0.0085621241869908195 0 0.0048660741354651649 0.0086504792689571699 0 0.0049031044113290161 0.008715095071903118 0 0.004897185270655178 0.0085621241869908195 0 0.0048785148825456334 0.0084575238975196886 0 0.004897185270655178 0.0085621241869908195 0 0.0049101125811226191 0.0086059461093049554 0 0.0048785148825456334 0.0084575238975196886 0 0.004875562242376584 0.0084748202421253555 0 0.0049101125811226191 0.0086059461093049554 0 0.0049140939825526265 0.0086109541419319563 0 0.004875562242376584 0.0084748202421253555 0 0.0049101125811226191 0.0086059461093049554 0 0.0049140939825526265 0.0086109541419319563 0 0.0049101125811226191 0.0086059461093049554 0 0.0049362851289110358 0.0087197280926337162 0 0.0049140939825526265 0.0086109541419319563 0 0.0049362851289110358 0.0087197280926337162 0 0.0049573607250843719 0.0087813289554420845 0 0.0049302926949214157 0.0087582226012545682 0 0.0049101125811226191 0.0086059461093049554 0 0.0049362851289110358 0.0087197280926337162 0 0.0049302926949214157 0.0087582226012545682 0 0.0049362851289110358 0.0087197280926337162 0 0.0049660285115665833 0.008864125770296355 0 0.0049362851289110358 0.0087197280926337162 0 0.0049573607250843719 0.0087813289554420845 0 0.0049660285115665833 0.008864125770296355 0 0.0049573607250843719 0.0087813289554420845 0 0.0049660285115665833 0.008864125770296355 0 0.0049891538794782772 0.0089010646790855207 0 0.0049660285115665833 0.008864125770296355 0 0.004999423157852392 0.0089801485728052705 0 0.0049891538794782772 0.0089010646790855207 0 0.0049660285115665833 0.008864125770296355 0 0.004999423157852392 0.0089801485728052705 0 0.0049969577346608996 0.0090647549961594513 0 0.004999423157852392 0.0089801485728052705 0 0.0050407784800161537 0.0091327992398222441 0 0.0049969577346608996 0.0090647549961594513 0 0.004999423157852392 0.0089801485728052705 0 0.0050407784800161537 0.0091327992398222441 0 0.0050248308684216177 0.0090185324938270636 0 0.004999423157852392 0.0089801485728052705 0 0.0049891538794782772 0.0089010646790855207 0 0.0050248308684216177 0.0090185324938270636 0 0.0050407784800161537 0.0091327992398222441 0 0.0050561377746301825 0.0092839882711384363 0 0.0049969577346608996 0.0090647549961594513 0 0.0050407784800161537 0.0091327992398222441 0 0.0050896952284563901 0.0092980473750066631 0 0.0050561377746301825 0.0092839882711384363 0 0.0050561377746301825 0.0092839882711384363 0 0.0049629699301249426 0.0092329144620147251 0 0.0050772001011164993 0.0094575011453806902 0 0.0050561377746301825 0.0092839882711384363 0 0.0049969577346608996 0.0090647549961594513 0 0.0049629699301249426 0.0092329144620147251 0 0.0049969577346608996 0.0090647549961594513 0 0.0049307235824237999 0.0089026548825914906 0 0.0049629699301249426 0.0092329144620147251 0 0.0049660285115665833 0.008864125770296355 0 0.0049969577346608996 0.0090647549961594513 0 0.0049307235824237999 0.0089026548825914906 0 0.0048638302874102601 0.0087932392729502176 0 0.0049307235824237999 0.0089026548825914906 0 0.0048387740603700611 0.0089357701330188919 0 0.0049307235824237999 0.0089026548825914906 0 0.0048387740603700611 0.0089357701330188919 0 0.0049629699301249426 0.0092329144620147251 0 0.0048387740603700611 0.0089357701330188919 0 0.0047731923754059944 0.0091991004797641416 0 0.0049629699301249426 0.0092329144620147251 0 0.0046853637166700936 0.0087626676827319023 0 0.0048387740603700611 0.0089357701330188919 0 0.0047731923754059944 0.0091991004797641416 0 0.0051590349317390538 0.0091650266163850486 0 0.0053754235451520674 0.0089986783771969781 0 0.0053296445199272607 0.0095449106848022481 0 0.0050105421622374802 0.0088923370445627859 0 0.0050589046432345953 0.0093493895748124074 0 0.0047731923754059944 0.0091991004797641416 0 0.0049629699301249426 0.0092329144620147251 0 0.0051132589929239313 0.00963692707728157 0 0.0049629699301249426 0.0092329144620147251 0 0.0051132589929239313 0.00963692707728157 0 0.0050772001011164993 0.0094575011453806902 0 0.0051132589929239313 0.00963692707728157 0 0.0051386044783504701 0.0096534349600429867 0 0.0050772001011164993 0.0094575011453806902 0 0.0053296445199272607 0.0095449106848022481 0 0.0051132589929239313 0.00963692707728157 0 0.0052515259568231857 0.0096498702269133974 0 0.0050589046432345953 0.0093493895748124074 0 0.0051006485661790084 0.009595584980416242 0 0.0051132589929239313 0.00963692707728157 0 0.0051976058934106971 0.0097209567509384514 0 0.0051386044783504701 0.0096534349600429867 0 0.0051132589929239313 0.00963692707728157 0 0.0051976058934106971 0.0097209567509384514 0 0.0052515259568231857 0.0096498702269133974 0 0.0051386044783504701 0.0096534349600429867 0 0.0051943739443771385 0.0096725844868610113 0 0.0050772001011164993 0.0094575011453806902 0 0.0051943739443771385 0.0096725844868610113 0 0.0051403294828677179 0.0094898398340598454 0 0.0050772001011164993 0.0094575011453806902 0 0.0051403294828677179 0.0094898398340598454 0 0.0052625115353439229 0.0096968808240630554 0 0.0051847956476494886 0.009535458354654228 0 0.0051943739443771385 0.0096725844868610113 0 0.0051403294828677179 0.0094898398340598454 0 0.0052625115353439229 0.0096968808240630554 0 0.0050896952284563901 0.0092980473750066631 0 0.0050561377746301825 0.0092839882711384363 0 0.0051403294828677179 0.0094898398340598454 0 0.0051403294828677179 0.0094898398340598454 0 0.005136520656660315 0.0094161926038223692 0 0.0051847956476494886 0.009535458354654228 0 0.0050896952284563901 0.0092980473750066631 0 0.0051403294828677179 0.0094898398340598454 0 0.005136520656660315 0.0094161926038223692 0 0.0050561377746301825 0.0092839882711384363 0 0.0051403294828677179 0.0094898398340598454 0 0.0050772001011164993 0.0094575011453806902 0 0.0057043793514443423 0.0086818408001451183 0 0.0057886077418219072 0.0074214632960646265 0 0.0047863552392909559 0.0084335033794652198 0 0.0081507076045012668 0.0049605444673453611 0 0.0074748543371572539 0.0053144696082596298 0 0.010285015665932129 0.0024541868574264828 0 0.010415642772122136 0.0025133421117526913 0 0.010515092107972777 0.0024493248075954377 0 0.0053328211888891558 0.008670534537787487 0 0.005723182422775459 0.0075920903151698877 0 0.0057043793514443423 0.0086818408001451183 0 0.0057886077418219072 0.0074214632960646265 0 0.0064927999840099209 0.0075400327463042193 0 0.0052788353059283095 0.0071511888448980007 0 0.0056495675797896133 0.0085121871145578017 0 0.0063666977171078143 0.0074861484450674184 0 0.004849622913529395 0.0088771587452922355 0 0.0056495675797896133 0.0085121871145578017 0 0.0052338703394151607 0.0093734863554727505 0 0.004849622913529395 0.0088771587452922355 0 0.0052788353059283095 0.0071511888448980007 0 0.0056495675797896133 0.0085121871145578017 0 0.0056495675797896133 0.0085121871145578017 0 0.0068907019495859506 0.0083674319852709532 0 0.0063666977171078143 0.0074861484450674184 0 0.0060031512008738705 0.0088670187309924185 0 0.0056023528100539394 0.009518343340925068 0 0.0056495675797896133 0.0085121871145578017 0 0.0068907019495859506 0.0083674319852709532 0 0.0055114853219465614 0.0096194041038142192 0 0.0083230300391820868 0.0056697223501485658 0 0.0068907019495859506 0.0083674319852709532 0 0.0063666977171078143 0.0074861484450674184 0 0.0066549575328388394 0.0062483086171617073 0 0.0052788353059283095 0.0071511888448980007 0 0.0063666977171078143 0.0074861484450674184 0 0.0083230300391820868 0.0056697223501485658 0 0.0066549575328388394 0.0062483086171617073 0 0.0063666977171078143 0.0074861484450674184 0 0.0051590349317390538 0.0091650266163850486 0 0.0053296445199272607 0.0095449106848022481 0 0.0050989660866562923 0.0095444217436104484 0 0.0051590349317390538 0.0091650266163850486 0 0.0049008782818406611 0.0090431497981062602 0 0.0050989660866562923 0.0095444217436104484 0 0.0065926782702264725 0.0072929428939848134 0 0.0060031512008738705 0.0088670187309924185 0 0.0053296445199272607 0.0095449106848022481 0 0.0050989660866562923 0.0095444217436104484 0 0.0052515259568231857 0.0096498702269133974 0 0.0050989660866562923 0.0095444217436104484 0 0.0052515259568231857 0.0096498702269133974 0 0.0055114853219465614 0.0096194041038142192 0 0.0051976058934106971 0.0097209567509384514 0 0.0052515259568231857 0.0096498702269133974 0 0.0055114853219465614 0.0096194041038142192 0 0.0051976058934106971 0.0097209567509384514 0 0.0055114853219465614 0.0096194041038142192 0 0.0052516262810697384 0.0098518739946694602 0 0.0055114853219465614 0.0096194041038142192 0 0.0051895563020134773 0.009732427868762189 0 0.0052516262810697384 0.0098518739946694602 0 0.0052338703394151607 0.0093734863554727505 0 0.0051895563020134773 0.009732427868762189 0 0.0049874501989549368 0.0094900372117037619 0 0.0055114853219465614 0.0096194041038142192 0 0.0052338703394151607 0.0093734863554727505 0 0.0051895563020134773 0.009732427868762189 0 0.0056495675797896133 0.0085121871145578017 0 0.0055114853219465614 0.0096194041038142192 0 0.0052338703394151607 0.0093734863554727505 0 0.0051895563020134773 0.009732427868762189 0 0.0049874501989549368 0.0094900372117037619 0 0.0049570832110514638 0.0099079699875196155 0 0.004849622913529395 0.0088771587452922355 0 0.0052338703394151607 0.0093734863554727505 0 0.0049874501989549368 0.0094900372117037619 0 0.0053328211888891558 0.008670534537787487 0 0.0049939307014395702 0.0094361454325836286 0 0.0057043793514443423 0.0086818408001451183 0 0.0049874501989549368 0.0094900372117037619 0 0.0046854568663678466 0.0091383842596305821 0 0.0049120222408006583 0.010200630879700795 0 0.0049570832110514638 0.0099079699875196155 0 0.0050911840189561226 0.010045922313247012 0 0.0051895563020134773 0.009732427868762189 0 0.0050911840189561226 0.010045922313247012 0 0.0052516262810697384 0.0098518739946694602 0 0.0051895563020134773 0.009732427868762189 0 0.0049570832110514638 0.0099079699875196155 0 0.0050911840189561226 0.010045922313247012 0 0.0049120222408006583 0.010200630879700795 0 0.0050911840189561226 0.010045922313247012 0 0.0050533926453527759 0.010341546163265245 0 0.0050911840189561226 0.010045922313247012 0 0.0051709326691592979 0.010146078421270939 0 0.0052516262810697384 0.0098518739946694602 0 0.0050911840189561226 0.010045922313247012 0 0.0051709326691592979 0.010146078421270939 0 0.0050533926453527759 0.010341546163265245 0 0.0051976058934106971 0.0097209567509384514 0 0.0052516262810697384 0.0098518739946694602 0 0.0052135164350685373 0.009960539966840775 0 0.0051709326691592979 0.010146078421270939 0 0.0052135164350685373 0.009960539966840775 0 0.0052037536923064363 0.010218386116759487 0 0.0051709326691592979 0.010146078421270939 0 0.0052516262810697384 0.0098518739946694602 0 0.0052135164350685373 0.009960539966840775 0 0.0051709326691592979 0.010146078421270939 0 0.0051610420108943247 0.010487317013109444 0 0.0052037536923064363 0.010218386116759487 0 0.0051610420108943247 0.010487317013109444 0 0.0050533926453527759 0.010341546163265245 0 0.0050303145599091877 0.010806260955480745 0 0.0051709326691592979 0.010146078421270939 0 0.0051610420108943247 0.010487317013109444 0 0.0050533926453527759 0.010341546163265245 0 0.0050533926453527759 0.010341546163265245 0 0.0049058825152374606 0.010521652859119967 0 0.0050303145599091877 0.010806260955480745 0 0.0049120222408006583 0.010200630879700795 0 0.0050533926453527759 0.010341546163265245 0 0.0049058825152374606 0.010521652859119967 0 0.0053173903247705967 0.010041901623221036 0 0.0052892840425017044 0.0098493152378019509 0 0.0053944609553499001 0.010002374237622427 0 0.0053173903247705967 0.010041901623221036 0 0.0052892840425017044 0.0098493152378019509 0 0.0052180922876055476 0.0098413368949395157 0 0.0053944609553499001 0.010002374237622427 0 0.0054864999372780292 0.0099821541621330917 0 0.0053687069704357422 0.0098669772373670174 0 0.0052892840425017044 0.0098493152378019509 0 0.0053944609553499001 0.010002374237622427 0 0.0053687069704357422 0.0098669772373670174 0 0.0052625115353439229 0.0096968808240630554 0 0.0052892840425017044 0.0098493152378019509 0 0.0053687069704357422 0.0098669772373670174 0 0.0051943739443771385 0.0096725844868610113 0 0.0052625115353439229 0.0096968808240630554 0 0.0052892840425017044 0.0098493152378019509 0 0.0051386044783504701 0.0096534349600429867 0 0.0051943739443771385 0.0096725844868610113 0 0.0052180922876055476 0.0098413368949395157 0 0.0051943739443771385 0.0096725844868610113 0 0.0052892840425017044 0.0098493152378019509 0 0.0052180922876055476 0.0098413368949395157 0 0.0051976058934106971 0.0097209567509384514 0 0.0051386044783504701 0.0096534349600429867 0 0.0052180922876055476 0.0098413368949395157 0 0.0051976058934106971 0.0097209567509384514 0 0.0052180922876055476 0.0098413368949395157 0 0.0052135164350685373 0.009960539966840775 0 0.0052135164350685373 0.009960539966840775 0 0.0052511106948327007 0.010045824329441988 0 0.0052037536923064363 0.010218386116759487 0 0.0052180922876055476 0.0098413368949395157 0 0.0052135164350685373 0.009960539966840775 0 0.0052511106948327007 0.010045824329441988 0 0.0053173903247705967 0.010041901623221036 0 0.0052180922876055476 0.0098413368949395157 0 0.0052511106948327007 0.010045824329441988 0 0.0053173903247705967 0.010041901623221036 0 0.0052623264872230808 0.010288584068868463 0 0.0053581981262654926 0.010297145297914055 0 0.0053173903247705967 0.010041901623221036 0 0.0052511106948327007 0.010045824329441988 0 0.0052623264872230808 0.010288584068868463 0 0.0051610420108943247 0.010487317013109444 0 0.0052623264872230808 0.010288584068868463 0 0.0052037536923064363 0.010218386116759487 0 0.0052511106948327007 0.010045824329441988 0 0.0052623264872230808 0.010288584068868463 0 0.0052037536923064363 0.010218386116759487 0 0.0051610420108943247 0.010487317013109444 0 0.0052623264872230808 0.010288584068868463 0 0.0052290879380055199 0.010667170474597044 0 0.0052623264872230808 0.010288584068868463 0 0.0053581981262654926 0.010297145297914055 0 0.0053398005621532393 0.010632322912627048 0 0.0052623264872230808 0.010288584068868463 0 0.0053398005621532393 0.010632322912627048 0 0.0052290879380055199 0.010667170474597044 0 0.0053581981262654926 0.010297145297914055 0 0.0054834378719966007 0.010328398842364651 0 0.0053398005621532393 0.010632322912627048 0 0.0053173903247705967 0.010041901623221036 0 0.0053581981262654926 0.010297145297914055 0 0.0053944609553499001 0.010002374237622427 0 0.0053581981262654926 0.010297145297914055 0 0.0053944609553499001 0.010002374237622427 0 0.0054834378719966007 0.010328398842364651 0 0.0053944609553499001 0.010002374237622427 0 0.0054834378719966007 0.010328398842364651 0 0.0054864999372780292 0.0099821541621330917 0 0.0054834378719966007 0.010328398842364651 0 0.0057425533642676404 0.010330091553819622 0 0.0054864999372780292 0.0099821541621330917 0 0.0054834378719966007 0.010328398842364651 0 0.0057425533642676404 0.010330091553819622 0 0.0056445104545297751 0.01057400930418702 0 0.0055819387323852556 0.0099832527384308856 0 0.0055034197015724866 0.009891548844349533 0 0.005458400947074199 0.0095587564399284061 0 0.0054827083256545617 0.0098582364695729997 0 0.0053347922100933165 0.0095842299496223544 0 0.0054827083256545617 0.0098582364695729997 0 0.0054864999372780292 0.0099821541621330917 0 0.0053900250152916955 0.0098267444881987142 0 0.0057425533642676404 0.010330091553819622 0 0.0054827083256545617 0.0098582364695729997 0 0.0054864999372780292 0.0099821541621330917 0 0.0053687069704357422 0.0098669772373670174 0 0.0053900250152916955 0.0098267444881987142 0 0.005334088176058187 0.0097803031364268166 0 0.0054864999372780292 0.0099821541621330917 0 0.0053687069704357422 0.0098669772373670174 0 0.0053900250152916955 0.0098267444881987142 0 0.0054827083256545617 0.0098582364695729997 0 0.0053900250152916955 0.0098267444881987142 0 0.0053140218977767127 0.0097985776563501124 0 0.0053900250152916955 0.0098267444881987142 0 0.0052956288651315889 0.0097492462241242032 0 0.0053003371256492172 0.0097283218589597365 0 0.0053900250152916955 0.0098267444881987142 0 0.0052956288651315889 0.0097492462241242032 0 0.0053140218977767127 0.0097985776563501124 0 0.0052625115353439229 0.0096968808240630554 0 0.0053687069704357422 0.0098669772373670174 0 0.005334088176058187 0.0097803031364268166 0 0.0052625115353439229 0.0096968808240630554 0 0.0053003371256492172 0.0097283218589597365 0 0.005334088176058187 0.0097803031364268166 0 0.0053900250152916955 0.0098267444881987142 0 0.0053003371256492172 0.0097283218589597365 0 0.005334088176058187 0.0097803031364268166 0 0.0051816136496823824 0.0097872755622755853 0 0.0050897184963615717 0.0098314428669362009 0 0.0051945154476446724 0.0097963281038433749 0 0.0051816136496823824 0.0097872755622755853 0 0.0052597335313960027 0.0097693196854823777 0 0.0051945154476446724 0.0097963281038433749 0 0.0051816136496823824 0.0097872755622755853 0 0.0052597335313960027 0.0097693196854823777 0 0.0053140218977767127 0.0097985776563501124 0 0.0052956288651315889 0.0097492462241242032 0 0.0052597335313960027 0.0097693196854823777 0 0.0053140218977767127 0.0097985776563501124 0 0.0054827083256545617 0.0098582364695729997 0 0.0052482883447310807 0.0097622973483572385 0 0.0053140218977767127 0.0097985776563501124 0 0.0051816136496823824 0.0097872755622755853 0 0.0052482883447310807 0.0097622973483572385 0 0.0053140218977767127 0.0097985776563501124 0 0.0052482883447310807 0.0097622973483572385 0 0.0050703619789425275 0.009660294409033373 0 0.0050942945919581779 0.0097468286927309064 0 0.0051816136496823824 0.0097872755622755853 0 0.0052482883447310807 0.0097622973483572385 0 0.0050942945919581779 0.0097468286927309064 0 0.0051966322423584125 0.0096227628915258722 0 0.0050371908237339114 0.0095600681714035525 0 0.0050703619789425275 0.009660294409033373 0 0.0052482883447310807 0.0097622973483572385 0 0.0051966322423584125 0.0096227628915258722 0 0.0050703619789425275 0.009660294409033373 0 0.0054827083256545617 0.0098582364695729997 0 0.0052482883447310807 0.0097622973483572385 0 0.0051966322423584125 0.0096227628915258722 0 0.0054827083256545617 0.0098582364695729997 0 0.0053347922100933165 0.0095842299496223544 0 0.0051966322423584125 0.0096227628915258722 0 0.0053347922100933165 0.0095842299496223544 0 0.0051966322423584125 0.0096227628915258722 0 0.0051981237855841878 0.0094940628200940926 0 0.0051966322423584125 0.0096227628915258722 0 0.0051102557831524485 0.0095127655060451063 0 0.0050371908237339114 0.0095600681714035525 0 0.0051966322423584125 0.0096227628915258722 0 0.0051102557831524485 0.0095127655060451063 0 0.0051981237855841878 0.0094940628200940926 0 0.0051102557831524485 0.0095127655060451063 0 0.0050371908237339114 0.0095600681714035525 0 0.0049957040062820444 0.0094744814505301426 0 0.0050371908237339114 0.0095600681714035525 0 0.0049957040062820444 0.0094744814505301426 0 0.0048641974941506985 0.0095571843830024542 0 0.0049957040062820444 0.0094744814505301426 0 0.0048641974941506985 0.0095571843830024542 0 0.0046530484421606361 0.0093016422341894462 0 0.0048641974941506985 0.0095571843830024542 0 0.0045238144147711481 0.0095269847051174909 0 0.0046530484421606361 0.0093016422341894462 0 0.0048641974941506985 0.0095571843830024542 0 0.0047315105055457454 0.0096508329338142948 0 0.0049191074611948963 0.0097021983209375651 0 0.0048641974941506985 0.0095571843830024542 0 0.0047315105055457454 0.0096508329338142948 0 0.0045238144147711481 0.0095269847051174909 0 0.0050371908237339114 0.0095600681714035525 0 0.0048641974941506985 0.0095571843830024542 0 0.0050703619789425275 0.009660294409033373 0 0.0048641974941506985 0.0095571843830024542 0 0.0050703619789425275 0.009660294409033373 0 0.0049191074611948963 0.0097021983209375651 0 0.0045238144147711481 0.0095269847051174909 0 0.0042064410654997731 0.0096207034713038462 0 0.0042550660148900007 0.0092299127613407091 0 0.0047315105055457454 0.0096508329338142948 0 0.0045238144147711481 0.0095269847051174909 0 0.0044385354916116129 0.0097343218144604112 0 0.0042064410654997731 0.0096207034713038462 0 0.0044385354916116129 0.0097343218144604112 0 0.0041198978475241238 0.0097499511282266738 0 0.0045238144147711481 0.0095269847051174909 0 0.0042064410654997731 0.0096207034713038462 0 0.0044385354916116129 0.0097343218144604112 0 0.0044385354916116129 0.0097343218144604112 0 0.0041198978475241238 0.0097499511282266738 0 0.0042255216863052152 0.0097577812516553338 0 0.0047315105055457454 0.0096508329338142948 0 0.0044385354916116129 0.0097343218144604112 0 0.0047319166026255815 0.0097650935666036276 0 0.0044385354916116129 0.0097343218144604112 0 0.0047319166026255815 0.0097650935666036276 0 0.0045703150039470833 0.0099549339966906944 0 0.0044385354916116129 0.0097343218144604112 0 0.0045703150039470833 0.0099549339966906944 0 0.0042255216863052152 0.0097577812516553338 0 0.0044760011737909272 0.0097149073199324382 0 0.004265146958779077 0.0097479072206137427 0 0.0050942945919581779 0.0097468286927309064 0 0.0049191074611948963 0.0097021983209375651 0 0.0049626924042439433 0.0098082116070845778 0 0.0050703619789425275 0.009660294409033373 0 0.0050942945919581779 0.0097468286927309064 0 0.0049191074611948963 0.0097021983209375651 0 0.0049191074611948963 0.0097021983209375651 0 0.0047319166026255815 0.0097650935666036276 0 0.0049626924042439433 0.0098082116070845778 0 0.0047315105055457454 0.0096508329338142948 0 0.0049191074611948963 0.0097021983209375651 0 0.0047319166026255815 0.0097650935666036276 0 0.0047319166026255815 0.0097650935666036276 0 0.0049626924042439433 0.0098082116070845778 0 0.0045703150039470833 0.0099549339966906944 0 0.0051816136496823824 0.0097872755622755853 0 0.0050942945919581779 0.0097468286927309064 0 0.0049626924042439433 0.0098082116070845778 0 0.0051816136496823824 0.0097872755622755853 0 0.0049626924042439433 0.0098082116070845778 0 0.0050897184963615717 0.0098314428669362009 0 0.0049626924042439433 0.0098082116070845778 0 0.0050897184963615717 0.0098314428669362009 0 0.0049564663053354024 0.0099704101192572246 0 0.0050897184963615717 0.0098314428669362009 0 0.0051687993151873337 0.0098198112606875665 0 0.0051945154476446724 0.0097963281038433749 0 0.0050897184963615717 0.0098314428669362009 0 0.0051687993151873337 0.0098198112606875665 0 0.0049564663053354024 0.0099704101192572246 0 0.0049626924042439433 0.0098082116070845778 0 0.0049564663053354024 0.0099704101192572246 0 0.0045703150039470833 0.0099549339966906944 0 0.0047121674427167181 0.0096180011088201726 0 0.0044760011737909272 0.0097149073199324382 0 0.0044619403632287571 0.0092738371577210273 0 0.0044218104719156836 0.0093677946345335772 0 0.0044102277634661038 0.0093639739038245302 0 0.0044619403632287571 0.0092738371577210273 0 0.0044218104719156836 0.0093677946345335772 0 0.0046891100519529886 0.0093482885103704887 0 0.0051687993151873337 0.0098198112606875665 0 0.0049564663053354024 0.0099704101192572246 0 0.0052770805085295093 0.0097570444704558595 0 0.0044619403632287571 0.0092738371577210273 0 0.0046891100519529886 0.0093482885103704887 0 0.0047637261584536957 0.0092186799661998654 0 0.0047121674427167181 0.0096180011088201726 0 0.0050068001521332605 0.00947233514299416 0 0.0043660605127011018 0.0094697307054245998 0 0.0043259244034500807 0.0095154642356032933 0 0.0042255216863052152 0.0097577812516553338 0 0.0044619403632287571 0.0092738371577210273 0 0.0043660605127011018 0.0094697307054245998 0 0.0044102277634661038 0.0093639739038245302 0 0.0046362425761115912 0.0092105622413403056 0 0.0045336163245168282 0.0092860857898450135 0 0.0044218104719156836 0.0093677946345335772 0 0.0044102277634661038 0.0093639739038245302 0 0.0045072694289566726 0.009304497466297957 0 0.0043660605127011018 0.0094697307054245998 0 0.0044102277634661038 0.0093639739038245302 0 0.0045072694289566726 0.009304497466297957 0 0.0043660605127011018 0.0094697307054245998 0 0.0045072694289566726 0.009304497466297957 0 0.0043259244034500807 0.0095154642356032933 0 0.0045072694289566726 0.009304497466297957 0 0.0047997765344957024 0.0091945280716166141 0 0.004413626109357173 0.0093468420415046011 0 0.0048263183459396298 0.0090462571167630526 0 0.0047997765344957024 0.0091945280716166141 0 0.0048439826280009457 0.0090242813672321339 0 0.0048263183459396298 0.0090462571167630526 0 0.0045072694289566726 0.009304497466297957 0 0.0047997765344957024 0.0091945280716166141 0 0.0049645203635490442 0.0088309085374994739 0 0.0047997765344957024 0.0091945280716166141 0 0.0048439826280009457 0.0090242813672321339 0 0.0049645203635490442 0.0088309085374994739 0 0.0053202579165644234 0.0087971699022892213 0 0.0047997765344957024 0.0091945280716166141 0 0.0046157542700569557 0.0094714221269607407 0 0.0047997765344957024 0.0091945280716166141 0 0.004413626109357173 0.0093468420415046011 0 0.0042955695567661115 0.0083745708044528442 0 0.0049006907787821491 0.0093341316164569244 0 0.0046362425761115912 0.0092105622413403056 0 0.0048075574785653302 0.0091506793611730725 0 0.0048263183459396298 0.0090462571167630526 0 0.0048897257501027093 0.0089660535123968661 0 0.0049322879792892465 0.0089244033070119445 0 0.0048897257501027093 0.0089660535123968661 0 0.0049626777657433441 0.0089764241237354978 0 0.0049322879792892465 0.0089244033070119445 0 0.0048263183459396298 0.0090462571167630526 0 0.0048897257501027093 0.0089660535123968661 0 0.0048439826280009457 0.0090242813672321339 0 0.0048575530889887076 0.0086950584108804966 0 0.0048439826280009457 0.0090242813672321339 0 0.0048618169957633647 0.0088992570550762394 0 0.0048575530889887076 0.0086950584108804966 0 0.0049645203635490442 0.0088309085374994739 0 0.0048439826280009457 0.0090242813672321339 0 0.0048897257501027093 0.0089660535123968661 0 0.0048439826280009457 0.0090242813672321339 0 0.0048618169957633647 0.0088992570550762394 0 0.0048897257501027093 0.0089660535123968661 0 0.0048618169957633647 0.0088992570550762394 0 0.0048981806636046558 0.0088807679835958657 0 0.0048897257501027093 0.0089660535123968661 0 0.0048981806636046558 0.0088807679835958657 0 0.0049432122236593842 0.0089387840232823899 0 0.0048634743627928734 0.0087198557292893896 0 0.0048618169957633647 0.0088992570550762394 0 0.0048981806636046558 0.0088807679835958657 0 0.0048634743627928734 0.0087198557292893896 0 0.0048981806636046558 0.0088807679835958657 0 0.0049276561420628917 0.0088214107315141028 0 0.0049276561420628917 0.0088214107315141028 0 0.0049910428987218714 0.0089678640980041229 0 0.0049432122236593842 0.0089387840232823899 0 0.0049276561420628917 0.0088214107315141028 0 0.0049910428987218714 0.0089678640980041229 0 0.004986463095521562 0.0088988201765715143 0 0.0048981806636046558 0.0088807679835958657 0 0.0049276561420628917 0.0088214107315141028 0 0.0049432122236593842 0.0089387840232823899 0 0.0050140768748340725 0.0090359079705844177 0 0.0049322879792892465 0.0089244033070119445 0 0.0051001127939484733 0.0092157925012372466 0 0.0049910428987218714 0.0089678640980041229 0 0.0049432122236593842 0.0089387840232823899 0 0.0049626777657433441 0.0089764241237354978 0 0.0048075574785653302 0.0091506793611730725 0 0.005055692638132026 0.0091984645413424986 0 0.0048897257501027093 0.0089660535123968661 0 0.0049432122236593842 0.0089387840232823899 0 0.0049626777657433441 0.0089764241237354978 0 0.0049910428987218714 0.0089678640980041229 0 0.0049626777657433441 0.0089764241237354978 0 0.0050140768748340725 0.0090359079705844177 0 0.0049910428987218714 0.0089678640980041229 0 0.0050140768748340725 0.0090359079705844177 0 0.0050456184558801053 0.0090540317252398167 0 0.0049626777657433441 0.0089764241237354978 0 0.0050140768748340725 0.0090359079705844177 0 0.0049322879792892465 0.0089244033070119445 0 0.0051001127939484733 0.0092157925012372466 0 0.0050456184558801053 0.0090540317252398167 0 0.005072725388393217 0.009113626078090872 0 0.0051101035202392765 0.0091881196192518319 0 0.0051001127939484733 0.0092157925012372466 0 0.005072725388393217 0.009113626078090872 0 0.0051101035202392765 0.0091881196192518319 0 0.005072725388393217 0.009113626078090872 0 0.0050866121975874593 0.0091312499746062144 0 0.0051101035202392765 0.0091881196192518319 0 0.0050866121975874593 0.0091312499746062144 0 0.0051117265922692905 0.009190519365647588 0 0.0051101035202392765 0.0091881196192518319 0 0.0051564447703280258 0.0092379446637975704 0 0.0051001127939484733 0.0092157925012372466 0 0.0051101035202392765 0.0091881196192518319 0 0.0051564447703280258 0.0092379446637975704 0 0.0051117265922692905 0.009190519365647588 0 0.0050140768748340725 0.0090359079705844177 0 0.0051001127939484733 0.0092157925012372466 0 0.0050456184558801053 0.0090540317252398167 0 0.0050456184558801053 0.0090540317252398167 0 0.0050479248243753844 0.0090434900657991243 0 0.005072725388393217 0.009113626078090872 0 0.0049910428987218714 0.0089678640980041229 0 0.0050456184558801053 0.0090540317252398167 0 0.0050215246420943181 0.0089905698662224049 0 0.0050456184558801053 0.0090540317252398167 0 0.0050479248243753844 0.0090434900657991243 0 0.0050215246420943181 0.0089905698662224049 0 0.0050479248243753844 0.0090434900657991243 0 0.0050588817740193064 0.0090628155108947433 0 0.0050278187179810642 0.0089778063932043715 0 0.0050479248243753844 0.0090434900657991243 0 0.005072725388393217 0.009113626078090872 0 0.0050588817740193064 0.0090628155108947433 0 0.005072725388393217 0.009113626078090872 0 0.0050866121975874593 0.0091312499746062144 0 0.0050588817740193064 0.0090628155108947433 0 0.0050588817740193064 0.0090628155108947433 0 0.0050278187179810642 0.0089778063932043715 0 0.005055490370833293 0.0090498381991250508 0 0.0050866121975874593 0.0091312499746062144 0 0.0050588817740193064 0.0090628155108947433 0 0.005055490370833293 0.0090498381991250508 0 0.0050278187179810642 0.0089778063932043715 0 0.004986463095521562 0.0088988201765715143 0 0.0049948427784720509 0.0088817257036288514 0 0.0050479248243753844 0.0090434900657991243 0 0.0050278187179810642 0.0089778063932043715 0 0.0050215246420943181 0.0089905698662224049 0 0.0050278187179810642 0.0089778063932043715 0 0.0049948427784720509 0.0088817257036288514 0 0.0050229152889981234 0.0089566793033582053 0 0.0049910428987218714 0.0089678640980041229 0 0.0050215246420943181 0.0089905698662224049 0 0.004986463095521562 0.0088988201765715143 0 0.0050278187179810642 0.0089778063932043715 0 0.0050215246420943181 0.0089905698662224049 0 0.004986463095521562 0.0088988201765715143 0 0.0049325600230465229 0.0087291651432413794 0 0.004986463095521562 0.0088988201765715143 0 0.0049948427784720509 0.0088817257036288514 0 0.0049325600230465229 0.0087291651432413794 0 0.0049276561420628917 0.0088214107315141028 0 0.004986463095521562 0.0088988201765715143 0 0.0049651776734377547 0.0087788859207066847 0 0.0049948427784720509 0.0088817257036288514 0 0.0049977974365222853 0.0088785210456004283 0 0.0049948427784720509 0.0088817257036288514 0 0.0049977974365222853 0.0088785210456004283 0 0.0050229152889981234 0.0089566793033582053 0 0.0050343841661165912 0.0089976346761614992 0 0.0050140742334308357 0.0089484625600599627 0 0.0050482698495612757 0.0090629763507745556 0 0.0049977974365222853 0.0088785210456004283 0 0.0050343841661165912 0.0089976346761614992 0 0.0050140742334308357 0.0089484625600599627 0 0.0049977974365222853 0.0088785210456004283 0 0.0050343841661165912 0.0089976346761614992 0 0.0050229152889981234 0.0089566793033582053 0 0.0050343841661165912 0.0089976346761614992 0 0.0050229152889981234 0.0089566793033582053 0 0.005055490370833293 0.0090498381991250508 0 0.0050278187179810642 0.0089778063932043715 0 0.0050229152889981234 0.0089566793033582053 0 0.005055490370833293 0.0090498381991250508 0 0.0049891538794782772 0.0089010646790855207 0 0.0049814855745163675 0.0088422323052578539 0 0.0050248308684216177 0.0090185324938270636 0 0.0049977974365222853 0.0088785210456004283 0 0.0049814855745163675 0.0088422323052578539 0 0.0050140742334308357 0.0089484625600599627 0 0.0049814855745163675 0.0088422323052578539 0 0.0050140742334308357 0.0089484625600599627 0 0.0050248308684216177 0.0090185324938270636 0 0.0050140742334308357 0.0089484625600599627 0 0.0050248308684216177 0.0090185324938270636 0 0.0050482698495612757 0.0090629763507745556 0 0.0050407784800161537 0.0091327992398222441 0 0.0050248308684216177 0.0090185324938270636 0 0.0050654495815287554 0.009157348698756106 0 0.0050248308684216177 0.0090185324938270636 0 0.0050654495815287554 0.009157348698756106 0 0.0050482698495612757 0.0090629763507745556 0 0.0050654495815287554 0.009157348698756106 0 0.0050482698495612757 0.0090629763507745556 0 0.0050821810318024381 0.0091738301213892329 0 0.0050654495815287554 0.009157348698756106 0 0.0051015488631407568 0.0092671350033156769 0 0.0051069777975682757 0.0093115454906641335 0 0.0050654495815287554 0.009157348698756106 0 0.0051015488631407568 0.0092671350033156769 0 0.0050821810318024381 0.0091738301213892329 0 0.0050896952284563901 0.0092980473750066631 0 0.0050654495815287554 0.009157348698756106 0 0.0051069777975682757 0.0093115454906641335 0 0.0050407784800161537 0.0091327992398222441 0 0.0050896952284563901 0.0092980473750066631 0 0.0050654495815287554 0.009157348698756106 0 0.0050799913487689571 0.0091228342348879683 0 0.0050664547177482521 0.0090984808717193277 0 0.0050969103331145217 0.009192423294799152 0 0.0050866121975874593 0.0091312499746062144 0 0.0050799913487689571 0.0091228342348879683 0 0.005055490370833293 0.0090498381991250508 0 0.0050799913487689571 0.0091228342348879683 0 0.005055490370833293 0.0090498381991250508 0 0.0050664547177482521 0.0090984808717193277 0 0.0050343841661165912 0.0089976346761614992 0 0.005055490370833293 0.0090498381991250508 0 0.0050664547177482521 0.0090984808717193277 0 0.0050343841661165912 0.0089976346761614992 0 0.0050482698495612757 0.0090629763507745556 0 0.0050664547177482521 0.0090984808717193277 0 0.0050482698495612757 0.0090629763507745556 0 0.0050664547177482521 0.0090984808717193277 0 0.0050821810318024381 0.0091738301213892329 0 0.0050664547177482521 0.0090984808717193277 0 0.0050821810318024381 0.0091738301213892329 0 0.0050969103331145217 0.009192423294799152 0 0.0050821810318024381 0.0091738301213892329 0 0.0051154779493021389 0.0092910016907655681 0 0.0050969103331145217 0.009192423294799152 0 0.0051015488631407568 0.0092671350033156769 0 0.0050821810318024381 0.0091738301213892329 0 0.0051154779493021389 0.0092910016907655681 0 0.0050969103331145217 0.009192423294799152 0 0.0051117265922692905 0.009190519365647588 0 0.0051297676155173128 0.0092887717293004147 0 0.0051154779493021389 0.0092910016907655681 0 0.0050969103331145217 0.009192423294799152 0 0.0051297676155173128 0.0092887717293004147 0 0.0050799913487689571 0.0091228342348879683 0 0.0050969103331145217 0.009192423294799152 0 0.0051117265922692905 0.009190519365647588 0 0.0050866121975874593 0.0091312499746062144 0 0.0050799913487689571 0.0091228342348879683 0 0.0051117265922692905 0.009190519365647588 0 0.0051564447703280258 0.0092379446637975704 0 0.0051117265922692905 0.009190519365647588 0 0.0051297676155173128 0.0092887717293004147 0 0.0051297676155173128 0.0092887717293004147 0 0.0051517721050256373 0.0094027116709201278 0 0.0051821129688466028 0.0094642503429054874 0 0.0051564447703280258 0.0092379446637975704 0 0.0051297676155173128 0.0092887717293004147 0 0.0051821129688466028 0.0094642503429054874 0 0.0051154779493021389 0.0092910016907655681 0 0.0051297676155173128 0.0092887717293004147 0 0.0051517721050256373 0.0094027116709201278 0 0.0051154779493021389 0.0092910016907655681 0 0.0051517721050256373 0.0094027116709201278 0 0.0051478051358051632 0.009418327291824416 0 0.0051015488631407568 0.0092671350033156769 0 0.0051154779493021389 0.0092910016907655681 0 0.0051478051358051632 0.009418327291824416 0 0.0051517721050256373 0.0094027116709201278 0 0.005192972245456777 0.00952356715820518 0 0.0051478051358051632 0.009418327291824416 0 0.005192972245456777 0.00952356715820518 0 0.0051478051358051632 0.009418327291824416 0 0.0052226259487727997 0.0095940280179633557 0 0.005192972245456777 0.00952356715820518 0 0.0052224392771174129 0.0095921344744401837 0 0.0051821129688466028 0.0094642503429054874 0 0.0051517721050256373 0.0094027116709201278 0 0.005192972245456777 0.00952356715820518 0 0.0051821129688466028 0.0094642503429054874 0 0.0050896952284563901 0.0092980473750066631 0 0.0051069777975682757 0.0093115454906641335 0 0.005136520656660315 0.0094161926038223692 0 0.0051069777975682757 0.0093115454906641335 0 0.0051478051358051632 0.009418327291824416 0 0.005136520656660315 0.0094161926038223692 0 0.0051015488631407568 0.0092671350033156769 0 0.0051069777975682757 0.0093115454906641335 0 0.0051478051358051632 0.009418327291824416 0 0.0051478051358051632 0.009418327291824416 0 0.0051847956476494886 0.009535458354654228 0 0.0052226259487727997 0.0095940280179633557 0 0.0051478051358051632 0.009418327291824416 0 0.005136520656660315 0.0094161926038223692 0 0.0051847956476494886 0.009535458354654228 0 0.0052625115353439229 0.0096968808240630554 0 0.0051847956476494886 0.009535458354654228 0 0.0052226259487727997 0.0095940280179633557 0 0.0052625115353439229 0.0096968808240630554 0 0.0053003371256492172 0.0097283218589597365 0 0.0052226259487727997 0.0095940280179633557 0 0.005192972245456777 0.00952356715820518 0 0.0052495849437129739 0.0096548587266510472 0 0.0052224392771174129 0.0095921344744401837 0 0.005192972245456777 0.00952356715820518 0 0.0052226259487727997 0.0095940280179633557 0 0.0052495849437129739 0.0096548587266510472 0 0.0053003371256492172 0.0097283218589597365 0 0.0052226259487727997 0.0095940280179633557 0 0.0052495849437129739 0.0096548587266510472 0 0.0052956288651315889 0.0097492462241242032 0 0.0053003371256492172 0.0097283218589597365 0 0.0052495849437129739 0.0096548587266510472 0 0.0052956288651315889 0.0097492462241242032 0 0.0052495849437129739 0.0096548587266510472 0 0.0052544630067870909 0.0096937673941072337 0 0.0052956288651315889 0.0097492462241242032 0 0.0052597335313960027 0.0097693196854823777 0 0.0052544630067870909 0.0096937673941072337 0 0.0052495849437129739 0.0096548587266510472 0 0.0052544630067870909 0.0096937673941072337 0 0.0052224392771174129 0.0095921344744401837 0 0.0052544630067870909 0.0096937673941072337 0 0.0052224392771174129 0.0095921344744401837 0 0.0052325170791612825 0.0095947904649461551 0 0.0052544630067870909 0.0096937673941072337 0 0.005250552980278279 0.0097446790942736887 0 0.0052325170791612825 0.0095947904649461551 0 0.0052597335313960027 0.0097693196854823777 0 0.0052544630067870909 0.0096937673941072337 0 0.005250552980278279 0.0097446790942736887 0 0.0052597335313960027 0.0097693196854823777 0 0.0051945154476446724 0.0097963281038433749 0 0.005250552980278279 0.0097446790942736887 0 0.0051687993151873337 0.0098198112606875665 0 0.005250552980278279 0.0097446790942736887 0 0.0052770805085295093 0.0097570444704558595 0 0.0051687993151873337 0.0098198112606875665 0 0.0051945154476446724 0.0097963281038433749 0 0.005250552980278279 0.0097446790942736887 0 0.0046891100519529886 0.0093482885103704887 0 0.0051001127939484733 0.0092157925012372466 0 0.0047637261584536957 0.0092186799661998654 0 0.005250552980278279 0.0097446790942736887 0 0.0052770805085295093 0.0097570444704558595 0 0.0052325170791612825 0.0095947904649461551 0 0.0051224708127678951 0.0092819679670948785 0 0.0050068001521332605 0.00947233514299416 0 0.0051564447703280258 0.0092379446637975704 0 0.0052770805085295093 0.0097570444704558595 0 0.0052325170791612825 0.0095947904649461551 0 0.0051564447703280258 0.0092379446637975704 0 0.0051001127939484733 0.0092157925012372466 0 0.0047637261584536957 0.0092186799661998654 0 0.0051564447703280258 0.0092379446637975704 0 0.0051821129688466028 0.0094642503429054874 0 0.0052325170791612825 0.0095947904649461551 0 0.0052224392771174129 0.0095921344744401837 0 0.0051821129688466028 0.0094642503429054874 0 0.0052325170791612825 0.0095947904649461551 0 0.015535123051556429 0.0031233022448731609 0 0.015844206315313331 0.0027621177616130909 0 0.015501404705281926 0.0025759835173735771 0 0.015535123051556429 0.0031233022448731609 0 0.015321064024854607 0.0037645997593483034 0 0.014999742994826199 0.0027642505813024231 0 0.01499983929508205 0.0036497648059027918 0 0.015321064024854607 0.0037645997593483034 0 0.014999742994826199 0.0027642505813024231 0 0.015535123051556429 0.0031233022448731609 0 0.015321064024854607 0.0037645997593483034 0 0.015747903736978344 0.003658884725954025 0 0.015321064024854607 0.0037645997593483034 0 0.015747903736978344 0.003658884725954025 0 0.015634606984299398 0.0043922596924322503 0 0.014582361039276107 0.0049639248453585919 0 0.014807880358666871 0.0055800209514660663 0 0.015634606984299398 0.0043922596924322503 0 0.015747903736978344 0.003658884725954025 0 0.016360863519516006 0.0037067114387753218 0 0.015634606984299398 0.0043922596924322503 0 0.015576423126478143 0.0046016102647993187 0 0.015629519976470354 0.0044646044093283217 0 0.015747903736978344 0.003658884725954025 0 0.016360863519516006 0.0037067114387753218 0 0.016066542386759836 0.0031727729648673114 0 0.014582361039276107 0.0049639248453585919 0 0.014058326644231255 0.0055233894781450826 0 0.013729754924951581 0.0051181171957592631 0 0.014582361039276107 0.0049639248453585919 0 0.014807880358666871 0.0055800209514660663 0 0.014058326644231255 0.0055233894781450826 0 0.014807880358666871 0.0055800209514660663 0 0.014058326644231255 0.0055233894781450826 0 0.014083589502903933 0.0061476211779265665 0 0.016360863519516006 0.0037067114387753218 0 0.016867545519059012 0.0031752585113077629 0 0.016066542386759836 0.0031727729648673114 0 0.016867545519059012 0.0031752585113077629 0 0.016066542386759836 0.0031727729648673114 0 0.016391241925069168 0.0027033676300575959 0 0.015576423126478143 0.0046016102647993187 0 0.014993365110147976 0.0043044021823143014 0 0.014993365110147976 0.0043044021823143014 0 0.016146912878826563 0.002591807418001009 0 0.016202113394950635 0.0025508658508562798 0 0.016183613136640528 0.0023727053118738433 0 0.016015980256990074 0.0023485758234369418 0 0.015535123051556429 0.0031233022448731609 0 0.015747903736978344 0.003658884725954025 0 0.016066542386759836 0.0031727729648673114 0 0.016066542386759836 0.0031727729648673114 0 0.015844206315313331 0.0027621177616130909 0 0.016391241925069168 0.0027033676300575959 0 0.015535123051556429 0.0031233022448731609 0 0.016066542386759836 0.0031727729648673114 0 0.015844206315313331 0.0027621177616130909 0 0.015844206315313331 0.0027621177616130909 0 0.015863634996480511 0.0022299616049600338 0 0.015501404705281926 0.0025759835173735771 0 0.015844206315313331 0.0027621177616130909 0 0.015863634996480511 0.0022299616049600338 0 0.016391241925069168 0.0027033676300575959 0 0.015909483759924008 0.0022690585456487723 0 0.016146912878826563 0.002591807418001009 0 0.015863634996480511 0.0022299616049600338 0 0.016015980256990074 0.0023485758234369418 0 0.016007383845352132 0.0020872103337425062 0 0.016183613136640528 0.0023727053118738433 0 0.016164277546808728 0.0021891631922888663 0 0.016401807532196507 0.0023501986061965916 0 0.016183613136640528 0.0023727053118738433 0 0.016015980256990074 0.0023485758234369418 0 0.016164277546808728 0.0021891631922888663 0 0.016015980256990074 0.0023485758234369418 0 0.016164277546808728 0.0021891631922888663 0 0.016007383845352132 0.0020872103337425062 0 0.016164277546808728 0.0021891631922888663 0 0.01620703906083831 0.0018919462234192243 0 0.016465713882979571 0.0019863971732247757 0 0.016164277546808728 0.0021891631922888663 0 0.01620703906083831 0.0018919462234192243 0 0.016007383845352132 0.0020872103337425062 0 0.01620703906083831 0.0018919462234192243 0 0.016007383845352132 0.0020872103337425062 0 0.015995684228916781 0.0017667125382301665 0 0.01620703906083831 0.0018919462234192243 0 0.015995684228916781 0.0017667125382301665 0 0.016142847245305 0.0014854863650316343 0 0.01620703906083831 0.0018919462234192243 0 0.016142847245305 0.0014854863650316343 0 0.016398124048465908 0.0016174381256082589 0 0.015863634996480511 0.0022299616049600338 0 0.015772936387434388 0.0018640631100660769 0 0.015409917700201638 0.0020219439177995048 0 0.015863634996480511 0.0022299616049600338 0 0.016007383845352132 0.0020872103337425062 0 0.015772936387434388 0.0018640631100660769 0 0.015995684228916781 0.0017667125382301665 0 0.015772936387434388 0.0018640631100660769 0 0.015845524596889253 0.0014712660245402396 0 0.016007383845352132 0.0020872103337425062 0 0.015995684228916781 0.0017667125382301665 0 0.015772936387434388 0.0018640631100660769 0 0.015772936387434388 0.0018640631100660769 0 0.015409917700201638 0.0020219439177995048 0 0.015579878429512176 0.0015685007898906158 0 0.015863634996480511 0.0022299616049600338 0 0.015409917700201638 0.0020219439177995048 0 0.015501404705281926 0.0025759835173735771 0 0.015535123051556429 0.0031233022448731609 0 0.015501404705281926 0.0025759835173735771 0 0.014999742994826199 0.0027642505813024231 0 0.015409917700201638 0.0020219439177995048 0 0.015501404705281926 0.0025759835173735771 0 0.014999742994826199 0.0027642505813024231 0 0.015409917700201638 0.0020219439177995048 0 0.014999742994826199 0.0027642505813024231 0 0.014999880059093283 0.0018791374638157977 0 0.014999880059093283 0.0018791374638157977 0 0.015304977101487066 0.001271012105973643 0 0.014999816414752117 0.00099400638866927902 0 0.015409917700201638 0.0020219439177995048 0 0.014999880059093283 0.0018791374638157977 0 0.015304977101487066 0.001271012105973643 0 0.015579878429512176 0.0015685007898906158 0 0.015304977101487066 0.001271012105973643 0 0.015679383590490769 0.0010853385466488969 0 0.015409917700201638 0.0020219439177995048 0 0.015579878429512176 0.0015685007898906158 0 0.015304977101487066 0.001271012105973643 0 0.015304977101487066 0.001271012105973643 0 0.015482716242237965 0.000783860495526271 0 0.015679383590490769 0.0010853385466488969 0 0.015304977101487066 0.001271012105973643 0 0.01526256501423523 0.00055104879256201965 0 0.015482716242237965 0.000783860495526271 0 0.015304977101487066 0.001271012105973643 0 0.014999816414752117 0.00099400638866927902 0 0.01526256501423523 0.00055104879256201965 0 0.014999816414752117 0.00099400638866927902 0 0.01526256501423523 0.00055104879256201965 0 0.014999893276226844 0.00010947631158863077 0 0.01526256501423523 0.00055104879256201965 0 0.015482716242237965 0.000783860495526271 0 0.015471895117108982 0.00035770258725807171 0 0.015390106040261182 4.3220225733247412e-05 0 0.01526256501423523 0.00055104879256201965 0 0.015471895117108982 0.00035770258725807171 0 0.015390106040261182 4.3220225733247412e-05 0 0.015471895117108982 0.00035770258725807171 0 0.015635816882323964 5.0461644385915494e-05 0 0.015622637283184602 5.0867709756945971e-05 0 0.01499994730692669 0.00010921131714027165 0 0.015390106040261182 4.3220225733247412e-05 0 0.01526256501423523 0.00055104879256201965 0 0.014999893276226844 0.00010947631158863077 0 0.016024978859055704 -0.00020727773918969707 0 0.015635816882323964 5.0461644385915494e-05 0 0.01601363408434564 0.00037551068669673942 0 0.016024978859055704 -0.00020727773918969707 0 0.015809395811461669 -0.00037115617764472828 0 0.015635816882323964 5.0461644385915494e-05 0 0.015522884767356507 -0.00050394487582293543 0 0.015809395811461669 -0.00037115617764472828 0 0.015635816882323964 5.0461644385915494e-05 0 0.015620913384095346 -6.7108691190331284e-05 0 0.015390106040261182 4.3220225733247412e-05 0 0.015635816882323964 5.0461644385915494e-05 0 0.015014547284361598 -0.0012715721974900214 0 0.01552896798632189 0.00023651512176070687 0 0.015635816882323964 5.0461644385915494e-05 0 0.015685216856579552 0.00057762603650176193 0 0.01601363408434564 0.00037551068669673942 0 0.015471895117108982 0.00035770258725807171 0 0.015635816882323964 5.0461644385915494e-05 0 0.015685216856579552 0.00057762603650176193 0 0.015482716242237965 0.000783860495526271 0 0.015471895117108982 0.00035770258725807171 0 0.015685216856579552 0.00057762603650176193 0 0.015685216856579552 0.00057762603650176193 0 0.01601363408434564 0.00037551068669673942 0 0.015891805235399771 0.00079836307269357497 0 0.01601363408434564 0.00037551068669673942 0 0.016133249367386353 0.00078442393188169141 0 0.015891805235399771 0.00079836307269357497 0 0.016133249367386353 0.00078442393188169141 0 0.016002725003721369 0.0011403303484657768 0 0.016420678335243095 0.0010693976667277517 0 0.016133249367386353 0.00078442393188169141 0 0.015891805235399771 0.00079836307269357497 0 0.016002725003721369 0.0011403303484657768 0 0.015482716242237965 0.000783860495526271 0 0.015685216856579552 0.00057762603650176193 0 0.015679383590490769 0.0010853385466488969 0 0.015685216856579552 0.00057762603650176193 0 0.015891805235399771 0.00079836307269357497 0 0.015679383590490769 0.0010853385466488969 0 0.015891805235399771 0.00079836307269357497 0 0.016002725003721369 0.0011403303484657768 0 0.015679383590490769 0.0010853385466488969 0 0.016002725003721369 0.0011403303484657768 0 0.015679383590490769 0.0010853385466488969 0 0.015845524596889253 0.0014712660245402396 0 0.015579878429512176 0.0015685007898906158 0 0.015679383590490769 0.0010853385466488969 0 0.015845524596889253 0.0014712660245402396 0 0.015772936387434388 0.0018640631100660769 0 0.015579878429512176 0.0015685007898906158 0 0.015845524596889253 0.0014712660245402396 0 0.016002725003721369 0.0011403303484657768 0 0.016142847245305 0.0014854863650316343 0 0.016420678335243095 0.0010693976667277517 0 0.016002725003721369 0.0011403303484657768 0 0.015845524596889253 0.0014712660245402396 0 0.016142847245305 0.0014854863650316343 0 0.015995684228916781 0.0017667125382301665 0 0.015845524596889253 0.0014712660245402396 0 0.016142847245305 0.0014854863650316343 0 0.016142847245305 0.0014854863650316343 0 0.016398124048465908 0.0016174381256082589 0 0.016420678335243095 0.0010693976667277517 0 0.016398124048465908 0.0016174381256082589 0 0.016760042385726159 0.0015988287216456083 0 0.016420678335243095 0.0010693976667277517 0 0.017024300743587861 0.0012143555524487038 0 0.016760042385726159 0.0015988287216456083 0 0.017161549592518376 0.0017462274947384162 0 0.01692706345328945 0.00099635581318809367 0 0.015291744241395391 0.0024705314582122071 0 0.017024300743587861 0.0012143555524487038 0 0.016760042385726159 0.0015988287216456083 0 0.016420678335243095 0.0010693976667277517 0 0.017024300743587861 0.0012143555524487038 0 0.016795557949112531 0.00059439752522409261 0 0.016420678335243095 0.0010693976667277517 0 0.016862845477387887 0.00094410232754337322 0 0.016795557949112531 0.00059439752522409261 0 0.017127359000615412 0.00055027628894432727 0 0.01692706345328945 0.00099635581318809367 0 0.016824002705702584 0.0006810587152592068 0 0.016795557949112531 0.00059439752522409261 0 0.016420678335243095 0.0010693976667277517 0 0.016383725733360766 0.00052392086259729501 0 0.016133249367386353 0.00078442393188169141 0 0.016420678335243095 0.0010693976667277517 0 0.016383725733360766 0.00052392086259729501 0 0.01601363408434564 0.00037551068669673942 0 0.016383725733360766 0.00052392086259729501 0 0.01644705944324043 -7.7586187454610332e-05 0 0.01601363408434564 0.00037551068669673942 0 0.016133249367386353 0.00078442393188169141 0 0.016383725733360766 0.00052392086259729501 0 0.016795557949112531 0.00059439752522409261 0 0.016383725733360766 0.00052392086259729501 0 0.01644705944324043 -7.7586187454610332e-05 0 0.016795557949112531 0.00059439752522409261 0 0.01644705944324043 -7.7586187454610332e-05 0 0.017115474393379997 -4.5858164787570776e-05 0 0.016486853339052112 -0.00077582991069947667 0 0.01644705944324043 -7.7586187454610332e-05 0 0.016973263015613565 -0.00055507209369248887 0 0.016235790487545195 -0.00011476405486489536 0 0.017585865448495931 -0.00010224557101902524 0 0.016024978859055704 -0.00020727773918969707 0 0.016486853339052112 -0.00077582991069947667 0 0.01644705944324043 -7.7586187454610332e-05 0 0.016024978859055704 -0.00020727773918969707 0 0.01601363408434564 0.00037551068669673942 0 0.01644705944324043 -7.7586187454610332e-05 0 0.017546525206240851 -0.0013700285061085341 0 0.01865200308077861 -0.00071233149864510217 0 0.016973263015613565 -0.00055507209369248887 0 0.017590346665473575 -0.00010713336815485349 0 0.017115474393379997 -4.5858164787570776e-05 0 0.017441346960214953 0.00034721010874506149 0 0.015370107774441109 -0.0028573253215096982 0 0.017585865448495931 -0.00010224557101902524 0 0.016825023134259865 -0.0013372680120208391 0 0.016486853339052112 -0.00077582991069947667 0 0.016973263015613565 -0.00055507209369248887 0 0.016825023134259865 -0.0013372680120208391 0 0.017546525206240851 -0.0013700285061085341 0 0.016973263015613565 -0.00055507209369248887 0 0.016795557949112531 0.00059439752522409261 0 0.017115474393379997 -4.5858164787570776e-05 0 0.017127359000615412 0.00055027628894432727 0 0.017115474393379997 -4.5858164787570776e-05 0 0.017441346960214953 0.00034721010874506149 0 0.017127359000615412 0.00055027628894432727 0 0.017441346960214953 0.00034721010874506149 0 0.017429849165023027 0.00084476797383686245 0 0.017127359000615412 0.00055027628894432727 0 0.017441346960214953 0.00034721010874506149 0 0.017429849165023027 0.00084476797383686245 0 0.017874727864826079 0.00034591153668684461 0 0.016862845477387887 0.00094410232754337322 0 0.017429849165023027 0.00084476797383686245 0 0.017127359000615412 0.00055027628894432727 0 0.012890946379315611 0.0034320085140091255 0 0.012830710441040588 0.0033208169786722122 0 0.01282818679988988 0.0033192393299134276 0 0.015331306035905367 0.0021860074301202192 0 0.015291744241395391 0.0024705314582122071 0 0.016862845477387887 0.00094410232754337322 0 0.017429849165023027 0.00084476797383686245 0 0.016952219941408022 0.0013391073619417749 0 0.012890946379315611 0.0034320085140091255 0 0.012830710441040588 0.0033208169786722122 0 0.012855441703057057 0.0033162182786895052 0 0.012830710441040588 0.0033208169786722122 0 0.012887948870207017 0.0033767286442474838 0 0.012855441703057057 0.0033162182786895052 0 0.012830710441040588 0.0033208169786722122 0 0.012887948870207017 0.0033767286442474838 0 0.012679334228436895 0.0033837617559327607 0 0.014546773985693401 0.0031461448263197557 0 0.014524910891881671 0.0030073782917436885 0 0.014482692113911547 0.0031438142914524516 0 0.013477871699551745 0.00327879933066516 0 0.015291744241395391 0.0024705314582122071 0 0.012830710441040588 0.0033208169786722122 0 0.012679334228436895 0.0033837617559327607 0 0.01282818679988988 0.0033192393299134276 0 0.016760042385726159 0.0015988287216456083 0 0.017161549592518376 0.0017462274947384162 0 0.016812514116467742 0.0020857764286877061 0 0.015291744241395391 0.0024705314582122071 0 0.015753507241277578 0.0024601784180798519 0 0.016760042385726159 0.0015988287216456083 0 0.016465713882979571 0.0019863971732247757 0 0.016812514116467742 0.0020857764286877061 0 0.01620703906083831 0.0018919462234192243 0 0.016398124048465908 0.0016174381256082589 0 0.016465713882979571 0.0019863971732247757 0 0.016398124048465908 0.0016174381256082589 0 0.016760042385726159 0.0015988287216456083 0 0.016465713882979571 0.0019863971732247757 0 0.016164277546808728 0.0021891631922888663 0 0.016465713882979571 0.0019863971732247757 0 0.01649393585830411 0.0023907654851430368 0 0.016465713882979571 0.0019863971732247757 0 0.01649393585830411 0.0023907654851430368 0 0.016812514116467742 0.0020857764286877061 0 0.014985953492416203 0.0031348024480289363 0 0.015753507241277578 0.0024601784180798519 0 0.016404772329561963 0.0024057961090568295 0 0.014985953492416203 0.0031348024480289363 0 0.014524910891881671 0.0030073782917436885 0 0.014453173097201932 0.003080674866695787 0 0.014482692113911547 0.0031438142914524516 0 0.01438859296464742 0.003151128131034033 0 0.014453173097201932 0.003080674866695787 0 0.014482692113911547 0.0031438142914524516 0 0.014546773985693401 0.0031461448263197557 0 0.014482692113911547 0.0031438142914524516 0 0.014478839335116954 0.0032138402772355114 0 0.014985953492416203 0.0031348024480289363 0 0.013799549268951416 0.0042349096150394241 0 0.01438859296464742 0.003151128131034033 0 0.014482692113911547 0.0031438142914524516 0 0.014478839335116954 0.0032138402772355114 0 0.013264086945546552 0.0051308681096457493 0 0.013206363508180311 0.0051162250641416272 0 0.013234544119516059 0.0051060754060192936 0 0.013206363508180311 0.0051162250641416272 0 0.013234544119516059 0.0051060754060192936 0 0.013189914526413481 0.0051018557671361382 0 0.013293724901710411 0.0051040530756806335 0 0.013264086945546552 0.0051308681096457493 0 0.013234544119516059 0.0051060754060192936 0 0.016202113394950635 0.0025508658508562798 0 0.016183613136640528 0.0023727053118738433 0 0.016401807532196507 0.0023501986061965916 0 0.014993365110147976 0.0043044021823143014 0 0.014985953492416203 0.0031348024480289363 0 0.013293724901710411 0.0051040530756806335 0 0.013234544119516059 0.0051060754060192936 0 0.013214195718784363 0.0050847225242257928 0 0.014058326644231255 0.0055233894781450826 0 0.014083589502903933 0.0061476211779265665 0 0.013265821981716556 0.0052338541061891968 0 0.014993365110147976 0.0043044021823143014 0 0.013070213509418066 0.0053571837147241381 0 0.014058326644231255 0.0055233894781450826 0 0.013265821981716556 0.0052338541061891968 0 0.013729754924951581 0.0051181171957592631 0 0.013234544119516059 0.0051060754060192936 0 0.013214195718784363 0.0050847225242257928 0 0.013189914526413481 0.0051018557671361382 0 0.013214195718784363 0.0050847225242257928 0 0.013178014258738225 0.0050986503556933417 0 0.013189914526413481 0.0051018557671361382 0 0.013178014258738225 0.0050986503556933417 0 0.013189914526413481 0.0051018557671361382 0 0.013170724444062457 0.0051029541512025295 0 0.013178014258738225 0.0050986503556933417 0 0.013170724444062457 0.0051029541512025295 0 0.01316136258574759 0.005101577387785456 0 0.013386900072300518 0.0040529488278837171 0 0.012873399121756479 0.0044170573432925752 0 0.012535680923449838 0.0038091688829537318 0 0.013001194193318202 0.0037673151865747754 0 0.013116638529243434 0.0044906554152769644 0 0.012822673814042503 0.0044072499527418076 0 0.013116638529243434 0.0044906554152769644 0 0.012878078808103802 0.0046186419796264465 0 0.013386900072300518 0.0040529488278837171 0 0.013077724181076687 0.0049462323764578979 0 0.012887948870207017 0.0033767286442474838 0 0.012679334228436895 0.0033837617559327607 0 0.012535680923449838 0.0038091688829537318 0 0.012887948870207017 0.0033767286442474838 0 0.012535680923449838 0.0038091688829537318 0 0.013001194193318202 0.0037673151865747754 0 0.013206363508180311 0.0051162250641416272 0 0.013189914526413481 0.0051018557671361382 0 0.013170724444062457 0.0051029541512025295 0 0.013799549268951416 0.0042349096150394241 0 0.013386900072300518 0.0040529488278837171 0 0.014546773985693401 0.0031461448263197557 0 0.014478839335116954 0.0032138402772355114 0 0.014564920554570489 0.0032791344437798952 0 0.013477871699551745 0.00327879933066516 0 0.013386900072300518 0.0040529488278837171 0 0.013141528940354386 0.0031670408246790693 0 0.013454265262702932 0.0030502978340647474 0 0.01317099887711117 0.0032226653004191514 0 0.013798984769527747 0.0040231194687902743 0 0.014493114483678307 0.0036974457648704002 0 0.01317099887711117 0.0032226653004191514 0 0.013286631745776611 0.0040486178529015706 0 0.013798984769527747 0.0040231194687902743 0 0.01317099887711117 0.0032226653004191514 0 0.013001194193318202 0.0037673151865747754 0 0.013286631745776611 0.0040486178529015706 0 0.012887948870207017 0.0033767286442474838 0 0.01317099887711117 0.0032226653004191514 0 0.013001194193318202 0.0037673151865747754 0 0.013116638529243434 0.0044906554152769644 0 0.013286631745776611 0.0040486178529015706 0 0.013573061792060703 0.0047029631898334 0 0.013001194193318202 0.0037673151865747754 0 0.013116638529243434 0.0044906554152769644 0 0.013286631745776611 0.0040486178529015706 0 0.013798984769527747 0.0040231194687902743 0 0.014480141313225619 0.0043267823257520273 0 0.013573061792060703 0.0047029631898334 0 0.013286631745776611 0.0040486178529015706 0 0.013798984769527747 0.0040231194687902743 0 0.013573061792060703 0.0047029631898334 0 0.014565607979742547 0.0046514197762074 0 0.013461631473226781 0.004721204744372879 0 0.013798984769527747 0.0040231194687902743 0 0.014480141313225619 0.0043267823257520273 0 0.014493114483678307 0.0036974457648704002 0 0.013454265262702932 0.0030502978340647474 0 0.013025389323151042 0.0033899326021746218 0 0.014480141313225619 0.0043267823257520273 0 0.014493114483678307 0.0036974457648704002 0 0.015389045711979899 0.0040451645048190637 0 0.013993319202124812 0.0048683577726981054 0 0.014248408946293596 0.0049391244639148246 0 0.014120519506083578 0.0050128918125028959 0 0.013993319202124812 0.0048683577726981054 0 0.014274222152388437 0.0048502785369998278 0 0.014248408946293596 0.0049391244639148246 0 0.014565607979742547 0.0046514197762074 0 0.013025389323151042 0.0033899326021746218 0 0.011802342036521873 0.0025108876346807028 0 0.012310966416449364 0.0024057781761841132 0 0.012121326131248439 0.0028760315541024135 0 0.011802342036521873 0.0025108876346807028 0 0.012310966416449364 0.0024057781761841132 0 0.011524414679786888 0.002092608426316137 0 0.011802342036521873 0.0025108876346807028 0 0.011683653127882243 0.0027770133454913348 0 0.012121326131248439 0.0028760315541024135 0 0.01317099887711117 0.0032226653004191514 0 0.012310966416449364 0.0024057781761841132 0 0.012629126945163483 0.0030385385101212949 0 0.012310966416449364 0.0024057781761841132 0 0.012629126945163483 0.0030385385101212949 0 0.012121326131248439 0.0028760315541024135 0 0.012629126945163483 0.0030385385101212949 0 0.012422277278592108 0.0031856596045790756 0 0.012121326131248439 0.0028760315541024135 0 0.012422277278592108 0.0031856596045790756 0 0.012121326131248439 0.0028760315541024135 0 0.011877995097592148 0.003125822218377242 0 0.011683653127882243 0.0027770133454913348 0 0.012121326131248439 0.0028760315541024135 0 0.011877995097592148 0.003125822218377242 0 0.011877995097592148 0.003125822218377242 0 0.01217710918206876 0.003417460208238935 0 0.011547446377193682 0.0034570839817826137 0 0.012422277278592108 0.0031856596045790756 0 0.011877995097592148 0.003125822218377242 0 0.01217710918206876 0.003417460208238935 0 0.012422277278592108 0.0031856596045790756 0 0.012663102681170747 0.0033587816007367931 0 0.01217710918206876 0.003417460208238935 0 0.012422277278592108 0.0031856596045790756 0 0.012663102681170747 0.0033587816007367931 0 0.012905688914713758 0.00322829979480346 0 0.012663102681170747 0.0033587816007367931 0 0.012905688914713758 0.00322829979480346 0 0.012855441703057057 0.0033162182786895052 0 0.012663102681170747 0.0033587816007367931 0 0.012855441703057057 0.0033162182786895052 0 0.012752323301331322 0.0034510244182052721 0 0.012629126945163483 0.0030385385101212949 0 0.012422277278592108 0.0031856596045790756 0 0.012905688914713758 0.00322829979480346 0 0.01317099887711117 0.0032226653004191514 0 0.012629126945163483 0.0030385385101212949 0 0.012905688914713758 0.00322829979480346 0 0.012887948870207017 0.0033767286442474838 0 0.01317099887711117 0.0032226653004191514 0 0.012905688914713758 0.00322829979480346 0 0.012887948870207017 0.0033767286442474838 0 0.012905688914713758 0.00322829979480346 0 0.012855441703057057 0.0033162182786895052 0 0.012890946379315611 0.0034320085140091255 0 0.012855441703057057 0.0033162182786895052 0 0.012752323301331322 0.0034510244182052721 0 0.012752323301331322 0.0034510244182052721 0 0.012689156989762463 0.0035709649097610801 0 0.012516637230321348 0.0035538194022531819 0 0.012663102681170747 0.0033587816007367931 0 0.012752323301331322 0.0034510244182052721 0 0.012516637230321348 0.0035538194022531819 0 0.012682684460696887 0.0038739399911060799 0 0.012355217005927954 0.0038788489402169402 0 0.012516637230321348 0.0035538194022531819 0 0.012841328036608457 0.0039086534755958116 0 0.012489830979708764 0.0034893864556487246 0 0.012841328036608457 0.0039086534755958116 0 0.013823924522445824 0.0013695806510296016 0 0.012682684460696887 0.0038739399911060799 0 0.012545595193087034 0.0041059551545210606 0 0.012355217005927954 0.0038788489402169402 0 0.012890946379315611 0.0034320085140091255 0 0.012752323301331322 0.0034510244182052721 0 0.012689156989762463 0.0035709649097610801 0 0.012890946379315611 0.0034320085140091255 0 0.012689156989762463 0.0035709649097610801 0 0.012761178599540445 0.0036285029628308828 0 0.015331306035905367 0.0021860074301202192 0 0.013823924522445824 0.0013695806510296016 0 0.017590346665473575 -0.00010713336815485349 0 0.017441346960214953 0.00034721010874506149 0 0.017874727864826079 0.00034591153668684461 0 0.013255654790959442 -0.0023933516714921251 0 0.012846763359574782 -0.0029365759505622676 0 0.012662068620721525 -0.0027265024901784868 0 0.012682684460696887 0.0038739399911060799 0 0.012887464493431439 0.004157899996789908 0 0.012545595193087034 0.0041059551545210606 0 0.012887464493431439 0.004157899996789908 0 0.012545595193087034 0.0041059551545210606 0 0.012717831700151592 0.0043259397240125582 0 0.012846763359574782 -0.0029365759505622676 0 0.01261973353563774 -0.0027318435146764849 0 0.012662068620721525 -0.0027265024901784868 0 0.013823924522445824 0.0013695806510296016 0 0.011218025782085249 -0.001642396344245339 0 0.011218025782085249 -0.001642396344245339 0 0.011324276957446401 -0.001654997081229771 0 0.010427940458288532 -0.0047981190344758432 0 0.011218025782085249 -0.001642396344245339 0 0.012618432208960374 -0.0027338199341136547 0 0.012662068620721525 -0.0027265024901784868 0 0.012631772331092339 -0.0022879710375748727 0 0.012003542607958292 -0.0022012924154839061 0 0.012618432208960374 -0.0027338199341136547 0 0.012631772331092339 -0.0022879710375748727 0 0.012479255271358337 -0.0074187870906317725 0 0.012801925787497876 -0.0077875817028976091 0 0.011997441307308527 -0.0076372552486808709 0 0.015370107774441109 -0.0028573253215096982 0 0.013823924522445824 0.0013695806510296016 0 0.013255654790959442 -0.0023933516714921251 0 0.012662068620721525 -0.0027265024901784868 0 0.012631772331092339 -0.0022879710375748727 0 0.015370107774441109 -0.0028573253215096982 0 0.012155159394719757 -0.0050840465734279736 0 0.0088667519137979062 -0.0045812433387640607 0 0.0088607410996172104 -0.0044033271326911917 0 0.0090787109794022991 -0.0045621977989391323 0 0.0088962642349035403 -0.0047858944109401688 0 0.0088667519137979062 -0.0045812433387640607 0 0.0090787109794022991 -0.0045621977989391323 0 0.0087698995717275501 -0.004695655218923611 0 0.0085946292416363545 -0.0044303341415583841 0 0.0088667519137979062 -0.0045812433387640607 0 0.0085946292416363545 -0.0044303341415583841 0 0.0088667519137979062 -0.0045812433387640607 0 0.0088607410996172104 -0.0044033271326911917 0 0.012545595193087034 0.0041059551545210606 0 0.012049136207686535 0.0043069880772086582 0 0.012355217005927954 0.0038788489402169402 0 0.012545595193087034 0.0041059551545210606 0 0.012717831700151592 0.0043259397240125582 0 0.012049136207686535 0.0043069880772086582 0 0.011218025782085249 -0.001642396344245339 0 0.01034495663803636 0.00015449499633212013 0 0.01034495663803636 0.00015449499633212013 0 0.010229928153726921 -8.4930048844956727e-05 0 0.012049136207686535 0.0043069880772086582 0 0.011999547702700057 0.0037827930895210854 0 0.011509142695672535 0.0038229353721888648 0 0.012049136207686535 0.0043069880772086582 0 0.011999547702700057 0.0037827930895210854 0 0.012355217005927954 0.0038788489402169402 0 0.011999547702700057 0.0037827930895210854 0 0.012355217005927954 0.0038788489402169402 0 0.012516637230321348 0.0035538194022531819 0 0.012663102681170747 0.0033587816007367931 0 0.01217710918206876 0.003417460208238935 0 0.012516637230321348 0.0035538194022531819 0 0.011999547702700057 0.0037827930895210854 0 0.01217710918206876 0.003417460208238935 0 0.012516637230321348 0.0035538194022531819 0 0.011999547702700057 0.0037827930895210854 0 0.011547446377193682 0.0034570839817826137 0 0.011509142695672535 0.0038229353721888648 0 0.011999547702700057 0.0037827930895210854 0 0.01217710918206876 0.003417460208238935 0 0.011547446377193682 0.0034570839817826137 0 0.011547446377193682 0.0034570839817826137 0 0.010989512302389023 0.0036774680361688363 0 0.011509142695672535 0.0038229353721888648 0 0.010989512302389023 0.0036774680361688363 0 0.010261191913556626 0.0034425931914750492 0 0.010827142422092859 0.0031785708111732296 0 0.011547446377193682 0.0034570839817826137 0 0.010989512302389023 0.0036774680361688363 0 0.010827142422092859 0.0031785708111732296 0 0.010989512302389023 0.0036774680361688363 0 0.011246412173024732 0.0042310238504632341 0 0.010384421117057027 0.0040158069588998252 0 0.010989512302389023 0.0036774680361688363 0 0.011509142695672535 0.0038229353721888648 0 0.011246412173024732 0.0042310238504632341 0 0.012049136207686535 0.0043069880772086582 0 0.011509142695672535 0.0038229353721888648 0 0.011246412173024732 0.0042310238504632341 0 0.0088607410996172104 -0.0044033271326911917 0 0.0091688299166866778 -0.0043456492305430257 0 0.0090787109794022991 -0.0045621977989391323 0 0.0091688299166866778 -0.0043456492305430257 0 0.0093236183782763465 -0.0044639190854584123 0 0.0093530940215042387 -0.0042248481636696939 0 0.010229928153726921 -8.4930048844956727e-05 0 0.0098786511295656 -9.8122971835782686e-05 0 0.0093463643851727125 -0.0048028038140601375 0 0.0093236183782763465 -0.0044639190854584123 0 0.0090787109794022991 -0.0045621977989391323 0 0.0091688299166866778 -0.0043456492305430257 0 0.0093236183782763465 -0.0044639190854584123 0 0.0090787109794022991 -0.0045621977989391323 0 0.0094808029156018062 -0.0043317177046033606 0 0.0095374201758303204 -0.004553888105000823 0 0.0094453406167698262 -0.0046412031335275501 0 0.0094808029156018062 -0.0043317177046033606 0 0.0094453406167698262 -0.0046412031335275501 0 0.0094110423889712108 -0.0041867108590181558 0 0.0093236183782763465 -0.0044639190854584123 0 0.0094453406167698262 -0.0046412031335275501 0 0.0094110423889712108 -0.0041867108590181558 0 0.0093463643851727125 -0.0048028038140601375 0 0.0093236183782763465 -0.0044639190854584123 0 0.0094453406167698262 -0.0046412031335275501 0 0.0093236183782763465 -0.0044639190854584123 0 0.0093530940215042387 -0.0042248481636696939 0 0.0094110423889712108 -0.0041867108590181558 0 0.0095700473623237543 -2.8126259796885242e-05 0 0.0098786511295656 -9.8122971835782686e-05 0 0.0094619936582027338 -0.0037820438659167807 0 0.0093530940215042387 -0.0042248481636696939 0 0.0094110423889712108 -0.0041867108590181558 0 0.0095648638129201512 0.0036289925253973712 0 0.010261191913556626 0.0034425931914750492 0 0.0097268206219696812 0.0032844415301456521 0 0.0095648638129201512 0.0036289925253973712 0 0.010384421117057027 0.0040158069588998252 0 0.010261191913556626 0.0034425931914750492 0 0.010989512302389023 0.0036774680361688363 0 0.010384421117057027 0.0040158069588998252 0 0.010261191913556626 0.0034425931914750492 0 0.010261191913556626 0.0034425931914750492 0 0.010354935307536188 0.0031359489090918491 0 0.010827142422092859 0.0031785708111732296 0 0.010261191913556626 0.0034425931914750492 0 0.0099761023966423341 0.0030931568018007852 0 0.010354935307536188 0.0031359489090918491 0 0.010261191913556626 0.0034425931914750492 0 0.0097268206219696812 0.0032844415301456521 0 0.0099761023966423341 0.0030931568018007852 0 0.0095867593561619786 0.0029974870511526109 0 0.0097271778208764242 0.0031147458370680619 0 0.0099761023966423341 0.0030931568018007852 0 0.0097268206219696812 0.0032844415301456521 0 0.0097271778208764242 0.0031147458370680619 0 0.0099761023966423341 0.0030931568018007852 0 0.0099761023966423341 0.0030931568018007852 0 0.0098214069768994324 0.0027890408302488731 0 0.010357052389886599 0.0028377163157257391 0 0.0095867593561619786 0.0029974870511526109 0 0.0099761023966423341 0.0030931568018007852 0 0.0098214069768994324 0.0027890408302488731 0 0.0098214069768994324 0.0027890408302488731 0 0.010357052389886599 0.0028377163157257391 0 0.010113003419602017 0.0023598892344042807 0 0.009703096067067719 0.0025341940856312634 0 0.0098214069768994324 0.0027890408302488731 0 0.010113003419602017 0.0023598892344042807 0 0.010357052389886599 0.0028377163157257391 0 0.010917852935669568 0.0026609363064136688 0 0.010113003419602017 0.0023598892344042807 0 0.0099761023966423341 0.0030931568018007852 0 0.010357052389886599 0.0028377163157257391 0 0.010354935307536188 0.0031359489090918491 0 0.010357052389886599 0.0028377163157257391 0 0.010354935307536188 0.0031359489090918491 0 0.010827142422092859 0.0031785708111732296 0 0.010827142422092859 0.0031785708111732296 0 0.011316769104336669 0.003023301701388377 0 0.010917852935669568 0.0026609363064136688 0 0.011877995097592148 0.003125822218377242 0 0.011547446377193682 0.0034570839817826137 0 0.011316769104336669 0.003023301701388377 0 0.011547446377193682 0.0034570839817826137 0 0.010827142422092859 0.0031785708111732296 0 0.011316769104336669 0.003023301701388377 0 0.011683653127882243 0.0027770133454913348 0 0.011877995097592148 0.003125822218377242 0 0.011316769104336669 0.003023301701388377 0 0.011316769104336669 0.003023301701388377 0 0.011293024092692342 0.0027353034194926374 0 0.010917852935669568 0.0026609363064136688 0 0.011683653127882243 0.0027770133454913348 0 0.011316769104336669 0.003023301701388377 0 0.011293024092692342 0.0027353034194926374 0 0.010357052389886599 0.0028377163157257391 0 0.010827142422092859 0.0031785708111732296 0 0.010917852935669568 0.0026609363064136688 0 0.010917852935669568 0.0026609363064136688 0 0.011073555329290826 0.0022705762673543455 0 0.010720246471141276 0.0024768706157768422 0 0.010917852935669568 0.0026609363064136688 0 0.011382774274369963 0.0024751121157821844 0 0.011073555329290826 0.0022705762673543455 0 0.01074243295133764 0.0025002966010623535 0 0.010821857061590395 0.002438810494888562 0 0.011293024092692342 0.0027353034194926374 0 0.010917852935669568 0.0026609363064136688 0 0.011382774274369963 0.0024751121157821844 0 0.011683653127882243 0.0027770133454913348 0 0.011293024092692342 0.0027353034194926374 0 0.011382774274369963 0.0024751121157821844 0 0.011802342036521873 0.0025108876346807028 0 0.011683653127882243 0.0027770133454913348 0 0.011382774274369963 0.0024751121157821844 0 0.011802342036521873 0.0025108876346807028 0 0.011382774274369963 0.0024751121157821844 0 0.011524414679786888 0.002092608426316137 0 0.014302329434346757 0.004854012760249056 0 0.014248408946293596 0.0049391244639148246 0 0.014285009365048498 0.0051065750546088222 0 0.013025389323151042 0.0033899326021746218 0 0.01219950496030082 0.003369197053609945 0 0.011382774274369963 0.0024751121157821844 0 0.011524414679786888 0.002092608426316137 0 0.011073555329290826 0.0022705762673543455 0 0.013025389323151042 0.0033899326021746218 0 0.01074243295133764 0.0025002966010623535 0 0.010906804298796733 0.0024609772994547128 0 0.010889934620181544 0.0024542753744793461 0 0.010787373035372663 0.0024839417763577428 0 0.014274222152388437 0.0048502785369998278 0 0.014302329434346757 0.004854012760249056 0 0.014248408946293596 0.0049391244639148246 0 0.010787373035372663 0.0024839417763577428 0 0.010720828301047492 0.0024188976914620666 0 0.010720246471141276 0.0024768706157768422 0 0.010889934620181544 0.0024542753744793461 0 0.010787373035372663 0.0024839417763577428 0 0.010720828301047492 0.0024188976914620666 0 0.01219950496030082 0.003369197053609945 0 0.01038822028470812 0.0023710912769532252 0 0.01061060393973726 0.0024664244274218297 0 0.010517118517160128 0.002527595600222103 0 0.010720246471141276 0.0024768706157768422 0 0.010720828301047492 0.0024188976914620666 0 0.01061060393973726 0.0024664244274218297 0 0.010515092107972777 0.0024493248075954377 0 0.010720828301047492 0.0024188976914620666 0 0.01061060393973726 0.0024664244274218297 0 0.010720246471141276 0.0024768706157768422 0 0.010517118517160128 0.002527595600222103 0 0.010415642772122136 0.0025133421117526913 0 0.010515092107972777 0.0024493248075954377 0 0.01061060393973726 0.0024664244274218297 0 0.010517118517160128 0.002527595600222103 0 0.010515092107972777 0.0024493248075954377 0 0.010314832619613608 0.0026453653305648101 0 0.010517118517160128 0.002527595600222103 0 0.010415642772122136 0.0025133421117526913 0 0.009703096067067719 0.0025341940856312634 0 0.0094670311255400236 0.0023205100712322397 0 0.010113003419602017 0.0023598892344042807 0 0.010314832619613608 0.0026453653305648101 0 0.010517118517160128 0.002527595600222103 0 0.010537136833053892 0.0026355392365191577 0 0.010123015348111433 0.0022828282358263513 0 0.010289056148227151 0.0025276499433540696 0 0.010888463867890236 0.0026439198078012311 0 0.010289056148227151 0.0025276499433540696 0 0.010517118517160128 0.002527595600222103 0 0.010537136833053892 0.0026355392365191577 0 0.010720246471141276 0.0024768706157768422 0 0.010917852935669568 0.0026609363064136688 0 0.010537136833053892 0.0026355392365191577 0 0.010720246471141276 0.0024768706157768422 0 0.010559667596052726 0.0024280272243767912 0 0.010461581887467562 0.0024080324164027478 0 0.010565569911144655 0.0023777022089356914 0 0.0074748543371572539 0.0053144696082596298 0 0.0083688039594028343 0.0066867313894878539 0 0.0057043793514443423 0.0086818408001451183 0 0.0047863552392909559 0.0084335033794652198 0 0.0046854568663678466 0.0091383842596305821 0 0.0047863552392909559 0.0084335033794652198 0 0.0041445310539483205 0.0091519693622629482 0 0.0046854568663678466 0.0091383842596305821 0 0.010285015665932129 0.0024541868574264828 0 0.010461581887467562 0.0024080324164027478 0 0.010515092107972777 0.0024493248075954377 0 0.010559667596052726 0.0024280272243767912 0 0.010461581887467562 0.0024080324164027478 0 0.010515092107972777 0.0024493248075954377 0 0.01038822028470812 0.0023710912769532252 0 0.010659446733633367 0.0025038509220025348 0 0.010643237958445319 0.0025876905869742558 0 0.010515092107972777 0.0024493248075954377 0 0.010596980119818557 0.0024815607671096153 0 0.010559667596052726 0.0024280272243767912 0 0.010515092107972777 0.0024493248075954377 0 0.010596980119818557 0.0024815607671096153 0 0.010893714510003403 0.0026860496227182492 0 0.010643237958445319 0.0025876905869742558 0 0.010704401977591422 0.0024551480806787353 0 0.010559667596052726 0.0024280272243767912 0 0.010596980119818557 0.0024815607671096153 0 0.010704401977591422 0.0024551480806787353 0 0.010643237958445319 0.0025876905869742558 0 0.010596980119818557 0.0024815607671096153 0 0.010704401977591422 0.0024551480806787353 0 0.014464554518382459 0.0052473505816682132 0 0.014285009365048498 0.0051065750546088222 0 0.014261921063684055 0.0053417722972125183 0 0.01219950496030082 0.003369197053609945 0 0.013160461890831421 0.0036167148116379548 0 0.014302329434346757 0.004854012760249056 0 0.014464554518382459 0.0052473505816682132 0 0.014285009365048498 0.0051065750546088222 0 0.014248408946293596 0.0049391244639148246 0 0.014285009365048498 0.0051065750546088222 0 0.014223678048286989 0.0050676204612581516 0 0.014285009365048498 0.0051065750546088222 0 0.014189956001716016 0.0051703399514410097 0 0.014223678048286989 0.0050676204612581516 0 0.014285009365048498 0.0051065750546088222 0 0.014261921063684055 0.0053417722972125183 0 0.014189956001716016 0.0051703399514410097 0 0.014261921063684055 0.0053417722972125183 0 0.01436039826335061 0.0055550407176101439 0 0.014191543589545781 0.0056090529079369364 0 0.014464554518382459 0.0052473505816682132 0 0.014261921063684055 0.0053417722972125183 0 0.01436039826335061 0.0055550407176101439 0 0.010559667596052726 0.0024280272243767912 0 0.010704401977591422 0.0024551480806787353 0 0.010565569911144655 0.0023777022089356914 0 0.013160461890831421 0.0036167148116379548 0 0.0083688039594028343 0.0066867313894878539 0 0.014464554518382459 0.0052473505816682132 0 0.01436039826335061 0.0055550407176101439 0 0.014516239741563621 0.0056524409857607195 0 0.01436039826335061 0.0055550407176101439 0 0.014338860908414307 0.005853772961954498 0 0.014516239741563621 0.0056524409857607195 0 0.0096614089776658613 0.0078435570892273609 0 0.0083688039594028343 0.0066867313894878539 0 0.01436039826335061 0.0055550407176101439 0 0.014338860908414307 0.005853772961954498 0 0.014191543589545781 0.0056090529079369364 0 0.0096614089776658613 0.0078435570892273609 0 0.0092530200733458093 0.0080194527281574231 0 0.0046287604690386985 0.0096936359481176338 0 0.0047057439897077767 0.0097855590527391265 0 0.004669974768330273 0.010005692054250045 0 0.0046287604690386985 0.0096936359481176338 0 0.0047057439897077767 0.0097855590527391265 0 0.0048082168878045275 0.0095541826823861645 0 0.0047057439897077767 0.0097855590527391265 0 0.0048082168878045275 0.0095541826823861645 0 0.004710915929651051 0.0097488763024843241 0 0.0083688039594028343 0.0066867313894878539 0 0.0040206056176959066 0.010199021628558754 0 0.0041445310539483205 0.0091519693622629482 0 0.0046854568663678466 0.0091383842596305821 0 0.004710915929651051 0.0097488763024843241 0 0.0049874501989549368 0.0094900372117037619 0 0.0046854568663678466 0.0091383842596305821 0 0.004710915929651051 0.0097488763024843241 0 0.0049874501989549368 0.0094900372117037619 0 0.0049570832110514638 0.0099079699875196155 0 0.004710915929651051 0.0097488763024843241 0 0.0049570832110514638 0.0099079699875196155 0 0.004710915929651051 0.0097488763024843241 0 0.0047773745380666841 0.010007430649319233 0 0.0047057439897077767 0.0097855590527391265 0 0.004710915929651051 0.0097488763024843241 0 0.0047773745380666841 0.010007430649319233 0 0.0047057439897077767 0.0097855590527391265 0 0.0047773745380666841 0.010007430649319233 0 0.004669974768330273 0.010005692054250045 0 0.0047773745380666841 0.010007430649319233 0 0.0047691819006977993 0.010308949384802082 0 0.004669974768330273 0.010005692054250045 0 0.0049120222408006583 0.010200630879700795 0 0.0049570832110514638 0.0099079699875196155 0 0.0047773745380666841 0.010007430649319233 0 0.0049120222408006583 0.010200630879700795 0 0.0047773745380666841 0.010007430649319233 0 0.0047691819006977993 0.010308949384802082 0 0.0049120222408006583 0.010200630879700795 0 0.0049058825152374606 0.010521652859119967 0 0.0047691819006977993 0.010308949384802082 0 0.0047691819006977993 0.010308949384802082 0 0.0047067553845987035 0.010552347337773563 0 0.0050612268175980295 0.010773465013030146 0 0.0047745459822703274 0.010353316070713431 0 0.0048221634426017443 0.010789118647045582 0 0.0049058825152374606 0.010521652859119967 0 0.0047691819006977993 0.010308949384802082 0 0.0045814785618885877 0.010784168027546125 0 0.0044450068008359865 0.010527904580664799 0 0.0047067553845987035 0.010552347337773563 0 0.0045366049337043383 0.010831172658691383 0 0.0047691819006977993 0.010308949384802082 0 0.0047067553845987035 0.010552347337773563 0 0.0045795617407669263 0.010278958135560661 0 0.0044450068008359865 0.010527904580664799 0 0.0045795617407669263 0.010278958135560661 0 0.0043974328044910768 0.010226154352333728 0 0.0044450068008359865 0.010527904580664799 0 0.0047067553845987035 0.010552347337773563 0 0.0045795617407669263 0.010278958135560661 0 0.0045795617407669263 0.010278958135560661 0 0.004538895051694968 0.010022905309614265 0 0.0043974328044910768 0.010226154352333728 0 0.004538895051694968 0.010022905309614265 0 0.0044091168870079361 0.009909246742365381 0 0.0043974328044910768 0.010226154352333728 0 0.0045795617407669263 0.010278958135560661 0 0.004669974768330273 0.010005692054250045 0 0.004538895051694968 0.010022905309614265 0 0.0047691819006977993 0.010308949384802082 0 0.0045795617407669263 0.010278958135560661 0 0.004669974768330273 0.010005692054250045 0 0.0046287604690386985 0.0096936359481176338 0 0.004669974768330273 0.010005692054250045 0 0.004538895051694968 0.010022905309614265 0 0.0046287604690386985 0.0096936359481176338 0 0.004538895051694968 0.010022905309614265 0 0.0044091168870079361 0.009909246742365381 0 0.0092530200733458093 0.0080194527281574231 0 0.009194688467870523 0.0082405559231207154 0 0.01418969510956599 0.0060982252703856059 0 0.013919322279616557 0.0060655548162663062 0 0.014016480567248017 0.0064275030942129658 0 0.0044091168870079361 0.009909246742365381 0 0.0041989361777003218 0.010133022620232522 0 0.0043974328044910768 0.010226154352333728 0 0.0041989361777003218 0.010133022620232522 0 0.0043974328044910768 0.010226154352333728 0 0.004219930958017557 0.01047509304096797 0 0.0044450068008359865 0.010527904580664799 0 0.0043974328044910768 0.010226154352333728 0 0.004219930958017557 0.01047509304096797 0 0.0041989361777003218 0.010133022620232522 0 0.004219930958017557 0.01047509304096797 0 0.0041004648936978343 0.010412128762194625 0 0.004219930958017557 0.01047509304096797 0 0.0040051223281009482 0.010752003316305549 0 0.0042735517280553916 0.010839886193306983 0 0.004219930958017557 0.01047509304096797 0 0.0041004648936978343 0.010412128762194625 0 0.0040051223281009482 0.010752003316305549 0 0.0044450068008359865 0.010527904580664799 0 0.004219930958017557 0.01047509304096797 0 0.0042735517280553916 0.010839886193306983 0 0.0040262053110106067 0.010688379277496956 0 0.0040226611685933288 0.010426782194980498 0 0.0038532279444360024 0.010541735956441841 0 0.0040226611685933288 0.010426782194980498 0 0.0041004648936978343 0.010412128762194625 0 0.0040051223281009482 0.010752003316305549 0 0.0040262053110106067 0.010688379277496956 0 0.0040226611685933288 0.010426782194980498 0 0.0042705206047577949 0.010819536624014556 0 0.0040272938268045583 0.010457298135436935 0 0.00413910968973901 0.010790910093160066 0 0.0041989361777003218 0.010133022620232522 0 0.0041004648936978343 0.010412128762194625 0 0.0040355017217321423 0.010344197987275988 0 0.0040226611685933288 0.010426782194980498 0 0.0041004648936978343 0.010412128762194625 0 0.0040355017217321423 0.010344197987275988 0 0.0084648255443389702 0.0086881796187225739 0 0.011416021669605458 0.0088687370697766912 0 0.0040226611685933288 0.010426782194980498 0 0.0040355017217321423 0.010344197987275988 0 0.0038532279444360024 0.010541735956441841 0 0.013814577567536897 0.0067905188064227824 0 0.013713819109571248 0.0068331524213817727 0 0.013666781283336489 0.0069537557194701864 0 0.013814577567536897 0.0067905188064227824 0 0.013713819109571248 0.0068331524213817727 0 0.013765150220910276 0.006679873444361004 0 0.013713819109571248 0.0068331524213817727 0 0.013712178412955148 0.0066124314413589323 0 0.013684152860528069 0.0069507189020448874 0 0.013712178412955148 0.0066124314413589323 0 0.013829022941497664 0.0064750789116161632 0 0.013711836754399987 0.0062236553349260667 0 0.013712178412955148 0.0066124314413589323 0 0.013765150220910276 0.006679873444361004 0 0.013829022941497664 0.0064750789116161632 0 0.013713819109571248 0.0068331524213817727 0 0.013712178412955148 0.0066124314413589323 0 0.013765150220910276 0.006679873444361004 0 0.013814577567536897 0.0067905188064227824 0 0.013765150220910276 0.006679873444361004 0 0.013829022941497664 0.0064750789116161632 0 0.009194688467870523 0.0082405559231207154 0 0.0084648255443389702 0.0086881796187225739 0 0.014016480567248017 0.0064275030942129658 0 0.013814577567536897 0.0067905188064227824 0 0.013829022941497664 0.0064750789116161632 0 0.013919322279616557 0.0060655548162663062 0 0.014016480567248017 0.0064275030942129658 0 0.013829022941497664 0.0064750789116161632 0 0.013919322279616557 0.0060655548162663062 0 0.013829022941497664 0.0064750789116161632 0 0.013711836754399987 0.0062236553349260667 0 0.013711836754399987 0.0062236553349260667 0 0.013496012175418773 0.0060017359152249664 0 0.01359655127738537 0.0064132246374534888 0 0.013712178412955148 0.0066124314413589323 0 0.013711836754399987 0.0062236553349260667 0 0.01359655127738537 0.0064132246374534888 0 0.013697353349222041 0.0057892258010494102 0 0.013441432870165528 0.0056199177457168462 0 0.013496012175418773 0.0060017359152249664 0 0.013711836754399987 0.0062236553349260667 0 0.013697353349222041 0.0057892258010494102 0 0.013496012175418773 0.0060017359152249664 0 0.013540826860115754 0.0054979724000043043 0 0.013697353349222041 0.0057892258010494102 0 0.013441432870165528 0.0056199177457168462 0 0.013540826860115754 0.0054979724000043043 0 0.013343815210144229 0.0053221851772746699 0 0.013441432870165528 0.0056199177457168462 0 0.013540826860115754 0.0054979724000043043 0 0.013718806931916459 0.0054492772672894299 0 0.013697353349222041 0.0057892258010494102 0 0.013718806931916459 0.0054492772672894299 0 0.013697353349222041 0.0057892258010494102 0 0.013944941955130977 0.0056107334239910763 0 0.013919322279616557 0.0060655548162663062 0 0.013697353349222041 0.0057892258010494102 0 0.013944941955130977 0.0056107334239910763 0 0.013919322279616557 0.0060655548162663062 0 0.013711836754399987 0.0062236553349260667 0 0.013697353349222041 0.0057892258010494102 0 0.01418969510956599 0.0060982252703856059 0 0.013919322279616557 0.0060655548162663062 0 0.014100224888728788 0.0058569850281906186 0 0.013919322279616557 0.0060655548162663062 0 0.014100224888728788 0.0058569850281906186 0 0.013944941955130977 0.0056107334239910763 0 0.014338860908414307 0.005853772961954498 0 0.01418969510956599 0.0060982252703856059 0 0.014100224888728788 0.0058569850281906186 0 0.014338860908414307 0.005853772961954498 0 0.014100224888728788 0.0058569850281906186 0 0.014191543589545781 0.0056090529079369364 0 0.014191543589545781 0.0056090529079369364 0 0.013944941955130977 0.0056107334239910763 0 0.014087800489335436 0.0053496846560954136 0 0.014100224888728788 0.0058569850281906186 0 0.014191543589545781 0.0056090529079369364 0 0.013944941955130977 0.0056107334239910763 0 0.013718806931916459 0.0054492772672894299 0 0.013944941955130977 0.0056107334239910763 0 0.013897823902382688 0.0053012452840938487 0 0.013897823902382688 0.0053012452840938487 0 0.01397418326695127 0.0050691747610835608 0 0.013683523168386089 0.0051172710383271189 0 0.013944941955130977 0.0056107334239910763 0 0.013897823902382688 0.0053012452840938487 0 0.014087800489335436 0.0053496846560954136 0 0.013897823902382688 0.0053012452840938487 0 0.014087800489335436 0.0053496846560954136 0 0.01397418326695127 0.0050691747610835608 0 0.014261921063684055 0.0053417722972125183 0 0.014087800489335436 0.0053496846560954136 0 0.014189956001716016 0.0051703399514410097 0 0.014261921063684055 0.0053417722972125183 0 0.014191543589545781 0.0056090529079369364 0 0.014087800489335436 0.0053496846560954136 0 0.014087800489335436 0.0053496846560954136 0 0.014189956001716016 0.0051703399514410097 0 0.01397418326695127 0.0050691747610835608 0 0.014189956001716016 0.0051703399514410097 0 0.014120519506083578 0.0050128918125028959 0 0.01397418326695127 0.0050691747610835608 0 0.014189956001716016 0.0051703399514410097 0 0.014120519506083578 0.0050128918125028959 0 0.014223678048286989 0.0050676204612581516 0 0.014248408946293596 0.0049391244639148246 0 0.014120519506083578 0.0050128918125028959 0 0.014223678048286989 0.0050676204612581516 0 0.013993319202124812 0.0048683577726981054 0 0.01397418326695127 0.0050691747610835608 0 0.013573061792060703 0.0047029631898334 0 0.013993319202124812 0.0048683577726981054 0 0.014120519506083578 0.0050128918125028959 0 0.01397418326695127 0.0050691747610835608 0 0.013573061792060703 0.0047029631898334 0 0.013292017602584269 0.004984644399353047 0 0.013683523168386089 0.0051172710383271189 0 0.01397418326695127 0.0050691747610835608 0 0.013573061792060703 0.0047029631898334 0 0.013683523168386089 0.0051172710383271189 0 0.013116638529243434 0.0044906554152769644 0 0.013573061792060703 0.0047029631898334 0 0.013292017602584269 0.004984644399353047 0 0.013292017602584269 0.004984644399353047 0 0.013519641912663706 0.005280244011972776 0 0.013683523168386089 0.0051172710383271189 0 0.013292017602584269 0.004984644399353047 0 0.013519641912663706 0.005280244011972776 0 0.013343815210144229 0.0053221851772746699 0 0.013540826860115754 0.0054979724000043043 0 0.013519641912663706 0.005280244011972776 0 0.013343815210144229 0.0053221851772746699 0 0.013540826860115754 0.0054979724000043043 0 0.013718806931916459 0.0054492772672894299 0 0.013519641912663706 0.005280244011972776 0 0.013718806931916459 0.0054492772672894299 0 0.013519641912663706 0.005280244011972776 0 0.013683523168386089 0.0051172710383271189 0 0.013718806931916459 0.0054492772672894299 0 0.013897823902382688 0.0053012452840938487 0 0.013683523168386089 0.0051172710383271189 0 0.013158006623124236 0.0051128589069570829 0 0.013135167097051552 0.0050944967150385774 0 0.013235600610056641 0.005336926464842775 0 0.013158006623124236 0.0051128589069570829 0 0.013184005359113113 0.0052463187313308872 0 0.013235600610056641 0.005336926464842775 0 0.013343815210144229 0.0053221851772746699 0 0.013135167097051552 0.0050944967150385774 0 0.013235600610056641 0.005336926464842775 0 0.013292017602584269 0.004984644399353047 0 0.013343815210144229 0.0053221851772746699 0 0.013135167097051552 0.0050944967150385774 0 0.013098379850642619 0.0050223713815819616 0 0.013077724181076687 0.0049462323764578979 0 0.013116638529243434 0.0044906554152769644 0 0.013292017602584269 0.004984644399353047 0 0.012878078808103802 0.0046186419796264465 0 0.013292017602584269 0.004984644399353047 0 0.013135167097051552 0.0050944967150385774 0 0.012878078808103802 0.0046186419796264465 0 0.013178014258738225 0.0050986503556933417 0 0.013158006623124236 0.0051128589069570829 0 0.01316136258574759 0.005101577387785456 0 0.013158006623124236 0.0051128589069570829 0 0.013135167097051552 0.0050944967150385774 0 0.01316136258574759 0.005101577387785456 0 0.013070213509418066 0.0053571837147241381 0 0.013209676322847034 0.0050611587100499291 0 0.013214195718784363 0.0050847225242257928 0 0.013178014258738225 0.0050986503556933417 0 0.013158006623124236 0.0051128589069570829 0 0.013265821981716556 0.0052338541061891968 0 0.013158006623124236 0.0051128589069570829 0 0.013325494021297764 0.0050220140557661191 0 0.013265821981716556 0.0052338541061891968 0 0.013729754924951581 0.0051181171957592631 0 0.013325494021297764 0.0050220140557661191 0 0.013325494021297764 0.0050220140557661191 0 0.013342727657429689 0.004875254585131006 0 0.013781770416256727 0.0049351687557081291 0 0.013729754924951581 0.0051181171957592631 0 0.013325494021297764 0.0050220140557661191 0 0.013781770416256727 0.0049351687557081291 0 0.013325494021297764 0.0050220140557661191 0 0.013342727657429689 0.004875254585131006 0 0.013199213460015055 0.0050878363931292081 0 0.013342727657429689 0.004875254585131006 0 0.013199213460015055 0.0050878363931292081 0 0.013081843642796185 0.0052145746272477204 0 0.013158006623124236 0.0051128589069570829 0 0.013325494021297764 0.0050220140557661191 0 0.013199213460015055 0.0050878363931292081 0 0.013158006623124236 0.0051128589069570829 0 0.013184005359113113 0.0052463187313308872 0 0.013199213460015055 0.0050878363931292081 0 0.013184005359113113 0.0052463187313308872 0 0.013199213460015055 0.0050878363931292081 0 0.013130411412442661 0.0053507786096498996 0 0.013184005359113113 0.0052463187313308872 0 0.013130411412442661 0.0053507786096498996 0 0.013208740204576202 0.0055176116215017116 0 0.013199213460015055 0.0050878363931292081 0 0.013130411412442661 0.0053507786096498996 0 0.013081843642796185 0.0052145746272477204 0 0.013130411412442661 0.0053507786096498996 0 0.013081843642796185 0.0052145746272477204 0 0.012925746724706295 0.0055659355829790801 0 0.013130411412442661 0.0053507786096498996 0 0.012925746724706295 0.0055659355829790801 0 0.013099439016888315 0.0057242259810141903 0 0.013130411412442661 0.0053507786096498996 0 0.013099439016888315 0.0057242259810141903 0 0.013208740204576202 0.0055176116215017116 0 0.013281039342812103 0.0049232170888054783 0 0.013047559202056505 0.0047989673898911648 0 0.013342727657429689 0.004875254585131006 0 0.013081843642796185 0.0052145746272477204 0 0.012598619794643964 0.0054402712955061838 0 0.013342727657429689 0.004875254585131006 0 0.013616875298054155 0.0042335922187981025 0 0.013679691284935857 0.004532070205621179 0 0.013081843642796185 0.0052145746272477204 0 0.012925746724706295 0.0055659355829790801 0 0.012598619794643964 0.0054402712955061838 0 0.012598619794643964 0.0054402712955061838 0 0.012667782233096399 0.0058284667200120006 0 0.01225186990266525 0.0060907473320644815 0 0.012925746724706295 0.0055659355829790801 0 0.012598619794643964 0.0054402712955061838 0 0.012667782233096399 0.0058284667200120006 0 0.012925746724706295 0.0055659355829790801 0 0.012667782233096399 0.0058284667200120006 0 0.012887345468863474 0.005915816563341207 0 0.012667782233096399 0.0058284667200120006 0 0.012887345468863474 0.005915816563341207 0 0.012632024956088764 0.0061238901082668164 0 0.012667782233096399 0.0058284667200120006 0 0.012632024956088764 0.0061238901082668164 0 0.01225186990266525 0.0060907473320644815 0 0.013099439016888315 0.0057242259810141903 0 0.013269668351727557 0.0059347147261753367 0 0.013083078421011828 0.0062338440285401031 0 0.013099439016888315 0.0057242259810141903 0 0.012887345468863474 0.005915816563341207 0 0.013083078421011828 0.0062338440285401031 0 0.012925746724706295 0.0055659355829790801 0 0.013099439016888315 0.0057242259810141903 0 0.012887345468863474 0.005915816563341207 0 0.013269668351727557 0.0059347147261753367 0 0.013208740204576202 0.0055176116215017116 0 0.013328516656265672 0.005670832111298661 0 0.013099439016888315 0.0057242259810141903 0 0.013269668351727557 0.0059347147261753367 0 0.013208740204576202 0.0055176116215017116 0 0.013208740204576202 0.0055176116215017116 0 0.013235600610056641 0.005336926464842775 0 0.013328516656265672 0.005670832111298661 0 0.013184005359113113 0.0052463187313308872 0 0.013208740204576202 0.0055176116215017116 0 0.013235600610056641 0.005336926464842775 0 0.013343815210144229 0.0053221851772746699 0 0.013235600610056641 0.005336926464842775 0 0.013441432870165528 0.0056199177457168462 0 0.013235600610056641 0.005336926464842775 0 0.013441432870165528 0.0056199177457168462 0 0.013328516656265672 0.005670832111298661 0 0.013441432870165528 0.0056199177457168462 0 0.013496012175418773 0.0060017359152249664 0 0.013328516656265672 0.005670832111298661 0 0.013269668351727557 0.0059347147261753367 0 0.013496012175418773 0.0060017359152249664 0 0.013328516656265672 0.005670832111298661 0 0.013496012175418773 0.0060017359152249664 0 0.01359655127738537 0.0064132246374534888 0 0.013394565012731782 0.0064590288304322268 0 0.013394565012731782 0.0064590288304322268 0 0.013054339009327459 0.0068226611113538158 0 0.013083078421011828 0.0062338440285401031 0 0.013269668351727557 0.0059347147261753367 0 0.013394565012731782 0.0064590288304322268 0 0.013083078421011828 0.0062338440285401031 0 0.013269668351727557 0.0059347147261753367 0 0.013496012175418773 0.0060017359152249664 0 0.013394565012731782 0.0064590288304322268 0 0.013394565012731782 0.0064590288304322268 0 0.013343770896862546 0.0069207749585475098 0 0.013684152860528069 0.0069507189020448874 0 0.013394565012731782 0.0064590288304322268 0 0.013343770896862546 0.0069207749585475098 0 0.013054339009327459 0.0068226611113538158 0 0.01359655127738537 0.0064132246374534888 0 0.013394565012731782 0.0064590288304322268 0 0.013684152860528069 0.0069507189020448874 0 0.013712178412955148 0.0066124314413589323 0 0.01359655127738537 0.0064132246374534888 0 0.013684152860528069 0.0069507189020448874 0 0.013713819109571248 0.0068331524213817727 0 0.013684152860528069 0.0069507189020448874 0 0.013666781283336489 0.0069537557194701864 0 0.013913671314880671 0.0068143410448725499 0 0.011416021669605458 0.0088687370697766912 0 0.013684152860528069 0.0069507189020448874 0 0.013582077098967726 0.0076610930617498794 0 0.014236233236218102 0.0078566950984645077 0 0.013343770896862546 0.0069207749585475098 0 0.013684152860528069 0.0069507189020448874 0 0.013219042381187528 0.0075303891321051976 0 0.013343770896862546 0.0069207749585475098 0 0.013219042381187528 0.0075303891321051976 0 0.013054339009327459 0.0068226611113538158 0 0.013684152860528069 0.0069507189020448874 0 0.013219042381187528 0.0075303891321051976 0 0.013582077098967726 0.0076610930617498794 0 0.013219042381187528 0.0075303891321051976 0 0.013582077098967726 0.0076610930617498794 0 0.013159422198170295 0.0087054778943310568 0 0.011416021669605458 0.0088687370697766912 0 0.01404165279681651 0.0083533480107989676 0 0.013582077098967726 0.0076610930617498794 0 0.014236233236218102 0.0078566950984645077 0 0.013159422198170295 0.0087054778943310568 0 0.012987566353700906 0.0083257954331250744 0 0.012805855804128703 0.0074359568994605968 0 0.012588379082270621 0.0080201917278262275 0 0.013219042381187528 0.0075303891321051976 0 0.012987566353700906 0.0083257954331250744 0 0.012805855804128703 0.0074359568994605968 0 0.013219042381187528 0.0075303891321051976 0 0.012987566353700906 0.0083257954331250744 0 0.013159422198170295 0.0087054778943310568 0 0.013219042381187528 0.0075303891321051976 0 0.012805855804128703 0.0074359568994605968 0 0.013054339009327459 0.0068226611113538158 0 0.012805855804128703 0.0074359568994605968 0 0.012257713269162241 0.0069905603591646406 0 0.012588379082270621 0.0080201917278262275 0 0.012805855804128703 0.0074359568994605968 0 0.012715833342449866 0.006929250699409157 0 0.012257713269162241 0.0069905603591646406 0 0.012715833342449866 0.006929250699409157 0 0.012684270628469649 0.0064990671763918689 0 0.012257713269162241 0.0069905603591646406 0 0.012715833342449866 0.006929250699409157 0 0.013054339009327459 0.0068226611113538158 0 0.012684270628469649 0.0064990671763918689 0 0.012805855804128703 0.0074359568994605968 0 0.012715833342449866 0.006929250699409157 0 0.013054339009327459 0.0068226611113538158 0 0.012887345468863474 0.005915816563341207 0 0.013083078421011828 0.0062338440285401031 0 0.012684270628469649 0.0064990671763918689 0 0.013054339009327459 0.0068226611113538158 0 0.013083078421011828 0.0062338440285401031 0 0.012684270628469649 0.0064990671763918689 0 0.012684270628469649 0.0064990671763918689 0 0.01225186990266525 0.0060907473320644815 0 0.012257713269162241 0.0069905603591646406 0 0.012887345468863474 0.005915816563341207 0 0.012684270628469649 0.0064990671763918689 0 0.012632024956088764 0.0061238901082668164 0 0.012684270628469649 0.0064990671763918689 0 0.012632024956088764 0.0061238901082668164 0 0.01225186990266525 0.0060907473320644815 0 0.015816714213467999 0.0057030039215638191 0 0.015237577532790517 0.0059753345375888724 0 0.015553186533931361 0.0063000992545672327 0 0.015012730671992294 0.0064645358436180734 0 0.014948226074491923 0.0067408495197464492 0 0.015057382180296303 0.0068904815960713732 0 0.01417824974625298 0.0056039630126799205 0 0.01521975110295201 0.006530002239670556 0 0.01417824974625298 0.0056039630126799205 0 0.013593522531926139 0.0070832065578035524 0 0.015816714213467999 0.0057030039215638191 0 0.015237577532790517 0.0059753345375888724 0 0.015304149958734371 0.0054146293828044286 0 0.015237577532790517 0.0059753345375888724 0 0.01503302105614192 0.0058298702778540653 0 0.015304149958734371 0.0054146293828044286 0 0.015005866166459924 0.0065420104429391567 0 0.015553186533931361 0.0063000992545672327 0 0.014918611322831787 0.0069873914928184327 0 0.015237577532790517 0.0059753345375888724 0 0.015005866166459924 0.0065420104429391567 0 0.014839093206040774 0.0064405970342829733 0 0.015237577532790517 0.0059753345375888724 0 0.015005866166459924 0.0065420104429391567 0 0.015553186533931361 0.0063000992545672327 0 0.01521975110295201 0.006530002239670556 0 0.015011455960736312 0.0068977672547162749 0 0.014948226074491923 0.0067408495197464492 0 0.015057382180296303 0.0068904815960713732 0 0.014918611322831787 0.0069873914928184327 0 0.013593522531926139 0.0070832065578035524 0 0.013602546381153375 0.007697983446021758 0 0.015057382180296303 0.0068904815960713732 0 0.014918611322831787 0.0069873914928184327 0 0.014640661516842741 0.0075817873683641894 0 0.014918611322831787 0.0069873914928184327 0 0.014446092869947075 0.0074918875648064299 0 0.01465681958132891 0.0069331367964936422 0 0.015005866166459924 0.0065420104429391567 0 0.014918611322831787 0.0069873914928184327 0 0.01465681958132891 0.0069331367964936422 0 0.014918611322831787 0.0069873914928184327 0 0.014446092869947075 0.0074918875648064299 0 0.014640661516842741 0.0075817873683641894 0 0.014446092869947075 0.0074918875648064299 0 0.014640661516842741 0.0075817873683641894 0 0.014018831500974301 0.0081051409356350038 0 0.014999977919580904 0.0071182911823522259 0 0.015363730088766278 0.0070117097643694155 0 0.01528825802444733 0.0075214258397116891 0 0.01490937580539381 0.0070673246789806528 0 0.014968138634324214 0.0077242752308674407 0 0.015363730088766278 0.0070117097643694155 0 0.015684481466214883 0.0077097723045704584 0 0.01528825802444733 0.0075214258397116891 0 0.014446092869947075 0.0074918875648064299 0 0.01440846371188112 0.0070220928995545287 0 0.014110641103076393 0.007856380521470344 0 0.014446092869947075 0.0074918875648064299 0 0.01465681958132891 0.0069331367964936422 0 0.01440846371188112 0.0070220928995545287 0 0.01465681958132891 0.0069331367964936422 0 0.01440846371188112 0.0070220928995545287 0 0.014839093206040774 0.0064405970342829733 0 0.014999977919580904 0.0071182911823522259 0 0.015363730088766278 0.0070117097643694155 0 0.01500000641767185 0.0063043989142655297 0 0.01490937580539381 0.0070673246789806528 0 0.014999964272501373 0.0063046892937791725 0 0.014998374326055795 0.0063044692726760294 0 0.014839093206040774 0.0064405970342829733 0 0.01503302105614192 0.0058298702778540653 0 0.01440846371188112 0.0070220928995545287 0 0.014998374326055795 0.0063044692726760294 0 0.014839093206040774 0.0064405970342829733 0 0.015005866166459924 0.0065420104429391567 0 0.01465681958132891 0.0069331367964936422 0 0.014839093206040774 0.0064405970342829733 0 0.015237577532790517 0.0059753345375888724 0 0.014839093206040774 0.0064405970342829733 0 0.01503302105614192 0.0058298702778540653 0 0.014998374326055795 0.0063044692726760294 0 0.01503302105614192 0.0058298702778540653 0 0.014999910964044284 0.0054194896518071816 0 0.01503302105614192 0.0058298702778540653 0 0.014999910964044284 0.0054194896518071816 0 0.015128280095128954 0.0052037164046307947 0 0.014999910964044284 0.0054194896518071816 0 0.015128280095128954 0.0052037164046307947 0 0.014999762191355633 0.0045345128751354347 0 0.015317282091559241 0.0047971671332174178 0 0.015128280095128954 0.0052037164046307947 0 0.014999762191355633 0.0045345128751354347 0 0.015317282091559241 0.0047971671332174178 0 0.015128280095128954 0.0052037164046307947 0 0.015304149958734371 0.0054146293828044286 0 0.01503302105614192 0.0058298702778540653 0 0.015128280095128954 0.0052037164046307947 0 0.015304149958734371 0.0054146293828044286 0 0.015816714213467999 0.0057030039215638191 0 0.015304149958734371 0.0054146293828044286 0 0.015495643469825012 0.0050942966411402944 0 0.01417824974625298 0.0056039630126799205 0 0.014796854795781154 0.0044853724832835508 0 0.015816714213467999 0.0057030039215638191 0 0.015793909023734478 0.0050071084050889742 0 0.015495643469825012 0.0050942966411402944 0 0.013616875298054155 0.0042335922187981025 0 0.013735356901783223 0.0039447385950685645 0 0.013767539364738983 0.0042496331792034664 0 0.013047559202056505 0.0047989673898911648 0 0.01417824974625298 0.0056039630126799205 0 0.015793909023734478 0.0050071084050889742 0 0.015470450088487995 0.0047113630534537177 0 0.015442334790773379 0.0044106203365635605 0 0.014796854795781154 0.0044853724832835508 0 0.014680275453091316 0.0047060005368472352 0 0.013767539364738983 0.0042496331792034664 0 0.013679691284935857 0.004532070205621179 0 0.013913249779109479 0.0047804358734696798 0 0.015793909023734478 0.0050071084050889742 0 0.015495643469825012 0.0050942966411402944 0 0.015470450088487995 0.0047113630534537177 0 0.013616875298054155 0.0042335922187981025 0 0.013767539364738983 0.0042496331792034664 0 0.013679691284935857 0.004532070205621179 0 0.015317282091559241 0.0047971671332174178 0 0.015304149958734371 0.0054146293828044286 0 0.015495643469825012 0.0050942966411402944 0 0.015317282091559241 0.0047971671332174178 0 0.015495643469825012 0.0050942966411402944 0 0.015470450088487995 0.0047113630534537177 0 0.015434397473209951 0.0044648337517956774 0 0.015442334790773379 0.0044106203365635605 0 0.015282746055483286 0.0044990974824376199 0 0.015470450088487995 0.0047113630534537177 0 0.015434397473209951 0.0044648337517956774 0 0.015442334790773379 0.0044106203365635605 0 0.015317282091559241 0.0047971671332174178 0 0.015470450088487995 0.0047113630534537177 0 0.015434397473209951 0.0044648337517956774 0 0.013342727657429689 0.004875254585131006 0 0.013679691284935857 0.004532070205621179 0 0.013913249779109479 0.0047804358734696798 0 0.013342727657429689 0.004875254585131006 0 0.013913249779109479 0.0047804358734696798 0 0.013781770416256727 0.0049351687557081291 0 0.014582361039276107 0.0049639248453585919 0 0.013913249779109479 0.0047804358734696798 0 0.013781770416256727 0.0049351687557081291 0 0.014620070732025816 0.0050168782927747426 0 0.014680275453091316 0.0047060005368472352 0 0.014582361039276107 0.0049639248453585919 0 0.015442334790773379 0.0044106203365635605 0 0.015282746055483286 0.0044990974824376199 0 0.014582361039276107 0.0049639248453585919 0 0.013729754924951581 0.0051181171957592631 0 0.013781770416256727 0.0049351687557081291 0 0.014582361039276107 0.0049639248453585919 0 0.015282746055483286 0.0044990974824376199 0 0.015634606984299398 0.0043922596924322503 0 0.015434397473209951 0.0044648337517956774 0 0.015282746055483286 0.0044990974824376199 0 0.015634606984299398 0.0043922596924322503 0 0.015321064024854607 0.0037645997593483034 0 0.015634606984299398 0.0043922596924322503 0 0.015280760436218822 0.0042883031786609023 0 0.015434397473209951 0.0044648337517956774 0 0.015634606984299398 0.0043922596924322503 0 0.015280760436218822 0.0042883031786609023 0 0.01499983929508205 0.0036497648059027918 0 0.015321064024854607 0.0037645997593483034 0 0.015280760436218822 0.0042883031786609023 0 0.01499983929508205 0.0036497648059027918 0 0.015280760436218822 0.0042883031786609023 0 0.014999762191355633 0.0045345128751354347 0 0.015317282091559241 0.0047971671332174178 0 0.015280760436218822 0.0042883031786609023 0 0.014999762191355633 0.0045345128751354347 0 0.015317282091559241 0.0047971671332174178 0 0.015434397473209951 0.0044648337517956774 0 0.015280760436218822 0.0042883031786609023 0 0.015244757039207617 0.010413090340925657 0 0.015092366319263362 0.011022520917150981 0 0.01530083534852314 0.010835876337378548 0 0.015244757039207617 0.010413090340925657 0 0.014999725447920586 0.010734954356779939 0 0.015092366319263362 0.011022520917150981 0 0.015244757039207617 0.010413090340925657 0 0.014999725447920586 0.010734954356779939 0 0.01499985474555717 0.0099329430119217688 0 0.014999725447920586 0.010734954356779939 0 0.015092366319263362 0.011022520917150981 0 0.015000059578001787 0.011534033168937212 0 0.015092366319263362 0.011022520917150981 0 0.01530083534852314 0.010835876337378548 0 0.014378551162830036 0.010655755730675943 0 0.014004316658454816 0.010276024617029412 0 0.013690624627316043 0.010018565939742829 0 0.014378551162830036 0.010655755730675943 0 0.01448586895386402 0.010361339702894752 0 0.014392034011537476 0.010579225750225718 0 0.014004316658454816 0.010276024617029412 0 0.013785341297704977 0.0098882094748913105 0 0.013690624627316043 0.010018565939742829 0 0.014004316658454816 0.010276024617029412 0 0.013785341297704977 0.0098882094748913105 0 0.014007419224407002 0.010254196070506519 0 0.013785341297704977 0.0098882094748913105 0 0.013690624627316043 0.010018565939742829 0 0.013688209550792571 0.0098396064963228898 0 0.013690624627316043 0.010018565939742829 0 0.013688209550792571 0.0098396064963228898 0 0.013623462760653848 0.0097925412181856311 0 0.013688209550792571 0.0098396064963228898 0 0.013611417639269449 0.0097671143791578478 0 0.013653880096534229 0.0097639253625128979 0 0.013785341297704977 0.0098882094748913105 0 0.013688209550792571 0.0098396064963228898 0 0.013611417639269449 0.0097671143791578478 0 0.013611417639269449 0.0097671143791578478 0 0.013777703316294463 0.0096171334626343492 0 0.013685102502183712 0.0096409928816362459 0 0.013611417639269449 0.0097671143791578478 0 0.013685102502183712 0.0096409928816362459 0 0.013316713859103362 0.009723855260029439 0 0.013655195333699804 0.009754361167210214 0 0.013664031779595331 0.0097230217032822294 0 0.013688209550792571 0.0098396064963228898 0 0.013653880096534229 0.0097639253625128979 0 0.013623462760653848 0.0097925412181856311 0 0.013653880096534229 0.0097639253625128979 0 0.013623462760653848 0.0097925412181856311 0 0.013629046424155352 0.0097273342197021027 0 0.01566401051311311 0.0099651930856717152 0 0.015345588401194588 0.0095332633881096054 0 0.015682737979851719 0.0090466765590897086 0 0.014680934084888748 0.0099345950149721737 0 0.014316381981340078 0.0091312955856747667 0 0.01448586895386402 0.010361339702894752 0 0.014680934084888748 0.0099345950149721737 0 0.015244757039207617 0.010413090340925657 0 0.01530083534852314 0.010835876337378548 0 0.01566401051311311 0.0099651930856717152 0 0.015244757039207617 0.010413090340925657 0 0.01566401051311311 0.0099651930856717152 0 0.015345588401194588 0.0095332633881096054 0 0.015244757039207617 0.010413090340925657 0 0.01499985474555717 0.0099329430119217688 0 0.015345588401194588 0.0095332633881096054 0 0.01499985474555717 0.0099329430119217688 0 0.015345588401194588 0.0095332633881096054 0 0.014999939421027706 0.0091313360269827653 0 0.015345588401194588 0.0095332633881096054 0 0.015333795108897527 0.0090923271382065025 0 0.014999939421027706 0.0091313360269827653 0 0.015333795108897527 0.0090923271382065025 0 0.014999939421027706 0.0091313360269827653 0 0.015339894499562971 0.0086933002876212855 0 0.015345588401194588 0.0095332633881096054 0 0.015333795108897527 0.0090923271382065025 0 0.015682737979851719 0.0090466765590897086 0 0.015333795108897527 0.0090923271382065025 0 0.015682737979851719 0.0090466765590897086 0 0.015339894499562971 0.0086933002876212855 0 0.013829583508221241 0.0094911804608053645 0 0.014259800405286441 0.0087731718903539223 0 0.014005954417858792 0.0092844980145866292 0 0.014316381981340078 0.0091312955856747667 0 0.014131994422415766 0.0085949161599436497 0 0.014114054354169013 0.0077474928589881991 0 0.014676591677539732 0.0082487486390817478 0 0.014259800405286441 0.0087731718903539223 0 0.014316381981340078 0.0091312955856747667 0 0.014999714321089841 0.0084517115499187917 0 0.014676591677539732 0.0082487486390817478 0 0.014637604281086731 0.0085153770982116014 0 0.014259800405286441 0.0087731718903539223 0 0.014259800405286441 0.0087731718903539223 0 0.014062619280969413 0.0091176924623237662 0 0.014005954417858792 0.0092844980145866292 0 0.014999939421027706 0.0091313360269827653 0 0.015339894499562971 0.0086933002876212855 0 0.014999994672718937 0.008329709628614115 0 0.014676591677539732 0.0082487486390817478 0 0.014999181759145833 0.0083288202843120069 0 0.014637604281086731 0.0085153770982116014 0 0.014999714321089841 0.0084517115499187917 0 0.015000015851375123 0.0083297735769841293 0 0.015020393363503056 0.008379787440571506 0 0.01499969305669277 0.0079322031161543523 0 0.014637604281086731 0.0085153770982116014 0 0.014427073536887066 0.008665209054138201 0 0.015000317446240839 0.0079336315771886962 0 0.01551187203120646 0.0081172557736281306 0 0.014999992634239546 0.007932021661253251 0 0.01537417403956862 0.0078215991468743654 0 0.014999181759145833 0.0083288202843120069 0 0.014637604281086731 0.0085153770982116014 0 0.015000317446240839 0.0079336315771886962 0 0.015020393363503056 0.008379787440571506 0 0.01442582376398871 0.0086931257934462856 0 0.014968138634324214 0.0077242752308674407 0 0.01442582376398871 0.0086931257934462856 0 0.01551187203120646 0.0081172557736281306 0 0.015684481466214883 0.0077097723045704584 0 0.015970496225575118 0.0083203265096851234 0 0.014637604281086731 0.0085153770982116014 0 0.014259800405286441 0.0087731718903539223 0 0.014427073536887066 0.008665209054138201 0 0.014259800405286441 0.0087731718903539223 0 0.014427073536887066 0.008665209054138201 0 0.014062619280969413 0.0091176924623237662 0 0.01551187203120646 0.0081172557736281306 0 0.015684481466214883 0.0077097723045704584 0 0.01537417403956862 0.0078215991468743654 0 0.015684481466214883 0.0077097723045704584 0 0.01528825802444733 0.0075214258397116891 0 0.01537417403956862 0.0078215991468743654 0 0.014999977919580904 0.0071182911823522259 0 0.01528825802444733 0.0075214258397116891 0 0.014999992634239546 0.007932021661253251 0 0.01528825802444733 0.0075214258397116891 0 0.014999992634239546 0.007932021661253251 0 0.01537417403956862 0.0078215991468743654 0 0.014640661516842741 0.0075817873683641894 0 0.014018831500974301 0.0081051409356350038 0 0.0134693324746692 0.0084060903655975728 0 0.014446092869947075 0.0074918875648064299 0 0.014110641103076393 0.007856380521470344 0 0.014018831500974301 0.0081051409356350038 0 0.014110641103076393 0.007856380521470344 0 0.014018831500974301 0.0081051409356350038 0 0.013879377359902297 0.0081910525548516515 0 0.014018831500974301 0.0081051409356350038 0 0.013879377359902297 0.0081910525548516515 0 0.013666345327639965 0.0083113871084891707 0 0.014018831500974301 0.0081051409356350038 0 0.013666345327639965 0.0083113871084891707 0 0.0134693324746692 0.0084060903655975728 0 0.013666345327639965 0.0083113871084891707 0 0.01328050710348269 0.0085796936377774483 0 0.0134693324746692 0.0084060903655975728 0 0.01403560568002863 0.00965068823335157 0 0.013919718367938417 0.0095281372012401416 0 0.013497418378060233 0.0097944803978057982 0 0.013919718367938417 0.0095281372012401416 0 0.013685102502183712 0.0096409928816362459 0 0.013497418378060233 0.0097944803978057982 0 0.01442582376398871 0.0086931257934462856 0 0.01330546255134364 0.0092377091337463319 0 0.013879377359902297 0.0081910525548516515 0 0.013666345327639965 0.0083113871084891707 0 0.01328050710348269 0.0085796936377774483 0 0.014062619280969413 0.0091176924623237662 0 0.013919718367938417 0.0095281372012401416 0 0.014005954417858792 0.0092844980145866292 0 0.01442582376398871 0.0086931257934462856 0 0.014152136642380879 0.009456912414518185 0 0.013919718367938417 0.0095281372012401416 0 0.014005954417858792 0.0092844980145866292 0 0.013886413079158052 0.0095238938922642263 0 0.013664031779595331 0.0097230217032822294 0 0.014316381981340078 0.0091312955856747667 0 0.013777703316294463 0.0096171334626343492 0 0.013829583508221241 0.0094911804608053645 0 0.013886413079158052 0.0095238938922642263 0 0.013829583508221241 0.0094911804608053645 0 0.014005954417858792 0.0092844980145866292 0 0.013886413079158052 0.0095238938922642263 0 0.013919718367938417 0.0095281372012401416 0 0.013886413079158052 0.0095238938922642263 0 0.013685102502183712 0.0096409928816362459 0 0.013777703316294463 0.0096171334626343492 0 0.013886413079158052 0.0095238938922642263 0 0.013685102502183712 0.0096409928816362459 0 0.013685102502183712 0.0096409928816362459 0 0.013497418378060233 0.0097944803978057982 0 0.013316713859103362 0.009723855260029439 0 0.012867278309663487 0.0095922249724596058 0 0.013497418378060233 0.0097944803978057982 0 0.013316713859103362 0.009723855260029439 0 0.012999841824071847 0.0095349174426819956 0 0.01330546255134364 0.0092377091337463319 0 0.012867278309663487 0.0095922249724596058 0 0.01328050710348269 0.0085796936377774483 0 0.013046799257635905 0.0087984336717875505 0 0.01328050710348269 0.0085796936377774483 0 0.0134693324746692 0.0084060903655975728 0 0.013046799257635905 0.0087984336717875505 0 0.012987566353700906 0.0083257954331250744 0 0.013046799257635905 0.0087984336717875505 0 0.013159422198170295 0.0087054778943310568 0 0.013602546381153375 0.007697983446021758 0 0.013494044757834531 0.0082742557699563828 0 0.012987566353700906 0.0083257954331250744 0 0.0134693324746692 0.0084060903655975728 0 0.013046799257635905 0.0087984336717875505 0 0.012987566353700906 0.0083257954331250744 0 0.012588379082270621 0.0080201917278262275 0 0.0134693324746692 0.0084060903655975728 0 0.013022562552056196 0.0088920095570539388 0 0.013159422198170295 0.0087054778943310568 0 0.012995927178687776 0.0090052762010072417 0 0.013046799257635905 0.0087984336717875505 0 0.013159422198170295 0.0087054778943310568 0 0.012931889827050323 0.0092150456026490486 0 0.013159422198170295 0.0087054778943310568 0 0.012995927178687776 0.0090052762010072417 0 0.012931889827050323 0.0092150456026490486 0 0.012995927178687776 0.0090052762010072417 0 0.012834282139127958 0.009402649999216639 0 0.012888765410156051 0.0093323074865601287 0 0.012834282139127958 0.009402649999216639 0 0.012931889827050323 0.0092150456026490486 0 0.012659268936473062 0.0097895417199924534 0 0.012995927178687776 0.0090052762010072417 0 0.012834282139127958 0.009402649999216639 0 0.012931889827050323 0.0092150456026490486 0 0.012867278309663487 0.0095922249724596058 0 0.013046799257635905 0.0087984336717875505 0 0.012931889827050323 0.0092150456026490486 0 0.012867278309663487 0.0095922249724596058 0 0.012931889827050323 0.0092150456026490486 0 0.012659268936473062 0.0097895417199924534 0 0.012659268936473062 0.0097895417199924534 0 0.012492082137725074 0.010086814073257741 0 0.012702390905429085 0.0097235317383743761 0 0.012834282139127958 0.009402649999216639 0 0.012659268936473062 0.0097895417199924534 0 0.012702390905429085 0.0097235317383743761 0 0.012659268936473062 0.0097895417199924534 0 0.012352094303033653 0.010295786588080409 0 0.012492082137725074 0.010086814073257741 0 0.012352094303033653 0.010295786588080409 0 0.011827933386029606 0.010927607324011537 0 0.012205773741182918 0.010573895382388549 0 0.012352094303033653 0.010295786588080409 0 0.012438749271442317 0.010377831295118307 0 0.011827933386029606 0.010927607324011537 0 0.012352094303033653 0.010295786588080409 0 0.012677252605269144 0.009968793667490804 0 0.012438749271442317 0.010377831295118307 0 0.012659268936473062 0.0097895417199924534 0 0.012352094303033653 0.010295786588080409 0 0.012677252605269144 0.009968793667490804 0 0.012867278309663487 0.0095922249724596058 0 0.012659268936473062 0.0097895417199924534 0 0.012677252605269144 0.009968793667490804 0 0.012677252605269144 0.009968793667490804 0 0.013316713859103362 0.009723855260029439 0 0.013358076784289309 0.0098108258192198053 0 0.012867278309663487 0.0095922249724596058 0 0.012677252605269144 0.009968793667490804 0 0.013316713859103362 0.009723855260029439 0 0.013611417639269449 0.0097671143791578478 0 0.013316713859103362 0.009723855260029439 0 0.013358076784289309 0.0098108258192198053 0 0.013785341297704977 0.0098882094748913105 0 0.013611417639269449 0.0097671143791578478 0 0.013358076784289309 0.0098108258192198053 0 0.012677252605269144 0.009968793667490804 0 0.013358076784289309 0.0098108258192198053 0 0.013570249454801781 0.0097414238322448832 0 0.012677252605269144 0.009968793667490804 0 0.012240476604736844 0.010410029174203818 0 0.012438749271442317 0.010377831295118307 0 0.012706811202869421 0.0099914878960783507 0 0.012852975597597105 0.01015146956268825 0 0.013785341297704977 0.0098882094748913105 0 0.013570249454801781 0.0097414238322448832 0 0.014007419224407002 0.010254196070506519 0 0.013785341297704977 0.0098882094748913105 0 0.013358076784289309 0.0098108258192198053 0 0.013570249454801781 0.0097414238322448832 0 0.012852975597597105 0.01015146956268825 0 0.0131967462757972 0.010218040591184386 0 0.012240476604736844 0.010410029174203818 0 0.012264432219731461 0.010517731930012325 0 0.012145588013802739 0.010526636447351575 0 0.012240476604736844 0.010410029174203818 0 0.01235584392820455 0.010417471445972768 0 0.012264432219731461 0.010517731930012325 0 0.011590438396316963 0.011094308485669188 0 0.011430203263147804 0.011325796808531843 0 0.010802068509030526 0.011754355211154146 0 0.011827933386029606 0.010927607324011537 0 0.011399452910289171 0.012170505044434463 0 0.01235584392820455 0.010417471445972768 0 0.012438749271442317 0.010377831295118307 0 0.011827933386029606 0.010927607324011537 0 0.011590438396316963 0.011094308485669188 0 0.011833257703902146 0.010924347422364441 0 0.012240476604736844 0.010410029174203818 0 0.01235584392820455 0.010417471445972768 0 0.012438749271442317 0.010377831295118307 0 0.011926647489527063 0.01137949448475002 0 0.012054055635305634 0.011806626360277166 0 0.012341707758077821 0.010808450083576466 0 0.011926647489527063 0.01137949448475002 0 0.011827933386029606 0.010927607324011537 0 0.012205773741182918 0.010573895382388549 0 0.011926647489527063 0.01137949448475002 0 0.011827933386029606 0.010927607324011537 0 0.011399452910289171 0.012170505044434463 0 0.011926647489527063 0.01137949448475002 0 0.011399452910289171 0.012170505044434463 0 0.011750790522188765 0.012127508442718727 0 0.011926647489527063 0.01137949448475002 0 0.011750790522188765 0.012127508442718727 0 0.012054055635305634 0.011806626360277166 0 0.011750790522188765 0.012127508442718727 0 0.012054055635305634 0.011806626360277166 0 0.01163414091383445 0.012831875253457168 0 0.012054055635305634 0.011806626360277166 0 0.012135466331694092 0.01243317444615615 0 0.01163414091383445 0.012831875253457168 0 0.0084443978665705022 0.011822764859020783 0 0.0083568362149691999 0.012775844644587225 0 0.012054055635305634 0.011806626360277166 0 0.012530947879371384 0.011255924930436676 0 0.012135466331694092 0.01243317444615615 0 0.012054055635305634 0.011806626360277166 0 0.012530947879371384 0.011255924930436676 0 0.012341707758077821 0.010808450083576466 0 0.0084443978665705022 0.011822764859020783 0 0.0084979563829329519 0.011104091045146492 0 0.012530947879371384 0.011255924930436676 0 0.012734682131434449 0.010286311856152355 0 0.012341707758077821 0.010808450083576466 0 0.0043897913800366234 0.012420166376199082 0 0.0043051890779701217 0.011951674347528279 0 0.004665899783104885 0.012134905877655405 0 0.0044456813537038075 0.011705449090590977 0 0.0046463711476909877 0.012103159192864067 0 0.0043051890779701217 0.011951674347528279 0 0.0045721856386040753 0.01172448907427235 0 0.004665899783104885 0.012134905877655405 0 0.012734682131434449 0.010286311856152355 0 0.012555589130111025 0.010150894188488524 0 0.012341707758077821 0.010808450083576466 0 0.011926647489527063 0.01137949448475002 0 0.012341707758077821 0.010808450083576466 0 0.012205773741182918 0.010573895382388549 0 0.012555589130111025 0.010150894188488524 0 0.012341707758077821 0.010808450083576466 0 0.012205773741182918 0.010573895382388549 0 0.012352094303033653 0.010295786588080409 0 0.012205773741182918 0.010573895382388549 0 0.012492082137725074 0.010086814073257741 0 0.012555589130111025 0.010150894188488524 0 0.012205773741182918 0.010573895382388549 0 0.012492082137725074 0.010086814073257741 0 0.012555589130111025 0.010150894188488524 0 0.012492082137725074 0.010086814073257741 0 0.012702390905429085 0.0097235317383743761 0 0.012555589130111025 0.010150894188488524 0 0.012702390905429085 0.0097235317383743761 0 0.012917784079912379 0.009579045069199061 0 0.012734682131434449 0.010286311856152355 0 0.012555589130111025 0.010150894188488524 0 0.012917784079912379 0.009579045069199061 0 0.012702390905429085 0.0097235317383743761 0 0.012917784079912379 0.009579045069199061 0 0.012888765410156051 0.0093323074865601287 0 0.012834282139127958 0.009402649999216639 0 0.012702390905429085 0.0097235317383743761 0 0.012888765410156051 0.0093323074865601287 0 0.012917784079912379 0.009579045069199061 0 0.012888765410156051 0.0093323074865601287 0 0.013005150333037159 0.0090545233100716212 0 0.012995927178687776 0.0090052762010072417 0 0.012888765410156051 0.0093323074865601287 0 0.013005150333037159 0.0090545233100716212 0 0.0041667077155400677 0.011492119976839743 0 0.0039817813768221232 0.010992762920986275 0 0.0042236462503341763 0.011119206947302101 0 0.0085960692247035418 0.010523379015970608 0 0.0080508440747795815 0.010100737247110848 0 0.0039817813768221232 0.010992762920986275 0 0.0042236462503341763 0.011119206947302101 0 0.0042705206047577949 0.010819536624014556 0 0.0040262053110106067 0.010688379277496956 0 0.0039817813768221232 0.010992762920986275 0 0.0042705206047577949 0.010819536624014556 0 0.011416021669605458 0.0088687370697766912 0 0.0080508440747795815 0.010100737247110848 0 0.013022562552056196 0.0088920095570539388 0 0.012995927178687776 0.0090052762010072417 0 0.013005150333037159 0.0090545233100716212 0 0.0040262053110106067 0.010688379277496956 0 0.0038532279444360024 0.010541735956441841 0 0.0039817813768221232 0.010992762920986275 0 0.0040051223281009482 0.010752003316305549 0 0.0042735517280553916 0.010839886193306983 0 0.0041004094364941856 0.011207505280917383 0 0.0041667077155400677 0.011492119976839743 0 0.0042236462503341763 0.011119206947302101 0 0.0044478238553393038 0.011280437157370029 0 0.00413910968973901 0.010790910093160066 0 0.0042754424696926736 0.011243487556028791 0 0.0042236462503341763 0.011119206947302101 0 0.0042705206047577949 0.010819536624014556 0 0.0044478238553393038 0.011280437157370029 0 0.0042735517280553916 0.010839886193306983 0 0.0041004094364941856 0.011207505280917383 0 0.0045011621552773374 0.011306466613184043 0 0.0042754424696926736 0.011243487556028791 0 0.0044456813537038075 0.011705449090590977 0 0.0041004094364941856 0.011207505280917383 0 0.0043095091857720006 0.011694491282344904 0 0.0045011621552773374 0.011306466613184043 0 0.0041667077155400677 0.011492119976839743 0 0.0044478238553393038 0.011280437157370029 0 0.0045721856386040753 0.01172448907427235 0 0.0043051890779701217 0.011951674347528279 0 0.0041667077155400677 0.011492119976839743 0 0.0045721856386040753 0.01172448907427235 0 0.0084979563829329519 0.011104091045146492 0 0.0085960692247035418 0.010523379015970608 0 0.0043095091857720006 0.011694491282344904 0 0.00465390801922778 0.011775426890963126 0 0.0045011621552773374 0.011306466613184043 0 0.00465390801922778 0.011775426890963126 0 0.0048481024863313371 0.011659808972009768 0 0.0049131087200565242 0.012047480799592178 0 0.0048481024863313371 0.011659808972009768 0 0.0045011621552773374 0.011306466613184043 0 0.0048128339567193043 0.011126106764230767 0 0.00465390801922778 0.011775426890963126 0 0.0048481024863313371 0.011659808972009768 0 0.0045011621552773374 0.011306466613184043 0 0.0042735517280553916 0.010839886193306983 0 0.0045011621552773374 0.011306466613184043 0 0.0045366049337043383 0.010831172658691383 0 0.0045011621552773374 0.011306466613184043 0 0.0048128339567193043 0.011126106764230767 0 0.0045366049337043383 0.010831172658691383 0 0.0047067553845987035 0.010552347337773563 0 0.0048128339567193043 0.011126106764230767 0 0.0045366049337043383 0.010831172658691383 0 0.0044450068008359865 0.010527904580664799 0 0.0042735517280553916 0.010839886193306983 0 0.0045366049337043383 0.010831172658691383 0 0.0047067553845987035 0.010552347337773563 0 0.0048128339567193043 0.011126106764230767 0 0.0050612268175980295 0.010773465013030146 0 0.0048128339567193043 0.011126106764230767 0 0.0050612268175980295 0.010773465013030146 0 0.0051626890683858003 0.011366244799838459 0 0.0048221634426017443 0.010789118647045582 0 0.0049056162498457038 0.011365101984434828 0 0.0045814785618885877 0.010784168027546125 0 0.0046349572376220387 0.011377425340098293 0 0.0048426327764971083 0.010951407364676065 0 0.0046349572376220387 0.011377425340098293 0 0.0050427709834131081 0.011922802284399453 0 0.0048941474608838543 0.011403067207549219 0 0.0048481024863313371 0.011659808972009768 0 0.0048128339567193043 0.011126106764230767 0 0.0051626890683858003 0.011366244799838459 0 0.0048481024863313371 0.011659808972009768 0 0.0050427709834131081 0.011922802284399453 0 0.0049131087200565242 0.012047480799592178 0 0.0048481024863313371 0.011659808972009768 0 0.0051626890683858003 0.011366244799838459 0 0.0050427709834131081 0.011922802284399453 0 0.0049056162498457038 0.011365101984434828 0 0.0050221992024401373 0.011871297516040316 0 0.0050427709834131081 0.011922802284399453 0 0.0051777332183540912 0.012336481488505704 0 0.0052244149961180849 0.012353615576704884 0 0.0050427709834131081 0.011922802284399453 0 0.0051777332183540912 0.012336481488505704 0 0.0049131087200565242 0.012047480799592178 0 0.0043095091857720006 0.011694491282344904 0 0.00465390801922778 0.011775426890963126 0 0.004665899783104885 0.012134905877655405 0 0.00465390801922778 0.011775426890963126 0 0.0049131087200565242 0.012047480799592178 0 0.004665899783104885 0.012134905877655405 0 0.0043897913800366234 0.012420166376199082 0 0.004665899783104885 0.012134905877655405 0 0.0049326550690509795 0.012505175887592758 0 0.0049131087200565242 0.012047480799592178 0 0.004665899783104885 0.012134905877655405 0 0.0049326550690509795 0.012505175887592758 0 0.0051777332183540912 0.012336481488505704 0 0.0049131087200565242 0.012047480799592178 0 0.0049326550690509795 0.012505175887592758 0 0.0049326550690509795 0.012505175887592758 0 0.0046132038103137169 0.013176986830801332 0 0.0057029946909412793 0.013071312341368041 0 0.0051777332183540912 0.012336481488505704 0 0.0049326550690509795 0.012505175887592758 0 0.0057029946909412793 0.013071312341368041 0 0.0043897913800366234 0.012420166376199082 0 0.0049326550690509795 0.012505175887592758 0 0.0046132038103137169 0.013176986830801332 0 0.0057029946909412793 0.013071312341368041 0 0.0053789277160700161 0.012649714998844767 0 0.0052978945202165548 0.012492763925423391 0 0.0053789277160700161 0.012649714998844767 0 0.0052978945202165548 0.012492763925423391 0 0.0052231448993826229 0.012475897189521459 0 0.0053789277160700161 0.012649714998844767 0 0.0052244149961180849 0.012353615576704884 0 0.0052231448993826229 0.012475897189521459 0 0.0051777332183540912 0.012336481488505704 0 0.0053789277160700161 0.012649714998844767 0 0.0052244149961180849 0.012353615576704884 0 0.0051777332183540912 0.012336481488505704 0 0.0057029946909412793 0.013071312341368041 0 0.0053789277160700161 0.012649714998844767 0 0.0057029946909412793 0.013071312341368041 0 0.0069066791559024669 0.015053017084105226 0 0.0072280272235898712 0.01436939099791493 0 0.0069066791559024669 0.015053017084105226 0 0.0072280272235898712 0.01436939099791493 0 0.0072420203965994504 0.015196918174209222 0 0.0056929985276393882 0.013079562704171066 0 0.0061896790138703433 0.01343135741079143 0 0.0057029946909412793 0.013071312341368041 0 0.0069066791559024669 0.015053017084105226 0 0.0053312077304443024 0.014509185657720624 0 0.0046132038103137169 0.013176986830801332 0 0.0057029946909412793 0.013071312341368041 0 0.0053312077304443024 0.014509185657720624 0 0.0083568362149691999 0.012775844644587225 0 0.0083951332876818913 0.013991984394953735 0 0.010511754798793373 0.014642143157622264 0 0.010003772761014017 0.014806913441477844 0 0.010538851435270885 0.01451051067854792 0 0.010511754798793373 0.014642143157622264 0 0.010538851435270885 0.01451051067854792 0 0.011107540577079151 0.01387991697408677 0 0.0069066791559024669 0.015053017084105226 0 0.0053312077304443024 0.014509185657720624 0 0.0067630979614841944 0.015544673053801941 0 0.0083951332876818913 0.013991984394953735 0 0.0085820821471536361 0.014947447203725126 0 0.011479924792122849 0.013606378964671397 0 0.010511754798793373 0.014642143157622264 0 0.011107540577079151 0.01387991697408677 0 0.0085820821471536361 0.014947447203725126 0 0.0085392716492970529 0.014947740492105094 0 0.0067630979614841944 0.015544673053801941 0 0.0074552363339873765 0.015509901321409751 0 0.0086109922154224659 0.015095824456580928 0 0.0069066791559024669 0.015053017084105226 0 0.0067630979614841944 0.015544673053801941 0 0.0074552363339873765 0.015509901321409751 0 0.0069066791559024669 0.015053017084105226 0 0.0072420203965994504 0.015196918174209222 0 0.0072960958587498298 0.015495674128992078 0 0.0069066791559024669 0.015053017084105226 0 0.0074552363339873765 0.015509901321409751 0 0.0072960958587498298 0.015495674128992078 0 0.0074552363339873765 0.015509901321409751 0 0.007558666674479732 0.015351205949213883 0 0.0072960958587498298 0.015495674128992078 0 0.0074552363339873765 0.015509901321409751 0 0.007558666674479732 0.015351205949213883 0 0.0086109922154224659 0.015095824456580928 0 0.0074769369815338091 0.015455802680584899 0 0.0088109689509921988 0.014999140351593766 0 0.0066087894783427035 0.014999938220257757 0 0.0086109922154224659 0.015095824456580928 0 0.0081748609294657812 0.014408317225888935 0 0.0093970721247643718 0.014642325554606421 0 0.007558666674479732 0.015351205949213883 0 0.0081748609294657812 0.014408317225888935 0 0.0071867732866825774 0.014923623326541426 0 0.007558666674479732 0.015351205949213883 0 0.0086109922154224659 0.015095824456580928 0 0.0081748609294657812 0.014408317225888935 0 0.0079479235783773486 0.01507325148314336 0 0.007144714197487168 0.015340332839214602 0 0.0074769369815338091 0.015455802680584899 0 0.0088109689509921988 0.014999140351593766 0 0.0084183771673028637 0.015449498429789384 0 0.0074769369815338091 0.015455802680584899 0 0.0077110735928766303 0.01570342675774257 0 0.0084183771673028637 0.015449498429789384 0 0.0074769369815338091 0.015455802680584899 0 0.0077110735928766303 0.01570342675774257 0 0.007042122449282184 0.015769648512789822 0 0.0081748609294657812 0.014408317225888935 0 0.0092917798642173643 0.014398785165666419 0 0.0093970721247643718 0.014642325554606421 0 0.0079479235783773486 0.01507325148314336 0 0.0088139498926031647 0.014937857972820247 0 0.0091193358042216833 0.014986284606650524 0 0.0088139498926031647 0.014937857972820247 0 0.0091650280723149982 0.015009655641568033 0 0.0092917798642173643 0.014398785165666419 0 0.0095313417067257235 0.014688535415617777 0 0.0091650280723149982 0.015009655641568033 0 0.0088109689509921988 0.014999140351593766 0 0.0084183771673028637 0.015449498429789384 0 0.0092917798642173643 0.014398785165666419 0 0.0095313417067257235 0.014688535415617777 0 0.0093970721247643718 0.014642325554606421 0 0.0091650280723149982 0.015009655641568033 0 0.0095313417067257235 0.014688535415617777 0 0.009801039128917605 0.014908769149739079 0 0.0095313417067257235 0.014688535415617777 0 0.0099413232683626448 0.014800302747667972 0 0.009801039128917605 0.014908769149739079 0 0.0099413232683626448 0.014800302747667972 0 0.0093970721247643718 0.014642325554606421 0 0.010003772761014017 0.014806913441477844 0 0.0095313417067257235 0.014688535415617777 0 0.0099413232683626448 0.014800302747667972 0 0.0093970721247643718 0.014642325554606421 0 0.0086109922154224659 0.015095824456580928 0 0.0093970721247643718 0.014642325554606421 0 0.010003772761014017 0.014806913441477844 0 0.010511754798793373 0.014642143157622264 0 0.0086109922154224659 0.015095824456580928 0 0.010003772761014017 0.014806913441477844 0 0.0099413232683626448 0.014800302747667972 0 0.010003772761014017 0.014806913441477844 0 0.010538851435270885 0.01451051067854792 0 0.0091650280723149982 0.015009655641568033 0 0.01036104076244557 0.015059850723109712 0 0.011754463795406591 0.014998530616991284 0 0.0091650280723149982 0.015009655641568033 0 0.0088109689509921988 0.014999140351593766 0 0.011754463795406591 0.014998530616991284 0 0.010235488692466981 0.014926266281969547 0 0.010400321982626528 0.014795293634898015 0 0.010538851435270885 0.01451051067854792 0 0.010653897932464317 0.01439635756041969 0 0.010586423973821422 0.014487816651173182 0 0.010235488692466981 0.014926266281969547 0 0.01036104076244557 0.015059850723109712 0 0.010497394596923301 0.015023601962752093 0 0.010235488692466981 0.014926266281969547 0 0.010497394596923301 0.015023601962752093 0 0.010400321982626528 0.014795293634898015 0 0.0099413232683626448 0.014800302747667972 0 0.010235488692466981 0.014926266281969547 0 0.010538851435270885 0.01451051067854792 0 0.0099413232683626448 0.014800302747667972 0 0.010235488692466981 0.014926266281969547 0 0.009801039128917605 0.014908769149739079 0 0.0091650280723149982 0.015009655641568033 0 0.009801039128917605 0.014908769149739079 0 0.01036104076244557 0.015059850723109712 0 0.010235488692466981 0.014926266281969547 0 0.009801039128917605 0.014908769149739079 0 0.01036104076244557 0.015059850723109712 0 0.01036104076244557 0.015059850723109712 0 0.011133527852978218 0.015146664970112387 0 0.011754463795406591 0.014998530616991284 0 0.01036104076244557 0.015059850723109712 0 0.011133527852978218 0.015146664970112387 0 0.010497394596923301 0.015023601962752093 0 0.011133527852978218 0.015146664970112387 0 0.010497394596923301 0.015023601962752093 0 0.011361208047548985 0.015615896279660597 0 0.01058010409796686 0.015023501965175904 0 0.011053109598205168 0.0149800771997295 0 0.010497394596923301 0.015023601962752093 0 0.010560424886645945 0.014569698536040898 0 0.01065153401508542 0.014388157294521271 0 0.010653897932464317 0.01439635756041969 0 0.010724302386188831 0.014178166124304434 0 0.010497394596923301 0.015023601962752093 0 0.010400321982626528 0.014795293634898015 0 0.010560424886645945 0.014569698536040898 0 0.010880137758165022 0.01400452488090119 0 0.010906621772421597 0.013844449732602796 0 0.010870891622179671 0.013910861176037365 0 0.010870891622179671 0.013910861176037365 0 0.010950619464451864 0.013933551532379858 0 0.01084292288961859 0.013857548392258737 0 0.010950619464451864 0.013933551532379858 0 0.01084292288961859 0.013857548392258737 0 0.011212887400841597 0.013377307419785312 0 0.010880137758165022 0.01400452488090119 0 0.010870891622179671 0.013910861176037365 0 0.010950619464451864 0.013933551532379858 0 0.010950619464451864 0.013933551532379858 0 0.010538851435270885 0.01451051067854792 0 0.011107540577079151 0.01387991697408677 0 0.010880137758165022 0.01400452488090119 0 0.010950619464451864 0.013933551532379858 0 0.010538851435270885 0.01451051067854792 0 0.010950619464451864 0.013933551532379858 0 0.011107540577079151 0.01387991697408677 0 0.011212887400841597 0.013377307419785312 0 0.011479924792122849 0.013606378964671397 0 0.011107540577079151 0.01387991697408677 0 0.01163414091383445 0.012831875253457168 0 0.011107540577079151 0.01387991697408677 0 0.01163414091383445 0.012831875253457168 0 0.011212887400841597 0.013377307419785312 0 0.012135466331694092 0.01243317444615615 0 0.011479924792122849 0.013606378964671397 0 0.01163414091383445 0.012831875253457168 0 0.011750790522188765 0.012127508442718727 0 0.01163414091383445 0.012831875253457168 0 0.011394686832374675 0.012706561989345286 0 0.011399452910289171 0.012170505044434463 0 0.011750790522188765 0.012127508442718727 0 0.011394686832374675 0.012706561989345286 0 0.011399452910289171 0.012170505044434463 0 0.011394686832374675 0.012706561989345286 0 0.011152961013812645 0.012599199307206417 0 0.011394686832374675 0.012706561989345286 0 0.011288450005731473 0.012847524839624334 0 0.011152961013812645 0.012599199307206417 0 0.01163414091383445 0.012831875253457168 0 0.011394686832374675 0.012706561989345286 0 0.011212887400841597 0.013377307419785312 0 0.011105082486523752 0.013363004004868591 0 0.011258322358065283 0.013363674502410166 0 0.011394686832374675 0.012706561989345286 0 0.011288450005731473 0.012847524839624334 0 0.011212887400841597 0.013377307419785312 0 0.010917946441703007 0.012769980064087385 0 0.010757150404805359 0.012422697271143221 0 0.010518395481407847 0.012671237449209366 0 0.010917946441703007 0.012769980064087385 0 0.011152961013812645 0.012599199307206417 0 0.010757150404805359 0.012422697271143221 0 0.011288450005731473 0.012847524839624334 0 0.010917946441703007 0.012769980064087385 0 0.011152961013812645 0.012599199307206417 0 0.011105082486523752 0.013363004004868591 0 0.010986464684122992 0.013446899740297889 0 0.011399452910289171 0.012170505044434463 0 0.011152961013812645 0.012599199307206417 0 0.010757150404805359 0.012422697271143221 0 0.010802068509030526 0.011754355211154146 0 0.011399452910289171 0.012170505044434463 0 0.010757150404805359 0.012422697271143221 0 0.010802068509030526 0.011754355211154146 0 0.010757150404805359 0.012422697271143221 0 0.010485274166994565 0.012199672260942608 0 0.010757150404805359 0.012422697271143221 0 0.010485274166994565 0.012199672260942608 0 0.010477393210310224 0.012453536328238365 0 0.010485274166994565 0.012199672260942608 0 0.010477393210310224 0.012453536328238365 0 0.010383666862771358 0.012473625542971047 0 0.012264432219731461 0.010517731930012325 0 0.01216297894169688 0.010607312168203945 0 0.012145588013802739 0.010526636447351575 0 0.011430203263147804 0.011325796808531843 0 0.011045841771417953 0.011626316670709139 0 0.010477393210310224 0.012453536328238365 0 0.010420330072240358 0.012530842952002406 0 0.010518395481407847 0.012671237449209366 0 0.010420330072240358 0.012530842952002406 0 0.010518395481407847 0.012671237449209366 0 0.010403374832545994 0.012534110762853509 0 0.010383666862771358 0.012473625542971047 0 0.010420330072240358 0.012530842952002406 0 0.010417874882355852 0.012525872832659084 0 0.010477393210310224 0.012453536328238365 0 0.010383666862771358 0.012473625542971047 0 0.010420330072240358 0.012530842952002406 0 0.010757150404805359 0.012422697271143221 0 0.010477393210310224 0.012453536328238365 0 0.010518395481407847 0.012671237449209366 0 0.01160624128926189 0.014394820990960464 0 0.011993481531380086 0.013787827424919116 0 0.011452447965354757 0.013861086219861131 0 0.01160624128926189 0.014394820990960464 0 0.011452447965354757 0.013861086219861131 0 0.011163241172260105 0.013955478985247599 0 0.01160624128926189 0.014394820990960464 0 0.011993481531380086 0.013787827424919116 0 0.012735509583090698 0.01449520421742273 0 0.011127938247355135 0.013513575553798654 0 0.011435356466532468 0.01359715066755976 0 0.011993481531380086 0.013787827424919116 0 0.012892625805621779 0.013655722051516149 0 0.012735509583090698 0.01449520421742273 0 0.011993481531380086 0.013787827424919116 0 0.011995562307014344 0.01307717940464969 0 0.012892625805621779 0.013655722051516149 0 0.011993481531380086 0.013787827424919116 0 0.011460647791443129 0.013516115118979157 0 0.011995562307014344 0.01307717940464969 0 0.011993481531380086 0.013787827424919116 0 0.011452447965354757 0.013861086219861131 0 0.011460647791443129 0.013516115118979157 0 0.011452447965354757 0.013861086219861131 0 0.011196809877626562 0.013784002591588598 0 0.011460647791443129 0.013516115118979157 0 0.011196809877626562 0.013784002591588598 0 0.011025176548852607 0.013871256748532878 0 0.011107378321601205 0.013751676682258688 0 0.011196809877626562 0.013784002591588598 0 0.011163241172260105 0.013955478985247599 0 0.011025176548852607 0.013871256748532878 0 0.011452447965354757 0.013861086219861131 0 0.011196809877626562 0.013784002591588598 0 0.011163241172260105 0.013955478985247599 0 0.010986464684122992 0.013446899740297889 0 0.011127938247355135 0.013513575553798654 0 0.011026429487981184 0.014124872292366216 0 0.01160624128926189 0.014394820990960464 0 0.011163241172260105 0.013955478985247599 0 0.011026429487981184 0.014124872292366216 0 0.011163241172260105 0.013955478985247599 0 0.011025176548852607 0.013871256748532878 0 0.010870891622179671 0.013910861176037365 0 0.01084292288961859 0.013857548392258737 0 0.011026429487981184 0.014124872292366216 0 0.010870891622179671 0.013910861176037365 0 0.011026429487981184 0.014124872292366216 0 0.011025176548852607 0.013871256748532878 0 0.010906621772421597 0.013844449732602796 0 0.010870891622179671 0.013910861176037365 0 0.011025176548852607 0.013871256748532878 0 0.010724302386188831 0.014178166124304434 0 0.011050911545603462 0.013839290124628074 0 0.010560424886645945 0.014569698536040898 0 0.011107378321601205 0.013751676682258688 0 0.01065153401508542 0.014388157294521271 0 0.010906621772421597 0.013844449732602796 0 0.011025176548852607 0.013871256748532878 0 0.011107378321601205 0.013751676682258688 0 0.011107378321601205 0.013751676682258688 0 0.011164308662806155 0.01361663502490606 0 0.01065153401508542 0.014388157294521271 0 0.011196809877626562 0.013784002591588598 0 0.011107378321601205 0.013751676682258688 0 0.011460647791443129 0.013516115118979157 0 0.011107378321601205 0.013751676682258688 0 0.011164308662806155 0.01361663502490606 0 0.011460647791443129 0.013516115118979157 0 0.011133527852978218 0.015146664970112387 0 0.011361208047548985 0.015615896279660597 0 0.011875415274294423 0.015236620602453763 0 0.012280950819577542 0.015667190144650175 0 0.011361208047548985 0.015615896279660597 0 0.011875415274294423 0.015236620602453763 0 0.011749568026454745 0.014648536079509614 0 0.011053109598205168 0.0149800771997295 0 0.011133527852978218 0.015146664970112387 0 0.011875415274294423 0.015236620602453763 0 0.011754463795406591 0.014998530616991284 0 0.011875415274294423 0.015236620602453763 0 0.011754463795406591 0.014998530616991284 0 0.013076080334451146 0.015017325909059191 0 0.012280950819577542 0.015667190144650175 0 0.011875415274294423 0.015236620602453763 0 0.013076080334451146 0.015017325909059191 0 0.013076080334451146 0.015017325909059191 0 0.013178987493289079 0.01545907817271432 0 0.014033410676750997 0.014726667904795366 0 0.012280950819577542 0.015667190144650175 0 0.013076080334451146 0.015017325909059191 0 0.013178987493289079 0.01545907817271432 0 0.011164308662806155 0.01361663502490606 0 0.011460647791443129 0.013516115118979157 0 0.011995562307014344 0.01307717940464969 0 0.011749568026454745 0.014648536079509614 0 0.012599621971505562 0.014265798723089751 0 0.013178987493289079 0.01545907817271432 0 0.01403212050835316 0.014990736769545184 0 0.014033410676750997 0.014726667904795366 0 0.013076080334451146 0.015017325909059191 0 0.014033410676750997 0.014726667904795366 0 0.015000146079811164 0.014998393970852061 0 0.011754463795406591 0.014998530616991284 0 0.013076080334451146 0.015017325909059191 0 0.015000146079811164 0.014998393970852061 0 0.012599621971505562 0.014265798723089751 0 0.013753921250302647 0.013898129261326084 0 0.01403212050835316 0.014990736769545184 0 0.014512377701864289 0.014412638739799177 0 0.014773977745775843 0.014097751352683327 0 0.01403212050835316 0.014990736769545184 0 0.014512377701864289 0.014412638739799177 0 0.014033410676750997 0.014726667904795366 0 0.014512377701864289 0.014412638739799177 0 0.014033410676750997 0.014726667904795366 0 0.014649428255385151 0.014360082473819244 0 0.015000146079811164 0.014998393970852061 0 0.014998861924947583 0.013694411402946135 0 0.014649428255385151 0.014360082473819244 0 0.014033410676750997 0.014726667904795366 0 0.015000146079811164 0.014998393970852061 0 0.014649428255385151 0.014360082473819244 0 0.014998861924947583 0.013694411402946135 0 0.014649428255385151 0.014360082473819244 0 0.014808681462488347 0.013966667979159981 0 0.014998861924947583 0.013694411402946135 0 0.014920014144301582 0.013607457819353361 0 0.014999905627429993 0.012735616642176479 0 0.014512377701864289 0.014412638739799177 0 0.014808681462488347 0.013966667979159981 0 0.014773977745775843 0.014097751352683327 0 0.014808681462488347 0.013966667979159981 0 0.014920014144301582 0.013607457819353361 0 0.014773977745775843 0.014097751352683327 0 0.014512377701864289 0.014412638739799177 0 0.014649428255385151 0.014360082473819244 0 0.014808681462488347 0.013966667979159981 0 0.014998861924947583 0.013694411402946135 0 0.014808681462488347 0.013966667979159981 0 0.014920014144301582 0.013607457819353361 0 0.014999814516865462 0.012734427859570111 0 0.014963447642688754 0.01347143644152681 0 0.014920014144301582 0.013607457819353361 0 0.014999905627429993 0.012735616642176479 0 0.014773977745775843 0.014097751352683327 0 0.014999984823070179 0.012734228546005444 0 0.015230661495233886 0.012743912679020105 0 0.015360849804665242 0.012895454200663417 0 0.014999984823070179 0.012734228546005444 0 0.015201150926025073 0.012383349684827367 0 0.014999797150214374 0.012135302259578066 0 0.014999984823070179 0.012734228546005444 0 0.015230661495233886 0.012743912679020105 0 0.015201150926025073 0.012383349684827367 0 0.015397276902708663 0.012488605539662046 0 0.015515442671598139 0.012756308284392396 0 0.015851157403618681 0.012497430885742074 0 0.015397276902708663 0.012488605539662046 0 0.015804008698592952 0.012386158293324004 0 0.015822053425847398 0.012231820464570357 0 0.015545789086412938 0.012183727602856353 0 0.014552032597648475 0.011923673061285861 0 0.015201150926025073 0.012383349684827367 0 0.015397276902708663 0.012488605539662046 0 0.015297791335871466 0.012782325224552415 0 0.015230661495233886 0.012743912679020105 0 0.015201150926025073 0.012383349684827367 0 0.015297791335871466 0.012782325224552415 0 0.015230661495233886 0.012743912679020105 0 0.015297791335871466 0.012782325224552415 0 0.015278825941564262 0.013138486971333409 0 0.015297791335871466 0.012782325224552415 0 0.015515442671598139 0.012756308284392396 0 0.015278825941564262 0.013138486971333409 0 0.015515442671598139 0.012756308284392396 0 0.015278825941564262 0.013138486971333409 0 0.015851157403618681 0.012497430885742074 0 0.01524549387732874 0.013008856465132725 0 0.013249208421111975 0.012687713917531264 0 0.015397276902708663 0.012488605539662046 0 0.015297791335871466 0.012782325224552415 0 0.015515442671598139 0.012756308284392396 0 0.015278825941564262 0.013138486971333409 0 0.015360849804665242 0.012895454200663417 0 0.014163507534871085 0.013502688546441642 0 0.015230661495233886 0.012743912679020105 0 0.015278825941564262 0.013138486971333409 0 0.015360849804665242 0.012895454200663417 0 0.013753921250302647 0.013898129261326084 0 0.014963447642688754 0.01347143644152681 0 0.013471411125920651 0.012820231149244774 0 0.015360849804665242 0.012895454200663417 0 0.014163507534871085 0.013502688546441642 0 0.015278825941564262 0.013138486971333409 0 0.014163507534871085 0.013502688546441642 0 0.014629967556331195 0.013666839392141852 0 0.011995562307014344 0.01307717940464969 0 0.013471411125920651 0.012820231149244774 0 0.012892625805621779 0.013655722051516149 0 0.013471411125920651 0.012820231149244774 0 0.014163507534871085 0.013502688546441642 0 0.012892625805621779 0.013655722051516149 0 0.013630720471564294 0.014090993434658229 0 0.012735509583090698 0.01449520421742273 0 0.014501423917755786 0.014467497406033912 0 0.014163507534871085 0.013502688546441642 0 0.012892625805621779 0.013655722051516149 0 0.013630720471564294 0.014090993434658229 0 0.010403374832545994 0.012534110762853509 0 0.010507480228722577 0.012496039455389549 0 0.010449367430322931 0.01252772577233127 0 0.011435356466532468 0.01359715066755976 0 0.013249208421111975 0.012687713917531264 0 0.012892625805621779 0.013655722051516149 0 0.013630720471564294 0.014090993434658229 0 0.012735509583090698 0.01449520421742273 0 0.010403374832545994 0.012534110762853509 0 0.010507480228722577 0.012496039455389549 0 0.01056648379826476 0.012465411193163503 0 0.015278825941564262 0.013138486971333409 0 0.014629967556331195 0.013666839392141852 0 0.014501423917755786 0.014467497406033912 0 0.014629967556331195 0.013666839392141852 0 0.01422064135016733 0.013920967955281529 0 0.014501423917755786 0.014467497406033912 0 0.014163507534871085 0.013502688546441642 0 0.014629967556331195 0.013666839392141852 0 0.01422064135016733 0.013920967955281529 0 0.014163507534871085 0.013502688546441642 0 0.013630720471564294 0.014090993434658229 0 0.01422064135016733 0.013920967955281529 0 0.013630720471564294 0.014090993434658229 0 0.01422064135016733 0.013920967955281529 0 0.014501423917755786 0.014467497406033912 0 0.010507480228722577 0.012496039455389549 0 0.010546805786854678 0.012508053645210364 0 0.01056648379826476 0.012465411193163503 0 0.011368884210580889 0.011965435915340826 0 0.012567359296290452 0.012255439969447945 0 0.015397276902708663 0.012488605539662046 0 0.015851157403618681 0.012497430885742074 0 0.015804008698592952 0.012386158293324004 0 0.015964176606961405 0.012316921695768722 0 0.015851157403618681 0.012497430885742074 0 0.015804008698592952 0.012386158293324004 0 0.015964176606961405 0.012316921695768722 0 0.015804008698592952 0.012386158293324004 0 0.015822053425847398 0.012231820464570357 0 0.012567359296290452 0.012255439969447945 0 0.013249208421111975 0.012687713917531264 0 0.014404864171257295 0.010325877354367899 0 0.014237747727834668 0.010501030969584983 0 0.014382927249029481 0.010534482612901606 0 0.012567359296290452 0.012255439969447945 0 0.014552032597648475 0.011923673061285861 0 0.014552032597648475 0.011923673061285861 0 0.012492629926160521 0.011379614761494305 0 0.010507480228722577 0.012496039455389549 0 0.010480103369067387 0.012548686771483625 0 0.010449367430322931 0.01252772577233127 0 0.012986842104139707 0.01171059643749609 0 0.013042103901308619 0.011741137157550032 0 0.012911258567731147 0.011810107938584505 0 0.010507480228722577 0.012496039455389549 0 0.010534777686925411 0.012509597259794543 0 0.010480103369067387 0.012548686771483625 0 0.012567359296290452 0.012255439969447945 0 0.012492629926160521 0.011379614761494305 0 0.014237747727834668 0.010501030969584983 0 0.014271524508402033 0.010526637678637657 0 0.014382927249029481 0.010534482612901606 0 0.014237747727834668 0.010501030969584983 0 0.014271524508402033 0.010526637678637657 0 0.014141635556362308 0.010431452698157595 0 0.011045841771417953 0.011626316670709139 0 0.012492629926160521 0.011379614761494305 0 0.010383666862771358 0.012473625542971047 0 0.010480103369067387 0.012548686771483625 0 0.010417874882355852 0.012525872832659084 0 0.010403374832545994 0.012534110762853509 0 0.010417874882355852 0.012525872832659084 0 0.010449367430322931 0.01252772577233127 0 0.010420330072240358 0.012530842952002406 0 0.010403374832545994 0.012534110762853509 0 0.010417874882355852 0.012525872832659084 0 0.010480103369067387 0.012548686771483625 0 0.010417874882355852 0.012525872832659084 0 0.010449367430322931 0.01252772577233127 0 0.01216297894169688 0.010607312168203945 0 0.012036635056841093 0.010700544221101633 0 0.012145588013802739 0.010526636447351575 0 0.014237747727834668 0.010501030969584983 0 0.014141635556362308 0.010431452698157595 0 0.014007419224407002 0.010254196070506519 0 0.012492629926160521 0.011379614761494305 0 0.0131967462757972 0.010218040591184386 0 0.014004316658454816 0.010276024617029412 0 0.014141635556362308 0.010431452698157595 0 0.014007419224407002 0.010254196070506519 0 0.014271524508402033 0.010526637678637657 0 0.014382927249029481 0.010534482612901606 0 0.014378551162830036 0.010655755730675943 0 0.014271524508402033 0.010526637678637657 0 0.014141635556362308 0.010431452698157595 0 0.014378551162830036 0.010655755730675943 0 0.014004316658454816 0.010276024617029412 0 0.014141635556362308 0.010431452698157595 0 0.014378551162830036 0.010655755730675943 0 0.015092366319263362 0.011022520917150981 0 0.014378551162830036 0.010655755730675943 0 0.014903756013675259 0.010763912789770376 0 0.015092366319263362 0.011022520917150981 0 0.015000059578001787 0.011534033168937212 0 0.014903756013675259 0.010763912789770376 0 0.014999893956626561 0.011535854875966298 0 0.015104997936809807 0.011339549687052851 0 0.015201150926025073 0.012383349684827367 0 0.014999797150214374 0.012135302259578066 0 0.015331619096199716 0.011958141289399397 0 0.015000016461394997 0.011536187452383677 0 0.014999797150214374 0.012135302259578066 0 0.015331619096199716 0.011958141289399397 0 0.014552032597648475 0.011923673061285861 0 0.015104997936809807 0.011339549687052851 0 0.014382927249029481 0.010534482612901606 0 0.014378551162830036 0.010655755730675943 0 0.014903756013675259 0.010763912789770376 0 0.015201150926025073 0.012383349684827367 0 0.015397276902708663 0.012488605539662046 0 0.015331619096199716 0.011958141289399397 0 0.015397276902708663 0.012488605539662046 0 0.015729582356984458 0.01228871556072202 0 0.015331619096199716 0.011958141289399397 0 0.014404864171257295 0.010325877354367899 0 0.014382927249029481 0.010534482612901606 0 0.014903756013675259 0.010763912789770376 0 0.003071396213864356 0.013289417534119668 0 0.0031776293437045093 0.013243506063391468 0 0.0030132768887485631 0.013182390496280085 0 0.003071396213864356 0.013289417534119668 0 0.0029453680551124952 0.01331618712486381 0 0.0030529461081883064 0.013363511887559458 0 0.003071396213864356 0.013289417534119668 0 0.0031697764435439646 0.013345486533563638 0 0.0031776293437045093 0.013243506063391468 0 0.003071396213864356 0.013289417534119668 0 0.0030529461081883064 0.013363511887559458 0 0.0031697764435439646 0.013345486533563638 0 0.003071396213864356 0.013289417534119668 0 0.0029453680551124952 0.01331618712486381 0 0.0030132768887485631 0.013182390496280085 0 0.0029453680551124952 0.01331618712486381 0 0.0030132768887485631 0.013182390496280085 0 0.0027861301489726258 0.013211378625810496 0 0.0029880472308540279 0.013395087406589909 0 0.0028572899940955644 0.013418255043207556 0 0.0030351732354841256 0.01346269431420595 0 0.0029453680551124952 0.01331618712486381 0 0.0029880472308540279 0.013395087406589909 0 0.0030529461081883064 0.013363511887559458 0 0.0029453680551124952 0.01331618712486381 0 0.0029880472308540279 0.013395087406589909 0 0.0028572899940955644 0.013418255043207556 0 0.0039783490445216858 0.011438742355217938 0 0.0030357189829009813 0.01361987104075253 0 0.0030522172251289787 0.013411903557893739 0 0.0031192470373432304 0.013419374882663062 0 0.0030351732354841256 0.01346269431420595 0 0.0029880472308540279 0.013395087406589909 0 0.0030522172251289787 0.013411903557893739 0 0.0030351732354841256 0.01346269431420595 0 0.0030522172251289787 0.013411903557893739 0 0.0030529461081883064 0.013363511887559458 0 0.0031192470373432304 0.013419374882663062 0 0.0029880472308540279 0.013395087406589909 0 0.0030522172251289787 0.013411903557893739 0 0.0030529461081883064 0.013363511887559458 0 0.0030529461081883064 0.013363511887559458 0 0.0031192470373432304 0.013419374882663062 0 0.0031697764435439646 0.013345486533563638 0 0.0031192470373432304 0.013419374882663062 0 0.0032080116880424292 0.01341868877176134 0 0.0031697764435439646 0.013345486533563638 0 0.0031192470373432304 0.013419374882663062 0 0.0032080116880424292 0.01341868877176134 0 0.0032525526380467649 0.013487771608818134 0 0.0032080116880424292 0.01341868877176134 0 0.003283545138815428 0.013417853108912008 0 0.0032525526380467649 0.013487771608818134 0 0.0031697764435439646 0.013345486533563638 0 0.003283545138815428 0.013417853108912008 0 0.0032751465988038898 0.013270791430049524 0 0.0032080116880424292 0.01341868877176134 0 0.0031697764435439646 0.013345486533563638 0 0.003283545138815428 0.013417853108912008 0 0.003283545138815428 0.013417853108912008 0 0.0032751465988038898 0.013270791430049524 0 0.0034841447224385428 0.013347355750410878 0 0.0034111513655752847 0.013510027749816956 0 0.003283545138815428 0.013417853108912008 0 0.0034841447224385428 0.013347355750410878 0 0.0034111513655752847 0.013510027749816956 0 0.003283545138815428 0.013417853108912008 0 0.0032525526380467649 0.013487771608818134 0 0.0032162378821444584 0.012936961553866295 0 0.0030483245387939411 0.013979694319301334 0 0.0032751465988038898 0.013270791430049524 0 0.0034841447224385428 0.013347355750410878 0 0.0034192195908543297 0.01289350456773718 0 0.0032751465988038898 0.013270791430049524 0 0.0031776293437045093 0.013243506063391468 0 0.0032324618333743459 0.013158489464226618 0 0.0031697764435439646 0.013345486533563638 0 0.0032751465988038898 0.013270791430049524 0 0.0031776293437045093 0.013243506063391468 0 0.0031776293437045093 0.013243506063391468 0 0.0032324618333743459 0.013158489464226618 0 0.0030132768887485631 0.013182390496280085 0 0.0033410745222484757 0.01296588976167847 0 0.003266284933261442 0.013024466981517569 0 0.0034192195908543297 0.01289350456773718 0 0.0030483245387939411 0.013979694319301334 0 0.0035100403556451872 0.012754916369486394 0 0.0032751465988038898 0.013270791430049524 0 0.003154890024688608 0.012966296892574331 0 0.0034192195908543297 0.01289350456773718 0 0.0033410745222484757 0.01296588976167847 0 0.003266284933261442 0.013024466981517569 0 0.0033861667279759615 0.013192137011306861 0 0.0030484443283722499 0.016285531931664283 0 0.0028804203722495795 0.01570992024897553 0 0.0024468780432534286 0.015994199169934886 0 0.0030483245387939411 0.013979694319301334 0 0.003153479020093435 0.014581123998065595 0 0.0028804203722495795 0.01570992024897553 0 0.0024468780432534286 0.015994199169934886 0 0.0022746970222325591 0.015593909083466471 0 0.0024468780432534286 0.015994199169934886 0 0.0018541926714332627 0.015980720868918292 0 0.0022746970222325591 0.015593909083466471 0 0.0030484443283722499 0.016285531931664283 0 0.0024468780432534286 0.015994199169934886 0 0.0021541858532370421 0.016400503700772635 0 0.0030483245387939411 0.013979694319301334 0 0.0025954418225904059 0.014905169969755102 0 0.0021541858532370421 0.016400503700772635 0 0.0018541926714332627 0.015980720868918292 0 0.0012256828871405946 0.016476203896486605 0 0.0025954418225904059 0.014905169969755102 0 0.0020129665513073268 0.014774242766098183 0 0.0024468780432534286 0.015994199169934886 0 0.0021541858532370421 0.016400503700772635 0 0.0018541926714332627 0.015980720868918292 0 0.0018541926714332627 0.015980720868918292 0 0.0016810874076359718 0.015554036727915201 0 0.0022746970222325591 0.015593909083466471 0 0.0018541926714332627 0.015980720868918292 0 0.0012995831075640924 0.015843129062790586 0 0.0016810874076359718 0.015554036727915201 0 0.0012995831075640924 0.015843129062790586 0 0.0007742399206864364 0.015737873661037842 0 0.0011040876462845494 0.015397783676163205 0 0.0012995831075640924 0.015843129062790586 0 0.0007742399206864364 0.015737873661037842 0 0.0012256828871405946 0.016476203896486605 0 0.0007742399206864364 0.015737873661037842 0 0.0012256828871405946 0.016476203896486605 0 0.00044436154640373904 0.01632685944581385 0 0.0020129665513073268 0.014774242766098183 0 0.0014286153535058926 0.01524424873863851 0 0.0018541926714332627 0.015980720868918292 0 0.0012995831075640924 0.015843129062790586 0 0.0012256828871405946 0.016476203896486605 0 -0.0001329031394588486 0.013768193064835371 0 -0.0003081777305329291 0.013713370974456136 0 -0.00015711203738486102 0.013465277791891495 0 -0.0001329031394588486 0.013768193064835371 0 -0.0003081777305329291 0.013713370974456136 0 -0.00013304848364148228 0.014087506089339666 0 0.0007742399206864364 0.015737873661037842 0 0.00057931905962432426 0.015753680769079532 0 0.00062338943850446182 0.015759138338093902 0 0.0007742399206864364 0.015737873661037842 0 0.00061469062407732431 0.015762944384426526 0 0.00062338943850446182 0.015759138338093902 0 6.4063738560044448e-05 0.014756103427774841 0 0.00033203239456067857 0.014824938156894845 0 0.00073551899256310061 0.015749430589534794 0 0.00063186850655315343 0.016066373680395419 0 0.0007742399206864364 0.015737873661037842 0 0.00057931905962432426 0.015753680769079532 0 0.00061410477950712961 0.015410858215583492 0 0.0012256828871405946 0.016476203896486605 0 0.00044436154640373904 0.01632685944581385 0 0.00031910843123378308 0.016535634125844682 0 0.00061469062407732431 0.015762944384426526 0 0.00063570975086479074 0.015723013870787107 0 0.00064989928555687112 0.015659187627669539 0 0.00061469062407732431 0.015762944384426526 0 0.00064989928555687112 0.015659187627669539 0 0.00062487880658035724 0.015699572475275869 0 0.00061469062407732431 0.015762944384426526 0 0.00063570975086479074 0.015723013870787107 0 0.000631035112834614 0.015736913070965856 0 0.00063186850655315343 0.016066373680395419 0 0.0014286153535058926 0.01524424873863851 0 0.00061469062407732431 0.015762944384426526 0 0.00062338943850446182 0.015759138338093902 0 0.000631035112834614 0.015736913070965856 0 0.00057931905962432426 0.015753680769079532 0 0.00067771347000374885 0.015708270646280297 0 0.00071907937898957385 0.015697143392841173 0 0.00057931905962432426 0.015753680769079532 0 0.000631035112834614 0.015736913070965856 0 0.00067771347000374885 0.015708270646280297 0 6.4063738560044448e-05 0.014756103427774841 0 0.00090352499998935462 0.014349266280706055 0 -0.0003081777305329291 0.013713370974456136 0 -0.00015711203738486102 0.013465277791891495 0 -0.0001869916471170724 0.013119423725384074 0 0.00057931905962432426 0.015753680769079532 0 0.00062338943850446182 0.015759138338093902 0 0.000631035112834614 0.015736913070965856 0 0.00063570975086479074 0.015723013870787107 0 0.000631035112834614 0.015736913070965856 0 0.00065045565651662858 0.015713383795640752 0 0.00063570975086479074 0.015723013870787107 0 0.00065045565651662858 0.015713383795640752 0 0.00064975403112538493 0.0156923044055805 0 0.00065045565651662858 0.015713383795640752 0 0.00067771347000374885 0.015708270646280297 0 0.00066873058229780294 0.015691619952206869 0 0.00065045565651662858 0.015713383795640752 0 0.00066873058229780294 0.015691619952206869 0 0.00064975403112538493 0.0156923044055805 0 0.000631035112834614 0.015736913070965856 0 0.00065045565651662858 0.015713383795640752 0 0.00067771347000374885 0.015708270646280297 0 -0.00015711203738486102 0.013465277791891495 0 -0.0001869916471170724 0.013119423725384074 0 -0.00012190364320527236 0.013258438323851407 0 0.0022509680444535818 0.011671261166411382 0 0.0023315176220442251 0.011651551940489838 0 0.0022026140736711389 0.01160971441837046 0 0.0021644404225454588 0.012751315742273452 0 0.0013679455126252538 0.012952429119019107 0 0.0022509680444535818 0.011671261166411382 0 0.0023010326316760233 0.011688742726718179 0 0.0022640854843473416 0.011704289373020369 0 0.0022509680444535818 0.011671261166411382 0 0.0023010326316760233 0.011688742726718179 0 0.0023315176220442251 0.011651551940489838 0 0.00090352499998935462 0.014349266280706055 0 0.0021644404225454588 0.012751315742273452 0 0.0014755758637314642 0.013182495262300239 0 0.0015560004228557759 0.013284802532629597 0 0.0014304907855315894 0.013244426476999149 0 0.00071907937898957385 0.015697143392841173 0 0.00067974088589357765 0.015636389625112542 0 0.00067926092141185632 0.015598247497751978 0 0.00067771347000374885 0.015708270646280297 0 0.00071907937898957385 0.015697143392841173 0 0.00068747844102709196 0.015682285750110807 0 0.00071907937898957385 0.015697143392841173 0 0.00068747844102709196 0.015682285750110807 0 0.00067974088589357765 0.015636389625112542 0 0.00067771347000374885 0.015708270646280297 0 0.00068747844102709196 0.015682285750110807 0 0.00066873058229780294 0.015691619952206869 0 0.00068747844102709196 0.015682285750110807 0 0.00067550822793202103 0.015664600706585485 0 0.00066873058229780294 0.015691619952206869 0 0.00068747844102709196 0.015682285750110807 0 0.00067974088589357765 0.015636389625112542 0 0.00067550822793202103 0.015664600706585485 0 0.0027974345016882575 0.012144251907573711 0 0.0014286153535058926 0.01524424873863851 0 0.00067974088589357765 0.015636389625112542 0 0.00064989928555687112 0.015659187627669539 0 0.00066596444665322136 0.015621967895988543 0 0.00067974088589357765 0.015636389625112542 0 0.00066718558701789994 0.015657884414326067 0 0.00064989928555687112 0.015659187627669539 0 0.00064989928555687112 0.015659187627669539 0 0.00065683864513482737 0.015591768586668329 0 0.00062487880658035724 0.015699572475275869 0 0.00063570975086479074 0.015723013870787107 0 0.00064975403112538493 0.0156923044055805 0 0.00064989928555687112 0.015659187627669539 0 0.00066718558701789994 0.015657884414326067 0 0.00066353488625351569 0.015670828333520626 0 0.00064989928555687112 0.015659187627669539 0 0.00067974088589357765 0.015636389625112542 0 0.00066718558701789994 0.015657884414326067 0 0.00067550822793202103 0.015664600706585485 0 0.00066718558701789994 0.015657884414326067 0 0.00067550822793202103 0.015664600706585485 0 0.00066353488625351569 0.015670828333520626 0 0.00066353488625351569 0.015670828333520626 0 0.00064975403112538493 0.0156923044055805 0 0.00064989928555687112 0.015659187627669539 0 0.00067550822793202103 0.015664600706585485 0 0.00066353488625351569 0.015670828333520626 0 0.00066873058229780294 0.015691619952206869 0 0.00066353488625351569 0.015670828333520626 0 0.00066873058229780294 0.015691619952206869 0 0.00064975403112538493 0.0156923044055805 0 0.0049700874634782044 0.0093966817420840388 0 0.0049453649877032246 0.0093671737824803716 0 0.004960639310304547 0.0093802611978359429 0 0.00064989928555687112 0.015659187627669539 0 0.00066596444665322136 0.015621967895988543 0 0.00065683864513482737 0.015591768586668329 0 0.00067974088589357765 0.015636389625112542 0 0.00066596444665322136 0.015621967895988543 0 0.00067926092141185632 0.015598247497751978 0 0.00066596444665322136 0.015621967895988543 0 0.00067926092141185632 0.015598247497751978 0 0.00065683864513482737 0.015591768586668329 0 0.0023010326316760233 0.011688742726718179 0 0.0023315176220442251 0.011651551940489838 0 0.0023568743027282488 0.011660158382754457 0 0.0021644404225454588 0.012751315742273452 0 0.0027974345016882575 0.012144251907573711 0 0.0025329193475298589 0.013306383058587052 0 0.0026322925089836582 0.013299628022801456 0 0.0026921006237645376 0.013359620012854772 0 0.0025758205756359741 0.013236018117151284 0 0.0026322925089836582 0.013299628022801456 0 0.0027055737310572319 0.013276086708600617 0 0.0025329193475298589 0.013306383058587052 0 0.0025758205756359741 0.013236018117151284 0 0.0026322925089836582 0.013299628022801456 0 0.0026322925089836582 0.013299628022801456 0 0.0026834903003098254 0.013312653539893818 0 0.0026921006237645376 0.013359620012854772 0 0.0027974345016882575 0.012144251907573711 0 0.0039155512779781593 0.011302915086525363 0 0.0049382185905596154 0.0093293231278766178 0 0.004932227394066682 0.0093260669979929062 0 0.0049763669048204602 0.0093396249419382127 0 0.0049700874634782044 0.0093966817420840388 0 0.0049453649877032246 0.0093671737824803716 0 0.0049019662736494796 0.009355910166695661 0 0.0049280664286101587 0.0093470310488597743 0 0.0049453649877032246 0.0093671737824803716 0 0.0049019662736494796 0.009355910166695661 0 0.0049382185905596154 0.0093293231278766178 0 0.0049280664286101587 0.0093470310488597743 0 0.0049019662736494796 0.009355910166695661 0 0.0049382185905596154 0.0093293231278766178 0 0.0049280664286101587 0.0093470310488597743 0 0.004932227394066682 0.0093260669979929062 0 0.0050963919657131167 0.0093945800817542453 0 0.004114352274915441 0.0095787986355573788 0 0.0049280664286101587 0.0093470310488597743 0 0.0049453649877032246 0.0093671737824803716 0 0.0049576017085744576 0.0093647366071380137 0 0.0049453649877032246 0.0093671737824803716 0 0.004960639310304547 0.0093802611978359429 0 0.0049576017085744576 0.0093647366071380137 0 0.0027974345016882575 0.012144251907573711 0 0.004114352274915441 0.0095787986355573788 0 0.004114352274915441 0.0095787986355573788 0 0.0033194819989627615 0.0099730933560020513 0 0.0049700874634782044 0.0093966817420840388 0 0.004960639310304547 0.0093802611978359429 0 0.0049576017085744576 0.0093647366071380137 0 0.0027974345016882575 0.012144251907573711 0 0.0033194819989627615 0.0099730933560020513 0 0.0033680473103151229 0.010725486980164916 0 0.0031589034723535307 0.010297798676637123 0 0.0036265014272499432 0.010285799781510929 0 0.0043316623612552263 0.008352537358845483 0 0.0041915789261479089 0.0083587913907989305 0 0.0042707718769187664 0.0085326996280122216 0 0.0023010326316760233 0.011688742726718179 0 0.0023568743027282488 0.011660158382754457 0 0.0023048605780988658 0.011744324876781015 0 0.0023048605780988658 0.011744324876781015 0 0.0022640854843473416 0.011704289373020369 0 0.0021993039756509187 0.011712876712333448 0 0.0023010326316760233 0.011688742726718179 0 0.0023048605780988658 0.011744324876781015 0 0.0022640854843473416 0.011704289373020369 0 0.0029453680551124952 0.01331618712486381 0 0.0027861301489726258 0.013211378625810496 0 0.0027911491688781013 0.013335793640852594 0 0.0027861301489726258 0.013211378625810496 0 0.0025758205756359741 0.013236018117151284 0 0.0027055737310572319 0.013276086708600617 0 0.0027861301489726258 0.013211378625810496 0 0.0027055737310572319 0.013276086708600617 0 0.0027911491688781013 0.013335793640852594 0 0.0026322925089836582 0.013299628022801456 0 0.0027055737310572319 0.013276086708600617 0 0.0026834903003098254 0.013312653539893818 0 0.0027055737310572319 0.013276086708600617 0 0.0027275111132142767 0.013323506985002552 0 0.0026834903003098254 0.013312653539893818 0 0.0027275111132142767 0.013323506985002552 0 0.0026834903003098254 0.013312653539893818 0 0.0026921006237645376 0.013359620012854772 0 0.0027055737310572319 0.013276086708600617 0 0.0027275111132142767 0.013323506985002552 0 0.0027911491688781013 0.013335793640852594 0 0.0049019662736494796 0.009355910166695661 0 0.004859117054811915 0.0093626222935851832 0 0.0047641886283601104 0.0094127927277971729 0 0.0039155512779781593 0.011302915086525363 0 0.0039783490445216858 0.011438742355217938 0 0.0049382185905596154 0.0093293231278766178 0 0.005006748532422574 0.0092956248091798054 0 0.0049763669048204602 0.0093396249419382127 0 0.0026921006237645376 0.013359620012854772 0 0.0027911491688781013 0.013335793640852594 0 0.0028572899940955644 0.013418255043207556 0 0.0027275111132142767 0.013323506985002552 0 0.0026921006237645376 0.013359620012854772 0 0.0027911491688781013 0.013335793640852594 0 0.0049382185905596154 0.0093293231278766178 0 0.0049019662736494796 0.009355910166695661 0 0.004859117054811915 0.0093626222935851832 0 0.0049174595888685875 0.0093316198812249933 0 0.0050130217467418657 0.0094262026988886673 0 0.0029453680551124952 0.01331618712486381 0 0.0027911491688781013 0.013335793640852594 0 0.0028572899940955644 0.013418255043207556 0 0.0050130217467418657 0.0094262026988886673 0 0.0039783490445216858 0.011438742355217938 0 0.005006748532422574 0.0092956248091798054 0 0.0050769203854421205 0.0092820670165313091 0 0.0050388159130191901 0.0093253815586903637 0 0.0050769203854421205 0.0092820670165313091 0 0.0050388159130191901 0.0093253815586903637 0 0.0051269532935206879 0.0093194476657670073 0 0.0050388159130191901 0.0093253815586903637 0 0.0050881357894993059 0.0093545411381529137 0 0.0051269532935206879 0.0093194476657670073 0 0.005006748532422574 0.0092956248091798054 0 0.0050388159130191901 0.0093253815586903637 0 0.0049763669048204602 0.0093396249419382127 0 0.0045910897475598955 0.0086718085751165703 0 0.0043827579790855827 0.0089728121258149853 0 0.0048627915930099588 0.0090255833832889581 0 0.0048307372410907141 0.0088894190922331785 0 0.0049577787511254521 0.0092328377957987609 0 0.0050388159130191901 0.0093253815586903637 0 0.0049763669048204602 0.0093396249419382127 0 0.0050607154327385493 0.0093941273948346549 0 0.0050881357894993059 0.0093545411381529137 0 0.0050607154327385493 0.0093941273948346549 0 0.0051445855135028818 0.009362410704424921 0 0.0050388159130191901 0.0093253815586903637 0 0.0050881357894993059 0.0093545411381529137 0 0.0050607154327385493 0.0093941273948346549 0 0.0041915789261479089 0.0083587913907989305 0 0.0042707718769187664 0.0085326996280122216 0 0.0039815253641244785 0.0086865989552189667 0 0.0042752051054206104 0.0086986342274643219 0 0.0042707718769187664 0.0085326996280122216 0 0.0039815253641244785 0.0086865989552189667 0 0.0043316623612552263 0.008352537358845483 0 0.0042707718769187664 0.0085326996280122216 0 0.0045910897475598955 0.0086718085751165703 0 0.004114352274915441 0.0095787986355573788 0 0.0048307372410907141 0.0088894190922331785 0 0.0042752051054206104 0.0086986342274643219 0 0.0042707718769187664 0.0085326996280122216 0 0.0045910897475598955 0.0086718085751165703 0 0.0042752051054206104 0.0086986342274643219 0 0.0045910897475598955 0.0086718085751165703 0 0.0043827579790855827 0.0089728121258149853 0 0.0043827579790855827 0.0089728121258149853 0 0.0041631979019953764 0.0088535780213880103 0 0.004018357541048732 0.0090593765163957396 0 0.0042752051054206104 0.0086986342274643219 0 0.0041631979019953764 0.0088535780213880103 0 0.0039815253641244785 0.0086865989552189667 0 0.0042752051054206104 0.0086986342274643219 0 0.0043827579790855827 0.0089728121258149853 0 0.0041631979019953764 0.0088535780213880103 0 0.0043827579790855827 0.0089728121258149853 0 0.0041807905925645593 0.0092885725206388794 0 0.004018357541048732 0.0090593765163957396 0 0.0043827579790855827 0.0089728121258149853 0 0.0045937126262053348 0.0094113046820074077 0 0.0041807905925645593 0.0092885725206388794 0 0.0045238144147711481 0.0095269847051174909 0 0.0046530484421606361 0.0093016422341894462 0 0.0042550660148900007 0.0092299127613407091 0 0.004626664507751739 0.0093603135096091521 0 0.0042128947225506391 0.0092599549198526098 0 0.0050607154327385493 0.0093941273948346549 0 0.0051023409383046271 0.0094219653079629876 0 0.0051579172035416433 0.0094054886511401401 0 0.0049577787511254521 0.0092328377957987609 0 0.0050935437816044355 0.0094000352792109661 0 0.0048627915930099588 0.0090255833832889581 0 0.0048810324331606857 0.0093062392519090847 0 0.0051023409383046271 0.0094219653079629876 0 0.0050607154327385493 0.0093941273948346549 0 0.0051579172035416433 0.0094054886511401401 0 0.0051445855135028818 0.009362410704424921 0 0.0045937126262053348 0.0094113046820074077 0 0.0048627915930099588 0.0090255833832889581 0 0.0048810324331606857 0.0093062392519090847 0 0.0043827579790855827 0.0089728121258149853 0 0.0045937126262053348 0.0094113046820074077 0 0.0048627915930099588 0.0090255833832889581 0 0.0049667833461861802 0.0094626207667101985 0 0.004626664507751739 0.0093603135096091521 0 0.0049957040062820444 0.0094744814505301426 0 0.0045937126262053348 0.0094113046820074077 0 0.0048810324331606857 0.0093062392519090847 0 0.0051102557831524485 0.0095127655060451063 0 0.0049957040062820444 0.0094744814505301426 0 0.0051023409383046271 0.0094219653079629876 0 0.0049957040062820444 0.0094744814505301426 0 0.0048810324331606857 0.0093062392519090847 0 0.0051023409383046271 0.0094219653079629876 0 0.0051023409383046271 0.0094219653079629876 0 0.0051981237855841878 0.0094940628200940926 0 0.0051579172035416433 0.0094054886511401401 0 0.0051102557831524485 0.0095127655060451063 0 0.0051023409383046271 0.0094219653079629876 0 0.0051981237855841878 0.0094940628200940926 0 0.0051981237855841878 0.0094940628200940926 0 0.0052669141402038435 0.0094492850421296435 0 0.0051579172035416433 0.0094054886511401401 0 0.0053347922100933165 0.0095842299496223544 0 0.0051981237855841878 0.0094940628200940926 0 0.0052669141402038435 0.0094492850421296435 0 0.0053347922100933165 0.0095842299496223544 0 0.0052669141402038435 0.0094492850421296435 0 0.0053692719614129207 0.0094778934639215932 0 0.0052669141402038435 0.0094492850421296435 0 0.0052202008411307817 0.0093792491509644884 0 0.0051579172035416433 0.0094054886511401401 0 0.0052669141402038435 0.0094492850421296435 0 0.0052202008411307817 0.0093792491509644884 0 0.0053298541114139572 0.0094003702096847296 0 0.0052202008411307817 0.0093792491509644884 0 0.0051579172035416433 0.0094054886511401401 0 0.0051445855135028818 0.009362410704424921 0 0.0050881357894993059 0.0093545411381529137 0 0.0051445855135028818 0.009362410704424921 0 0.0051269532935206879 0.0093194476657670073 0 0.0051445855135028818 0.009362410704424921 0 0.0051269532935206879 0.0093194476657670073 0 0.0051766008048172362 0.0093243283541969632 0 0.0051445855135028818 0.009362410704424921 0 0.0052100147179907049 0.0093393872271650587 0 0.0051766008048172362 0.0093243283541969632 0 0.0052202008411307817 0.0093792491509644884 0 0.0051445855135028818 0.009362410704424921 0 0.0052100147179907049 0.0093393872271650587 0 0.0052202008411307817 0.0093792491509644884 0 0.0052696447730330451 0.0093459226554431455 0 0.0053298541114139572 0.0094003702096847296 0 0.0052202008411307817 0.0093792491509644884 0 0.0052696447730330451 0.0093459226554431455 0 0.0052100147179907049 0.0093393872271650587 0 0.0052696447730330451 0.0093459226554431455 0 0.0052100147179907049 0.0093393872271650587 0 0.0052406988713396829 0.0093245321369707611 0 0.0031192470373432304 0.013419374882663062 0 0.0030351732354841256 0.01346269431420595 0 0.0032525526380467649 0.013487771608818134 0 0.0033248599297630173 0.01341459212526592 0 0.0033224792961887265 0.01340678708790796 0 0.0032525526380467649 0.013487771608818134 0 0.0052073625499106033 0.0093208450229835399 0 0.0052014991801923836 0.0092934252363120196 0 0.0051766008048172362 0.0093243283541969632 0 0.0052073625499106033 0.0093208450229835399 0 0.0052406988713396829 0.0093245321369707611 0 0.0052014991801923836 0.0092934252363120196 0 0.0042243365533849112 0.011382258697864514 0 0.0048344757040320605 0.010976074269763419 0 0.0052100147179907049 0.0093393872271650587 0 0.0052073625499106033 0.0093208450229835399 0 0.0051766008048172362 0.0093243283541969632 0 0.0052406988713396829 0.0093245321369707611 0 0.0052014991801923836 0.0092934252363120196 0 0.0053012225976644444 0.0093305176306379082 0 0.0030357189829009813 0.01361987104075253 0 0.0032936384614117445 0.013447053515826292 0 0.0052100147179907049 0.0093393872271650587 0 0.0052073625499106033 0.0093208450229835399 0 0.0052406988713396829 0.0093245321369707611 0 0.0050769203854421205 0.0092820670165313091 0 0.0052014991801923836 0.0092934252363120196 0 0.0051269532935206879 0.0093194476657670073 0 0.0039783490445216858 0.011438742355217938 0 0.0042243365533849112 0.011382258697864514 0 0.0034424336160510495 0.013323917920991574 0 0.0033248599297630173 0.01341459212526592 0 0.0033224792961887265 0.01340678708790796 0 0.0052014991801923836 0.0092934252363120196 0 0.0051269532935206879 0.0093194476657670073 0 0.0051766008048172362 0.0093243283541969632 0 0.0046564604567225021 0.01290474593784355 0 0.0048344757040320605 0.010976074269763419 0 0.0060624034052804863 0.011888409224598885 0 0.0061551305537896174 0.011611303468168471 0 0.0064301546822094265 0.011557695075090132 0 0.0034111513655752847 0.013510027749816956 0 0.0032525526380467649 0.013487771608818134 0 0.0032548300249680704 0.013493603148502202 0 0.0061551305537896174 0.011611303468168471 0 0.0064301546822094265 0.011557695075090132 0 0.0060506220235083223 0.011432495449991866 0 0.0061551305537896174 0.011611303468168471 0 0.0060506220235083223 0.011432495449991866 0 0.0059892445015179803 0.011609842891914902 0 0.0060624034052804863 0.011888409224598885 0 0.0061551305537896174 0.011611303468168471 0 0.0059892445015179803 0.011609842891914902 0 0.0033224792961887265 0.01340678708790796 0 0.0032525526380467649 0.013487771608818134 0 0.0032548300249680704 0.013493603148502202 0 0.0052696447730330451 0.0093459226554431455 0 0.0052406988713396829 0.0093245321369707611 0 0.0053012225976644444 0.0093305176306379082 0 0.0053587259034238287 0.0092953623687702259 0 0.0053377182521134169 0.0093550482845690709 0 0.0053922792494894012 0.0093695762348736666 0 0.0052696447730330451 0.0093459226554431455 0 0.0053587259034238287 0.0092953623687702259 0 0.0053377182521134169 0.0093550482845690709 0 0.005657468894177101 0.0091481496400862301 0 0.0048344757040320605 0.010976074269763419 0 0.0052696447730330451 0.0093459226554431455 0 0.0053377182521134169 0.0093550482845690709 0 0.0053298541114139572 0.0094003702096847296 0 0.0053377182521134169 0.0093550482845690709 0 0.0053922792494894012 0.0093695762348736666 0 0.0053298541114139572 0.0094003702096847296 0 0.0048344757040320605 0.010976074269763419 0 0.0058343293932409538 0.010693790727113364 0 0.0053922792494894012 0.0093695762348736666 0 0.0054580742534652994 0.0093383834376768969 0 0.005430910098227432 0.0094370069167617632 0 0.0058343293932409538 0.010693790727113364 0 0.0056189115761685945 0.010054108551865547 0 0.0053587259034238287 0.0092953623687702259 0 0.0053922792494894012 0.0093695762348736666 0 0.0054580742534652994 0.0093383834376768969 0 0.0058358243266548272 0.010814005474578812 0 0.0056445104545297751 0.01057400930418702 0 0.0056991975841669262 0.010985106471060709 0 0.0057768126665923691 0.011187067654902679 0 0.0058358243266548272 0.010814005474578812 0 0.0056991975841669262 0.010985106471060709 0 0.005430910098227432 0.0094370069167617632 0 0.0053298541114139572 0.0094003702096847296 0 0.0053692719614129207 0.0094778934639215932 0 0.0052669141402038435 0.0094492850421296435 0 0.0053298541114139572 0.0094003702096847296 0 0.0053692719614129207 0.0094778934639215932 0 0.0053922792494894012 0.0093695762348736666 0 0.005430910098227432 0.0094370069167617632 0 0.0053298541114139572 0.0094003702096847296 0 0.005458400947074199 0.0095587564399284061 0 0.0053347922100933165 0.0095842299496223544 0 0.0053692719614129207 0.0094778934639215932 0 0.005458400947074199 0.0095587564399284061 0 0.005430910098227432 0.0094370069167617632 0 0.0053692719614129207 0.0094778934639215932 0 0.0055819387323852556 0.0099832527384308856 0 0.0056189115761685945 0.010054108551865547 0 0.0057425533642676404 0.010330091553819622 0 0.0058358243266548272 0.010814005474578812 0 0.0056445104545297751 0.01057400930418702 0 0.0054834378719966007 0.010328398842364651 0 0.0055246762748104869 0.010741947973041795 0 0.0056445104545297751 0.01057400930418702 0 0.0055246762748104869 0.010741947973041795 0 0.0056445104545297751 0.01057400930418702 0 0.0056991975841669262 0.010985106471060709 0 0.0055246762748104869 0.010741947973041795 0 0.0056991975841669262 0.010985106471060709 0 0.005594249056548815 0.011188525198552176 0 0.0055246762748104869 0.010741947973041795 0 0.005418141498107861 0.010982362004840049 0 0.005594249056548815 0.011188525198552176 0 0.0055246762748104869 0.010741947973041795 0 0.005418141498107861 0.010982362004840049 0 0.0053398005621532393 0.010632322912627048 0 0.0054834378719966007 0.010328398842364651 0 0.0055246762748104869 0.010741947973041795 0 0.0053398005621532393 0.010632322912627048 0 0.0053398005621532393 0.010632322912627048 0 0.0052290879380055199 0.010667170474597044 0 0.0052661226412769836 0.011016442053758374 0 0.0052290879380055199 0.010667170474597044 0 0.0052661226412769836 0.011016442053758374 0 0.0051429390086473832 0.010989435343650763 0 0.0052661226412769836 0.011016442053758374 0 0.0051510677579187031 0.011472706385414616 0 0.0051429390086473832 0.010989435343650763 0 0.005418141498107861 0.010982362004840049 0 0.0053398005621532393 0.010632322912627048 0 0.0052661226412769836 0.011016442053758374 0 0.005418141498107861 0.010982362004840049 0 0.0052661226412769836 0.011016442053758374 0 0.0053580533231118435 0.011392289228040397 0 0.0052661226412769836 0.011016442053758374 0 0.0051510677579187031 0.011472706385414616 0 0.0053580533231118435 0.011392289228040397 0 0.0051510677579187031 0.011472706385414616 0 0.0051578795655124413 0.011829965215670665 0 0.0050110614948412737 0.012046086181789031 0 0.0051510677579187031 0.011472706385414616 0 0.0051578795655124413 0.011829965215670665 0 0.0053580533231118435 0.011392289228040397 0 0.0051578795655124413 0.011829965215670665 0 0.0054772955400341347 0.011784463474752304 0 0.0053580533231118435 0.011392289228040397 0 0.0054772955400341347 0.011784463474752304 0 0.0057120023471287111 0.011544568794790587 0 0.0053580533231118435 0.011392289228040397 0 0.0054772955400341347 0.011784463474752304 0 0.0057748098650619271 0.011820635706473296 0 0.0057120023471287111 0.011544568794790587 0 0.0060624034052804863 0.011888409224598885 0 0.0057748098650619271 0.011820635706473296 0 0.0059892445015179803 0.011609842891914902 0 0.0058343293932409538 0.010693790727113364 0 0.0058105330759686529 0.011503032311678376 0 0.0060768255879956991 0.01136805523622268 0 0.0059892445015179803 0.011609842891914902 0 0.0057120023471287111 0.011544568794790587 0 0.0057748098650619271 0.011820635706473296 0 0.0059892445015179803 0.011609842891914902 0 0.0057120023471287111 0.011544568794790587 0 0.0057768126665923691 0.011187067654902679 0 0.0056991975841669262 0.010985106471060709 0 0.005594249056548815 0.011188525198552176 0 0.0058343293932409538 0.010693790727113364 0 0.0057050234054711879 0.011250473660108317 0 0.0060768255879956991 0.01136805523622268 0 0.0057120023471287111 0.011544568794790587 0 0.005594249056548815 0.011188525198552176 0 0.0057120023471287111 0.011544568794790587 0 0.0053580533231118435 0.011392289228040397 0 0.005594249056548815 0.011188525198552176 0 0.005418141498107861 0.010982362004840049 0 0.0053580533231118435 0.011392289228040397 0 0.005594249056548815 0.011188525198552176 0 0.0048426327764971083 0.010951407364676065 0 0.0049704744998894379 0.011184443831560758 0 0.0048941474608838543 0.011403067207549219 0 0.0046349572376220387 0.011377425340098293 0 0.0048426327764971083 0.010951407364676065 0 0.0048941474608838543 0.011403067207549219 0 0.0049058825152374606 0.010521652859119967 0 0.0045814785618885877 0.010784168027546125 0 0.0048426327764971083 0.010951407364676065 0 0.0048426327764971083 0.010951407364676065 0 0.0049704744998894379 0.011184443831560758 0 0.0050303145599091877 0.010806260955480745 0 0.0049058825152374606 0.010521652859119967 0 0.0048426327764971083 0.010951407364676065 0 0.0050303145599091877 0.010806260955480745 0 0.0050489790285106334 0.011266765665240768 0 0.0050303145599091877 0.010806260955480745 0 0.0051429390086473832 0.010989435343650763 0 0.0049704744998894379 0.011184443831560758 0 0.0050489790285106334 0.011266765665240768 0 0.0050303145599091877 0.010806260955480745 0 0.0051610420108943247 0.010487317013109444 0 0.0050303145599091877 0.010806260955480745 0 0.0051429390086473832 0.010989435343650763 0 0.0051610420108943247 0.010487317013109444 0 0.0052290879380055199 0.010667170474597044 0 0.0051429390086473832 0.010989435343650763 0 0.0050489790285106334 0.011266765665240768 0 0.0051429390086473832 0.010989435343650763 0 0.0050672835895531803 0.011570921139831256 0 0.0051510677579187031 0.011472706385414616 0 0.0051429390086473832 0.010989435343650763 0 0.0050672835895531803 0.011570921139831256 0 0.0050672835895531803 0.011570921139831256 0 0.0050418553363189636 0.011890197347077136 0 0.0050110614948412737 0.012046086181789031 0 0.0051510677579187031 0.011472706385414616 0 0.0050672835895531803 0.011570921139831256 0 0.0050110614948412737 0.012046086181789031 0 0.0050672835895531803 0.011570921139831256 0 0.0050418553363189636 0.011890197347077136 0 0.0050143317029165196 0.011708527942686051 0 0.0050489790285106334 0.011266765665240768 0 0.0050672835895531803 0.011570921139831256 0 0.0050143317029165196 0.011708527942686051 0 0.0050427709834131081 0.011922802284399453 0 0.0050143317029165196 0.011708527942686051 0 0.0048941474608838543 0.011403067207549219 0 0.0050427709834131081 0.011922802284399453 0 0.0050143317029165196 0.011708527942686051 0 0.0051032076011606406 0.012084910673690608 0 0.0049704744998894379 0.011184443831560758 0 0.0050489790285106334 0.011266765665240768 0 0.0050143317029165196 0.011708527942686051 0 0.0049704744998894379 0.011184443831560758 0 0.0050143317029165196 0.011708527942686051 0 0.0048941474608838543 0.011403067207549219 0 0.0052244149961180849 0.012353615576704884 0 0.0051032076011606406 0.012084910673690608 0 0.0051525898748276452 0.012337427823513745 0 0.0050427709834131081 0.011922802284399453 0 0.0052244149961180849 0.012353615576704884 0 0.0051032076011606406 0.012084910673690608 0 0.0050143317029165196 0.011708527942686051 0 0.0051032076011606406 0.012084910673690608 0 0.0050758852095395711 0.012167305141719403 0 0.0051032076011606406 0.012084910673690608 0 0.0050758852095395711 0.012167305141719403 0 0.0051525898748276452 0.012337427823513745 0 0.0050758852095395711 0.012167305141719403 0 0.0050800187209856492 0.012365590517922779 0 0.0051525898748276452 0.012337427823513745 0 0.0050418553363189636 0.011890197347077136 0 0.0050758852095395711 0.012167305141719403 0 0.0050110614948412737 0.012046086181789031 0 0.0050418553363189636 0.011890197347077136 0 0.0050143317029165196 0.011708527942686051 0 0.0050758852095395711 0.012167305141719403 0 0.0050758852095395711 0.012167305141719403 0 0.0050110614948412737 0.012046086181789031 0 0.0049920533711638052 0.012327939149893996 0 0.0050758852095395711 0.012167305141719403 0 0.0049920533711638052 0.012327939149893996 0 0.0050800187209856492 0.012365590517922779 0 0.0050800187209856492 0.012365590517922779 0 0.0049918142220210463 0.012368135568345661 0 0.0049026109959767897 0.012513981659125524 0 0.0049920533711638052 0.012327939149893996 0 0.0050800187209856492 0.012365590517922779 0 0.0049026109959767897 0.012513981659125524 0 0.0050800187209856492 0.012365590517922779 0 0.0049918142220210463 0.012368135568345661 0 0.0050686001926205006 0.012318656667785255 0 0.00532344371526201 0.012421847463212919 0 0.0051906404080903149 0.012415462306179953 0 0.0052698296783136988 0.012496922327978383 0 0.0050800187209856492 0.012365590517922779 0 0.0050686001926205006 0.012318656667785255 0 0.0051906404080903149 0.012415462306179953 0 0.0053847274255561352 0.012354299802521167 0 0.0051103721325855261 0.012404377716997504 0 0.0050800187209856492 0.012365590517922779 0 0.0051525898748276452 0.012337427823513745 0 0.0051906404080903149 0.012415462306179953 0 0.0051906404080903149 0.012415462306179953 0 0.0052231448993826229 0.012475897189521459 0 0.005196798295117511 0.01249747911172989 0 0.0051525898748276452 0.012337427823513745 0 0.0051906404080903149 0.012415462306179953 0 0.0052231448993826229 0.012475897189521459 0 0.0052244149961180849 0.012353615576704884 0 0.0051525898748276452 0.012337427823513745 0 0.0052231448993826229 0.012475897189521459 0 0.0056270739454277394 0.012296398925953566 0 0.0051575396628995183 0.012171832413382679 0 0.004741565863541161 0.01277751675092372 0 0.0037906891727596207 0.013027626059750077 0 0.0038307348567930073 0.013439208209245084 0 0.004741565863541161 0.01277751675092372 0 0.0047553357566584393 0.012806606643308859 0 0.004742017012109149 0.012801904493060587 0 0.0037906891727596207 0.013027626059750077 0 0.0034841447224385428 0.013347355750410878 0 0.0034192195908543297 0.01289350456773718 0 0.0037906891727596207 0.013027626059750077 0 0.0034841447224385428 0.013347355750410878 0 0.0038307348567930073 0.013439208209245084 0 0.0060624034052804863 0.011888409224598885 0 0.0057748098650619271 0.011820635706473296 0 0.0056270739454277394 0.012296398925953566 0 0.0034111513655752847 0.013510027749816956 0 0.0034841447224385428 0.013347355750410878 0 0.0038307348567930073 0.013439208209245084 0 0.0046564604567225021 0.01290474593784355 0 0.0047553357566584393 0.012806606643308859 0 0.0054772955400341347 0.011784463474752304 0 0.0056270739454277394 0.012296398925953566 0 0.0051575396628995183 0.012171832413382679 0 0.0054772955400341347 0.011784463474752304 0 0.0057748098650619271 0.011820635706473296 0 0.0056270739454277394 0.012296398925953566 0 0.0051578795655124413 0.011829965215670665 0 0.0054772955400341347 0.011784463474752304 0 0.0051575396628995183 0.012171832413382679 0 0.0051578795655124413 0.011829965215670665 0 0.0051575396628995183 0.012171832413382679 0 0.004957749939100007 0.012303001318824742 0 0.0050110614948412737 0.012046086181789031 0 0.0049920533711638052 0.012327939149893996 0 0.004957749939100007 0.012303001318824742 0 0.0051578795655124413 0.011829965215670665 0 0.0050110614948412737 0.012046086181789031 0 0.004957749939100007 0.012303001318824742 0 0.0049920533711638052 0.012327939149893996 0 0.004957749939100007 0.012303001318824742 0 0.0049026109959767897 0.012513981659125524 0 0.004957749939100007 0.012303001318824742 0 0.004741565863541161 0.01277751675092372 0 0.0049026109959767897 0.012513981659125524 0 0.0051575396628995183 0.012171832413382679 0 0.004957749939100007 0.012303001318824742 0 0.004741565863541161 0.01277751675092372 0 0.004741565863541161 0.01277751675092372 0 0.0045752626479894009 0.012570357979353079 0 0.0049026109959767897 0.012513981659125524 0 0.004741565863541161 0.01277751675092372 0 0.0045752626479894009 0.012570357979353079 0 0.0039450053630553841 0.01274178653524626 0 0.0045752626479894009 0.012570357979353079 0 0.0049026109959767897 0.012513981659125524 0 0.0047477283174108325 0.012347332310321681 0 0.0050024524164456298 0.012366452635844247 0 0.004259758470323464 0.012697972968365147 0 0.0049918142220210463 0.012368135568345661 0 0.0050686001926205006 0.012318656667785255 0 0.0048859353287295055 0.012269916978614945 0 0.0053847274255561352 0.012354299802521167 0 0.004259758470323464 0.012697972968365147 0 0.00532344371526201 0.012421847463212919 0 0.0054703063393703281 0.012433591265004672 0 0.0054145971695334829 0.012494757281910789 0 0.0049918142220210463 0.012368135568345661 0 0.0049026109959767897 0.012513981659125524 0 0.0048859353287295055 0.012269916978614945 0 0.004259758470323464 0.012697972968365147 0 0.0031176647699787145 0.012640037763999013 0 0.0045752626479894009 0.012570357979353079 0 0.0047477283174108325 0.012347332310321681 0 0.0042278538858180623 0.01233871220649368 0 0.0045752626479894009 0.012570357979353079 0 0.0042278538858180623 0.01233871220649368 0 0.0039450053630553841 0.01274178653524626 0 0.0031176647699787145 0.012640037763999013 0 0.0033414883063088976 0.012795052820481797 0 0.0042278538858180623 0.01233871220649368 0 0.0039450053630553841 0.01274178653524626 0 0.0032063317730793295 0.012858273190060814 0 0.0037906891727596207 0.013027626059750077 0 0.004741565863541161 0.01277751675092372 0 0.0039450053630553841 0.01274178653524626 0 0.0037906891727596207 0.013027626059750077 0 0.0039450053630553841 0.01274178653524626 0 0.0034192195908543297 0.01289350456773718 0 0.0039450053630553841 0.01274178653524626 0 0.0034192195908543297 0.01289350456773718 0 0.0032063317730793295 0.012858273190060814 0 0.003266284933261442 0.013024466981517569 0 0.0034192195908543297 0.01289350456773718 0 0.0032063317730793295 0.012858273190060814 0 0.0032063317730793295 0.012858273190060814 0 0.0028202746332211376 0.013708383119924318 0 0.0031084759184716736 0.013524729655216238 0 0.0028202746332211376 0.013708383119924318 0 0.0028595316356223484 0.013985114029667846 0 0.0031084759184716736 0.013524729655216238 0 0.0028202746332211376 0.013708383119924318 0 0.0025207591527940097 0.01382249172259982 0 0.0026298721428977198 0.014161029332723856 0 0.0028202746332211376 0.013708383119924318 0 0.0025207591527940097 0.01382249172259982 0 0.0025368736018983062 0.013387445681230464 0 0.0025207591527940097 0.01382249172259982 0 0.0025368736018983062 0.013387445681230464 0 0.0022354000066634439 0.013589270716820877 0 0.0023766497371956602 0.012888046375881545 0 0.0032063317730793295 0.012858273190060814 0 0.0025368736018983062 0.013387445681230464 0 0.0032063317730793295 0.012858273190060814 0 0.0028202746332211376 0.013708383119924318 0 0.0025368736018983062 0.013387445681230464 0 0.001799707492345072 0.012895072619100374 0 0.0023766497371956602 0.012888046375881545 0 0.0021567120925027332 0.01322423885652195 0 0.0023766497371956602 0.012888046375881545 0 0.0025368736018983062 0.013387445681230464 0 0.0021567120925027332 0.01322423885652195 0 0.001799707492345072 0.012895072619100374 0 0.0021567120925027332 0.01322423885652195 0 0.0018598256004166932 0.013365436579739516 0 0.0021567120925027332 0.01322423885652195 0 0.0018598256004166932 0.013365436579739516 0 0.0022354000066634439 0.013589270716820877 0 0.0025368736018983062 0.013387445681230464 0 0.0021567120925027332 0.01322423885652195 0 0.0022354000066634439 0.013589270716820877 0 0.0054703063393703281 0.012433591265004672 0 0.0054145971695334829 0.012494757281910789 0 0.0054909542715000622 0.012545328687946866 0 0.004259758470323464 0.012697972968365147 0 0.0037060183803545705 0.012809636102262137 0 0.0054145971695334829 0.012494757281910789 0 0.0054909542715000622 0.012545328687946866 0 0.0054417950022587454 0.012562262498283561 0 0.0054145971695334829 0.012494757281910789 0 0.0054417950022587454 0.012562262498283561 0 0.0053514803486636141 0.01251853420712804 0 0.0055308610001221009 0.012690323423087896 0 0.0055431750330290222 0.012795749323182249 0 0.005319420616049177 0.012647788368391597 0 0.0054417950022587454 0.012562262498283561 0 0.0055308610001221009 0.012690323423087896 0 0.005319420616049177 0.012647788368391597 0 0.0053014633109445489 0.01250475455718978 0 0.0045645989684601476 0.013963916178960596 0 0.0054909542715000622 0.012545328687946866 0 0.0054417950022587454 0.012562262498283561 0 0.0054963143207111048 0.012675240011825425 0 0.0037060183803545705 0.012809636102262137 0 0.0045645989684601476 0.013963916178960596 0 0.0018598256004166932 0.013365436579739516 0 0.0019540338323453246 0.01382385250383758 0 0.0022354000066634439 0.013589270716820877 0 0.0025207591527940097 0.01382249172259982 0 0.0022354000066634439 0.013589270716820877 0 0.0022876017943649924 0.013915173707712019 0 0.0019540338323453246 0.01382385250383758 0 0.0022354000066634439 0.013589270716820877 0 0.0022876017943649924 0.013915173707712019 0 0.0052846580628279679 0.017076966377312621 0 0.0051612894499144793 0.016911566255609838 0 0.0049840661470031472 0.016784795432012094 0 0.0019540338323453246 0.01382385250383758 0 0.0022876017943649924 0.013915173707712019 0 0.0023835605833703692 0.014285353385299081 0 0.0052519537246315182 0.016946563122200504 0 0.0051612894499144793 0.016911566255609838 0 0.005292189561348767 0.016517995217770177 0 0.0045645989684601476 0.013963916178960596 0 0.0035974278548310387 0.015753689722717741 0 0.0052846580628279679 0.017076966377312621 0 0.0052462764302762801 0.016933246575360487 0 0.0051612894499144793 0.016911566255609838 0 0.0045645989684601476 0.013963916178960596 0 0.0056322926644450507 0.015620227422835862 0 0.0056322926644450507 0.015620227422835862 0 0.0055522375899482966 0.015948301303275687 0 0.0056322926644450507 0.015620227422835862 0 0.005896904934325888 0.01405007215243621 0 0.0059862122466156856 0.015920212160064156 0 0.0062626819026371083 0.015842054319436479 0 0.0061323116242964597 0.015836533380449273 0 0.0059862122466156856 0.015920212160064156 0 0.0062626819026371083 0.015842054319436479 0 0.0065084521849562219 0.015868672372016092 0 0.0059862122466156856 0.015920212160064156 0 0.0061323116242964597 0.015836533380449273 0 0.0060357771079201927 0.015812568553044099 0 0.0062626819026371083 0.015842054319436479 0 0.0061323116242964597 0.015836533380449273 0 0.0062435330387755885 0.01577207980588903 0 0.0059862122466156856 0.015920212160064156 0 0.0060357771079201927 0.015812568553044099 0 0.0058237835918358068 0.015788287000370237 0 0.0060357771079201927 0.015812568553044099 0 0.0062435330387755885 0.01577207980588903 0 0.0060045893793097462 0.01576057620910357 0 0.0061323116242964597 0.015836533380449273 0 0.0060357771079201927 0.015812568553044099 0 0.0062435330387755885 0.01577207980588903 0 0.0060357771079201927 0.015812568553044099 0 0.0058237835918358068 0.015788287000370237 0 0.0060045893793097462 0.01576057620910357 0 0.0051612894499144793 0.016911566255609838 0 0.0049840661470031472 0.016784795432012094 0 0.005292189561348767 0.016517995217770177 0 0.0056322926644450507 0.015620227422835862 0 0.0055423461256511111 0.016298303776220883 0 0.0049840661470031472 0.016784795432012094 0 0.005292189561348767 0.016517995217770177 0 0.0044526329637462388 0.016296491672216879 0 0.0023835605833703692 0.014285353385299081 0 0.0026345663722627754 0.014324859984110457 0 0.0026298721428977198 0.014161029332723856 0 0.0023835605833703692 0.014285353385299081 0 0.0026345663722627754 0.014324859984110457 0 0.0025994716181982755 0.014483870114248626 0 0.0035974278548310387 0.015753689722717741 0 0.0035148873603950701 0.015346634782363897 0 0.0027166007578973235 0.01439549257332939 0 0.0026345663722627754 0.014324859984110457 0 0.0025994716181982755 0.014483870114248626 0 0.0027166007578973235 0.01439549257332939 0 0.0027705142784502004 0.01426434784062181 0 0.0026345663722627754 0.014324859984110457 0 0.0027705142784502004 0.01426434784062181 0 0.0026345663722627754 0.014324859984110457 0 0.0026298721428977198 0.014161029332723856 0 0.0028202746332211376 0.013708383119924318 0 0.0028595316356223484 0.013985114029667846 0 0.0026298721428977198 0.014161029332723856 0 0.0027705142784502004 0.01426434784062181 0 0.0028595316356223484 0.013985114029667846 0 0.0026298721428977198 0.014161029332723856 0 0.0025207591527940097 0.01382249172259982 0 0.0026298721428977198 0.014161029332723856 0 0.0024581249969006622 0.01405263612097218 0 0.0023835605833703692 0.014285353385299081 0 0.0026298721428977198 0.014161029332723856 0 0.0024581249969006622 0.01405263612097218 0 0.0022876017943649924 0.013915173707712019 0 0.0023835605833703692 0.014285353385299081 0 0.0024581249969006622 0.01405263612097218 0 0.0025207591527940097 0.01382249172259982 0 0.0022876017943649924 0.013915173707712019 0 0.0024581249969006622 0.01405263612097218 0 0.0061896790138703433 0.01343135741079143 0 0.006151778111437526 0.013973932697728578 0 0.0072280272235898712 0.01436939099791493 0 0.0072420203965994504 0.015196918174209222 0 0.007144287920323099 0.015445134159035086 0 0.0052978945202165548 0.012492763925423391 0 0.0052231448993826229 0.012475897189521459 0 0.005196798295117511 0.01249747911172989 0 0.0072420203965994504 0.015196918174209222 0 0.007144287920323099 0.015445134159035086 0 0.006978182172193332 0.015569804348482345 0 0.006151778111437526 0.013973932697728578 0 0.005896904934325888 0.01405007215243621 0 0.007144287920323099 0.015445134159035086 0 0.0065084521849562219 0.015868672372016092 0 0.006978182172193332 0.015569804348482345 0 0.005196798295117511 0.01249747911172989 0 0.0052698296783136988 0.012496922327978383 0 0.005319420616049177 0.012647788368391597 0 0.0051906404080903149 0.012415462306179953 0 0.005196798295117511 0.01249747911172989 0 0.0052698296783136988 0.012496922327978383 0 0.0052698296783136988 0.012496922327978383 0 0.0053514803486636141 0.01251853420712804 0 0.005319420616049177 0.012647788368391597 0 0.00532344371526201 0.012421847463212919 0 0.0052698296783136988 0.012496922327978383 0 0.0053514803486636141 0.01251853420712804 0 0.00532344371526201 0.012421847463212919 0 0.0054145971695334829 0.012494757281910789 0 0.0053514803486636141 0.01251853420712804 0 0.0054417950022587454 0.012562262498283561 0 0.0053514803486636141 0.01251853420712804 0 0.005319420616049177 0.012647788368391597 0 0.0062626819026371083 0.015842054319436479 0 0.0065084521849562219 0.015868672372016092 0 0.0065642199983809869 0.015714692411376852 0 0.0062626819026371083 0.015842054319436479 0 0.0062435330387755885 0.01577207980588903 0 0.0065642199983809869 0.015714692411376852 0 0.0062435330387755885 0.01577207980588903 0 0.0065182647559409402 0.015654320714733716 0 0.0060045893793097462 0.01576057620910357 0 0.0062435330387755885 0.01577207980588903 0 0.0065182647559409402 0.015654320714733716 0 0.0065642199983809869 0.015714692411376852 0 0.0065182647559409402 0.015654320714733716 0 0.0065642199983809869 0.015714692411376852 0 0.006978182172193332 0.015569804348482345 0 0.0065084521849562219 0.015868672372016092 0 0.0065642199983809869 0.015714692411376852 0 0.006978182172193332 0.015569804348482345 0 0.0065182647559409402 0.015654320714733716 0 0.0070018578607202227 0.015521994847459189 0 0.0066609610816756887 0.015564111155828422 0 0.0065182647559409402 0.015654320714733716 0 0.006978182172193332 0.015569804348482345 0 0.0070018578607202227 0.015521994847459189 0 0.007558666674479732 0.015351205949213883 0 0.0070018578607202227 0.015521994847459189 0 0.0072960958587498298 0.015495674128992078 0 0.006978182172193332 0.015569804348482345 0 0.0070018578607202227 0.015521994847459189 0 0.0072960958587498298 0.015495674128992078 0 0.0072420203965994504 0.015196918174209222 0 0.006978182172193332 0.015569804348482345 0 0.0072960958587498298 0.015495674128992078 0 0.0074769369815338091 0.015455802680584899 0 0.007042122449282184 0.015769648512789822 0 0.0065492494154581089 0.015536241207254239 0 0.007558666674479732 0.015351205949213883 0 0.0070018578607202227 0.015521994847459189 0 0.0071867732866825774 0.014923623326541426 0 0.0070018578607202227 0.015521994847459189 0 0.0071867732866825774 0.014923623326541426 0 0.0066609610816756887 0.015564111155828422 0 0.007144714197487168 0.015340332839214602 0 0.0067184653026610428 0.015537897018808073 0 0.007042122449282184 0.015769648512789822 0 0.0066609610816756887 0.015564111155828422 0 0.0065492494154581089 0.015536241207254239 0 0.0066609610816756887 0.015564111155828422 0 0.0061588769581729227 0.015646744323807315 0 0.0065492494154581089 0.015536241207254239 0 0.0065182647559409402 0.015654320714733716 0 0.0066609610816756887 0.015564111155828422 0 0.0061588769581729227 0.015646744323807315 0 0.0065182647559409402 0.015654320714733716 0 0.0061588769581729227 0.015646744323807315 0 0.0060045893793097462 0.01576057620910357 0 0.0061588769581729227 0.015646744323807315 0 0.0065492494154581089 0.015536241207254239 0 0.0057526509931862847 0.015416216235681957 0 0.0065492494154581089 0.015536241207254239 0 0.0066087894783427035 0.014999938220257757 0 0.0057526509931862847 0.015416216235681957 0 0.0066087894783427035 0.014999938220257757 0 0.0049722876035429133 0.014999546889969649 0 0.0057526509931862847 0.015416216235681957 0 0.0074769369815338091 0.015455802680584899 0 0.0065492494154581089 0.015536241207254239 0 0.0066087894783427035 0.014999938220257757 0 0.0049722876035429133 0.014999546889969649 0 0.0039169191868993055 0.015248599239267129 0 0.0028465641224546885 0.014999656422637012 0 0.004462595482169162 0.015775493244207218 0 0.0053092953428897785 0.015793288149609418 0 0.0047919317140103206 0.01542636057639353 0 0.004462595482169162 0.015775493244207218 0 0.0044526329637462388 0.016296491672216879 0 0.0053092953428897785 0.015793288149609418 0 0.0026145888030886439 0.014610664172053658 0 0.0025994716181982755 0.014483870114248626 0 0.002727563354240627 0.014482198277811147 0 0.0032494609531705148 0.015184890526610558 0 0.0035148873603950701 0.015346634782363897 0 0.004462595482169162 0.015775493244207218 0 0.0038629427992446928 0.015752557011657203 0 0.0044526329637462388 0.016296491672216879 0 0.0027166007578973235 0.01439549257332939 0 0.0025994716181982755 0.014483870114248626 0 0.002727563354240627 0.014482198277811147 0 0.0055423461256511111 0.016298303776220883 0 0.0053492806043155643 0.015709218526841699 0 0.005292189561348767 0.016517995217770177 0 0.0044526329637462388 0.016296491672216879 0 0.0053092953428897785 0.015793288149609418 0 0.0058237835918358068 0.015788287000370237 0 0.0060045893793097462 0.01576057620910357 0 0.0053092953428897785 0.015793288149609418 0 0.0061588769581729227 0.015646744323807315 0 0.0060045893793097462 0.01576057620910357 0 0.0053092953428897785 0.015793288149609418 0 0.0061588769581729227 0.015646744323807315 0 0.0053092953428897785 0.015793288149609418 0 0.0057526509931862847 0.015416216235681957 0 0.0049722876035429133 0.014999546889969649 0 0.0057526509931862847 0.015416216235681957 0 0.0047919317140103206 0.01542636057639353 0 0.0053092953428897785 0.015793288149609418 0 0.0057526509931862847 0.015416216235681957 0 0.0047919317140103206 0.01542636057639353 0 0.0049722876035429133 0.014999546889969649 0 0.0047919317140103206 0.01542636057639353 0 0.0039169191868993055 0.015248599239267129 0 0.004462595482169162 0.015775493244207218 0 0.0047919317140103206 0.01542636057639353 0 0.0039169191868993055 0.015248599239267129 0 0.004462595482169162 0.015775493244207218 0 0.0038629427992446928 0.015752557011657203 0 0.0039169191868993055 0.015248599239267129 0 0.0039169191868993055 0.015248599239267129 0 0.0032370604212270688 0.015198154950487052 0 0.0028465641224546885 0.014999656422637012 0 0.0028468759512455433 0.015000611949812984 0 0.0027336527840304495 0.014877034558850817 0 0.0032370604212270688 0.015198154950487052 0 0.0028465641224546885 0.014999656422637012 0 0.0031978987948730431 0.01512882484734159 0 0.0027336527840304495 0.014877034558850817 0 0.0029904206031473196 0.01481372666096005 0 0.0032370604212270688 0.015198154950487052 0 0.0031978987948730431 0.01512882484734159 0 0.0029232922092235544 0.014761577774658939 0 0.0038629427992446928 0.015752557011657203 0 0.0039169191868993055 0.015248599239267129 0 0.0032370604212270688 0.015198154950487052 0 0.0026145888030886439 0.014610664172053658 0 0.0032370604212270688 0.015198154950487052 0 0.0029232922092235544 0.014761577774658939 0 0.0032494609531705148 0.015184890526610558 0 0.0032213803197732949 0.015175931895993457 0 0.0022703159675342777 0.015448429490060167 0 0.0020268812693472926 0.015000168835925408 0 0.0016484436945355951 0.015271799602397447 0 0.002097350761928548 0.014821035786631369 0 0.0015666191110210339 0.014840854511302211 0 0.0028466547716681345 0.014999906719483831 0 0.002876753677328152 0.015627809632507893 0 0.0022703159675342777 0.015448429490060167 0 0.0028466547716681345 0.014999906719483831 0 0.0022703159675342777 0.015448429490060167 0 0.0020268812693472926 0.015000168835925408 0 0.0023865238681277444 0.014156033303993235 0 0.0019459410503734284 0.01417139177068364 0 0.0021156392115720055 0.014365469425703934 0 0.0027336527840304495 0.014877034558850817 0 0.002097350761928548 0.014821035786631369 0 0.0019459410503734284 0.01417139177068364 0 0.0016565917183507229 0.014427956272233537 0 0.0014280745623748564 0.014358697737008441 0 0.0019459410503734284 0.01417139177068364 0 0.0021156392115720055 0.014365469425703934 0 0.0016565917183507229 0.014427956272233537 0 0.0017755139800316509 0.014475094460834576 0 0.0021156392115720055 0.014365469425703934 0 0.0021082948457227121 0.014472046612314309 0 0.0017755139800316509 0.014475094460834576 0 0.0021156392115720055 0.014365469425703934 0 0.0016565917183507229 0.014427956272233537 0 0.0021156392115720055 0.014365469425703934 0 0.0021082948457227121 0.014472046612314309 0 0.0026064595795405937 0.014480378614074894 0 0.0023865238681277444 0.014156033303993235 0 0.0021156392115720055 0.014365469425703934 0 0.0026064595795405937 0.014480378614074894 0 0.0021082948457227121 0.014472046612314309 0 0.0026064595795405937 0.014480378614074894 0 0.002432494951567183 0.014460573900841718 0 0.0021082948457227121 0.014472046612314309 0 0.0019141847884573456 0.014521487891556889 0 0.0016836835044833013 0.014529356858763831 0 0.0017755139800316509 0.014475094460834576 0 0.0021082948457227121 0.014472046612314309 0 0.0016836835044833013 0.014529356858763831 0 0.0026145888030886439 0.014610664172053658 0 0.0027590381729819288 0.014567469047824137 0 0.002727563354240627 0.014482198277811147 0 0.0027590381729819288 0.014567469047824137 0 0.0026064595795405937 0.014480378614074894 0 0.002727563354240627 0.014482198277811147 0 0.0026145888030886439 0.014610664172053658 0 0.0029232922092235544 0.014761577774658939 0 0.0027590381729819288 0.014567469047824137 0 0.0027336527840304495 0.014877034558850817 0 0.0025781659018851112 0.014316359922636846 0 0.0028250011944882629 0.014676061412159224 0 0.0029232922092235544 0.014761577774658939 0 0.0026064595795405937 0.014480378614074894 0 0.0029232922092235544 0.014761577774658939 0 0.0027590381729819288 0.014567469047824137 0 0.0026064595795405937 0.014480378614074894 0 0.0026064595795405937 0.014480378614074894 0 0.002727563354240627 0.014482198277811147 0 0.0027623202422198661 0.014394237004809612 0 0.0026064595795405937 0.014480378614074894 0 0.0027623202422198661 0.014394237004809612 0 0.002432494951567183 0.014460573900841718 0 0.0027166007578973235 0.01439549257332939 0 0.002727563354240627 0.014482198277811147 0 0.0027623202422198661 0.014394237004809612 0 0.0027166007578973235 0.01439549257332939 0 0.0027705142784502004 0.01426434784062181 0 0.0027623202422198661 0.014394237004809612 0 0.0027705142784502004 0.01426434784062181 0 0.0029277164009325419 0.014153912167665499 0 0.0027623202422198661 0.014394237004809612 0 0.0027705142784502004 0.01426434784062181 0 0.0028595316356223484 0.013985114029667846 0 0.0029277164009325419 0.014153912167665499 0 0.0029277164009325419 0.014153912167665499 0 0.0027623202422198661 0.014394237004809612 0 0.0026902278282554194 0.014465420875195199 0 0.0027623202422198661 0.014394237004809612 0 0.002432494951567183 0.014460573900841718 0 0.0026902278282554194 0.014465420875195199 0 0.002432494951567183 0.014460573900841718 0 0.0019141847884573456 0.014521487891556889 0 0.0021553333140034788 0.014591461975206207 0 0.0021082948457227121 0.014472046612314309 0 0.002432494951567183 0.014460573900841718 0 0.0019141847884573456 0.014521487891556889 0 0.0021553333140034788 0.014591461975206207 0 0.0020989401524975325 0.015036846331638459 0 0.0016762045208130964 0.014691090521227761 0 0.0019141847884573456 0.014521487891556889 0 0.0021553333140034788 0.014591461975206207 0 0.0016762045208130964 0.014691090521227761 0 0.002432494951567183 0.014460573900841718 0 0.0021553333140034788 0.014591461975206207 0 0.0026902278282554194 0.014465420875195199 0 0.0021553333140034788 0.014591461975206207 0 0.0026902278282554194 0.014465420875195199 0 0.0020989401524975325 0.015036846331638459 0 0.0026902278282554194 0.014465420875195199 0 0.0020989401524975325 0.015036846331638459 0 0.0027561492510508601 0.015136183533477919 0 0.0027553289509967332 0.014409669138802123 0 0.0029551896630027239 0.014408375404390196 0 0.0020989401524975325 0.015036846331638459 0 0.0015331378241750407 0.015150110266922761 0 0.0016762045208130964 0.014691090521227761 0 0.0020989401524975325 0.015036846331638459 0 0.0016810874076359718 0.015554036727915201 0 0.0015331378241750407 0.015150110266922761 0 0.0020989401524975325 0.015036846331638459 0 0.0016810874076359718 0.015554036727915201 0 0.0022746970222325591 0.015593909083466471 0 0.0020989401524975325 0.015036846331638459 0 0.0022746970222325591 0.015593909083466471 0 0.0027561492510508601 0.015136183533477919 0 0.0028804203722495795 0.01570992024897553 0 0.0022746970222325591 0.015593909083466471 0 0.0027561492510508601 0.015136183533477919 0 0.003153479020093435 0.014581123998065595 0 0.0029551896630027239 0.014408375404390196 0 0.0033861667279759615 0.013192137011306861 0 0.0031084759184716736 0.013524729655216238 0 0.0032391271099742568 0.013801571893668142 0 0.003266284933261442 0.013024466981517569 0 0.0033861667279759615 0.013192137011306861 0 0.0031084759184716736 0.013524729655216238 0 0.003266284933261442 0.013024466981517569 0 0.0032063317730793295 0.012858273190060814 0 0.0031084759184716736 0.013524729655216238 0 0.0028595316356223484 0.013985114029667846 0 0.0029277164009325419 0.014153912167665499 0 0.0031084759184716736 0.013524729655216238 0 0.0029277164009325419 0.014153912167665499 0 0.0031084759184716736 0.013524729655216238 0 0.0032391271099742568 0.013801571893668142 0 0.0029277164009325419 0.014153912167665499 0 0.0026902278282554194 0.014465420875195199 0 0.0032391271099742568 0.013801571893668142 0 8.8337419507805411e-05 0.014468314382215125 0 -6.4729827423908547e-05 0.01437138779968564 0 0.00069398407751720785 0.014660863458191294 0 8.8337419507805411e-05 0.014468314382215125 0 -4.9745379492337191e-05 0.014309920219706207 0 -6.4729827423908547e-05 0.01437138779968564 0 8.8337419507805411e-05 0.014468314382215125 0 -1.0225570832002866e-05 0.014377624633633233 0 -4.9745379492337191e-05 0.014309920219706207 0 -1.0225570832002866e-05 0.014377624633633233 0 -4.9745379492337191e-05 0.014309920219706207 0 -6.3538514583452767e-05 0.014142771103592218 0 -0.0001329031394588486 0.013768193064835371 0 -0.00013304848364148228 0.014087506089339666 0 -6.3538514583452767e-05 0.014142771103592218 0 -4.9745379492337191e-05 0.014309920219706207 0 -0.00013304848364148228 0.014087506089339666 0 -6.3538514583452767e-05 0.014142771103592218 0 -0.0003081777305329291 0.013713370974456136 0 -0.00013304848364148228 0.014087506089339666 0 -6.4729827423908547e-05 0.01437138779968564 0 -4.9745379492337191e-05 0.014309920219706207 0 -0.00013304848364148228 0.014087506089339666 0 -6.4729827423908547e-05 0.01437138779968564 0 0.00061410477950712961 0.015410858215583492 0 0.0011040876462845494 0.015397783676163205 0 0.00092517991018085878 0.015094284245684587 0 0.0007742399206864364 0.015737873661037842 0 0.00061410477950712961 0.015410858215583492 0 0.0011040876462845494 0.015397783676163205 0 0.0016810874076359718 0.015554036727915201 0 0.0011040876462845494 0.015397783676163205 0 0.0015331378241750407 0.015150110266922761 0 0.0012995831075640924 0.015843129062790586 0 0.0016810874076359718 0.015554036727915201 0 0.0011040876462845494 0.015397783676163205 0 0.0011040876462845494 0.015397783676163205 0 0.0015331378241750407 0.015150110266922761 0 0.0011836527841761692 0.015108529045609918 0 0.0015331378241750407 0.015150110266922761 0 0.0011530335630020772 0.014766566117913519 0 0.0016762045208130964 0.014691090521227761 0 0.0015331378241750407 0.015150110266922761 0 0.0011836527841761692 0.015108529045609918 0 0.0011530335630020772 0.014766566117913519 0 0.00033203239456067857 0.014824938156894845 0 0.00066569439276721219 0.014618435737526641 0 0.00061410477950712961 0.015410858215583492 0 0.00092517991018085878 0.015094284245684587 0 0.00069398407751720785 0.014660863458191294 0 0.0011836527841761692 0.015108529045609918 0 0.0011530335630020772 0.014766566117913519 0 0.00092517991018085878 0.015094284245684587 0 0.0011040876462845494 0.015397783676163205 0 0.0011836527841761692 0.015108529045609918 0 0.00092517991018085878 0.015094284245684587 0 0.0011530335630020772 0.014766566117913519 0 0.00092517991018085878 0.015094284245684587 0 0.00069398407751720785 0.014660863458191294 0 0.00069398407751720785 0.014660863458191294 0 0.00030697562949024061 0.014319153991714245 0 0.00018290168630780764 0.014419968193190868 0 0.0011530335630020772 0.014766566117913519 0 0.00069398407751720785 0.014660863458191294 0 0.00030697562949024061 0.014319153991714245 0 0.0011419751559871981 0.014801542365402647 0 0.00091118169863547765 0.014477939386764267 0 0.0019141847884573456 0.014521487891556889 0 0.0016762045208130964 0.014691090521227761 0 0.0015845636653491562 0.014572535896432962 0 0.0011530335630020772 0.014766566117913519 0 0.0015845636653491562 0.014572535896432962 0 0.0014833277491952239 0.014563388275243255 0 0.0011530335630020772 0.014766566117913519 0 0.0016762045208130964 0.014691090521227761 0 0.0015845636653491562 0.014572535896432962 0 0.0019141847884573456 0.014521487891556889 0 0.0015845636653491562 0.014572535896432962 0 0.0016836835044833013 0.014529356858763831 0 0.0015845636653491562 0.014572535896432962 0 0.0014833277491952239 0.014563388275243255 0 0.0016836835044833013 0.014529356858763831 0 0.00030697562949024061 0.014319153991714245 0 0.00018290168630780764 0.014419968193190868 0 0.0001828801342836745 0.014472901497849125 0 8.8337419507805411e-05 0.014468314382215125 0 0.00018290168630780764 0.014419968193190868 0 3.6994525474243577e-05 0.014453697820127761 0 8.8337419507805411e-05 0.014468314382215125 0 0.00069398407751720785 0.014660863458191294 0 0.00018290168630780764 0.014419968193190868 0 8.8337419507805411e-05 0.014468314382215125 0 -1.0225570832002866e-05 0.014377624633633233 0 3.6994525474243577e-05 0.014453697820127761 0 -1.0225570832002866e-05 0.014377624633633233 0 3.6994525474243577e-05 0.014453697820127761 0 -4.0345033014956431e-06 0.014366549016819054 0 3.6994525474243577e-05 0.014453697820127761 0 0.0001828801342836745 0.014472901497849125 0 5.3388280875244976e-05 0.014586464871755155 0 0.00018290168630780764 0.014419968193190868 0 3.6994525474243577e-05 0.014453697820127761 0 0.0001828801342836745 0.014472901497849125 0 0.0001828801342836745 0.014472901497849125 0 0.00027628908391786559 0.014571321813084489 0 0.0002211712162652696 0.014641910234032506 0 0.0001828801342836745 0.014472901497849125 0 0.0002211712162652696 0.014641910234032506 0 5.3388280875244976e-05 0.014586464871755155 0 0.00027628908391786559 0.014571321813084489 0 0.00040441960839051206 0.014676402863476365 0 0.0002211712162652696 0.014641910234032506 0 0.00030697562949024061 0.014319153991714245 0 0.0001828801342836745 0.014472901497849125 0 0.00027628908391786559 0.014571321813084489 0 0.00040441960839051206 0.014676402863476365 0 0.00027199380114598565 0.014638791960452858 0 0.0002211712162652696 0.014641910234032506 0 0.0017755139800316509 0.014475094460834576 0 0.0016836835044833013 0.014529356858763831 0 0.0014689092900209109 0.014560801514262006 0 0.0014833277491952239 0.014563388275243255 0 0.0016836835044833013 0.014529356858763831 0 0.0014689092900209109 0.014560801514262006 0 0.00091118169863547765 0.014477939386764267 0 0.00077892089085327884 0.014576820661968503 0 0.0014833277491952239 0.014563388275243255 0 0.0013128112565975161 0.014633523159813351 0 0.0014689092900209109 0.014560801514262006 0 0.0013128112565975161 0.014633523159813351 0 0.0014689092900209109 0.014560801514262006 0 0.0011721583739397162 0.014662353688542814 0 0.0017755139800316509 0.014475094460834576 0 0.0014689092900209109 0.014560801514262006 0 0.0016565917183507229 0.014427956272233537 0 0.0014689092900209109 0.014560801514262006 0 0.0016565917183507229 0.014427956272233537 0 0.0013796657926035273 0.0145246242341312 0 0.0016565917183507229 0.014427956272233537 0 0.0013796657926035273 0.0145246242341312 0 0.0014280745623748564 0.014358697737008441 0 0.0014689092900209109 0.014560801514262006 0 0.0013796657926035273 0.0145246242341312 0 0.0011721583739397162 0.014662353688542814 0 0.0013796657926035273 0.0145246242341312 0 0.0011721583739397162 0.014662353688542814 0 0.0011870389137735103 0.014638716001600056 0 0.0010438007285128649 0.014949635742534587 0 0.0011870389137735103 0.014638716001600056 0 0.0014280745623748564 0.014358697737008441 0 0.0011452639327620251 0.014908017203642765 0 0.0015666191110210339 0.014840854511302211 0 0.0012067789758190796 0.014999425279805211 0 0.0010438007285128649 0.014949635742534587 0 0.0016484436945355951 0.015271799602397447 0 0.0011721583739397162 0.014662353688542814 0 0.0011870389137735103 0.014638716001600056 0 0.00096346538520075274 0.014776971241522118 0 0.0010438007285128649 0.014949635742534587 0 0.0011870389137735103 0.014638716001600056 0 0.00096346538520075274 0.014776971241522118 0 0.0020268812693472926 0.015000168835925408 0 0.0012067789758190796 0.014999425279805211 0 0.0016484436945355951 0.015271799602397447 0 0.0013796657926035273 0.0145246242341312 0 0.0011870389137735103 0.014638716001600056 0 0.0014280745623748564 0.014358697737008441 0 0.00049417116226113872 0.014672947373937796 0 0.00040441960839051206 0.014676402863476365 0 0.00066464323862917992 0.014771852339914444 0 0.00049417116226113872 0.014672947373937796 0 0.00038142251698652647 0.0145538222171892 0 0.00027199380114598565 0.014638791960452858 0 0.00049417116226113872 0.014672947373937796 0 0.00040441960839051206 0.014676402863476365 0 0.00027199380114598565 0.014638791960452858 0 0.00077892089085327884 0.014576820661968503 0 0.00067490018586738993 0.01471474323481513 0 0.0013128112565975161 0.014633523159813351 0 0.0011721583739397162 0.014662353688542814 0 0.00066464323862917992 0.014771852339914444 0 0.00027628908391786559 0.014571321813084489 0 0.00040441960839051206 0.014676402863476365 0 0.00066464323862917992 0.014771852339914444 0 0.0011721583739397162 0.014662353688542814 0 0.00066464323862917992 0.014771852339914444 0 0.00096346538520075274 0.014776971241522118 0 0.00049417116226113872 0.014672947373937796 0 0.00066464323862917992 0.014771852339914444 0 0.00070714099008159753 0.014934048344995015 0 0.0010438007285128649 0.014949635742534587 0 0.00070714099008159753 0.014934048344995015 0 0.00038744233286030339 0.014999624058481896 0 0.0012067789758190796 0.014999425279805211 0 0.0010438007285128649 0.014949635742534587 0 0.00038744233286030339 0.014999624058481896 0 0.00066464323862917992 0.014771852339914444 0 0.00096346538520075274 0.014776971241522118 0 0.00070714099008159753 0.014934048344995015 0 0.0010438007285128649 0.014949635742534587 0 0.00096346538520075274 0.014776971241522118 0 0.00070714099008159753 0.014934048344995015 0 0.00062605958935210509 0.014922261076270357 0 0.00018439126439523802 0.014931564865902337 0 0.00070714099008159753 0.014934048344995015 0 0.00038744233286030339 0.014999624058481896 0 7.3174217777401028e-06 0.015290277658681184 0 0.00049417116226113872 0.014672947373937796 0 0.00070714099008159753 0.014934048344995015 0 0.00038142251698652647 0.0145538222171892 0 7.3174217777401028e-06 0.015290277658681184 0 -0.0004328865699857905 0.015000071482896891 0 -0.00068829866572637534 0.015394257528284976 0 0.00038744233286030339 0.014999624058481896 0 7.3174217777401028e-06 0.015290277658681184 0 -0.0004328865699857905 0.015000071482896891 0 0.00018439126439523802 0.014931564865902337 0 -0.00031370262538031737 0.014947558727496528 0 0.00038142251698652647 0.0145538222171892 0 0.00027199380114598565 0.014638791960452858 0 5.5253788585066998e-05 0.014503897909102056 0 0.00027199380114598565 0.014638791960452858 0 5.5253788585066998e-05 0.014503897909102056 0 1.2189623835012307e-05 0.014686372343002551 0 5.5253788585066998e-05 0.014503897909102056 0 -0.00027557451001421559 0.014576916775297735 0 1.2189623835012307e-05 0.014686372343002551 0 -0.0004328865699857905 0.015000071482896891 0 -0.00068829866572637534 0.015394257528284976 0 -0.0012526962086033798 0.014999939689939823 0 -0.00068829866572637534 0.015394257528284976 0 -0.0012526962086033798 0.014999939689939823 0 -0.0013643370471373183 0.015401028730309742 0 -0.0012526962086033798 0.014999939689939823 0 -0.0015659809848696435 0.015247852139584793 0 -0.0020718194519919911 0.014999826571394101 0 -0.0012526962086033798 0.014999939689939823 0 -0.0015659809848696435 0.015247852139584793 0 -0.0013643370471373183 0.015401028730309742 0 -0.00027557451001421559 0.014576916775297735 0 -0.00057154375722697414 0.014930936589393519 0 -0.0010157334713174167 0.0151988042454745 0 -0.00080205821437256649 0.015006927039373098 0 -0.0011939491074222713 0.015153036936896716 0 -0.0015659809848696435 0.015247852139584793 0 -0.0013643370471373183 0.015401028730309742 0 -0.0012535531633384811 0.015193150114851095 0 -0.00027557451001421559 0.014576916775297735 0 -0.0012535531633384811 0.015193150114851095 0 -0.0010157334713174167 0.0151988042454745 0 -0.00027557451001421559 0.014576916775297735 0 -0.00030283533750379818 0.014859347110054485 0 -0.00057154375722697414 0.014930936589393519 0 -0.00031370262538031737 0.014947558727496528 0 -0.00080205821437256649 0.015006927039373098 0 -0.00030283533750379818 0.014859347110054485 0 -4.9751125699519585e-05 0.014719983570886871 0 1.2189623835012307e-05 0.014686372343002551 0 -0.00027557451001421559 0.014576916775297735 0 -0.00030283533750379818 0.014859347110054485 0 1.2189623835012307e-05 0.014686372343002551 0 -0.00073142240778451483 0.015023586482145398 0 -0.00057154375722697414 0.014930936589393519 0 -0.0010157334713174167 0.0151988042454745 0 -0.00073142240778451483 0.015023586482145398 0 -0.00053891055227751265 0.014934290337035264 0 -0.0006747469899312954 0.014975831121830294 0 -0.00073142240778451483 0.015023586482145398 0 -0.00057154375722697414 0.014930936589393519 0 -0.00053891055227751265 0.014934290337035264 0 -0.00030283533750379818 0.014859347110054485 0 -0.00057154375722697414 0.014930936589393519 0 -0.00053891055227751265 0.014934290337035264 0 -0.00030283533750379818 0.014859347110054485 0 -0.00053891055227751265 0.014934290337035264 0 -0.00036763770813045052 0.014845206362191882 0 -0.00053891055227751265 0.014934290337035264 0 -0.00036763770813045052 0.014845206362191882 0 -0.00044541891913389096 0.014868108326783066 0 -0.00053891055227751265 0.014934290337035264 0 -0.0006747469899312954 0.014975831121830294 0 -0.00044541891913389096 0.014868108326783066 0 -0.00021295810241888209 0.014752074004126595 0 -0.00036763770813045052 0.014845206362191882 0 -0.00025806227172897025 0.014754598764153947 0 -0.00030283533750379818 0.014859347110054485 0 -0.00021295810241888209 0.014752074004126595 0 -0.00036763770813045052 0.014845206362191882 0 -0.00036763770813045052 0.014845206362191882 0 -0.00044541891913389096 0.014868108326783066 0 -0.00025806227172897025 0.014754598764153947 0 -0.00021295810241888209 0.014752074004126595 0 -4.9751125699519585e-05 0.014719983570886871 0 -6.8269786589398589e-05 0.014623440888830356 0 -0.00030283533750379818 0.014859347110054485 0 -0.00021295810241888209 0.014752074004126595 0 -4.9751125699519585e-05 0.014719983570886871 0 -4.9751125699519585e-05 0.014719983570886871 0 0.0002211712162652696 0.014641910234032506 0 5.3388280875244976e-05 0.014586464871755155 0 0.00027199380114598565 0.014638791960452858 0 0.0002211712162652696 0.014641910234032506 0 1.2189623835012307e-05 0.014686372343002551 0 -4.9751125699519585e-05 0.014719983570886871 0 0.0002211712162652696 0.014641910234032506 0 1.2189623835012307e-05 0.014686372343002551 0 -0.0039382387430882144 0.015512547574046813 0 -0.0035432752287509837 0.015345250491282433 0 -0.0037154053824518451 0.015695108931589572 0 -0.0037234033299556424 0.015225807068335836 0 -0.0036289082414156515 0.014999997580845401 0 -0.0030782475749890127 0.015450149266451904 0 -0.0040228988285191357 0.0151869428110344 0 -0.0022595737294600652 0.01521345211643909 0 -0.0039382387430882144 0.015512547574046813 0 -0.0039410960370939224 0.015197798721679506 0 -0.0035432752287509837 0.015345250491282433 0 -0.0029868090262452429 0.015362840133637276 0 -0.0028920473212649843 0.014999763261806468 0 -0.0024232363733788119 0.01518172138637597 0 -0.0036289082414156515 0.014999997580845401 0 -0.0030782475749890127 0.015450149266451904 0 -0.0028923397842202775 0.014999997241630349 0 -0.0022595737294600652 0.01521345211643909 0 -0.002892479570455088 0.015000475297348376 0 -0.0022595737294600652 0.01521345211643909 0 -0.0016649639245037522 0.015404453979435769 0 0.00014083746324095554 0.015428531403861016 0 4.0599421830373761e-05 0.015185541432942202 0 0.00027033450133342183 0.015079780742653776 0 0.00014083746324095554 0.015428531403861016 0 4.0599421830373761e-05 0.015185541432942202 0 -0.00017867635329765422 0.015369076745947065 0 -0.0029868090262452429 0.015362840133637276 0 -0.0023081880253304657 0.015505090693057404 0 -0.0024232363733788119 0.01518172138637597 0 -0.0022595737294600652 0.01521345211643909 0 -0.0010937519416959311 0.015440235191303348 0 4.0599421830373761e-05 0.015185541432942202 0 -0.00017867635329765422 0.015369076745947065 0 -0.00024226581280067328 0.015067271383812513 0 -0.00017867635329765422 0.015369076745947065 0 -0.00054025711513606522 0.015086712936972294 0 -0.00024226581280067328 0.015067271383812513 0 -0.0028920473212649843 0.014999763261806468 0 -0.0024232363733788119 0.01518172138637597 0 -0.0020718194519919911 0.014999826571394101 0 -0.0023081880253304657 0.015505090693057404 0 -0.0024232363733788119 0.01518172138637597 0 -0.0018655392479916691 0.015196321758716796 0 -0.0024232363733788119 0.01518172138637597 0 -0.0018655392479916691 0.015196321758716796 0 -0.0020718194519919911 0.014999826571394101 0 -0.0015659809848696435 0.015247852139584793 0 -0.0018655392479916691 0.015196321758716796 0 -0.0020718194519919911 0.014999826571394101 0 -0.00017867635329765422 0.015369076745947065 0 -0.0010157334713174167 0.0151988042454745 0 -0.00054025711513606522 0.015086712936972294 0 -0.0010937519416959311 0.015440235191303348 0 -0.0011712007778887795 0.015233245145752054 0 -0.0023081880253304657 0.015505090693057404 0 -0.0012535531633384811 0.015193150114851095 0 -0.0010157334713174167 0.0151988042454745 0 -0.0015659809848696435 0.015247852139584793 0 -0.0018655392479916691 0.015196321758716796 0 -0.0012535531633384811 0.015193150114851095 0 -0.0023081880253304657 0.015505090693057404 0 -0.0018655392479916691 0.015196321758716796 0 -0.0012535531633384811 0.015193150114851095 0 -0.0006747469899312954 0.014975831121830294 0 -0.00054025711513606522 0.015086712936972294 0 -0.00047990653826185934 0.01496610935200045 0 -0.0010157334713174167 0.0151988042454745 0 -0.0006747469899312954 0.014975831121830294 0 -0.00054025711513606522 0.015086712936972294 0 -0.0006747469899312954 0.014975831121830294 0 -0.00047990653826185934 0.01496610935200045 0 -0.00044891240494545893 0.014888368177261661 0 -0.00073142240778451483 0.015023586482145398 0 -0.0010157334713174167 0.0151988042454745 0 -0.0006747469899312954 0.014975831121830294 0 -0.00047990653826185934 0.01496610935200045 0 -0.00030749874322871611 0.014867159719767636 0 -0.00024226581280067328 0.015067271383812513 0 -0.00054025711513606522 0.015086712936972294 0 -0.00047990653826185934 0.01496610935200045 0 -0.00024226581280067328 0.015067271383812513 0 -0.00047990653826185934 0.01496610935200045 0 -0.00030749874322871611 0.014867159719767636 0 -0.00044891240494545893 0.014888368177261661 0 -0.00030749874322871611 0.014867159719767636 0 -0.00044891240494545893 0.014888368177261661 0 -0.00032821032651024869 0.014811274978046286 0 -0.00044891240494545893 0.014888368177261661 0 -0.00044541891913389096 0.014868108326783066 0 -0.00032821032651024869 0.014811274978046286 0 -0.0006747469899312954 0.014975831121830294 0 -0.00044891240494545893 0.014888368177261661 0 -0.00044541891913389096 0.014868108326783066 0 -0.00032821032651024869 0.014811274978046286 0 -0.00025806227172897025 0.014754598764153947 0 -0.00018212120833784176 0.014734011524602178 0 -0.00044541891913389096 0.014868108326783066 0 -0.00032821032651024869 0.014811274978046286 0 -0.00025806227172897025 0.014754598764153947 0 -0.00025806227172897025 0.014754598764153947 0 -0.00018212120833784176 0.014734011524602178 0 -6.8594829213823596e-05 0.014659952974304063 0 -0.00030749874322871611 0.014867159719767636 0 -0.00032821032651024869 0.014811274978046286 0 -0.00018212120833784176 0.014734011524602178 0 -0.00030749874322871611 0.014867159719767636 0 -0.00018212120833784176 0.014734011524602178 0 -0.00013476243765698218 0.01481226084113736 0 -0.00013476243765698218 0.01481226084113736 0 -5.071752099473643e-05 0.014677689812254984 0 1.1131717079626791e-05 0.014907616582643436 0 -0.00018212120833784176 0.014734011524602178 0 -0.00013476243765698218 0.01481226084113736 0 -5.071752099473643e-05 0.014677689812254984 0 -0.00018212120833784176 0.014734011524602178 0 -5.071752099473643e-05 0.014677689812254984 0 -6.8594829213823596e-05 0.014659952974304063 0 -0.00013476243765698218 0.01481226084113736 0 -0.00024226581280067328 0.015067271383812513 0 1.1131717079626791e-05 0.014907616582643436 0 -0.00030749874322871611 0.014867159719767636 0 -0.00013476243765698218 0.01481226084113736 0 -0.00024226581280067328 0.015067271383812513 0 4.0599421830373761e-05 0.015185541432942202 0 -0.00024226581280067328 0.015067271383812513 0 1.1131717079626791e-05 0.014907616582643436 0 1.1131717079626791e-05 0.014907616582643436 0 0.00014934266423978097 0.014720141313618988 0 0.00027033450133342183 0.015079780742653776 0 4.0599421830373761e-05 0.015185541432942202 0 1.1131717079626791e-05 0.014907616582643436 0 0.00027033450133342183 0.015079780742653776 0 -5.071752099473643e-05 0.014677689812254984 0 1.1131717079626791e-05 0.014907616582643436 0 0.00014934266423978097 0.014720141313618988 0 -0.00013760256196046269 0.014660381926910221 0 0.00037047371640262463 0.014781516577315371 0 0.00014934266423978097 0.014720141313618988 0 0.00037464146823606997 0.014771198562797499 0 0.00027033450133342183 0.015079780742653776 0 0.00037047371640262463 0.014781516577315371 0 -0.0021741361536412817 0.015177929553631836 0 -5.0490689503994068e-05 0.014648353285270095 0 -9.8587717711413219e-05 0.014632899959139327 0 -7.1190277634013897e-05 0.014660081141411013 0 -0.0021741361536412817 0.015177929553631836 0 -0.0016649639245037522 0.015404453979435769 0 -0.0038857692371969546 0.015993513682431321 0 -0.0037154053824518451 0.015695108931589572 0 -0.0040566446285754711 0.015760255511876924 0 -0.0039382387430882144 0.015512547574046813 0 -0.0037154053824518451 0.015695108931589572 0 -0.0040566446285754711 0.015760255511876924 0 -5.3555308244700392e-05 0.014722360347528801 0 -0.00012518949482458793 0.01467532994662802 0 -0.00015088631255057004 0.014730281579146813 0 0.0012982343266056758 0.014845300133507093 0 -0.00041773502515837492 0.013834792319348709 0 -7.1190277634013897e-05 0.014660081141411013 0 -5.3555308244700392e-05 0.014722360347528801 0 -0.00012518949482458793 0.01467532994662802 0 -9.8587717711413219e-05 0.014632899959139327 0 -7.1190277634013897e-05 0.014660081141411013 0 -0.00012518949482458793 0.01467532994662802 0 -0.0021741361536412817 0.015177929553631836 0 -0.0022404463046613674 0.01541819591492922 0 -5.0490689503994068e-05 0.014648353285270095 0 -7.1190277634013897e-05 0.014660081141411013 0 -2.8014334747217687e-05 0.014656388753248744 0 -5.071752099473643e-05 0.014677689812254984 0 -5.0490689503994068e-05 0.014648353285270095 0 -2.8014334747217687e-05 0.014656388753248744 0 -7.1190277634013897e-05 0.014660081141411013 0 -2.8014334747217687e-05 0.014656388753248744 0 -5.3555308244700392e-05 0.014722360347528801 0 -2.8014334747217687e-05 0.014656388753248744 0 -5.3555308244700392e-05 0.014722360347528801 0 0.00012044505533480461 0.014640999445331468 0 0.0012982343266056758 0.014845300133507093 0 -5.1687878074285931e-05 0.014661147924651192 0 0.0016122172982591307 0.014839314602263447 0 0.00012044505533480461 0.014640999445331468 0 0.00085314420342163741 0.01430204422113846 0 0.00012044505533480461 0.014640999445331468 0 -4.6389577635031027e-07 0.014651285171788325 0 -6.8594829213823596e-05 0.014659952974304063 0 -2.8014334747217687e-05 0.014656388753248744 0 0.00012044505533480461 0.014640999445331468 0 -4.6389577635031027e-07 0.014651285171788325 0 -5.071752099473643e-05 0.014677689812254984 0 -2.8014334747217687e-05 0.014656388753248744 0 -4.6389577635031027e-07 0.014651285171788325 0 -5.071752099473643e-05 0.014677689812254984 0 -4.6389577635031027e-07 0.014651285171788325 0 -6.8594829213823596e-05 0.014659952974304063 0 0.00012044505533480461 0.014640999445331468 0 -6.8594829213823596e-05 0.014659952974304063 0 -8.6896365092847816e-05 0.014611798126496241 0 -0.00025806227172897025 0.014754598764153947 0 -6.8594829213823596e-05 0.014659952974304063 0 -8.6896365092847816e-05 0.014611798126496241 0 0.00012044505533480461 0.014640999445331468 0 5.9217694995309679e-06 0.014408005895246472 0 -8.6896365092847816e-05 0.014611798126496241 0 5.9217694995309679e-06 0.014408005895246472 0 0.00030439635009611574 0.014002532322690567 0 1.2415205557652992e-05 0.014233100384316036 0 0.00012044505533480461 0.014640999445331468 0 5.9217694995309679e-06 0.014408005895246472 0 0.00030439635009611574 0.014002532322690567 0 0.0018337481206534198 0.013619854680250539 0 0.0010725390495270205 0.013776820751290771 0 0.001699046540216048 0.013002504602345782 0 0.0010893884025182038 0.013814657450598513 0 0.00052653045732093653 0.013990207359296547 0 0.0018337481206534198 0.013619854680250539 0 0.001699046540216048 0.013002504602345782 0 0.0023978855443704196 0.012934586487796197 0 0.00012044505533480461 0.014640999445331468 0 0.00030439635009611574 0.014002532322690567 0 0.00085314420342163741 0.01430204422113846 0 0.0016122172982591307 0.014839314602263447 0 0.00085314420342163741 0.01430204422113846 0 0.0016121966625043005 0.013750469038141529 0 0.0010893884025182038 0.013814657450598513 0 0.0021562702725647798 0.013721987557169345 0 0.00030439635009611574 0.014002532322690567 0 0.00085314420342163741 0.01430204422113846 0 0.0016121966625043005 0.013750469038141529 0 0.0018337481206534198 0.013619854680250539 0 0.0026203559701167721 0.013640005256001479 0 0.0023978855443704196 0.012934586487796197 0 0.0026203559701167721 0.013640005256001479 0 0.003209947582449176 0.012903828498648889 0 0.0023978855443704196 0.012934586487796197 0 0.0026203559701167721 0.013640005256001479 0 0.003209947582449176 0.012903828498648889 0 0.0032656559698018644 0.013402909610760464 0 0.0016121966625043005 0.013750469038141529 0 0.002630102022301416 0.014259695812777978 0 0.003578207215185853 0.013859588758022354 0 0.0016122172982591307 0.014839314602263447 0 0.0016121966625043005 0.013750469038141529 0 0.002630102022301416 0.014259695812777978 0 0.0021562702725647798 0.013721987557169345 0 0.0034980001447399984 0.013841721443155132 0 0.0026203559701167721 0.013640005256001479 0 0.0032656559698018644 0.013402909610760464 0 0.003578207215185853 0.013859588758022354 0 0.0016122172982591307 0.014839314602263447 0 0.002630102022301416 0.014259695812777978 0 0.0037082336773735171 0.01456376799406129 0 3.6994525474243577e-05 0.014453697820127761 0 1.1404278445095305e-05 0.014448149420488493 0 -4.0345033014956431e-06 0.014366549016819054 0 3.6994525474243577e-05 0.014453697820127761 0 1.1404278445095305e-05 0.014448149420488493 0 5.3388280875244976e-05 0.014586464871755155 0 -4.9751125699519585e-05 0.014719983570886871 0 5.3388280875244976e-05 0.014586464871755155 0 -6.8269786589398589e-05 0.014623440888830356 0 1.1404278445095305e-05 0.014448149420488493 0 5.3388280875244976e-05 0.014586464871755155 0 -6.8269786589398589e-05 0.014623440888830356 0 -0.00021295810241888209 0.014752074004126595 0 -6.8269786589398589e-05 0.014623440888830356 0 -8.6896365092847816e-05 0.014611798126496241 0 -0.00021295810241888209 0.014752074004126595 0 -0.00025806227172897025 0.014754598764153947 0 -8.6896365092847816e-05 0.014611798126496241 0 5.9217694995309679e-06 0.014408005895246472 0 -8.6896365092847816e-05 0.014611798126496241 0 2.1860418887790056e-05 0.014372603554484217 0 1.1404278445095305e-05 0.014448149420488493 0 -6.8269786589398589e-05 0.014623440888830356 0 2.1860418887790056e-05 0.014372603554484217 0 -6.8269786589398589e-05 0.014623440888830356 0 -8.6896365092847816e-05 0.014611798126496241 0 2.1860418887790056e-05 0.014372603554484217 0 2.1860418887790056e-05 0.014372603554484217 0 1.2415205557652992e-05 0.014233100384316036 0 0.00014101587744598754 0.014051438497449855 0 1.1404278445095305e-05 0.014448149420488493 0 2.1860418887790056e-05 0.014372603554484217 0 0.00014101587744598754 0.014051438497449855 0 5.9217694995309679e-06 0.014408005895246472 0 2.1860418887790056e-05 0.014372603554484217 0 1.2415205557652992e-05 0.014233100384316036 0 0.0010725390495270205 0.013776820751290771 0 0.0010212727386820432 0.013097446706857455 0 0.001699046540216048 0.013002504602345782 0 0.0010725390495270205 0.013776820751290771 0 0.00048308831744222681 0.013371982184842836 0 0.0010212727386820432 0.013097446706857455 0 0.00052653045732093653 0.013990207359296547 0 0.00013249604153928312 0.014038383510879177 0 0.0010725390495270205 0.013776820751290771 0 0.00014101587744598754 0.014051438497449855 0 0.00048308831744222681 0.013371982184842836 0 0.00014101587744598754 0.014051438497449855 0 -3.7773494870855732e-05 0.013763450480946361 0 3.4247212167592169e-05 0.013470779061607667 0 1.1404278445095305e-05 0.014448149420488493 0 0.00014101587744598754 0.014051438497449855 0 -4.0345033014956431e-06 0.014366549016819054 0 -1.0225570832002866e-05 0.014377624633633233 0 -4.0345033014956431e-06 0.014366549016819054 0 -6.3538514583452767e-05 0.014142771103592218 0 0.00014101587744598754 0.014051438497449855 0 -4.0345033014956431e-06 0.014366549016819054 0 -6.3538514583452767e-05 0.014142771103592218 0 0.00014101587744598754 0.014051438497449855 0 -6.3538514583452767e-05 0.014142771103592218 0 -3.7773494870855732e-05 0.013763450480946361 0 -0.0001329031394588486 0.013768193064835371 0 -6.3538514583452767e-05 0.014142771103592218 0 -3.7773494870855732e-05 0.013763450480946361 0 -0.0001329031394588486 0.013768193064835371 0 -3.7773494870855732e-05 0.013763450480946361 0 -6.3329992133881292e-05 0.013520270873177934 0 -3.7773494870855732e-05 0.013763450480946361 0 -6.3329992133881292e-05 0.013520270873177934 0 3.4247212167592169e-05 0.013470779061607667 0 -6.3329992133881292e-05 0.013520270873177934 0 3.4247212167592169e-05 0.013470779061607667 0 1.0115026460699963e-05 0.013265441061806167 0 -0.0001329031394588486 0.013768193064835371 0 -0.00015711203738486102 0.013465277791891495 0 -6.3329992133881292e-05 0.013520270873177934 0 3.4247212167592169e-05 0.013470779061607667 0 9.7125391212334462e-05 0.013007919090735712 0 1.0115026460699963e-05 0.013265441061806167 0 0.00014101587744598754 0.014051438497449855 0 3.4247212167592169e-05 0.013470779061607667 0 0.00048308831744222681 0.013371982184842836 0 3.4247212167592169e-05 0.013470779061607667 0 9.7125391212334462e-05 0.013007919090735712 0 0.00048308831744222681 0.013371982184842836 0 8.3202978554239342e-05 0.012822168160449246 0 5.7302347172119125e-05 0.012515370881715688 0 9.7125391212334462e-05 0.013007919090735712 0 0.00010399177334363199 0.01308906134208882 0 1.0115026460699963e-05 0.013265441061806167 0 9.7125391212334462e-05 0.013007919090735712 0 0.00010399177334363199 0.01308906134208882 0 0.00015239448878219048 0.013065626199454658 0 0.00010399177334363199 0.01308906134208882 0 2.9868398979017463e-05 0.013126305150439442 0 8.0571999138233084e-05 0.013074760615530324 0 0.00010399177334363199 0.01308906134208882 0 1.0115026460699963e-05 0.013265441061806167 0 2.9868398979017463e-05 0.013126305150439442 0 -0.00015711203738486102 0.013465277791891495 0 -7.6418107499472891e-05 0.013296216281174217 0 -0.00012190364320527236 0.013258438323851407 0 -0.00015711203738486102 0.013465277791891495 0 -6.3329992133881292e-05 0.013520270873177934 0 -7.6418107499472891e-05 0.013296216281174217 0 -6.3329992133881292e-05 0.013520270873177934 0 -7.6418107499472891e-05 0.013296216281174217 0 1.0115026460699963e-05 0.013265441061806167 0 -7.6418107499472891e-05 0.013296216281174217 0 1.0115026460699963e-05 0.013265441061806167 0 -2.935140669901055e-05 0.013196962760472457 0 1.0115026460699963e-05 0.013265441061806167 0 -2.935140669901055e-05 0.013196962760472457 0 2.9868398979017463e-05 0.013126305150439442 0 -2.935140669901055e-05 0.013196962760472457 0 2.9868398979017463e-05 0.013126305150439442 0 -3.8223821125329003e-05 0.013129174155548451 0 -2.935140669901055e-05 0.013196962760472457 0 -9.649878323400811e-05 0.013150791556943158 0 -3.8223821125329003e-05 0.013129174155548451 0 -7.6418107499472891e-05 0.013296216281174217 0 -9.649878323400811e-05 0.013150791556943158 0 -0.00012190364320527236 0.013258438323851407 0 -7.6418107499472891e-05 0.013296216281174217 0 -2.935140669901055e-05 0.013196962760472457 0 -9.649878323400811e-05 0.013150791556943158 0 -0.0001869916471170724 0.013119423725384074 0 -9.649878323400811e-05 0.013150791556943158 0 -0.00012190364320527236 0.013258438323851407 0 -0.0001869916471170724 0.013119423725384074 0 -0.00010411064144400684 0.013082460892511494 0 -5.3424416739289862e-05 0.013002389285826362 0 -0.0001869916471170724 0.013119423725384074 0 -0.00011384050454855201 0.01303547542882881 0 -5.3424416739289862e-05 0.013002389285826362 0 -0.0001869916471170724 0.013119423725384074 0 -9.649878323400811e-05 0.013150791556943158 0 -0.00010411064144400684 0.013082460892511494 0 -9.649878323400811e-05 0.013150791556943158 0 -7.2357813944202984e-05 0.013112241712585007 0 -3.8223821125329003e-05 0.013129174155548451 0 -9.649878323400811e-05 0.013150791556943158 0 -7.2357813944202984e-05 0.013112241712585007 0 -0.00010411064144400684 0.013082460892511494 0 -7.2357813944202984e-05 0.013112241712585007 0 -5.3682466880765601e-05 0.013084716393885238 0 -3.8223821125329003e-05 0.013129174155548451 0 -7.2357813944202984e-05 0.013112241712585007 0 -0.00010411064144400684 0.013082460892511494 0 -5.3682466880765601e-05 0.013084716393885238 0 -0.00010411064144400684 0.013082460892511494 0 -6.2602792587911258e-05 0.013053181573434653 0 -5.3424416739289862e-05 0.013002389285826362 0 -0.00010411064144400684 0.013082460892511494 0 -5.3682466880765601e-05 0.013084716393885238 0 -6.2602792587911258e-05 0.013053181573434653 0 0.00090352499998935462 0.014349266280706055 0 0.0013679455126252538 0.012952429119019107 0 0.0022026140736711389 0.01160971441837046 0 0.0021879489777174204 0.011686216929564203 0 0.0020968969305673263 0.011749861331098132 0 0.0022509680444535818 0.011671261166411382 0 0.0021879489777174204 0.011686216929564203 0 0.0021993039756509187 0.011712876712333448 0 0.0022509680444535818 0.011671261166411382 0 0.0022026140736711389 0.01160971441837046 0 0.0021879489777174204 0.011686216929564203 0 0.0013679455126252538 0.012952429119019107 0 0.0016506668065201808 0.01140324539010336 0 -0.00011384050454855201 0.01303547542882881 0 -5.3424416739289862e-05 0.013002389285826362 0 2.1300841292403844e-05 0.012870029580486572 0 -5.3424416739289862e-05 0.013002389285826362 0 -2.347020736291686e-05 0.012965099030418918 0 2.1300841292403844e-05 0.012870029580486572 0 7.9679911658826268e-06 0.012971943148279571 0 1.1656327713551808e-05 0.012941346482151492 0 -2.347020736291686e-05 0.012965099030418918 0 7.9679911658826268e-06 0.012971943148279571 0 2.917060197639737e-05 0.013001111353399486 0 4.0399310187219013e-05 0.012958106589444728 0 7.9679911658826268e-06 0.012971943148279571 0 1.1656327713551808e-05 0.012941346482151492 0 4.0399310187219013e-05 0.012958106589444728 0 -5.3424416739289862e-05 0.013002389285826362 0 -2.347020736291686e-05 0.012965099030418918 0 -7.4123161457572625e-06 0.013013531299641405 0 7.9679911658826268e-06 0.012971943148279571 0 -2.347020736291686e-05 0.012965099030418918 0 -7.4123161457572625e-06 0.013013531299641405 0 -5.3424416739289862e-05 0.013002389285826362 0 -7.4123161457572625e-06 0.013013531299641405 0 -3.9039526465035632e-05 0.013044270381500375 0 -7.4123161457572625e-06 0.013013531299641405 0 2.917060197639737e-05 0.013001111353399486 0 3.6715212153087033e-05 0.013051304957816213 0 7.9679911658826268e-06 0.012971943148279571 0 -7.4123161457572625e-06 0.013013531299641405 0 2.917060197639737e-05 0.013001111353399486 0 -7.4123161457572625e-06 0.013013531299641405 0 3.6715212153087033e-05 0.013051304957816213 0 -7.47082008629498e-06 0.013074772108859765 0 -7.4123161457572625e-06 0.013013531299641405 0 -3.9039526465035632e-05 0.013044270381500375 0 -7.47082008629498e-06 0.013074772108859765 0 -6.2602792587911258e-05 0.013053181573434653 0 -5.3424416739289862e-05 0.013002389285826362 0 -3.9039526465035632e-05 0.013044270381500375 0 -5.3682466880765601e-05 0.013084716393885238 0 -3.9039526465035632e-05 0.013044270381500375 0 -7.47082008629498e-06 0.013074772108859765 0 -5.3682466880765601e-05 0.013084716393885238 0 -6.2602792587911258e-05 0.013053181573434653 0 -3.9039526465035632e-05 0.013044270381500375 0 2.9868398979017463e-05 0.013126305150439442 0 -7.47082008629498e-06 0.013074772108859765 0 -3.8223821125329003e-05 0.013129174155548451 0 -5.3682466880765601e-05 0.013084716393885238 0 -7.47082008629498e-06 0.013074772108859765 0 -3.8223821125329003e-05 0.013129174155548451 0 2.9868398979017463e-05 0.013126305150439442 0 3.6715212153087033e-05 0.013051304957816213 0 -7.47082008629498e-06 0.013074772108859765 0 0.00010399177334363199 0.01308906134208882 0 8.0571999138233084e-05 0.013074760615530324 0 0.00010470383369416542 0.013041257103595319 0 2.9868398979017463e-05 0.013126305150439442 0 3.6715212153087033e-05 0.013051304957816213 0 8.0571999138233084e-05 0.013074760615530324 0 0.00011259608866024606 0.012961812345150186 0 0.00022747368501873521 0.012869001888812638 0 0.00015239448878219048 0.013065626199454658 0 8.0571999138233084e-05 0.013074760615530324 0 0.00010470383369416542 0.013041257103595319 0 6.9123966447298663e-05 0.013011361929745733 0 3.6715212153087033e-05 0.013051304957816213 0 8.0571999138233084e-05 0.013074760615530324 0 6.9123966447298663e-05 0.013011361929745733 0 0.00010399177334363199 0.01308906134208882 0 0.00010470383369416542 0.013041257103595319 0 0.00015239448878219048 0.013065626199454658 0 0.00010470383369416542 0.013041257103595319 0 0.00011259608866024606 0.012961812345150186 0 0.00015239448878219048 0.013065626199454658 0 2.917060197639737e-05 0.013001111353399486 0 6.9123966447298663e-05 0.013011361929745733 0 4.0399310187219013e-05 0.012958106589444728 0 2.917060197639737e-05 0.013001111353399486 0 3.6715212153087033e-05 0.013051304957816213 0 6.9123966447298663e-05 0.013011361929745733 0 0.00010470383369416542 0.013041257103595319 0 0.00011259608866024606 0.012961812345150186 0 6.9123966447298663e-05 0.013011361929745733 0 0.00011259608866024606 0.012961812345150186 0 6.9123966447298663e-05 0.013011361929745733 0 4.0399310187219013e-05 0.012958106589444728 0 0.00011259608866024606 0.012961812345150186 0 2.1300841292403844e-05 0.012870029580486572 0 0.00022747368501873521 0.012869001888812638 0 0.00011259608866024606 0.012961812345150186 0 4.0399310187219013e-05 0.012958106589444728 0 2.1300841292403844e-05 0.012870029580486572 0 0.002883329386115744 0.0099131252990505899 0 0.0028682487730364989 0.0099360181719692145 0 0.0030069232602224698 0.0099302691423539743 0 0.0029498401148096861 0.0098717151758612662 0 0.002883329386115744 0.0099131252990505899 0 0.0030069232602224698 0.0099302691423539743 0 0.0016506668065201808 0.01140324539010336 0 0.0016594331311979012 0.010734353906256995 0 0.0029498401148096861 0.0098717151758612662 0 0.002883329386115744 0.0099131252990505899 0 0.0028896267550407866 0.0098502441180861218 0 0.0027481077060976279 0.0099361598695563106 0 0.0028478386140752677 0.0098818009814507276 0 0.0028718297701897928 0.0099333922579438079 0 0.0027481077060976279 0.0099361598695563106 0 0.0028478386140752677 0.0098818009814507276 0 0.0028450334378986456 0.0097760502171953274 0 0.0033194819989627615 0.0099730933560020513 0 0.0016506668065201808 0.01140324539010336 0 0.002883329386115744 0.0099131252990505899 0 0.0028478386140752677 0.0098818009814507276 0 0.0028896267550407866 0.0098502441180861218 0 0.0023048605780988658 0.011744324876781015 0 0.0021993039756509187 0.011712876712333448 0 0.0020968969305673263 0.011749861331098132 0 0.002883329386115744 0.0099131252990505899 0 0.0028478386140752677 0.0098818009814507276 0 0.0028718297701897928 0.0099333922579438079 0 0.0021879489777174204 0.011686216929564203 0 0.0021993039756509187 0.011712876712333448 0 0.0020968969305673263 0.011749861331098132 0 0.0022509680444535818 0.011671261166411382 0 0.0022640854843473416 0.011704289373020369 0 0.0021993039756509187 0.011712876712333448 0 1.1656327713551808e-05 0.012941346482151492 0 -2.347020736291686e-05 0.012965099030418918 0 2.1300841292403844e-05 0.012870029580486572 0 1.1656327713551808e-05 0.012941346482151492 0 4.0399310187219013e-05 0.012958106589444728 0 2.1300841292403844e-05 0.012870029580486572 0 0.0020761755405938097 0.010793099546524654 0 0.0016506668065201808 0.01140324539010336 0 0.001353681962300962 0.010393236013889721 0 0.00020880067456902627 0.010452269442644616 0 0.0008021479118291801 0.011048877093661459 0 0.0026328288378273386 0.0098212187959049787 0 0.0027064720155353925 0.009792932451305152 0 0.0027531324792622876 0.0097882827557180026 0 0.0019640824020416524 0.010057421066247593 0 0.0016594331311979012 0.010734353906256995 0 0.0016594331311979012 0.010734353906256995 0 5.7302347172119125e-05 0.012515370881715688 0 0.00020880067456902627 0.010452269442644616 0 0.0008021479118291801 0.011048877093661459 0 -3.7358093897150287e-06 0.011547784147400372 0 0.0008021479118291801 0.011048877093661459 0 -3.7358093897150287e-06 0.011547784147400372 0 0.00053415416295914185 0.012056018184878408 0 0.001353681962300962 0.010393236013889721 0 0.0008021479118291801 0.011048877093661459 0 0.001795736617198132 0.011454302521058262 0 0.0008021479118291801 0.011048877093661459 0 0.00053415416295914185 0.012056018184878408 0 0.001795736617198132 0.011454302521058262 0 0.00053415416295914185 0.012056018184878408 0 0.00072394743479449529 0.012771314661217417 0 0.0015235443433169026 0.012368918880035294 0 0.00072394743479449529 0.012771314661217417 0 0.0010212727386820432 0.013097446706857455 0 0.0015235443433169026 0.012368918880035294 0 0.00055062924815069082 0.012016216703754096 0 0.0016071748776086585 0.011911552881984673 0 9.7125391212334462e-05 0.013007919090735712 0 0.00053415416295914185 0.012056018184878408 0 0.00072394743479449529 0.012771314661217417 0 9.7125391212334462e-05 0.013007919090735712 0 -3.7358093897150287e-06 0.011547784147400372 0 0.00053415416295914185 0.012056018184878408 0 9.7125391212334462e-05 0.013007919090735712 0 0.00072394743479449529 0.012771314661217417 0 0.00048308831744222681 0.013371982184842836 0 0.00072394743479449529 0.012771314661217417 0 0.00048308831744222681 0.013371982184842836 0 0.0010212727386820432 0.013097446706857455 0 0.0010212727386820432 0.013097446706857455 0 0.001699046540216048 0.013002504602345782 0 0.0015235443433169026 0.012368918880035294 0 0.001699046540216048 0.013002504602345782 0 0.0023978855443704196 0.012934586487796197 0 0.0022939177548632343 0.012225637188774041 0 0.001699046540216048 0.013002504602345782 0 0.0015235443433169026 0.012368918880035294 0 0.0022939177548632343 0.012225637188774041 0 0.0016071748776086585 0.011911552881984673 0 0.0024137214595574938 0.011771713039975051 0 0.001795736617198132 0.011454302521058262 0 0.0024430322357963082 0.011274950851605309 0 0.0021958097573624475 0.010852202288210398 0 0.003209947582449176 0.012903828498648889 0 0.0023978855443704196 0.012934586487796197 0 0.0033240704912941618 0.011835380171715796 0 0.0023978855443704196 0.012934586487796197 0 0.0022939177548632343 0.012225637188774041 0 0.0033240704912941618 0.011835380171715796 0 0.0024430322357963082 0.011274950851605309 0 0.0033240704912941618 0.011835380171715796 0 0.0029616637768018657 0.010798144906322485 0 0.0024137214595574938 0.011771713039975051 0 0.0033220336829448863 0.01183245925039356 0 0.0029616637768018657 0.010798144906322485 0 0.002611640791181881 0.0097515756809827946 0 0.0039473321850164843 0.010699327417325795 0 0.0029616637768018657 0.010798144906322485 0 0.0024807188120969685 0.010533134192926097 0 0.0026306865520095814 0.010252037284481739 0 0.0024430322357963082 0.011274950851605309 0 0.0029616637768018657 0.010798144906322485 0 0.0024807188120969685 0.010533134192926097 0 0.002530983228679676 0.0099885251963504028 0 0.0026306865520095814 0.010252037284481739 0 0.002611640791181881 0.0097515756809827946 0 0.0024807188120969685 0.010533134192926097 0 0.002530983228679676 0.0099885251963504028 0 0.0026306865520095814 0.010252037284481739 0 0.002611640791181881 0.0097515756809827946 0 0.0023118640508121265 0.0097702397945607176 0 0.0019501628512421354 0.0094913869047327029 0 0.0029616637768018657 0.010798144906322485 0 0.0026306865520095814 0.010252037284481739 0 0.002611640791181881 0.0097515756809827946 0 0.001353681962300962 0.010393236013889721 0 0.001795736617198132 0.011454302521058262 0 0.0021958097573624475 0.010852202288210398 0 0.0024430322357963082 0.011274950851605309 0 0.0024807188120969685 0.010533134192926097 0 0.0021958097573624475 0.010852202288210398 0 0.0024807188120969685 0.010533134192926097 0 0.0021958097573624475 0.010852202288210398 0 0.0022990269070918912 0.010081276711440728 0 0.0024807188120969685 0.010533134192926097 0 0.002530983228679676 0.0099885251963504028 0 0.0022990269070918912 0.010081276711440728 0 0.002530983228679676 0.0099885251963504028 0 0.0022990269070918912 0.010081276711440728 0 0.0025288607238628017 0.0098419892825107359 0 0.0026328288378273386 0.0098212187959049787 0 0.0022990269070918912 0.010081276711440728 0 0.0026810703484445391 0.00980512875987824 0 0.0019640824020416524 0.010057421066247593 0 0.0023310139342583398 0.010092426712685756 0 0.001353681962300962 0.010393236013889721 0 0.0021958097573624475 0.010852202288210398 0 0.0022990269070918912 0.010081276711440728 0 0.0022990269070918912 0.010081276711440728 0 0.0025288607238628017 0.0098419892825107359 0 0.0026810703484445391 0.00980512875987824 0 0.0025288607238628017 0.0098419892825107359 0 0.0026184918741933346 0.0097791872055475113 0 0.0025783737432279246 0.0098174103922031627 0 0.0026184918741933346 0.0097791872055475113 0 0.002688160189967028 0.0097495497233076444 0 0.0027099235649349534 0.0097120763201250931 0 0.0025288607238628017 0.0098419892825107359 0 0.0026184918741933346 0.0097791872055475113 0 0.002688160189967028 0.0097495497233076444 0 0.002688160189967028 0.0097495497233076444 0 0.0028604661115947572 0.0096877837301062638 0 0.0026810703484445391 0.00980512875987824 0 0.0025288607238628017 0.0098419892825107359 0 0.002688160189967028 0.0097495497233076444 0 0.0026810703484445391 0.00980512875987824 0 0.0023118640508121265 0.0097702397945607176 0 0.0025783737432279246 0.0098174103922031627 0 0.0025941517084916254 0.0098095937401645357 0 0.002611640791181881 0.0097515756809827946 0 0.0023118640508121265 0.0097702397945607176 0 0.0025783737432279246 0.0098174103922031627 0 0.0023118640508121265 0.0097702397945607176 0 0.0018187022527061075 0.0097411960919447805 0 0.0019294720872667828 0.0097714928363886924 0 0.002530983228679676 0.0099885251963504028 0 0.002611640791181881 0.0097515756809827946 0 0.0025783737432279246 0.0098174103922031627 0 0.002530983228679676 0.0099885251963504028 0 0.0025288607238628017 0.0098419892825107359 0 0.0025783737432279246 0.0098174103922031627 0 0.0026184918741933346 0.0097791872055475113 0 0.0025783737432279246 0.0098174103922031627 0 0.0025941517084916254 0.0098095937401645357 0 0.0018187022527061075 0.0097411960919447805 0 0.0017044051119745602 0.0097779412301014588 0 0.0019294720872667828 0.0097714928363886924 0 0.0022803485233827293 0.009742038972257264 0 0.0022161151000894001 0.0097545968457786476 0 0.0018187022527061075 0.0097411960919447805 0 0.0019733227156293262 0.0097707356246937976 0 0.0016199096882931908 0.0098139073380948422 0 0.0018187022527061075 0.0097411960919447805 0 0.0016199096882931908 0.0098139073380948422 0 0.0017044051119745602 0.0097779412301014588 0 0.0022161151000894001 0.0097545968457786476 0 0.0023067554770007312 0.0097815398554912478 0 0.0025941517084916254 0.0098095937401645357 0 0.0026135936319428002 0.0097396814902002485 0 0.0027099235649349534 0.0097120763201250931 0 0.0026184918741933346 0.0097791872055475113 0 0.0025941517084916254 0.0098095937401645357 0 0.0027099235649349534 0.0097120763201250931 0 0.0019733227156293262 0.0097707356246937976 0 0.0016199096882931908 0.0098139073380948422 0 0.0015837906610657322 0.010008633519895829 0 0.002688160189967028 0.0097495497233076444 0 0.0027099235649349534 0.0097120763201250931 0 0.0028604661115947572 0.0096877837301062638 0 0.0027099235649349534 0.0097120763201250931 0 0.0029435450681197808 0.0096784352205121476 0 0.0028604661115947572 0.0096877837301062638 0 0.0026135936319428002 0.0097396814902002485 0 0.0027099235649349534 0.0097120763201250931 0 0.0028731509759072015 0.0097714608769322343 0 0.0027099235649349534 0.0097120763201250931 0 0.0029435450681197808 0.0096784352205121476 0 0.0028731509759072015 0.0097714608769322343 0 0.0029435450681197808 0.0096784352205121476 0 0.0031905388940004571 0.0096846101890945228 0 0.0028731509759072015 0.0097714608769322343 0 0.0029435450681197808 0.0096784352205121476 0 0.0030738167385530759 0.0096282484053509393 0 0.0031905388940004571 0.0096846101890945228 0 0.0030738167385530759 0.0096282484053509393 0 0.0028604661115947572 0.0096877837301062638 0 0.0029942432537419686 0.0096638472963672568 0 0.0029435450681197808 0.0096784352205121476 0 0.0030738167385530759 0.0096282484053509393 0 0.0028604661115947572 0.0096877837301062638 0 0.0029942432537419686 0.0096638472963672568 0 0.0033501836274417831 0.0095270905765132731 0 0.0030036904597336672 0.0096764788553305673 0 0.0030738167385530759 0.0096282484053509393 0 0.0033501836274417831 0.0095270905765132731 0 0.0031905388940004571 0.0096846101890945228 0 0.0030738167385530759 0.0096282484053509393 0 0.0029942432537419686 0.0096638472963672568 0 0.0033501836274417831 0.0095270905765132731 0 0.0033501836274417831 0.0095270905765132731 0 0.0037551900656213498 0.0094194988401478819 0 0.0037622110089116467 0.0091673651816498256 0 0.0042128947225506391 0.0092599549198526098 0 0.0037946308842232873 0.0091701212047226883 0 0.0042550660148900007 0.0092299127613407091 0 0.0037551900656213498 0.0094194988401478819 0 0.0037622110089116467 0.0091673651816498256 0 0.0042550660148900007 0.0092299127613407091 0 0.0037551900656213498 0.0094194988401478819 0 0.0039839344997509287 0.0095005478811400496 0 0.0041807905925645593 0.0092885725206388794 0 0.004018357541048732 0.0090593765163957396 0 0.0037622110089116467 0.0091673651816498256 0 0.004018357541048732 0.0090593765163957396 0 0.0037622110089116467 0.0091673651816498256 0 0.0037487133026340245 0.0089945186828272721 0 0.0033501836274417831 0.0095270905765132731 0 0.0037622110089116467 0.0091673651816498256 0 0.0037487133026340245 0.0089945186828272721 0 0.0033357486675086841 0.0095081175259204044 0 0.0033382465362308167 0.0093767548551821987 0 0.0033501836274417831 0.0095270905765132731 0 0.0029552685428589848 0.0096473370935355931 0 0.0030036904597336672 0.0096764788553305673 0 0.0029552685428589848 0.0096473370935355931 0 0.0030036904597336672 0.0096764788553305673 0 0.002956800091236075 0.0097330539299104631 0 0.0029552685428589848 0.0096473370935355931 0 0.002956800091236075 0.0097330539299104631 0 0.0028450334378986456 0.0097760502171953274 0 0.0030036904597336672 0.0096764788553305673 0 0.002956800091236075 0.0097330539299104631 0 0.0030305899751288091 0.0097670789683399692 0 0.0033382465362308167 0.0093767548551821987 0 0.003471252003357531 0.0090615911250314842 0 0.0041631979019953764 0.0088535780213880103 0 0.004018357541048732 0.0090593765163957396 0 0.0039815253641244785 0.0086865989552189667 0 0.004018357541048732 0.0090593765163957396 0 0.0037487133026340245 0.0089945186828272721 0 0.0039815253641244785 0.0086865989552189667 0 0.0033194819989627615 0.0099730933560020513 0 0.003471252003357531 0.0090615911250314842 0 0.0028478386140752677 0.0098818009814507276 0 0.0028450334378986456 0.0097760502171953274 0 0.0028896267550407866 0.0098502441180861218 0 0.0028450334378986456 0.0097760502171953274 0 0.0028896267550407866 0.0098502441180861218 0 0.0029372521740450483 0.0098017249929069645 0 0.002956800091236075 0.0097330539299104631 0 0.0028450334378986456 0.0097760502171953274 0 0.0029372521740450483 0.0098017249929069645 0 0.002956800091236075 0.0097330539299104631 0 0.0029372521740450483 0.0098017249929069645 0 0.0030305899751288091 0.0097670789683399692 0 0.0029498401148096861 0.0098717151758612662 0 0.0028896267550407866 0.0098502441180861218 0 0.0029372521740450483 0.0098017249929069645 0 0.0029498401148096861 0.0098717151758612662 0 0.0029372521740450483 0.0098017249929069645 0 0.0030305899751288091 0.0097670789683399692 0 0.0016594331311979012 0.010734353906256995 0 0.0030130562851928265 0.0095754755811201381 0 0.0029498401148096861 0.0098717151758612662 0 0.0030069232602224698 0.0099302691423539743 0 0.0030305899751288091 0.0097670789683399692 0 0.0026328288378273386 0.0098212187959049787 0 0.0027531324792622876 0.0097882827557180026 0 0.0026810703484445391 0.00980512875987824 0 0.0028604661115947572 0.0096877837301062638 0 0.0029942432537419686 0.0096638472963672568 0 0.0026810703484445391 0.00980512875987824 0 0.0029942432537419686 0.0096638472963672568 0 0.0027531324792622876 0.0097882827557180026 0 0.0026810703484445391 0.00980512875987824 0 0.0029942432537419686 0.0096638472963672568 0 0.0030036904597336672 0.0096764788553305673 0 0.0030305899751288091 0.0097670789683399692 0 0.0029436817065934375 0.009773763170746786 0 0.0030130562851928265 0.0095754755811201381 0 -0.0060641802070353695 0.011219008590401276 0 -0.0061200220515143216 0.011269371966578649 0 -0.0060138871826994275 0.011133686355955847 0 -0.0060514694069266021 0.011139392982469793 0 -0.0060317518843655904 0.011128496172964885 0 -0.0060488047790524671 0.011215966022756879 0 -0.0060641802070353695 0.011219008590401276 0 -0.0060836897474294679 0.011211622580240371 0 -0.0060488047790524671 0.011215966022756879 0 -0.0060641802070353695 0.011219008590401276 0 -0.0060138871826994275 0.011133686355955847 0 0.00041936306651482345 0.0097627816003747168 0 0.00034192452377072966 0.0098811657752959081 0 0.00051045300514318147 0.0099190160517784003 0 0.00018165287327164906 0.0097700110302602373 0 0.00041936306651482345 0.0097627816003747168 0 0.00035466292926722963 0.0095666247700752598 0 0.00018165287327164906 0.0097700110302602373 0 0.00041936306651482345 0.0097627816003747168 0 0.00034192452377072966 0.0098811657752959081 0 -0.0060488047790524671 0.011215966022756879 0 -0.0060836897474294679 0.011211622580240371 0 -0.0060348216660600839 0.011138914667142468 0 -0.0029500687271706177 0.010459680402642117 0 -0.0029346539707564615 0.010126378447276018 0 0.00018165287327164906 0.0097700110302602373 0 0.00035466292926722963 0.0095666247700752598 0 3.4179456325271067e-05 0.009351595583130444 0 -0.0061629515884732275 0.011187693659118248 0 -0.0063307245807271506 0.01126207717440293 0 -0.0061200220515143216 0.011269371966578649 0 -0.0060836897474294679 0.011211622580240371 0 -0.0061629515884732275 0.011187693659118248 0 -0.0061200220515143216 0.011269371966578649 0 -0.0060836897474294679 0.011211622580240371 0 -0.0061629515884732275 0.011187693659118248 0 -0.0060348216660600839 0.011138914667142468 0 -0.0063618309817997992 0.010970176032175337 0 -0.0060514694069266021 0.011139392982469793 0 -0.0061629515884732275 0.011187693659118248 0 -0.0063307245807271506 0.01126207717440293 0 -0.0062737638282316602 0.011163035021388917 0 -0.0063159500990781813 0.010731500269251303 0 -0.0061700494261098266 0.010958421633305663 0 -0.0059558330995112011 0.011025831201020938 0 -0.0063307245807271506 0.01126207717440293 0 -0.006363921183180128 0.011185842797485194 0 -0.0062737638282316602 0.011163035021388917 0 -0.0063307245807271506 0.01126207717440293 0 -0.006363921183180128 0.011185842797485194 0 -0.006461996190892879 0.011180455363462597 0 -0.0060132034452614709 0.011036064830025553 0 -0.0062184852557331848 0.011094326823325118 0 -0.0059922453048753613 0.011047462477070762 0 -0.0059976941296956913 0.011054183215209045 0 -0.0060087746981113107 0.011021184219042317 0 -0.0061700494261098266 0.010958421633305663 0 -0.0059927439058776542 0.011048004779209827 0 -0.0064302587204591814 0.011035829160739979 0 -0.0059922453048753613 0.011047462477070762 0 -0.0059927439058776542 0.011048004779209827 0 -0.0060087746981113107 0.011021184219042317 0 -0.0063159500990781813 0.010731500269251303 0 -0.0061700494261098266 0.010958421633305663 0 -0.0064302587204591814 0.011035829160739979 0 -0.0059558330995112011 0.011025831201020938 0 -0.0059748428088204179 0.011065514448999718 0 -0.0060138871826994275 0.011133686355955847 0 -0.0060641802070353695 0.011219008590401276 0 -0.0060836897474294679 0.011211622580240371 0 -0.0061200220515143216 0.011269371966578649 0 -0.0061700494261098266 0.010958421633305663 0 -0.0059558330995112011 0.011025831201020938 0 -0.0059927439058776542 0.011048004779209827 0 -0.0059558330995112011 0.011025831201020938 0 -0.0059927439058776542 0.011048004779209827 0 -0.0059748428088204179 0.011065514448999718 0 -0.0059922453048753613 0.011047462477070762 0 -0.0059927439058776542 0.011048004779209827 0 -0.005984250109746893 0.011059535686009335 0 -0.0059927439058776542 0.011048004779209827 0 -0.005984250109746893 0.011059535686009335 0 -0.0059748428088204179 0.011065514448999718 0 -0.005984250109746893 0.011059535686009335 0 -0.0059748428088204179 0.011065514448999718 0 -0.0059785913776430949 0.011074909492420593 0 -0.0059841942484804983 0.011053915165488658 0 -0.0059778744744425003 0.011057160755493419 0 -0.0059684093116300326 0.01102779091872224 0 -0.005984250109746893 0.011059535686009335 0 -0.0059785913776430949 0.011074909492420593 0 -0.0059778744744425003 0.011057160755493419 0 -0.0059778744744425003 0.011057160755493419 0 -0.0059684093116300326 0.01102779091872224 0 -0.005981381007372567 0.011057320470921365 0 -0.005984250109746893 0.011059535686009335 0 -0.0059841942484804983 0.011053915165488658 0 -0.0059778744744425003 0.011057160755493419 0 -0.0059922453048753613 0.011047462477070762 0 -0.005984250109746893 0.011059535686009335 0 -0.0059841942484804983 0.011053915165488658 0 -0.0059785913776430949 0.011074909492420593 0 -0.0059778744744425003 0.011057160755493419 0 -0.005981381007372567 0.011057320470921365 0 -0.0059841942484804983 0.011053915165488658 0 -0.0059976941296956913 0.011054183215209045 0 -0.0059684093116300326 0.01102779091872224 0 -0.0059922453048753613 0.011047462477070762 0 -0.0059841942484804983 0.011053915165488658 0 -0.0059976941296956913 0.011054183215209045 0 -0.0054339470032464584 0.0093816864346520264 0 -0.0063532484863335478 0.009371458053334376 0 -0.0051929509736237953 0.0078798914988873689 0 -0.0053109420961439859 0.0079787683736949853 0 -0.0052913123826982423 0.0079871567692635891 0 -0.0051929509736237953 0.0078798914988873689 0 -0.0053109420961439859 0.0079787683736949853 0 -0.0055898033548203562 0.0080382852702252823 0 -0.0053109420961439859 0.0079787683736949853 0 -0.0055898033548203562 0.0080382852702252823 0 -0.0054719022369107634 0.0077632512650469606 0 -0.0059684093116300326 0.01102779091872224 0 -0.0060014668579305066 0.011037875084186573 0 -0.005981381007372567 0.011057320470921365 0 -0.0059684093116300326 0.01102779091872224 0 -0.0060014668579305066 0.011037875084186573 0 -0.0059746959199780281 0.010971794497407735 0 0.00018165287327164906 0.0097700110302602373 0 0.00029191722122484984 0.009995892618138047 0 0.00034192452377072966 0.0098811657752959081 0 -0.0060488047790524671 0.011215966022756879 0 -0.0060014668579305066 0.011037875084186573 0 -0.0060138871826994275 0.011133686355955847 0 -0.0029500687271706177 0.010459680402642117 0 -0.0027786042447251989 0.010739097286183727 0 -0.0060014668579305066 0.011037875084186573 0 -0.005981381007372567 0.011057320470921365 0 -0.0060138871826994275 0.011133686355955847 0 -0.0059748428088204179 0.011065514448999718 0 -0.0059785913776430949 0.011074909492420593 0 -0.0060138871826994275 0.011133686355955847 0 -0.0059785913776430949 0.011074909492420593 0 -0.005981381007372567 0.011057320470921365 0 -0.0060138871826994275 0.011133686355955847 0 0.00029191722122484984 0.009995892618138047 0 0.00034192452377072966 0.0098811657752959081 0 0.00051045300514318147 0.0099190160517784003 0 0.00029191722122484984 0.009995892618138047 0 0.00043226879817384866 0.010071755802801393 0 0.00030667720309978459 0.010177895229385465 0 0.00029191722122484984 0.009995892618138047 0 0.00043226879817384866 0.010071755802801393 0 0.00051045300514318147 0.0099190160517784003 0 -0.0027786042447251989 0.010739097286183727 0 -0.0033673237241906751 0.0096040189947380148 0 0.00043226879817384866 0.010071755802801393 0 0.00088176410880333965 0.00993163636367227 0 0.0006110089809213459 0.01014067377932136 0 0.00045686613728562151 0.010074645664460157 0 0.00063883223579825905 0.0098560620728027383 0 0.00043226879817384866 0.010071755802801393 0 0.00088176410880333965 0.00993163636367227 0 0.0007793809706798402 0.0097725309271687131 0 0.00088176410880333965 0.00993163636367227 0 0.0011325022628309788 0.0099946072081259028 0 0.0006110089809213459 0.01014067377932136 0 0.00088176410880333965 0.00993163636367227 0 0.0013246205986863328 0.0098333139743421328 0 0.001107487574356027 0.0097524488832886232 0 0.00088176410880333965 0.00993163636367227 0 0.0007793809706798402 0.0097725309271687131 0 0.001107487574356027 0.0097524488832886232 0 0.0016199096882931908 0.0098139073380948422 0 0.0015837906610657322 0.010008633519895829 0 0.0011325022628309788 0.0099946072081259028 0 0.0016199096882931908 0.0098139073380948422 0 0.0013246205986863328 0.0098333139743421328 0 0.0011325022628309788 0.0099946072081259028 0 0.00088176410880333965 0.00993163636367227 0 0.0013246205986863328 0.0098333139743421328 0 0.0011325022628309788 0.0099946072081259028 0 0.0013246205986863328 0.0098333139743421328 0 0.0014534451419333596 0.0097576089450849869 0 0.001107487574356027 0.0097524488832886232 0 0.0013246205986863328 0.0098333139743421328 0 0.0017044051119745602 0.0097779412301014588 0 0.0014534451419333596 0.0097576089450849869 0 0.0016199096882931908 0.0098139073380948422 0 0.0013246205986863328 0.0098333139743421328 0 0.0017044051119745602 0.0097779412301014588 0 0.0017044051119745602 0.0097779412301014588 0 0.0016954884811486801 0.009718667714888083 0 0.0019294720872667828 0.0097714928363886924 0 0.0017044051119745602 0.0097779412301014588 0 0.0014534451419333596 0.0097576089450849869 0 0.0016954884811486801 0.009718667714888083 0 0.0014534451419333596 0.0097576089450849869 0 0.0012905679530342646 0.0096385384852426988 0 0.001107487574356027 0.0097524488832886232 0 0.0014534451419333596 0.0097576089450849869 0 0.0012905679530342646 0.0096385384852426988 0 0.0016954884811486801 0.009718667714888083 0 0.0012905679530342646 0.0096385384852426988 0 0.0015457075369864923 0.0095311038272867122 0 0.0012162786840063842 0.0094114805735284537 0 0.0012905679530342646 0.0096385384852426988 0 0.0015457075369864923 0.0095311038272867122 0 0.0016954884811486801 0.009718667714888083 0 0.0015457075369864923 0.0095311038272867122 0 0.0016954884811486801 0.009718667714888083 0 0.0018976455952302378 0.00967001040353495 0 0.0023118640508121265 0.0097702397945607176 0 0.0018976455952302378 0.00967001040353495 0 0.0019294720872667828 0.0097714928363886924 0 0.0016954884811486801 0.009718667714888083 0 0.0018976455952302378 0.00967001040353495 0 0.0019294720872667828 0.0097714928363886924 0 0.00063883223579825905 0.0098560620728027383 0 0.00084805637171931909 0.0095784503950326443 0 0.00041936306651482345 0.0097627816003747168 0 0.00051045300514318147 0.0099190160517784003 0 0.00072697715054009858 0.0096208860111489068 0 0.0007793809706798402 0.0097725309271687131 0 0.001107487574356027 0.0097524488832886232 0 0.00097665760076229725 0.0095745279861071172 0 0.0012905679530342646 0.0096385384852426988 0 0.001107487574356027 0.0097524488832886232 0 0.00097665760076229725 0.0095745279861071172 0 0.0012905679530342646 0.0096385384852426988 0 0.00097665760076229725 0.0095745279861071172 0 0.0012162786840063842 0.0094114805735284537 0 0.00041936306651482345 0.0097627816003747168 0 0.00035466292926722963 0.0095666247700752598 0 0.00072697715054009858 0.0096208860111489068 0 0.00035466292926722963 0.0095666247700752598 0 0.00072697715054009858 0.0096208860111489068 0 0.00049740708073786491 0.0092800903376429409 0 0.00072697715054009858 0.0096208860111489068 0 0.0010033825880087805 0.0091455247777188723 0 0.00049740708073786491 0.0092800903376429409 0 0.0012162786840063842 0.0094114805735284537 0 0.0010033825880087805 0.0091455247777188723 0 0.0013423178522510857 0.0089982345420507228 0 0.00084805637171931909 0.0095784503950326443 0 0.00099847676098726744 0.0091605709565924787 0 0.00097665760076229725 0.0095745279861071172 0 0.0012162786840063842 0.0094114805735284537 0 0.0010033825880087805 0.0091455247777188723 0 0.0010033825880087805 0.0091455247777188723 0 0.0011281524217647662 0.0089269894549532068 0 0.0013423178522510857 0.0089982345420507228 0 0.0011281524217647662 0.0089269894549532068 0 0.0013423178522510857 0.0089982345420507228 0 0.0011360079536600629 0.0087318875650523216 0 0.0011281524217647662 0.0089269894549532068 0 0.00096346340603578563 0.0088592070279045754 0 0.0011360079536600629 0.0087318875650523216 0 0.0010033825880087805 0.0091455247777188723 0 0.0011281524217647662 0.0089269894549532068 0 0.00096346340603578563 0.0088592070279045754 0 0.0010033825880087805 0.0091455247777188723 0 0.00096346340603578563 0.0088592070279045754 0 0.00065681948541418769 0.0088479539951488335 0 0.0010033825880087805 0.0091455247777188723 0 0.00065681948541418769 0.0088479539951488335 0 0.00049740708073786491 0.0092800903376429409 0 0.0025089270025491755 0.0097150813655995025 0 0.0031609393747294308 0.0098612410602427949 0 0.002611640791181881 0.0097515756809827946 0 0.0019501628512421354 0.0094913869047327029 0 0.0017320049432585439 0.0089795876617231318 0 0.0015457075369864923 0.0095311038272867122 0 0.0019501628512421354 0.0094913869047327029 0 0.0017320049432585439 0.0089795876617231318 0 0.0023118640508121265 0.0097702397945607176 0 0.0018976455952302378 0.00967001040353495 0 0.0019501628512421354 0.0094913869047327029 0 0.0015457075369864923 0.0095311038272867122 0 0.0018976455952302378 0.00967001040353495 0 0.0019501628512421354 0.0094913869047327029 0 0.0015457075369864923 0.0095311038272867122 0 0.0012162786840063842 0.0094114805735284537 0 0.0013423178522510857 0.0089982345420507228 0 0.0015457075369864923 0.0095311038272867122 0 0.0013423178522510857 0.0089982345420507228 0 0.0017320049432585439 0.0089795876617231318 0 0.0013423178522510857 0.0089982345420507228 0 0.0017320049432585439 0.0089795876617231318 0 0.0011695047929571006 0.008652677802971933 0 0.0031609393747294308 0.0098612410602427949 0 0.0012886776852634907 0.010612984624311872 0 0.0033240704912941618 0.011835380171715796 0 0.0029616637768018657 0.010798144906322485 0 0.0039473321850164843 0.010699327417325795 0 0.0033240704912941618 0.011835380171715796 0 0.0039473321850164843 0.010699327417325795 0 0.0040659048239302994 0.012166404228294037 0 0.0039473321850164843 0.010699327417325795 0 0.0040659048239302994 0.012166404228294037 0 0.0049938354095613469 0.011615797361869346 0 0.0012886776852634907 0.010612984624311872 0 0.0018987582249513349 0.012313030111371213 0 -0.0011339944390994872 0.011353936399141703 0 -0.0011003580343552425 0.011707313146265002 0 -0.0013241260326181581 0.011778812092901424 0 0.0040659048239302994 0.012166404228294037 0 0.0049938354095613469 0.011615797361869346 0 0.0043974974006702732 0.012997831707668791 0 0.003209947582449176 0.012903828498648889 0 0.0040659048239302994 0.012166404228294037 0 0.0037186626084595828 0.013184208214897745 0 0.0040659048239302994 0.012166404228294037 0 0.0037186626084595828 0.013184208214897745 0 0.0043974974006702732 0.012997831707668791 0 0.003209947582449176 0.012903828498648889 0 0.0033240704912941618 0.011835380171715796 0 0.0040659048239302994 0.012166404228294037 0 0.00065681948541418769 0.0088479539951488335 0 0.00073303620151189252 0.0083750806704364043 0 0.00031599216788561385 0.008599804844101987 0 0.00065681948541418769 0.0088479539951488335 0 0.00093117232691256036 0.0086957220089493633 0 0.00073303620151189252 0.0083750806704364043 0 0.00096346340603578563 0.0088592070279045754 0 0.00065681948541418769 0.0088479539951488335 0 0.00093117232691256036 0.0086957220089493633 0 0.00096346340603578563 0.0088592070279045754 0 0.00093117232691256036 0.0086957220089493633 0 0.0011360079536600629 0.0087318875650523216 0 0.00093117232691256036 0.0086957220089493633 0 0.0011637312682633715 0.0086646576299482161 0 0.00073303620151189252 0.0083750806704364043 0 0.0013423178522510857 0.0089982345420507228 0 0.0011360079536600629 0.0087318875650523216 0 0.0011695047929571006 0.008652677802971933 0 0.0012886776852634907 0.010612984624311872 0 -0.0012719692700075788 0.01111974850587061 0 0.00093117232691256036 0.0086957220089493633 0 0.0011360079536600629 0.0087318875650523216 0 0.0011637312682633715 0.0086646576299482161 0 0.0014595333132622658 0.0099009380937091565 0 0.0012886776852634907 0.010612984624311872 0 -0.0011339944390994872 0.011353936399141703 0 -0.0011003580343552425 0.011707313146265002 0 -0.00085906235710814683 0.011579013388773008 0 -0.0015149526428400368 0.011894969746160314 0 -0.0012719692700075788 0.01111974850587061 0 -0.0012719692700075788 0.01111974850587061 0 -0.0028604267626945339 0.011982318344434261 0 -0.0017375620555045782 0.012010242293844117 0 -0.0022076998547359639 0.012262477502953374 0 -0.0022248787782301045 0.011784196625463327 0 -0.0012719692700075788 0.01111974850587061 0 -0.00082054512362635698 0.010321544705593095 0 -0.0023276903981015841 0.012158176485718569 0 -0.0027385903052239589 0.012132386066823698 0 -0.002836703187090095 0.012410235789762091 0 -0.0023276903981015841 0.012158176485718569 0 -0.0027385903052239589 0.012132386066823698 0 -0.0027514880298879188 0.011836327080680371 0 -0.0027385903052239589 0.012132386066823698 0 -0.0030471199167856982 0.012117659022191597 0 -0.0027514880298879188 0.011836327080680371 0 -0.0027385903052239589 0.012132386066823698 0 -0.0030471199167856982 0.012117659022191597 0 -0.002836703187090095 0.012410235789762091 0 -0.0030471199167856982 0.012117659022191597 0 -0.0035093008041637121 0.012205596632350362 0 -0.0031555840302291923 0.011740112782966139 0 -0.0030471199167856982 0.012117659022191597 0 -0.0031474056758289928 0.012328915564455957 0 -0.0033842858000714751 0.012168762366028804 0 -0.0030471199167856982 0.012117659022191597 0 -0.0031474056758289928 0.012328915564455957 0 -0.002836703187090095 0.012410235789762091 0 -0.0024911009712924076 0.011969484451158171 0 -0.0057294198596139099 0.012102784906255201 0 -0.0036403226142757089 0.010455797535156373 0 -0.0057294198596139099 0.012102784906255201 0 -0.0036403226142757089 0.010455797535156373 0 -0.00082054512362635698 0.010321544705593095 0 -0.0031474056758289928 0.012328915564455957 0 -0.0033140670996950573 0.012625591353874721 0 -0.002836703187090095 0.012410235789762091 0 -9.3537948375775571e-05 0.0088286248190581219 0 0.00031599216788561385 0.008599804844101987 0 0.00027857047767088539 0.008988013915055543 0 -0.0031474056758289928 0.012328915564455957 0 -0.0033140670996950573 0.012625591353874721 0 -0.0033842858000714751 0.012168762366028804 0 0.00065681948541418769 0.0088479539951488335 0 0.00031599216788561385 0.008599804844101987 0 0.00027857047767088539 0.008988013915055543 0 0.00065681948541418769 0.0088479539951488335 0 0.00027857047767088539 0.008988013915055543 0 0.00049740708073786491 0.0092800903376429409 0 -9.3537948375775571e-05 0.0088286248190581219 0 0.00027857047767088539 0.008988013915055543 0 3.4179456325271067e-05 0.009351595583130444 0 -0.0036403226142757089 0.010455797535156373 0 -0.0029346539707564615 0.010126378447276018 0 0.00027857047767088539 0.008988013915055543 0 3.4179456325271067e-05 0.009351595583130444 0 0.00049740708073786491 0.0092800903376429409 0 0.00035466292926722963 0.0095666247700752598 0 3.4179456325271067e-05 0.009351595583130444 0 0.00049740708073786491 0.0092800903376429409 0 -0.0063282009874611397 0.011098028017826812 0 -0.0062737638282316602 0.011163035021388917 0 -0.0062229446826092228 0.011099413557894315 0 -0.0063282009874611397 0.011098028017826812 0 -0.0063912839704969478 0.011137574445754873 0 -0.0064201931458697159 0.011072194290057799 0 -0.0063282009874611397 0.011098028017826812 0 -0.0063912839704969478 0.011137574445754873 0 -0.0062737638282316602 0.011163035021388917 0 -0.0063912839704969478 0.011137574445754873 0 -0.006363921183180128 0.011185842797485194 0 -0.0062737638282316602 0.011163035021388917 0 -0.0063912839704969478 0.011137574445754873 0 -0.006363921183180128 0.011185842797485194 0 -0.006461996190892879 0.011180455363462597 0 -0.0061629515884732275 0.011187693659118248 0 -0.0060348216660600839 0.011138914667142468 0 -0.0062229446826092228 0.011099413557894315 0 -0.0061629515884732275 0.011187693659118248 0 -0.0062737638282316602 0.011163035021388917 0 -0.0062229446826092228 0.011099413557894315 0 -0.0060348216660600839 0.011138914667142468 0 -0.0062229446826092228 0.011099413557894315 0 -0.0061812952067098964 0.01097949087265962 0 -0.0060440722767295344 0.010907913630265012 0 -0.0060348216660600839 0.011138914667142468 0 -0.0061812952067098964 0.01097949087265962 0 -0.0059993517319452171 0.010886588975236018 0 -0.0061812952067098964 0.01097949087265962 0 -0.0061982117002528101 0.010864552057486584 0 -0.0036403226142757089 0.010455797535156373 0 -0.0067553473692757273 0.011339263317812291 0 -0.0061812952067098964 0.01097949087265962 0 -0.0063369434785997807 0.011011606811869265 0 -0.0063415026766231253 0.010901448662519983 0 -0.0063282009874611397 0.011098028017826812 0 -0.0062229446826092228 0.011099413557894315 0 -0.0063369434785997807 0.011011606811869265 0 -0.0062229446826092228 0.011099413557894315 0 -0.0061812952067098964 0.01097949087265962 0 -0.0063369434785997807 0.011011606811869265 0 -0.0063369434785997807 0.011011606811869265 0 -0.0064201931458697159 0.011072194290057799 0 -0.0064788931312553437 0.011015441254995014 0 -0.0063282009874611397 0.011098028017826812 0 -0.0063369434785997807 0.011011606811869265 0 -0.0064201931458697159 0.011072194290057799 0 -0.0063369434785997807 0.011011606811869265 0 -0.0063415026766231253 0.010901448662519983 0 -0.0064772966242010264 0.010948705244687777 0 -0.0063369434785997807 0.011011606811869265 0 -0.0064788931312553437 0.011015441254995014 0 -0.0064772966242010264 0.010948705244687777 0 -0.0064158177631642634 0.010849281615699155 0 -0.0064772966242010264 0.010948705244687777 0 -0.0065481080931376161 0.010901383051037026 0 -0.0063415026766231253 0.010901448662519983 0 -0.0064158177631642634 0.010849281615699155 0 -0.0064772966242010264 0.010948705244687777 0 -0.0063415026766231253 0.010901448662519983 0 -0.0062868279208367914 0.01080414514834202 0 -0.0064158177631642634 0.010849281615699155 0 -0.0061812952067098964 0.01097949087265962 0 -0.0063415026766231253 0.010901448662519983 0 -0.0061982117002528101 0.010864552057486584 0 -0.0063415026766231253 0.010901448662519983 0 -0.0062868279208367914 0.01080414514834202 0 -0.0061982117002528101 0.010864552057486584 0 -0.0062868279208367914 0.01080414514834202 0 -0.0061982117002528101 0.010864552057486584 0 -0.0061822002393447546 0.010733349751554912 0 -0.0062868279208367914 0.01080414514834202 0 -0.0061822002393447546 0.010733349751554912 0 -0.0063350206177533045 0.010642157288885176 0 -0.0062868279208367914 0.01080414514834202 0 -0.0064158177631642634 0.010849281615699155 0 -0.0063350206177533045 0.010642157288885176 0 -0.0064158177631642634 0.010849281615699155 0 -0.0063350206177533045 0.010642157288885176 0 -0.0066553596707374782 0.010865506481076136 0 -0.0059993517319452171 0.010886588975236018 0 -0.0061822002393447546 0.010733349751554912 0 -0.0060430380281764513 0.010679334780791774 0 -0.0059993517319452171 0.010886588975236018 0 -0.0061982117002528101 0.010864552057486584 0 -0.0061822002393447546 0.010733349751554912 0 -0.0057294198596139099 0.012102784906255201 0 -0.0083221934892916041 0.011429448384166868 0 -0.0061822002393447546 0.010733349751554912 0 -0.0060430380281764513 0.010679334780791774 0 -0.0063350206177533045 0.010642157288885176 0 -0.0086982935373710133 0.012249398699018171 0 -0.0095661540310330272 0.012343805683514869 0 -0.0091770357260553739 0.012073474631424717 0 -0.0086982935373710133 0.012249398699018171 0 -0.0091770357260553739 0.012073474631424717 0 -0.0089975328125005902 0.011908370708293514 0 -0.0057294198596139099 0.012102784906255201 0 -0.0061792798741555745 0.011769524589304994 0 -0.0086982935373710133 0.012249398699018171 0 -0.0089975328125005902 0.011908370708293514 0 -0.0087759941089640327 0.011802879744242762 0 -0.0091770357260553739 0.012073474631424717 0 -0.0094921995846328853 0.012065547216684258 0 -0.0094202241623726878 0.011896280624733524 0 -0.0095661540310330272 0.012343805683514869 0 -0.0091770357260553739 0.012073474631424717 0 -0.0094921995846328853 0.012065547216684258 0 -0.0095661540310330272 0.012343805683514869 0 -0.0094921995846328853 0.012065547216684258 0 -0.0096915219291884968 0.012094380383186746 0 -0.0094921995846328853 0.012065547216684258 0 -0.0095945864717523009 0.011926420757998614 0 -0.0096915219291884968 0.012094380383186746 0 -0.0094921995846328853 0.012065547216684258 0 -0.0095945864717523009 0.011926420757998614 0 -0.0094202241623726878 0.011896280624733524 0 -0.0095945864717523009 0.011926420757998614 0 -0.0094202241623726878 0.011896280624733524 0 -0.0094877679170767299 0.011736180145691498 0 -0.0095945864717523009 0.011926420757998614 0 -0.0094877679170767299 0.011736180145691498 0 -0.0096671085254950301 0.011802456778549297 0 -0.0094202241623726878 0.011896280624733524 0 -0.0092451062005882954 0.011796222362266472 0 -0.0094877679170767299 0.011736180145691498 0 -0.0091770357260553739 0.012073474631424717 0 -0.0094202241623726878 0.011896280624733524 0 -0.0092451062005882954 0.011796222362266472 0 -0.0092451062005882954 0.011796222362266472 0 -0.0093341553715172408 0.011643624622128396 0 -0.0090772854886537434 0.011636438382451075 0 -0.0093341553715172408 0.011643624622128396 0 -0.0093971839453694996 0.011443401931681566 0 -0.0090772854886537434 0.011636438382451075 0 -0.0092451062005882954 0.011796222362266472 0 -0.0093341553715172408 0.011643624622128396 0 -0.0094877679170767299 0.011736180145691498 0 -0.0093341553715172408 0.011643624622128396 0 -0.0094588520941425083 0.011600131615750686 0 -0.0093971839453694996 0.011443401931681566 0 -0.0094588520941425083 0.011600131615750686 0 -0.0093971839453694996 0.011443401931681566 0 -0.0096340522054111991 0.011624606332017683 0 -0.0094877679170767299 0.011736180145691498 0 -0.0096671085254950301 0.011802456778549297 0 -0.0096340522054111991 0.011624606332017683 0 -0.0093341553715172408 0.011643624622128396 0 -0.0094877679170767299 0.011736180145691498 0 -0.0094588520941425083 0.011600131615750686 0 -0.0094877679170767299 0.011736180145691498 0 -0.0094588520941425083 0.011600131615750686 0 -0.0096340522054111991 0.011624606332017683 0 -0.0092140751642535677 0.011568790342500067 0 -0.0093548498214953181 0.011361016636517911 0 -0.009594310193598285 0.011443982405311982 0 -0.0092140751642535677 0.011568790342500067 0 -0.0090697439175999508 0.011332691832686691 0 -0.0085754783697218409 0.011496720530953606 0 -0.0092140751642535677 0.011568790342500067 0 -0.0090697439175999508 0.011332691832686691 0 -0.0093548498214953181 0.011361016636517911 0 -0.0090697439175999508 0.011332691832686691 0 -0.0093635483757039881 0.011206037387601869 0 -0.0093548498214953181 0.011361016636517911 0 -0.0090697439175999508 0.011332691832686691 0 -0.0093635483757039881 0.011206037387601869 0 -0.0093220735626894646 0.010995506291411558 0 -0.0093635483757039881 0.011206037387601869 0 -0.0095285508789089562 0.011298472394353285 0 -0.009540181054819347 0.011134108403996758 0 -0.0093635483757039881 0.011206037387601869 0 -0.0093548498214953181 0.011361016636517911 0 -0.0095285508789089562 0.011298472394353285 0 -0.0093548498214953181 0.011361016636517911 0 -0.009594310193598285 0.011443982405311982 0 -0.0095285508789089562 0.011298472394353285 0 -0.0097041134320114755 0.011543073241802201 0 -0.0065869757411123071 0.011522456696001365 0 -0.0093971839453694996 0.011443401931681566 0 -0.0088370521923229854 0.011363047244620826 0 -0.0090772854886537434 0.011636438382451075 0 -0.0065869757411123071 0.011522456696001365 0 -0.0062995493835080801 0.01322869508701591 0 -0.0090697439175999508 0.011332691832686691 0 -0.0085754783697218409 0.011496720530953606 0 -0.0089771344812257202 0.011042281871746645 0 -0.0065869757411123071 0.011522456696001365 0 -0.0061792798741555745 0.011769524589304994 0 -0.0088370521923229854 0.011363047244620826 0 -0.0090772854886537434 0.011636438382451075 0 -0.0087759941089640327 0.011802879744242762 0 -0.0092451062005882954 0.011796222362266472 0 -0.0090772854886537434 0.011636438382451075 0 -0.0089975328125005902 0.011908370708293514 0 -0.0090772854886537434 0.011636438382451075 0 -0.0089975328125005902 0.011908370708293514 0 -0.0087759941089640327 0.011802879744242762 0 -0.0091770357260553739 0.012073474631424717 0 -0.0092451062005882954 0.011796222362266472 0 -0.0089975328125005902 0.011908370708293514 0 -0.0035093008041637121 0.012205596632350362 0 -0.0035835221015115344 0.011759290229256435 0 -0.0031555840302291923 0.011740112782966139 0 -0.0036639441348143291 0.011300336553635316 0 -0.0035835221015115344 0.011759290229256435 0 -0.0031555840302291923 0.011740112782966139 0 -0.0031555840302291923 0.011740112782966139 0 -0.0027514880298879188 0.011836327080680371 0 -0.003038229832514951 0.011235789069213256 0 -0.0027514880298879188 0.011836327080680371 0 -0.003038229832514951 0.011235789069213256 0 -0.0025445911029078707 0.011508872797713203 0 -0.0030471199167856982 0.012117659022191597 0 -0.0031555840302291923 0.011740112782966139 0 -0.0027514880298879188 0.011836327080680371 0 -0.0042005304559502108 0.013081911498966203 0 -0.0042859635610247781 0.012507593127891185 0 -0.002805080579428972 0.012921255746801533 0 -0.0040816771868654273 0.014265276373440636 0 -0.002984850498017509 0.012763983185045296 0 -0.003187692580090109 0.01212317623097205 0 -0.002984850498017509 0.012763983185045296 0 -0.003038229832514951 0.011235789069213256 0 -0.0025445911029078707 0.011508872797713203 0 -0.0024091663020791776 0.011170946695132303 0 -0.005603559903059321 0.013239453979623336 0 -0.0042005304559502108 0.013081911498966203 0 -0.0042859635610247781 0.012507593127891185 0 -0.0036639441348143291 0.011300336553635316 0 -0.0031555840302291923 0.011740112782966139 0 -0.003038229832514951 0.011235789069213256 0 -0.005603559903059321 0.013239453979623336 0 -0.0042859635610247781 0.012507593127891185 0 -0.0057723867625855329 0.012095632099543693 0 -0.0065869757411123071 0.011522456696001365 0 -0.003187692580090109 0.01212317623097205 0 -0.0042828655382647837 0.015619134506296321 0 -0.0042978670489836404 0.015580119419102801 0 -0.00434294498277566 0.015592700772331183 0 -0.0042828655382647837 0.015619134506296321 0 -0.004263010671568283 0.015593643981925392 0 -0.0042978670489836404 0.015580119419102801 0 -0.0040816771868654273 0.014265276373440636 0 -0.0062995493835080801 0.01322869508701591 0 -0.0042828655382647837 0.015619134506296321 0 -0.004263010671568283 0.015593643981925392 0 -0.0042199650342893578 0.015642413152978953 0 -0.004263010671568283 0.015593643981925392 0 -0.004260059690232393 0.015573877013544936 0 -0.0042228520738851489 0.015593650152126709 0 -0.004263010671568283 0.015593643981925392 0 -0.004260059690232393 0.015573877013544936 0 -0.0042978670489836404 0.015580119419102801 0 -0.0042978670489836404 0.015580119419102801 0 -0.0043409291821394826 0.01556152315932959 0 -0.0042915844040737122 0.01555408169398447 0 -0.0066214225163406673 0.014630760694558017 0 -0.0062995493835080801 0.01322869508701591 0 -0.0042978670489836404 0.015580119419102801 0 -0.0043409291821394826 0.01556152315932959 0 -0.00434294498277566 0.015592700772331183 0 -0.0073891776769229667 0.013334757425113437 0 -0.0075236816687674615 0.013462043637374722 0 -0.0073615961272661557 0.013514524449685133 0 -0.0085954128611586151 0.013666474134275209 0 -0.0083310938592549063 0.013356717320199461 0 -0.0081828705888599591 0.013919250714525154 0 -0.0093475745660868293 0.012322389713455404 0 -0.0095441062103894109 0.013509713903619915 0 -0.0066214225163406673 0.014630760694558017 0 -0.0093475745660868293 0.012322389713455404 0 -0.0091986777724901957 0.010805566520164149 0 -0.0089771344812257202 0.011042281871746645 0 -0.0086644419294331348 0.010971818582582359 0 -0.0090697439175999508 0.011332691832686691 0 -0.0092459441913923749 0.010725933706373505 0 -0.0093220735626894646 0.010995506291411558 0 -0.0090697439175999508 0.011332691832686691 0 -0.0091986777724901957 0.010805566520164149 0 -0.0089771344812257202 0.011042281871746645 0 -0.0092020065084021663 0.010781400662423906 0 -0.0093475745660868293 0.012322389713455404 0 -0.0092459441913923749 0.010725933706373505 0 -0.0093220735626894646 0.010995506291411558 0 -0.009540181054819347 0.011134108403996758 0 -0.0093635483757039881 0.011206037387601869 0 -0.0093220735626894646 0.010995506291411558 0 -0.009540181054819347 0.011134108403996758 0 -0.0085754783697218409 0.011496720530953606 0 -0.0089771344812257202 0.011042281871746645 0 -0.0086644419294331348 0.010971818582582359 0 -0.0093475745660868293 0.012322389713455404 0 -0.0062995493835080801 0.01322869508701591 0 0.003578207215185853 0.013859588758022354 0 0.0043974974006702732 0.012997831707668791 0 0.0037082336773735171 0.01456376799406129 0 0.002630102022301416 0.014259695812777978 0 0.003578207215185853 0.013859588758022354 0 0.0037082336773735171 0.01456376799406129 0 0.003578207215185853 0.013859588758022354 0 0.0037186626084595828 0.013184208214897745 0 0.0043974974006702732 0.012997831707668791 0 0.0032656559698018644 0.013402909610760464 0 0.003578207215185853 0.013859588758022354 0 0.0037186626084595828 0.013184208214897745 0 0.003209947582449176 0.012903828498648889 0 0.0032656559698018644 0.013402909610760464 0 0.0037186626084595828 0.013184208214897745 0 -0.0013312184544349512 0.011742899478813086 0 -0.0013241260326181581 0.011778812092901424 0 -0.0011643499257553839 0.011325781166563123 0 -0.0017375620555045782 0.012010242293844117 0 -0.0013312184544349512 0.011742899478813086 0 -0.0016033992358547332 0.01172638603822875 0 -0.0011003580343552425 0.011707313146265002 0 -0.0013312184544349512 0.011742899478813086 0 -0.0013241260326181581 0.011778812092901424 0 -0.0015149526428400368 0.011894969746160314 0 -0.0013025657691944634 0.011751100877142887 0 -0.0013312184544349512 0.011742899478813086 0 -0.0014724928809908596 0.011534341906634191 0 -0.0016033992358547332 0.01172638603822875 0 0.0018987582249513349 0.012313030111371213 0 -0.00041773502515837492 0.013834792319348709 0 -0.0014724928809908596 0.011534341906634191 0 -0.0016092690249476479 0.01133767256386442 0 -0.0011643499257553839 0.011325781166563123 0 -0.0033633122025158876 0.013568088733320995 0 -0.00041773502515837492 0.013834792319348709 0 -0.0013312184544349512 0.011742899478813086 0 -0.0014724928809908596 0.011534341906634191 0 -0.0011643499257553839 0.011325781166563123 0 -0.0016092690249476479 0.01133767256386442 0 -0.0018103814349341506 0.011497657937722248 0 -0.0021794376500798534 0.011408019398715545 0 -0.0033633122025158876 0.013568088733320995 0 -0.002984850498017509 0.012763983185045296 0 -0.001920604446556189 0.011326427840190259 0 -0.0018529162462423813 0.011629994185338775 0 -0.0021894115281993047 0.011484866998601351 0 -0.0014724928809908596 0.011534341906634191 0 -0.001920604446556189 0.011326427840190259 0 -0.0018529162462423813 0.011629994185338775 0 -0.0015495099032917139 0.0115115290410342 0 -0.0018389173816894672 0.011472945399282291 0 -0.0014724928809908596 0.011534341906634191 0 -0.0016092690249476479 0.01133767256386442 0 -0.0018103814349341506 0.011497657937722248 0 -0.0014724928809908596 0.011534341906634191 0 -0.0016033992358547332 0.01172638603822875 0 -0.0018529162462423813 0.011629994185338775 0 -0.0017375620555045782 0.012010242293844117 0 -0.0016033992358547332 0.01172638603822875 0 -0.0018529162462423813 0.011629994185338775 0 -0.0017375620555045782 0.012010242293844117 0 -0.0018529162462423813 0.011629994185338775 0 -0.0022248787782301045 0.011784196625463327 0 -0.0022076998547359639 0.012262477502953374 0 -0.0027514880298879188 0.011836327080680371 0 -0.0022248787782301045 0.011784196625463327 0 -0.0027514880298879188 0.011836327080680371 0 -0.0022248787782301045 0.011784196625463327 0 -0.0025445911029078707 0.011508872797713203 0 -0.0018529162462423813 0.011629994185338775 0 -0.0022248787782301045 0.011784196625463327 0 -0.0021894115281993047 0.011484866998601351 0 -0.0022248787782301045 0.011784196625463327 0 -0.0025445911029078707 0.011508872797713203 0 -0.0021894115281993047 0.011484866998601351 0 -0.0025445911029078707 0.011508872797713203 0 -0.0021894115281993047 0.011484866998601351 0 -0.0024091663020791776 0.011170946695132303 0 -0.001920604446556189 0.011326427840190259 0 -0.0021894115281993047 0.011484866998601351 0 -0.0024091663020791776 0.011170946695132303 0 -0.0018389173816894672 0.011472945399282291 0 -0.002984850498017509 0.012763983185045296 0 -0.004263010671568283 0.015593643981925392 0 -0.0042199650342893578 0.015642413152978953 0 -0.0042228520738851489 0.015593650152126709 0 -0.0042199650342893578 0.015642413152978953 0 -0.0042228520738851489 0.015593650152126709 0 -0.0041749189200065229 0.015616330610389273 0 -0.0042228520738851489 0.015593650152126709 0 -0.0041692043636178192 0.015582370077958589 0 -0.0042324738120912827 0.015568903606641709 0 -0.004260059690232393 0.015573877013544936 0 -0.0042228520738851489 0.015593650152126709 0 -0.0042324738120912827 0.015568903606641709 0 -0.0042228520738851489 0.015593650152126709 0 -0.0041692043636178192 0.015582370077958589 0 -0.0041749189200065229 0.015616330610389273 0 -0.0041347086283404864 0.015654376974164125 0 -0.0041749189200065229 0.015616330610389273 0 -0.0040908740965400767 0.015621512433393294 0 -0.0041692043636178192 0.015582370077958589 0 -0.0041749189200065229 0.015616330610389273 0 -0.0040908740965400767 0.015621512433393294 0 -0.0041347086283404864 0.015654376974164125 0 -0.0042199650342893578 0.015642413152978953 0 -0.0041749189200065229 0.015616330610389273 0 -0.0041347086283404864 0.015654376974164125 0 -0.0040908740965400767 0.015621512433393294 0 -0.0040187678456916655 0.015650996408827476 0 -0.0041692043636178192 0.015582370077958589 0 -0.0040852481584166007 0.015575274701669181 0 -0.0041306808159717046 0.015550108163159406 0 -0.0041692043636178192 0.015582370077958589 0 -0.0040908740965400767 0.015621512433393294 0 -0.0040852481584166007 0.015575274701669181 0 -0.0040852481584166007 0.015575274701669181 0 -0.0040526032183883683 0.015542226490731521 0 -0.0041306808159717046 0.015550108163159406 0 -0.0040852481584166007 0.015575274701669181 0 -0.0039907178307253093 0.015590663121843372 0 -0.0040526032183883683 0.015542226490731521 0 -0.003936723441944818 0.015497888728247424 0 -0.0039907178307253093 0.015590663121843372 0 -0.0040526032183883683 0.015542226490731521 0 -0.0040908740965400767 0.015621512433393294 0 -0.0040852481584166007 0.015575274701669181 0 -0.0039907178307253093 0.015590663121843372 0 -0.0040908740965400767 0.015621512433393294 0 -0.0039907178307253093 0.015590663121843372 0 -0.0040187678456916655 0.015650996408827476 0 -0.0022404463046613674 0.01541819591492922 0 -0.00041773502515837492 0.013834792319348709 0 -0.0038857692371969546 0.015993513682431321 0 -0.0040566446285754711 0.015760255511876924 0 -0.0043138077249720323 0.015820102321638864 0 -0.0040566446285754711 0.015760255511876924 0 -0.0043138077249720323 0.015820102321638864 0 -0.0042996070850219587 0.015767403686183012 0 -0.0040566446285754711 0.015760255511876924 0 -0.0042996070850219587 0.015767403686183012 0 -0.0041636586866307147 0.015626921946176441 0 -0.003936723441944818 0.015497888728247424 0 -0.0040526032183883683 0.015542226490731521 0 -0.0041102604118798671 0.015493559663195301 0 -0.0021741361536412817 0.015177929553631836 0 -0.0046005939832853976 0.015710377357106144 0 -0.0041102604118798671 0.015493559663195301 0 -0.0041306808159717046 0.015550108163159406 0 -0.0041884749739191747 0.015556966618811296 0 -0.0040526032183883683 0.015542226490731521 0 -0.0041102604118798671 0.015493559663195301 0 -0.0041306808159717046 0.015550108163159406 0 -0.0043138077249720323 0.015820102321638864 0 -0.0042996070850219587 0.015767403686183012 0 -0.0042822057287466402 0.015635467296060829 0 -0.0042996070850219587 0.015767403686183012 0 -0.0050823458121690944 0.01588124671773929 0 -0.0047981763931160409 0.015666711117594861 0 -0.0043800103613306791 0.015758510554868509 0 -0.0045907949547760937 0.015792889556532505 0 -0.0046005939832853976 0.015710377357106144 0 -0.0040720612840576082 0.015596412105834115 0 -0.0043138077249720323 0.015820102321638864 0 -0.0042822057287466402 0.015635467296060829 0 -0.0042609777344809578 0.015587550024493173 0 -0.0041102604118798671 0.015493559663195301 0 -0.0041884749739191747 0.015556966618811296 0 -0.0042609777344809578 0.015587550024493173 0 -0.0041692043636178192 0.015582370077958589 0 -0.0041306808159717046 0.015550108163159406 0 -0.0041884749739191747 0.015556966618811296 0 -0.0041692043636178192 0.015582370077958589 0 -0.0041884749739191747 0.015556966618811296 0 -0.0042324738120912827 0.015568903606641709 0 -0.0042324738120912827 0.015568903606641709 0 -0.0042609777344809578 0.015587550024493173 0 -0.0042588338361710647 0.015568073675999793 0 -0.0041884749739191747 0.015556966618811296 0 -0.0042324738120912827 0.015568903606641709 0 -0.0042609777344809578 0.015587550024493173 0 -0.0045907949547760937 0.015792889556532505 0 -0.0054314393194340588 0.015399192852656157 0 -0.0042822057287466402 0.015635467296060829 0 -0.0042609777344809578 0.015587550024493173 0 -0.0042593108670596945 0.015573340366187061 0 -0.00536351499639404 0.015657916441544514 0 -0.0054446928090091818 0.015414759335920059 0 -0.0058087333340040726 0.015821630003445539 0 -0.0050823458121690944 0.01588124671773929 0 -0.00536351499639404 0.015657916441544514 0 -0.0058087333340040726 0.015821630003445539 0 -0.0050823458121690944 0.01588124671773929 0 -0.00536351499639404 0.015657916441544514 0 -0.0051021479657676581 0.01550590412571567 0 -0.00536351499639404 0.015657916441544514 0 -0.0054446928090091818 0.015414759335920059 0 -0.0051021479657676581 0.01550590412571567 0 -0.0052629250099799768 0.014999927847783165 0 -0.0054446928090091818 0.015414759335920059 0 -0.0051021479657676581 0.01550590412571567 0 -0.0052629250099799768 0.014999927847783165 0 -0.0054446928090091818 0.015414759335920059 0 -0.0059487957797074121 0.01542175400398085 0 -0.0052629250099799768 0.014999927847783165 0 -0.0046874960851357762 0.015386127728770252 0 -0.0051021479657676581 0.01550590412571567 0 -0.0052629250099799768 0.014999927847783165 0 -0.0046874960851357762 0.015386127728770252 0 -0.0043656564958924962 0.014999988016378793 0 -0.0046874960851357762 0.015386127728770252 0 -0.0051021479657676581 0.01550590412571567 0 -0.0047981763931160409 0.015666711117594861 0 -0.0050823458121690944 0.01588124671773929 0 -0.0051021479657676581 0.01550590412571567 0 -0.0047981763931160409 0.015666711117594861 0 -0.0042996070850219587 0.015767403686183012 0 -0.0047981763931160409 0.015666711117594861 0 -0.0044153091486026771 0.015575674165285798 0 -0.0046874960851357762 0.015386127728770252 0 -0.0044153091486026771 0.015575674165285798 0 -0.0042370482472399605 0.015400683045641813 0 -0.0042996070850219587 0.015767403686183012 0 -0.0044153091486026771 0.015575674165285798 0 -0.0041636586866307147 0.015626921946176441 0 -0.0044153091486026771 0.015575674165285798 0 -0.0042370482472399605 0.015400683045641813 0 -0.0041636586866307147 0.015626921946176441 0 -0.0046874960851357762 0.015386127728770252 0 -0.0047981763931160409 0.015666711117594861 0 -0.0044153091486026771 0.015575674165285798 0 -0.0046874960851357762 0.015386127728770252 0 -0.0043656564958924962 0.014999988016378793 0 -0.0042370482472399605 0.015400683045641813 0 -0.0037234033299556424 0.015225807068335836 0 -0.0036289082414156515 0.014999997580845401 0 -0.0043654762175843655 0.015000000098729812 0 -0.0040228988285191357 0.0151869428110344 0 -0.0043651379857419653 0.015000116008934109 0 -0.0039410960370939224 0.015197798721679506 0 -0.0043656564958924962 0.014999988016378793 0 -0.0042370482472399605 0.015400683045641813 0 -0.0039382387430882144 0.015512547574046813 0 -0.0042370482472399605 0.015400683045641813 0 -0.0041636586866307147 0.015626921946176441 0 -0.0039382387430882144 0.015512547574046813 0 -0.0039410960370939224 0.015197798721679506 0 -0.0042370482472399605 0.015400683045641813 0 -0.0039382387430882144 0.015512547574046813 0 -0.0040566446285754711 0.015760255511876924 0 -0.0041636586866307147 0.015626921946176441 0 -0.0064715176574374937 0.01490829143352392 0 -0.0062408878725438701 0.014663024428915379 0 -0.0065157624301889119 0.01463689053095811 0 -0.0064715176574374937 0.01490829143352392 0 -0.0061994139020379807 0.014936588017166014 0 -0.0062408878725438701 0.014663024428915379 0 -0.0075701133935936974 0.014314241430383351 0 -0.0071829168255704021 0.015096722031304152 0 -0.0085373497424173772 0.014050476999330447 0 -0.0083095367348191545 0.014217012828350794 0 -0.0084777443633823786 0.014427771328548293 0 -0.0085373497424173772 0.014050476999330447 0 -0.0083095367348191545 0.014217012828350794 0 -0.0081828705888599591 0.013919250714525154 0 -0.0085954128611586151 0.013666474134275209 0 -0.0085373497424173772 0.014050476999330447 0 -0.0081828705888599591 0.013919250714525154 0 -0.0066214225163406673 0.014630760694558017 0 -0.0050504568384327261 0.015233272049930194 0 -0.0064300598041758172 0.015173462911727468 0 -0.0064715176574374937 0.01490829143352392 0 -0.0061994139020379807 0.014936588017166014 0 -0.0066214225163406673 0.014630760694558017 0 -0.0075701133935936974 0.014314241430383351 0 -0.004260059690232393 0.015573877013544936 0 -0.0042978670489836404 0.015580119419102801 0 -0.0042915844040737122 0.01555408169398447 0 -0.004260059690232393 0.015573877013544936 0 -0.0042915844040737122 0.01555408169398447 0 -0.0042588338361710647 0.015568073675999793 0 -0.004260059690232393 0.015573877013544936 0 -0.0042324738120912827 0.015568903606641709 0 -0.0042588338361710647 0.015568073675999793 0 -0.0042609777344809578 0.015587550024493173 0 -0.0042588338361710647 0.015568073675999793 0 -0.0042593108670596945 0.015573340366187061 0 -0.0042915844040737122 0.01555408169398447 0 -0.0042588338361710647 0.015568073675999793 0 -0.0042593108670596945 0.015573340366187061 0 -0.0050504568384327261 0.015233272049930194 0 -0.0054314393194340588 0.015399192852656157 0 -0.0061994139020379807 0.014936588017166014 0 -0.0062408878725438701 0.014663024428915379 0 -0.0059626187441758766 0.014693039627746651 0 -0.0063683675165192889 0.015262482524273887 0 -0.0054314393194340588 0.015399192852656157 0 -0.0064671466943872977 0.015862343730779698 0 -0.0058895728105196679 0.015914844905127415 0 -0.0059487957797074121 0.01542175400398085 0 -0.0064671466943872977 0.015862343730779698 0 -0.0059487957797074121 0.01542175400398085 0 -0.0064762303638252429 0.015356773381022783 0 -0.0054446928090091818 0.015414759335920059 0 -0.0058895728105196679 0.015914844905127415 0 -0.0059487957797074121 0.01542175400398085 0 -0.0056374356730598766 0.015630042825106636 0 -0.0054314393194340588 0.015399192852656157 0 -0.0052629250099799768 0.014999927847783165 0 -0.0059487957797074121 0.01542175400398085 0 -0.0061607779104619828 0.014999973086311144 0 -0.0059487957797074121 0.01542175400398085 0 -0.0061607779104619828 0.014999973086311144 0 -0.0064762303638252429 0.015356773381022783 0 -0.0061607779104619828 0.014999973086311144 0 -0.0064762303638252429 0.015356773381022783 0 -0.00705802441575958 0.015000044160115805 0 -0.0064762303638252429 0.015356773381022783 0 -0.0068692210348437061 0.015397150816918734 0 -0.00705802441575958 0.015000044160115805 0 -0.0068692210348437061 0.015397150816918734 0 -0.0070299308155342237 0.015808405721225036 0 -0.0071512850982744297 0.015049188441859793 0 -0.0068692210348437061 0.015397150816918734 0 -0.0071512850982744297 0.015049188441859793 0 -0.00705802441575958 0.015000044160115805 0 -0.0064671466943872977 0.015862343730779698 0 -0.0064762303638252429 0.015356773381022783 0 -0.0068692210348437061 0.015397150816918734 0 -0.0064671466943872977 0.015862343730779698 0 -0.0068692210348437061 0.015397150816918734 0 -0.0070299308155342237 0.015808405721225036 0 -0.0063683675165192889 0.015262482524273887 0 -0.0071829168255704021 0.015096722031304152 0 -0.0071829168255704021 0.015096722031304152 0 -0.008703856272936867 0.014622542831235884 0 -0.0083095367348191545 0.014217012828350794 0 -0.0084777443633823786 0.014427771328548293 0 -0.0080406274986585917 0.014468462721632193 0 -0.0070582113633340937 0.015805629779458555 0 -0.0075168796778689829 0.015359706401919502 0 -0.007759325555038046 0.01574845183034735 0 -0.0070582113633340937 0.015805629779458555 0 -0.0075168796778689829 0.015359706401919502 0 -0.0071512850982744297 0.015049188441859793 0 -0.0071512850982744297 0.015049188441859793 0 -0.00705802441575958 0.015000044160115805 0 -0.0079571797214061379 0.014999634373930771 0 -0.0071829168255704021 0.015096722031304152 0 -0.0070945483646180727 0.015387350261924908 0 -0.0075168796778689829 0.015359706401919502 0 -0.007963988273589578 0.01500820697124983 0 -0.007759325555038046 0.01574845183034735 0 -0.0079015668292488454 0.015275832181264427 0 -0.008703856272936867 0.014622542831235884 0 -0.0071512850982744297 0.015049188441859793 0 -0.0079571797214061379 0.014999634373930771 0 -0.007963988273589578 0.01500820697124983 0 -0.0075168796778689829 0.015359706401919502 0 -0.0071512850982744297 0.015049188441859793 0 -0.007963988273589578 0.01500820697124983 0 -0.007963988273589578 0.01500820697124983 0 -0.0086625021224707287 0.014825135920263121 0 -0.0087104096922738811 0.014812427300807699 0 -0.0079571797214061379 0.014999634373930771 0 -0.0086625021224707287 0.014825135920263121 0 -0.008684170615534963 0.015132822578699011 0 -0.0079571797214061379 0.014999634373930771 0 -0.007963988273589578 0.01500820697124983 0 -0.0086625021224707287 0.014825135920263121 0 -0.0091491234490711417 0.014293271702082857 0 -0.010460327040577616 0.014147648843049978 0 -0.01008505580530269 0.013335255940928247 0 -0.009471587137382045 0.014323657613339333 0 -0.008703856272936867 0.014622542831235884 0 -0.0091491234490711417 0.014293271702082857 0 -0.0086625021224707287 0.014825135920263121 0 -0.0087104096922738811 0.014812427300807699 0 -0.0091491234490711417 0.014293271702082857 0 -0.0086625021224707287 0.014825135920263121 0 -0.0095993334877525188 0.013578691325816525 0 -0.0083095367348191545 0.014217012828350794 0 -0.0080406274986585917 0.014468462721632193 0 -0.0081828705888599591 0.013919250714525154 0 -0.008703856272936867 0.014622542831235884 0 -0.0095441062103894109 0.013509713903619915 0 -0.010460327040577616 0.014147648843049978 0 -0.01008505580530269 0.013335255940928247 0 -0.010699938727843692 0.013005185177926048 0 -0.0091491234490711417 0.014293271702082857 0 -0.01008505580530269 0.013335255940928247 0 -0.0096119142649771002 0.013505910258252525 0 -0.01008505580530269 0.013335255940928247 0 -0.0099538849274196841 0.013036347405310449 0 -0.0096119142649771002 0.013505910258252525 0 -0.01008505580530269 0.013335255940928247 0 -0.0099538849274196841 0.013036347405310449 0 -0.010441276222694272 0.012773586684648116 0 -0.01008505580530269 0.013335255940928247 0 -0.010699938727843692 0.013005185177926048 0 -0.010441276222694272 0.012773586684648116 0 -0.0099538849274196841 0.013036347405310449 0 -0.0099511534727991739 0.012848091058405606 0 -0.0097651544387964608 0.013168570573818985 0 -0.0099538849274196841 0.013036347405310449 0 -0.0099511534727991739 0.012848091058405606 0 -0.010138218489775801 0.012631202607322501 0 -0.0096119142649771002 0.013505910258252525 0 -0.0097651544387964608 0.013168570573818985 0 -0.0095993334877525188 0.013578691325816525 0 -0.0099538849274196841 0.013036347405310449 0 -0.0096119142649771002 0.013505910258252525 0 -0.0097651544387964608 0.013168570573818985 0 -0.0097651544387964608 0.013168570573818985 0 -0.0095993334877525188 0.013578691325816525 0 -0.0098617737424871749 0.012965902432641301 0 -0.0099511534727991739 0.012848091058405606 0 -0.0097651544387964608 0.013168570573818985 0 -0.0098617737424871749 0.012965902432641301 0 -0.0092554509430749395 0.014590645726835605 0 -0.0096909971114312564 0.014433014341105554 0 -0.0092445410151269017 0.015312815793453342 0 -0.0088190709404369211 0.015489669522303634 0 -0.0094798509880257634 0.01587719296240795 0 -0.0086625021224707287 0.014825135920263121 0 -0.0088190709404369211 0.015489669522303634 0 -0.008684170615534963 0.015132822578699011 0 -0.0091491234490711417 0.014293271702082857 0 -0.0096119142649771002 0.013505910258252525 0 -0.0095993334877525188 0.013578691325816525 0 -0.0092445410151269017 0.015312815793453342 0 -0.0088190709404369211 0.015489669522303634 0 -0.008684170615534963 0.015132822578699011 0 -0.0088378843758398582 0.014792095419338458 0 -0.0092554509430749395 0.014590645726835605 0 -0.0079571797214061379 0.014999634373930771 0 -0.008684170615534963 0.015132822578699011 0 -0.0088533780431378911 0.014999799501731931 0 -0.0092445410151269017 0.015312815793453342 0 -0.008684170615534963 0.015132822578699011 0 -0.0088533780431378911 0.014999799501731931 0 -0.0092445410151269017 0.015312815793453342 0 -0.0088533780431378911 0.014999799501731931 0 -0.0097512092417426574 0.014999878766935025 0 -0.0092445410151269017 0.015312815793453342 0 -0.0097512092417426574 0.014999878766935025 0 -0.010043922919602327 0.015462552062344202 0 -0.0097512092417426574 0.014999878766935025 0 -0.010043922919602327 0.015462552062344202 0 -0.010648924057979793 0.014999738601955146 0 -0.0092445410151269017 0.015312815793453342 0 -0.010043922919602327 0.015462552062344202 0 -0.0094798509880257634 0.01587719296240795 0 -0.010043922919602327 0.015462552062344202 0 -0.010648924057979793 0.014999738601955146 0 -0.010791258680881856 0.01562534895717245 0 -0.010648924057979793 0.014999738601955146 0 -0.011417052717514553 0.015265501984437676 0 -0.010791258680881856 0.01562534895717245 0 -0.010648924057979793 0.014999738601955146 0 -0.011417052717514553 0.015265501984437676 0 -0.011546775792429 0.014999701961629898 0 -0.01129967051314359 0.01587537882325071 0 -0.010791258680881856 0.01562534895717245 0 -0.010899356997089419 0.016427877580949813 0 -0.011417052717514553 0.015265501984437676 0 -0.01129967051314359 0.01587537882325071 0 -0.010791258680881856 0.01562534895717245 0 -0.010791258680881856 0.01562534895717245 0 -0.010899356997089419 0.016427877580949813 0 -0.010170410100487496 0.016146597057766506 0 -0.010496585481555963 0.012378941683728304 0 -0.010153827828775443 0.012598087697049527 0 -0.0102908516201945 0.012515535446622875 0 -0.010659611881802868 0.014443067340496038 0 -0.010184924484660044 0.014383439211386326 0 -0.010899356997089419 0.016427877580949813 0 -0.011849242860416651 0.016236434036041667 0 -0.011768042580220042 0.016836073350559408 0 -0.01129967051314359 0.01587537882325071 0 -0.010899356997089419 0.016427877580949813 0 -0.011849242860416651 0.016236434036041667 0 -0.0096909971114312564 0.014433014341105554 0 -0.010184924484660044 0.014383439211386326 0 -0.010043922919602327 0.015462552062344202 0 -0.0094798509880257634 0.01587719296240795 0 -0.010170410100487496 0.016146597057766506 0 -0.010043922919602327 0.015462552062344202 0 -0.010791258680881856 0.01562534895717245 0 -0.010170410100487496 0.016146597057766506 0 -0.010153827828775443 0.012598087697049527 0 -0.01009770329922738 0.012648489548131933 0 -0.0102908516201945 0.012515535446622875 0 -0.0098617737424871749 0.012965902432641301 0 -0.010153827828775443 0.012598087697049527 0 -0.01009770329922738 0.012648489548131933 0 -0.0099511534727991739 0.012848091058405606 0 -0.0098617737424871749 0.012965902432641301 0 -0.01009770329922738 0.012648489548131933 0 -0.01009770329922738 0.012648489548131933 0 -0.010255544507833973 0.012478222262148069 0 -0.010196632704008038 0.012505840501841392 0 -0.01009770329922738 0.012648489548131933 0 -0.010301566124597893 0.012517180538884752 0 -0.010255544507833973 0.012478222262148069 0 -0.01009770329922738 0.012648489548131933 0 -0.0102908516201945 0.012515535446622875 0 -0.010301566124597893 0.012517180538884752 0 -0.010301566124597893 0.012517180538884752 0 -0.010464942763181374 0.012513196360265936 0 -0.010392391849824342 0.012418699060923112 0 -0.010301566124597893 0.012517180538884752 0 -0.010255544507833973 0.012478222262148069 0 -0.010392391849824342 0.012418699060923112 0 -0.010496585481555963 0.012378941683728304 0 -0.010591143996440821 0.012438414896340332 0 -0.010850667463431565 0.01234775854567651 0 -0.010659611881802868 0.014443067340496038 0 -0.011633574497102202 0.014283892431784006 0 -0.010496585481555963 0.012378941683728304 0 -0.0102908516201945 0.012515535446622875 0 -0.010591143996440821 0.012438414896340332 0 -0.0102908516201945 0.012515535446622875 0 -0.010301566124597893 0.012517180538884752 0 -0.010591143996440821 0.012438414896340332 0 -0.010301566124597893 0.012517180538884752 0 -0.010464942763181374 0.012513196360265936 0 -0.010591143996440821 0.012438414896340332 0 -0.010591143996440821 0.012438414896340332 0 -0.010850667463431565 0.01234775854567651 0 -0.011052430466507191 0.012521974875753078 0 -0.010464942763181374 0.012513196360265936 0 -0.010591143996440821 0.012438414896340332 0 -0.011052430466507191 0.012521974875753078 0 -0.010464942763181374 0.012513196360265936 0 -0.010803144552804496 0.012800399833947769 0 -0.011052430466507191 0.012521974875753078 0 -0.010803144552804496 0.012800399833947769 0 -0.011641553983939987 0.01338621817942435 0 -0.011052430466507191 0.012521974875753078 0 -0.010464942763181374 0.012513196360265936 0 -0.010803144552804496 0.012800399833947769 0 -0.010277375188778087 0.012495856273368484 0 -0.010803144552804496 0.012800399833947769 0 -0.010277375188778087 0.012495856273368484 0 -0.010753710395281484 0.013580970366979103 0 -0.010277375188778087 0.012495856273368484 0 -0.0096974154032016344 0.011850291761288613 0 -0.010819726553024069 0.011696226903269472 0 -0.011385737349578578 0.011915760951368417 0 -0.010762705429299085 0.011447912306691564 0 -0.010109370492190522 0.012607635421278868 0 -0.011385737349578578 0.011915760951368417 0 -0.011385737349578578 0.011915760951368417 0 -0.011976676448498641 0.01244779335878432 0 -0.010803144552804496 0.012800399833947769 0 -0.010753710395281484 0.013580970366979103 0 -0.011641553983939987 0.01338621817942435 0 -0.010753710395281484 0.013580970366979103 0 -0.011641553983939987 0.01338621817942435 0 -0.011698582589925908 0.013697793359286066 0 -0.010255544507833973 0.012478222262148069 0 -0.010392391849824342 0.012418699060923112 0 -0.010473960919759202 0.012097256331504878 0 -0.010464942763181374 0.012513196360265936 0 -0.010277375188778087 0.012495856273368484 0 -0.010392391849824342 0.012418699060923112 0 -0.010277375188778087 0.012495856273368484 0 -0.010392391849824342 0.012418699060923112 0 -0.010819726553024069 0.011696226903269472 0 -0.010819726553024069 0.011696226903269472 0 -0.010473960919759202 0.012097256331504878 0 -0.010671666343282253 0.011856842658087594 0 -0.010392391849824342 0.012418699060923112 0 -0.010819726553024069 0.011696226903269472 0 -0.010473960919759202 0.012097256331504878 0 -0.010473960919759202 0.012097256331504878 0 -0.010343590216700041 0.012288822204398201 0 -0.010196632704008038 0.012505840501841392 0 -0.010473960919759202 0.012097256331504878 0 -0.010343590216700041 0.012288822204398201 0 -0.010387165532771154 0.012181387712829008 0 -0.010343590216700041 0.012288822204398201 0 -0.010387165532771154 0.012181387712829008 0 -0.010331295218248734 0.012389355881396721 0 -0.010473960919759202 0.012097256331504878 0 -0.010387837665642096 0.012007662657947778 0 -0.010475502015060728 0.012027116092810706 0 -0.010473960919759202 0.012097256331504878 0 -0.010387837665642096 0.012007662657947778 0 -0.010387165532771154 0.012181387712829008 0 -0.010387837665642096 0.012007662657947778 0 -0.0105068484545885 0.012221793298334539 0 -0.010387165532771154 0.012181387712829008 0 -0.010359512607956102 0.012025831365555156 0 -0.010289966175628145 0.011711337890063551 0 -0.010387837665642096 0.012007662657947778 0 -0.0099920269836939624 0.011737730090956364 0 -0.010123423442083399 0.011989829136366561 0 -0.010387837665642096 0.012007662657947778 0 -0.0099920269836939624 0.011737730090956364 0 -0.0099234191467981285 0.011420572490850742 0 -0.0096671085254950301 0.011802456778549297 0 -0.0097901931561761545 0.011958846338877581 0 -0.0098214579451403623 0.011759981116945177 0 -0.0095945864717523009 0.011926420757998614 0 -0.0096671085254950301 0.011802456778549297 0 -0.0097901931561761545 0.011958846338877581 0 -0.0097901931561761545 0.011958846338877581 0 -0.0099446019141565933 0.011907683641701382 0 -0.0098214579451403623 0.011759981116945177 0 -0.0099446019141565933 0.011907683641701382 0 -0.0099920269836939624 0.011737730090956364 0 -0.010123423442083399 0.011989829136366561 0 -0.0099446019141565933 0.011907683641701382 0 -0.0099920269836939624 0.011737730090956364 0 -0.0098214579451403623 0.011759981116945177 0 -0.0099920269836939624 0.011737730090956364 0 -0.0098214579451403623 0.011759981116945177 0 -0.0098867510842374235 0.011571340803656474 0 -0.0098214579451403623 0.011759981116945177 0 -0.0096340522054111991 0.011624606332017683 0 -0.0098867510842374235 0.011571340803656474 0 -0.0096671085254950301 0.011802456778549297 0 -0.0098214579451403623 0.011759981116945177 0 -0.0096340522054111991 0.011624606332017683 0 -0.0097041134320114755 0.011543073241802201 0 -0.0096762640574896037 0.011548009601923176 0 -0.0093971839453694996 0.011443401931681566 0 -0.0096340522054111991 0.011624606332017683 0 -0.0098867510842374235 0.011571340803656474 0 -0.0092140751642535677 0.011568790342500067 0 -0.009594310193598285 0.011443982405311982 0 -0.0098867510842374235 0.011571340803656474 0 -0.009594310193598285 0.011443982405311982 0 -0.0097814534786625773 0.011437688204524557 0 -0.0098867510842374235 0.011571340803656474 0 -0.009594310193598285 0.011443982405311982 0 -0.0097814534786625773 0.011437688204524557 0 -0.0096926907578856643 0.011363266990267592 0 -0.0099920269836939624 0.011737730090956364 0 -0.0098867510842374235 0.011571340803656474 0 -0.0099234191467981285 0.011420572490850742 0 -0.0097814534786625773 0.011437688204524557 0 -0.0099234191467981285 0.011420572490850742 0 -0.0096926907578856643 0.011363266990267592 0 -0.0097814534786625773 0.011437688204524557 0 -0.0098867510842374235 0.011571340803656474 0 -0.0099234191467981285 0.011420572490850742 0 -0.0099234191467981285 0.011420572490850742 0 -0.0096718199913986835 0.011303591311231903 0 -0.009540181054819347 0.011134108403996758 0 -0.0099234191467981285 0.011420572490850742 0 -0.0096926907578856643 0.011363266990267592 0 -0.0096718199913986835 0.011303591311231903 0 -0.0096718199913986835 0.011303591311231903 0 -0.0095285508789089562 0.011298472394353285 0 -0.009540181054819347 0.011134108403996758 0 -0.009594310193598285 0.011443982405311982 0 -0.0096926907578856643 0.011363266990267592 0 -0.0095285508789089562 0.011298472394353285 0 -0.0096926907578856643 0.011363266990267592 0 -0.0096718199913986835 0.011303591311231903 0 -0.0095285508789089562 0.011298472394353285 0 -0.0105068484545885 0.012221793298334539 0 -0.010387165532771154 0.012181387712829008 0 -0.010419923243989635 0.012292202087926937 0 -0.010387165532771154 0.012181387712829008 0 -0.010419923243989635 0.012292202087926937 0 -0.010331295218248734 0.012389355881396721 0 -0.0105068484545885 0.012221793298334539 0 -0.010419923243989635 0.012292202087926937 0 -0.010445746209161069 0.012384473346365226 0 -0.010331295218248734 0.012389355881396721 0 -0.010307284967762773 0.012590165404364362 0 -0.010138218489775801 0.012631202607322501 0 -0.010419923243989635 0.012292202087926937 0 -0.010331295218248734 0.012389355881396721 0 -0.010445746209161069 0.012384473346365226 0 -0.010331295218248734 0.012389355881396721 0 -0.010445746209161069 0.012384473346365226 0 -0.010307284967762773 0.012590165404364362 0 -0.0093475745660868293 0.012322389713455404 0 -0.010289966175628145 0.011711337890063551 0 -0.010684153732232773 0.012462210816421305 0 -0.0105068484545885 0.012221793298334539 0 -0.010541305361120542 0.012390684692627276 0 -0.0092459441913923749 0.010725933706373505 0 -0.0099234191467981285 0.011420572490850742 0 -0.009540181054819347 0.011134108403996758 0 -0.0105068484545885 0.012221793298334539 0 -0.010445746209161069 0.012384473346365226 0 -0.010541305361120542 0.012390684692627276 0 -0.010445746209161069 0.012384473346365226 0 -0.010541305361120542 0.012390684692627276 0 -0.010531130943977902 0.012506908129115649 0 -0.010445746209161069 0.012384473346365226 0 -0.010531130943977902 0.012506908129115649 0 -0.010307284967762773 0.012590165404364362 0 -0.010684153732232773 0.012462210816421305 0 -0.010541305361120542 0.012390684692627276 0 -0.010531130943977902 0.012506908129115649 0 -0.0093475745660868293 0.012322389713455404 0 -0.010927124648470371 0.012369235451624806 0 -0.010814215262919289 0.012427782186774336 0 -0.010699938727843692 0.013005185177926048 0 -0.010441276222694272 0.012773586684648116 0 -0.010814215262919289 0.012427782186774336 0 -0.010531130943977902 0.012506908129115649 0 -0.010441276222694272 0.012773586684648116 0 -0.010531130943977902 0.012506908129115649 0 -0.010441276222694272 0.012773586684648116 0 -0.010307284967762773 0.012590165404364362 0 -0.0099538849274196841 0.013036347405310449 0 -0.010307284967762773 0.012590165404364362 0 -0.010138218489775801 0.012631202607322501 0 -0.0099538849274196841 0.013036347405310449 0 -0.010441276222694272 0.012773586684648116 0 -0.010307284967762773 0.012590165404364362 0 -0.0099511534727991739 0.012848091058405606 0 -0.010138218489775801 0.012631202607322501 0 -0.010196632704008038 0.012505840501841392 0 -0.0099511534727991739 0.012848091058405606 0 -0.01009770329922738 0.012648489548131933 0 -0.010196632704008038 0.012505840501841392 0 -0.010255544507833973 0.012478222262148069 0 -0.010473960919759202 0.012097256331504878 0 -0.010196632704008038 0.012505840501841392 0 -0.010343590216700041 0.012288822204398201 0 -0.010138218489775801 0.012631202607322501 0 -0.010196632704008038 0.012505840501841392 0 -0.010343590216700041 0.012288822204398201 0 -0.010331295218248734 0.012389355881396721 0 -0.010138218489775801 0.012631202607322501 0 -0.014878391168105293 0.012998375802684238 0 -0.014999670660154868 0.013137106440041993 0 -0.014697466283343598 0.013189737479038491 0 -0.015153309370906516 0.013517963880518723 0 -0.014999995836594704 0.01350734205025284 0 -0.015000000655711271 0.013137312904887665 0 -0.014625799683217974 0.013998936279936078 0 -0.014999772952584336 0.013508231441177127 0 -0.014625799683217974 0.013998936279936078 0 -0.014999726397373231 0.01313716822887945 0 -0.014878391168105293 0.012998375802684238 0 -0.014697466283343598 0.013189737479038491 0 -0.014417146690032745 0.013140164678589195 0 -0.014625799683217974 0.013998936279936078 0 -0.014080263517970244 0.014292326184606808 0 -0.014697466283343598 0.013189737479038491 0 -0.014401811552031948 0.013365230887114192 0 -0.014417146690032745 0.013140164678589195 0 -0.013774836799852407 0.015385193477464044 0 -0.01399086954518809 0.015125621852665144 0 -0.013547990741486037 0.015118763860931252 0 -0.014068588716346274 0.015400672429797917 0 -0.013774836799852407 0.015385193477464044 0 -0.01399086954518809 0.015125621852665144 0 -0.015118466233650667 0.013539214623723442 0 -0.015000022339459209 0.013508201709169025 0 -0.015119756967526503 0.014453513970596398 0 -0.014625799683217974 0.013998936279936078 0 -0.01452599297771009 0.014833025986776521 0 -0.015000022339459209 0.013508201709169025 0 -0.015119756967526503 0.014453513970596398 0 -0.01499898058505069 0.014999827248323024 0 -0.015119756967526503 0.014453513970596398 0 -0.01499898058505069 0.014999827248323024 0 -0.014241209042025832 0.014999493154568508 0 -0.01452599297771009 0.014833025986776521 0 -0.014239207422973531 0.014999581693805454 0 -0.01399086954518809 0.015125621852665144 0 -0.014237846453871767 0.014999707495789705 0 -0.013547990741486037 0.015118763860931252 0 -0.014237846453871767 0.014999707495789705 0 -0.013547990741486037 0.015118763860931252 0 -0.013341725304614261 0.014999623998190588 0 -0.013547990741486037 0.015118763860931252 0 -0.013341725304614261 0.014999623998190588 0 -0.012965649941178246 0.015087579759171013 0 -0.013547990741486037 0.015118763860931252 0 -0.013167699588339606 0.01504301919854167 0 -0.012965649941178246 0.015087579759171013 0 -0.013547990741486037 0.015118763860931252 0 -0.013365652776968077 0.015270957396471017 0 -0.013167699588339606 0.01504301919854167 0 -0.013365652776968077 0.015270957396471017 0 -0.013167699588339606 0.01504301919854167 0 -0.013000712440907655 0.014682574941273493 0 -0.013603433650312483 0.014467623326172872 0 -0.013152699419048121 0.014626612192675293 0 -0.013774836799852407 0.015385193477464044 0 -0.013547990741486037 0.015118763860931252 0 -0.013365652776968077 0.015270957396471017 0 -0.014417146690032745 0.013140164678589195 0 -0.01370532674074317 0.013644369689019022 0 -0.013986156269176785 0.013699143052479421 0 -0.014080263517970244 0.014292326184606808 0 -0.013603433650312483 0.014467623326172872 0 -0.014401811552031948 0.013365230887114192 0 -0.014417146690032745 0.013140164678589195 0 -0.013986156269176785 0.013699143052479421 0 -0.01370532674074317 0.013644369689019022 0 -0.013411947366703448 0.014135036842055393 0 -0.013986156269176785 0.013699143052479421 0 -0.01370532674074317 0.013644369689019022 0 -0.013000712440907655 0.014682574941273493 0 -0.013411947366703448 0.014135036842055393 0 -0.013000712440907655 0.014682574941273493 0 -0.013064591865724886 0.014437572926051211 0 -0.013411947366703448 0.014135036842055393 0 -0.012357101774960428 0.014872849811611926 0 -0.013000712440907655 0.014682574941273493 0 -0.013064591865724886 0.014437572926051211 0 -0.012357101774960428 0.014872849811611926 0 -0.012533006123555382 0.015065461286882614 0 -0.013000712440907655 0.014682574941273493 0 -0.012533006123555382 0.015065461286882614 0 -0.013000712440907655 0.014682574941273493 0 -0.012965649941178246 0.015087579759171013 0 -0.013167699588339606 0.01504301919854167 0 -0.013000712440907655 0.014682574941273493 0 -0.012965649941178246 0.015087579759171013 0 -0.012533006123555382 0.015065461286882614 0 -0.012444074067947945 0.014999742583387004 0 -0.012056517310769352 0.015209061307080201 0 -0.012533006123555382 0.015065461286882614 0 -0.012965649941178246 0.015087579759171013 0 -0.012444074067947945 0.014999742583387004 0 -0.013341725304614261 0.014999623998190588 0 -0.012965649941178246 0.015087579759171013 0 -0.012444074067947945 0.014999742583387004 0 -0.012444074067947945 0.014999742583387004 0 -0.012056517310769352 0.015209061307080201 0 -0.011546775792429 0.014999701961629898 0 -0.011417052717514553 0.015265501984437676 0 -0.012056517310769352 0.015209061307080201 0 -0.011546775792429 0.014999701961629898 0 -0.011417052717514553 0.015265501984437676 0 -0.012056517310769352 0.015209061307080201 0 -0.011989209772287065 0.015448854792978266 0 -0.011989209772287065 0.015448854792978266 0 -0.012227451495486295 0.015158033857279997 0 -0.012423493253907568 0.015020628126576296 0 -0.01129967051314359 0.01587537882325071 0 -0.011989209772287065 0.015448854792978266 0 -0.011849242860416651 0.016236434036041667 0 -0.012057609827005607 0.015374306691884344 0 -0.012075498171472654 0.015811847299662715 0 -0.011417052717514553 0.015265501984437676 0 -0.01129967051314359 0.01587537882325071 0 -0.011989209772287065 0.015448854792978266 0 -0.012533006123555382 0.015065461286882614 0 -0.012056517310769352 0.015209061307080201 0 -0.012227451495486295 0.015158033857279997 0 -0.012357101774960428 0.014872849811611926 0 -0.012533006123555382 0.015065461286882614 0 -0.012227451495486295 0.015158033857279997 0 -0.012056517310769352 0.015209061307080201 0 -0.011989209772287065 0.015448854792978266 0 -0.012227451495486295 0.015158033857279997 0 -0.012357101774960428 0.014872849811611926 0 -0.012298231175475101 0.014793842178226182 0 -0.012233174558786156 0.014593697588986964 0 -0.012357101774960428 0.014872849811611926 0 -0.012227451495486295 0.015158033857279997 0 -0.012298231175475101 0.014793842178226182 0 -0.012298231175475101 0.014793842178226182 0 -0.012423493253907568 0.015020628126576296 0 -0.01256626948679033 0.014567728240752179 0 -0.012075498171472654 0.015811847299662715 0 -0.011633574497102202 0.014283892431784006 0 -0.012227451495486295 0.015158033857279997 0 -0.012298231175475101 0.014793842178226182 0 -0.012423493253907568 0.015020628126576296 0 -0.012400216463067036 0.01454156203686816 0 -0.011633574497102202 0.014283892431784006 0 -0.012298231175475101 0.014793842178226182 0 -0.01234376628798349 0.014409865424624328 0 -0.01256626948679033 0.014567728240752179 0 -0.012298231175475101 0.014793842178226182 0 -0.01234376628798349 0.014409865424624328 0 -0.012233174558786156 0.014593697588986964 0 -0.012357101774960428 0.014872849811611926 0 -0.012233174558786156 0.014593697588986964 0 -0.012132728276238727 0.014492394055925159 0 -0.012160905738314244 0.014281363760755885 0 -0.012002108203663863 0.014227441800119619 0 -0.012132728276238727 0.014492394055925159 0 -0.012233174558786156 0.014593697588986964 0 -0.012160905738314244 0.014281363760755885 0 -0.012132728276238727 0.014492394055925159 0 -0.01234376628798349 0.014409865424624328 0 -0.012233174558786156 0.014593697588986964 0 -0.012160905738314244 0.014281363760755885 0 -0.01234376628798349 0.014409865424624328 0 -0.012160905738314244 0.014281363760755885 0 -0.012186670240230114 0.013996475636630801 0 -0.012160905738314244 0.014281363760755885 0 -0.012037405465396537 0.014013406121215564 0 -0.012002108203663863 0.014227441800119619 0 -0.012037405465396537 0.014013406121215564 0 -0.012186670240230114 0.013996475636630801 0 -0.012024954739911203 0.013790219509367848 0 -0.012160905738314244 0.014281363760755885 0 -0.012037405465396537 0.014013406121215564 0 -0.012186670240230114 0.013996475636630801 0 -0.011633574497102202 0.014283892431784006 0 -0.011709176447717568 0.013061014643514631 0 -0.01234376628798349 0.014409865424624328 0 -0.012186670240230114 0.013996475636630801 0 -0.01235546065481073 0.01384686576807847 0 -0.01234376628798349 0.014409865424624328 0 -0.012515075782386016 0.014493328772515194 0 -0.01235546065481073 0.01384686576807847 0 -0.011634423085071307 0.013529920742422897 0 -0.011709176447717568 0.013061014643514631 0 -0.011641553983939987 0.01338621817942435 0 -0.01235546065481073 0.01384686576807847 0 -0.011974998291307789 0.013560962843668652 0 -0.012186670240230114 0.013996475636630801 0 -0.01235546065481073 0.01384686576807847 0 -0.012034494918728737 0.01361867626321101 0 -0.01235546065481073 0.01384686576807847 0 -0.011974998291307789 0.013560962843668652 0 -0.012034494918728737 0.01361867626321101 0 -0.011976676448498641 0.01244779335878432 0 -0.013677702806768844 0.011376016492939919 0 -0.011919522838036925 0.01354949475016036 0 -0.011698582589925908 0.013697793359286066 0 -0.012034004084360455 0.01359787771714137 0 -0.011919522838036925 0.01354949475016036 0 -0.012034494918728737 0.01361867626321101 0 -0.012034004084360455 0.01359787771714137 0 -0.011641553983939987 0.01338621817942435 0 -0.011974998291307789 0.013560962843668652 0 -0.011919522838036925 0.01354949475016036 0 -0.011974998291307789 0.013560962843668652 0 -0.011919522838036925 0.01354949475016036 0 -0.012034494918728737 0.01361867626321101 0 -0.011641553983939987 0.01338621817942435 0 -0.011919522838036925 0.01354949475016036 0 -0.011698582589925908 0.013697793359286066 0 -0.014368815715397415 0.012522169390732186 0 -0.013677702806768844 0.011376016492939919 0 -0.012034494918728737 0.01361867626321101 0 -0.01197445666456433 0.013638208043360116 0 -0.012034004084360455 0.01359787771714137 0 -0.016739204229737997 0.011107348801600928 0 -0.016704038477642763 0.011246146908425181 0 -0.016792062564977853 0.011079296572643884 0 -0.016739204229737997 0.011107348801600928 0 -0.016792062564977853 0.011079296572643884 0 -0.016722435152092589 0.011095739293112548 0 -0.016739204229737997 0.011107348801600928 0 -0.016704038477642763 0.011246146908425181 0 -0.016723401907836059 0.011079242339741632 0 -0.015982553181142393 0.010711001125014689 0 -0.015676266828388619 0.010475262560453556 0 -0.012186670240230114 0.013996475636630801 0 -0.012034494918728737 0.01361867626321101 0 -0.012024954739911203 0.013790219509367848 0 -0.012034494918728737 0.01361867626321101 0 -0.012024954739911203 0.013790219509367848 0 -0.01197445666456433 0.013638208043360116 0 -0.012037405465396537 0.014013406121215564 0 -0.012024954739911203 0.013790219509367848 0 -0.011924295150495695 0.013855529425864703 0 -0.011924295150495695 0.013855529425864703 0 -0.01197445666456433 0.013638208043360116 0 -0.011704261160598615 0.013845556560122849 0 -0.016704038477642763 0.011246146908425181 0 -0.01652024215049756 0.011275959187363082 0 -0.016427213462964354 0.011621414897180932 0 -0.014368815715397415 0.012522169390732186 0 -0.014047224470505519 0.012690952899320401 0 -0.011924295150495695 0.013855529425864703 0 -0.011704261160598615 0.013845556560122849 0 -0.011837845840894068 0.014067856029064907 0 -0.012024954739911203 0.013790219509367848 0 -0.011924295150495695 0.013855529425864703 0 -0.01197445666456433 0.013638208043360116 0 -0.016704038477642763 0.011246146908425181 0 -0.01652024215049756 0.011275959187363082 0 -0.016591784674986683 0.011149918670556922 0 -0.01652024215049756 0.011275959187363082 0 -0.016591784674986683 0.011149918670556922 0 -0.016476360905748222 0.011129517785437403 0 -0.016591784674986683 0.011149918670556922 0 -0.016573223915876029 0.011060855718236336 0 -0.016476360905748222 0.011129517785437403 0 -0.016591784674986683 0.011149918670556922 0 -0.016573223915876029 0.011060855718236336 0 -0.016664769539925777 0.011058737735477572 0 -0.016704038477642763 0.011246146908425181 0 -0.016664769539925777 0.011058737735477572 0 -0.016723401907836059 0.011079242339741632 0 -0.016704038477642763 0.011246146908425181 0 -0.016591784674986683 0.011149918670556922 0 -0.016664769539925777 0.011058737735477572 0 -0.016276099519402946 0.011154966671999571 0 -0.016378158954969062 0.011328089851170762 0 -0.016164531985219478 0.011390514929476665 0 -0.016276099519402946 0.011154966671999571 0 -0.016476360905748222 0.011129517785437403 0 -0.016373629591698576 0.010962532235859251 0 -0.016276099519402946 0.011154966671999571 0 -0.016476360905748222 0.011129517785437403 0 -0.016378158954969062 0.011328089851170762 0 -0.01652024215049756 0.011275959187363082 0 -0.016476360905748222 0.011129517785437403 0 -0.016378158954969062 0.011328089851170762 0 -0.016307947076965826 0.011337851161803152 0 -0.016017512304767199 0.011398582831026257 0 -0.016158317960888614 0.011529111157802547 0 -0.016378158954969062 0.011328089851170762 0 -0.015770361721275841 0.011408370967514845 0 -0.016158317960888614 0.011529111157802547 0 -0.016378158954969062 0.011328089851170762 0 -0.016427213462964354 0.011621414897180932 0 -0.01652024215049756 0.011275959187363082 0 -0.016378158954969062 0.011328089851170762 0 -0.016427213462964354 0.011621414897180932 0 -0.016158317960888614 0.011529111157802547 0 -0.016427213462964354 0.011621414897180932 0 -0.016029263837908588 0.011747622807663153 0 -0.014047224470505519 0.012690952899320401 0 -0.013865763052248547 0.013656791058053888 0 -0.016427213462964354 0.011621414897180932 0 -0.016029263837908588 0.011747622807663153 0 -0.015843553889198898 0.012150452830194633 0 -0.01163352824509048 0.014109844765506493 0 -0.011686920365717977 0.014469074492696781 0 -0.011355548828613187 0.014124516373777627 0 -0.01163352824509048 0.014109844765506493 0 -0.011837845840894068 0.014067856029064907 0 -0.011686920365717977 0.014469074492696781 0 -0.011704261160598615 0.013845556560122849 0 -0.01163352824509048 0.014109844765506493 0 -0.011355548828613187 0.014124516373777627 0 -0.011704261160598615 0.013845556560122849 0 -0.01163352824509048 0.014109844765506493 0 -0.011837845840894068 0.014067856029064907 0 -0.011837845840894068 0.014067856029064907 0 -0.012002108203663863 0.014227441800119619 0 -0.011686920365717977 0.014469074492696781 0 -0.012037405465396537 0.014013406121215564 0 -0.011837845840894068 0.014067856029064907 0 -0.012002108203663863 0.014227441800119619 0 -0.012037405465396537 0.014013406121215564 0 -0.011924295150495695 0.013855529425864703 0 -0.011837845840894068 0.014067856029064907 0 -0.012357101774960428 0.014872849811611926 0 -0.012132728276238727 0.014492394055925159 0 -0.011686920365717977 0.014469074492696781 0 -0.012002108203663863 0.014227441800119619 0 -0.012132728276238727 0.014492394055925159 0 -0.011686920365717977 0.014469074492696781 0 -0.012400722921261074 0.014786078631662456 0 -0.012169823941158951 0.014416954605946832 0 -0.012169823941158951 0.014416954605946832 0 -0.013865763052248547 0.013656791058053888 0 -0.013064591865724886 0.014437572926051211 0 -0.013452947035405564 0.014187631537756235 0 -0.013411947366703448 0.014135036842055393 0 -0.013064591865724886 0.014437572926051211 0 -0.013452947035405564 0.014187631537756235 0 -0.013560437690292278 0.014278024077218978 0 -0.013411947366703448 0.014135036842055393 0 -0.013986156269176785 0.013699143052479421 0 -0.013850458725865246 0.013943667207531351 0 -0.013452947035405564 0.014187631537756235 0 -0.013411947366703448 0.014135036842055393 0 -0.013850458725865246 0.013943667207531351 0 -0.013986156269176785 0.013699143052479421 0 -0.014108584358631883 0.013664160170061253 0 -0.014459964864984734 0.013372198464038287 0 -0.014401811552031948 0.013365230887114192 0 -0.013986156269176785 0.013699143052479421 0 -0.014459964864984734 0.013372198464038287 0 -0.014108584358631883 0.013664160170061253 0 -0.014185448764051476 0.013621054110629858 0 -0.014459964864984734 0.013372198464038287 0 -0.013986156269176785 0.013699143052479421 0 -0.014108584358631883 0.013664160170061253 0 -0.013850458725865246 0.013943667207531351 0 -0.014108584358631883 0.013664160170061253 0 -0.014185448764051476 0.013621054110629858 0 -0.013850458725865246 0.013943667207531351 0 -0.014185448764051476 0.013621054110629858 0 -0.013819568715830342 0.013881151185696886 0 -0.014162921379307298 0.013789305247930853 0 -0.014185448764051476 0.013621054110629858 0 -0.013850458725865246 0.013943667207531351 0 -0.013819568715830342 0.013881151185696886 0 -0.013865763052248547 0.013656791058053888 0 -0.01536431585981648 0.012075454865684501 0 -0.013708559182889336 0.013951155140703423 0 -0.013865763052248547 0.013656791058053888 0 -0.013452947035405564 0.014187631537756235 0 -0.013850458725865246 0.013943667207531351 0 -0.013560437690292278 0.014278024077218978 0 -0.016029263837908588 0.011747622807663153 0 -0.015843553889198898 0.012150452830194633 0 -0.015770361721275841 0.011408370967514845 0 -0.015843553889198898 0.012150452830194633 0 -0.015770361721275841 0.011408370967514845 0 -0.015156694089312349 0.011542714263075671 0 -0.016017512304767199 0.011398582831026257 0 -0.01536431585981648 0.012075454865684501 0 -0.016158317960888614 0.011529111157802547 0 -0.016029263837908588 0.011747622807663153 0 -0.015770361721275841 0.011408370967514845 0 -0.016164531985219478 0.011390514929476665 0 -0.016067292672767648 0.011120729215628662 0 -0.015858642097469559 0.011230446961844123 0 -0.016276099519402946 0.011154966671999571 0 -0.016164531985219478 0.011390514929476665 0 -0.016067292672767648 0.011120729215628662 0 -0.016276099519402946 0.011154966671999571 0 -0.016067292672767648 0.011120729215628662 0 -0.016199999656366901 0.01097744467286085 0 -0.015858642097469559 0.011230446961844123 0 -0.015652615850933898 0.011072119359888071 0 -0.015866708255671633 0.010994852028810759 0 -0.016067292672767648 0.011120729215628662 0 -0.015858642097469559 0.011230446961844123 0 -0.015866708255671633 0.010994852028810759 0 -0.015858642097469559 0.011230446961844123 0 -0.015886594931969311 0.011472033716619786 0 -0.015645297865428873 0.011296145513798048 0 -0.01536431585981648 0.012075454865684501 0 -0.015734616244911775 0.011453023569353321 0 -0.016164531985219478 0.011390514929476665 0 -0.015858642097469559 0.011230446961844123 0 -0.015886594931969311 0.011472033716619786 0 -0.014185448764051476 0.013621054110629858 0 -0.014162921379307298 0.013789305247930853 0 -0.014628043879613525 0.013395360556904998 0 -0.015582025889982663 0.012067260693432698 0 -0.015770528709029188 0.011578345200397225 0 -0.015433271643509352 0.011534386318384715 0 -0.016165283888974216 0.011940177776785745 0 -0.015582025889982663 0.012067260693432698 0 -0.015770528709029188 0.011578345200397225 0 -0.01536431585981648 0.012075454865684501 0 -0.014978934017946387 0.012737850666844441 0 -0.015645297865428873 0.011296145513798048 0 -0.015348993122161146 0.011172951534008499 0 -0.015652615850933898 0.011072119359888071 0 -0.015734616244911775 0.011453023569353321 0 -0.015374247847119658 0.011179006993378621 0 -0.015770528709029188 0.011578345200397225 0 -0.015433271643509352 0.011534386318384715 0 -0.015348993122161146 0.011172951534008499 0 -0.015858642097469559 0.011230446961844123 0 -0.015645297865428873 0.011296145513798048 0 -0.015652615850933898 0.011072119359888071 0 -0.014999961922464052 0.011398347373628666 0 -0.015433271643509352 0.011534386318384715 0 -0.015348993122161146 0.011172951534008499 0 -0.014999961922464052 0.011398347373628666 0 -0.015433271643509352 0.011534386318384715 0 -0.01525218703244283 0.011798168568350514 0 -0.014999961922464052 0.011398347373628666 0 -0.01525218703244283 0.011798168568350514 0 -0.014999999224950288 0.012196339969718752 0 -0.015582025889982663 0.012067260693432698 0 -0.015433271643509352 0.011534386318384715 0 -0.01525218703244283 0.011798168568350514 0 -0.015582025889982663 0.012067260693432698 0 -0.01525218703244283 0.011798168568350514 0 -0.014999999224950288 0.012196339969718752 0 -0.014978934017946387 0.012737850666844441 0 -0.014999917570967672 0.012196608614270372 0 -0.014999880549790625 0.012198368298704784 0 -0.014782631682354042 0.013051099294134701 0 -0.014999674625336317 0.012666986387494051 0 -0.014628043879613525 0.013395360556904998 0 -0.014999880549790625 0.012198368298704784 0 -0.014782631682354042 0.013051099294134701 0 -0.014185448764051476 0.013621054110629858 0 -0.014782631682354042 0.013051099294134701 0 -0.014459964864984734 0.013372198464038287 0 -0.014185448764051476 0.013621054110629858 0 -0.014628043879613525 0.013395360556904998 0 -0.014782631682354042 0.013051099294134701 0 -0.014782631682354042 0.013051099294134701 0 -0.014459964864984734 0.013372198464038287 0 -0.014838233365625062 0.013079536317341718 0 -0.014697466283343598 0.013189737479038491 0 -0.014401811552031948 0.013365230887114192 0 -0.014459964864984734 0.013372198464038287 0 -0.014697466283343598 0.013189737479038491 0 -0.014459964864984734 0.013372198464038287 0 -0.014838233365625062 0.013079536317341718 0 -0.014999670660154868 0.013137106440041993 0 -0.014697466283343598 0.013189737479038491 0 -0.014838233365625062 0.013079536317341718 0 -0.014999670660154868 0.013137106440041993 0 -0.014999674625336317 0.012666986387494051 0 -0.014838233365625062 0.013079536317341718 0 -0.014782631682354042 0.013051099294134701 0 -0.014999674625336317 0.012666986387494051 0 -0.014838233365625062 0.013079536317341718 0 -0.014999903177464703 0.0098028252931505154 0 -0.01540384700501023 0.009713089074818871 0 -0.015284836218313813 0.0091016340654854512 0 -0.01540384700501023 0.009713089074818871 0 -0.01586855649810253 0.0097440027006893536 0 -0.015284836218313813 0.0091016340654854512 0 -0.015584544040895116 0.0095762588616702359 0 -0.015298663654387647 0.0091394156403103877 0 -0.01540384700501023 0.009713089074818871 0 -0.015473395795655187 0.010176679123410753 0 -0.01586855649810253 0.0097440027006893536 0 -0.015473395795655187 0.010176679123410753 0 -0.015826657166823081 0.010257046919737384 0 -0.01586855649810253 0.0097440027006893536 0 -0.015473395795655187 0.010176679123410753 0 -0.01572331506944017 0.010535248802244712 0 -0.015826657166823081 0.010257046919737384 0 -0.014999903177464703 0.0098028252931505154 0 -0.01540384700501023 0.009713089074818871 0 -0.015473395795655187 0.010176679123410753 0 -0.014999903177464703 0.0098028252931505154 0 -0.015473395795655187 0.010176679123410753 0 -0.014999988172794066 0.010600578278689782 0 -0.015473395795655187 0.010176679123410753 0 -0.014999988172794066 0.010600578278689782 0 -0.015458861302291425 0.010615600785704379 0 -0.014999988172794066 0.010600578278689782 0 -0.015438736497447203 0.010863886791309115 0 -0.015458861302291425 0.010615600785704379 0 -0.014999988172794066 0.010600578278689782 0 -0.015348993122161146 0.011172951534008499 0 -0.015438736497447203 0.010863886791309115 0 -0.014999961922464052 0.011398347373628666 0 -0.014999988172794066 0.010600578278689782 0 -0.015348993122161146 0.011172951534008499 0 -0.015652615850933898 0.011072119359888071 0 -0.015656849146357298 0.010806821513206652 0 -0.015866708255671633 0.010994852028810759 0 -0.015348993122161146 0.011172951534008499 0 -0.015652615850933898 0.011072119359888071 0 -0.015438736497447203 0.010863886791309115 0 -0.015652615850933898 0.011072119359888071 0 -0.015438736497447203 0.010863886791309115 0 -0.015656849146357298 0.010806821513206652 0 -0.015438736497447203 0.010863886791309115 0 -0.015656849146357298 0.010806821513206652 0 -0.015458861302291425 0.010615600785704379 0 -0.015473395795655187 0.010176679123410753 0 -0.015458861302291425 0.010615600785704379 0 -0.01572331506944017 0.010535248802244712 0 -0.015656849146357298 0.010806821513206652 0 -0.01572331506944017 0.010535248802244712 0 -0.015864674747123192 0.010756799790430149 0 -0.015656849146357298 0.010806821513206652 0 -0.015458861302291425 0.010615600785704379 0 -0.01572331506944017 0.010535248802244712 0 -0.01572331506944017 0.010535248802244712 0 -0.01603899994155852 0.010539260673997458 0 -0.015826657166823081 0.010257046919737384 0 -0.01603899994155852 0.010539260673997458 0 -0.015864674747123192 0.010756799790430149 0 -0.016037953193667416 0.010859842298454703 0 -0.01572331506944017 0.010535248802244712 0 -0.01603899994155852 0.010539260673997458 0 -0.015864674747123192 0.010756799790430149 0 -0.015656849146357298 0.010806821513206652 0 -0.015864674747123192 0.010756799790430149 0 -0.015866708255671633 0.010994852028810759 0 -0.015864674747123192 0.010756799790430149 0 -0.016037953193667416 0.010859842298454703 0 -0.015866708255671633 0.010994852028810759 0 -0.016067292672767648 0.011120729215628662 0 -0.016037953193667416 0.010859842298454703 0 -0.015866708255671633 0.010994852028810759 0 -0.016199999656366901 0.01097744467286085 0 -0.016231735489746532 0.010777323015270323 0 -0.016373629591698576 0.010962532235859251 0 -0.016067292672767648 0.011120729215628662 0 -0.016037953193667416 0.010859842298454703 0 -0.016199999656366901 0.01097744467286085 0 -0.016037953193667416 0.010859842298454703 0 -0.016199999656366901 0.01097744467286085 0 -0.016231735489746532 0.010777323015270323 0 -0.01603899994155852 0.010539260673997458 0 -0.016037953193667416 0.010859842298454703 0 -0.016231735489746532 0.010777323015270323 0 -0.01603899994155852 0.010539260673997458 0 -0.016231735489746532 0.010777323015270323 0 -0.016259646966252983 0.010589478259948697 0 -0.01603899994155852 0.010539260673997458 0 -0.016259646966252983 0.010589478259948697 0 -0.016239398949086863 0.010307808022346468 0 -0.014721883419257035 0.0096962456076923886 0 -0.014760682863048217 0.0096463311596939501 0 -0.014465619599968341 0.0097051521295502315 0 -0.014721883419257035 0.0096962456076923886 0 -0.014760682863048217 0.0096463311596939501 0 -0.015339697211729285 0.0093902655506336655 0 -0.01603899994155852 0.010539260673997458 0 -0.016239398949086863 0.010307808022346468 0 -0.015993974062008798 0.010219871875074725 0 -0.015540921484090475 0.0099861159891597405 0 -0.015584544040895116 0.0095762588616702359 0 -0.01603899994155852 0.010539260673997458 0 -0.015993974062008798 0.010219871875074725 0 -0.015826657166823081 0.010257046919737384 0 -0.015993974062008798 0.010219871875074725 0 -0.015826657166823081 0.010257046919737384 0 -0.01586855649810253 0.0097440027006893536 0 -0.016239398949086863 0.010307808022346468 0 -0.015993974062008798 0.010219871875074725 0 -0.01586855649810253 0.0097440027006893536 0 -0.014718349402739479 0.0096213305371043081 0 -0.014788449993118763 0.0095184900628408342 0 -0.014721883419257035 0.0096962456076923886 0 -0.014288767639895514 0.0098963117454434341 0 -0.014070577295780658 0.0098942630313506898 0 -0.014721883419257035 0.0096962456076923886 0 -0.015339697211729285 0.0093902655506336655 0 -0.015526930284881458 0.0092612939614949048 0 -0.014205392495796689 0.0099441901351035155 0 -0.014172103824458319 0.0098842672946983321 0 -0.014348871657942894 0.0098453306369913306 0 -0.014288767639895514 0.0098963117454434341 0 -0.014205392495796689 0.0099441901351035155 0 -0.014348871657942894 0.0098453306369913306 0 -0.014288767639895514 0.0098963117454434341 0 -0.014205392495796689 0.0099441901351035155 0 -0.014184848787466004 0.0098486571597333067 0 -0.014205392495796689 0.0099441901351035155 0 -0.01404860389831941 0.010034433491355318 0 -0.014130006407304331 0.0099199397205931919 0 -0.01404860389831941 0.010034433491355318 0 -0.014055659546500609 0.0099565039154034928 0 -0.014130006407304331 0.0099199397205931919 0 -0.014205392495796689 0.0099441901351035155 0 -0.01404860389831941 0.010034433491355318 0 -0.014172103824458319 0.0098842672946983321 0 -0.014172103824458319 0.0098842672946983321 0 -0.013989552620249085 0.0097241013949808733 0 -0.013794606743848766 0.010243637144347716 0 -0.01404860389831941 0.010034433491355318 0 -0.014172103824458319 0.0098842672946983321 0 -0.013794606743848766 0.010243637144347716 0 -0.014721883419257035 0.0096962456076923886 0 -0.014288767639895514 0.0098963117454434341 0 -0.014348871657942894 0.0098453306369913306 0 -0.014172103824458319 0.0098842672946983321 0 -0.014465619599968341 0.0097051521295502315 0 -0.014284637883433919 0.0094497406109791595 0 -0.014172103824458319 0.0098842672946983321 0 -0.014348871657942894 0.0098453306369913306 0 -0.014465619599968341 0.0097051521295502315 0 -0.014721883419257035 0.0096962456076923886 0 -0.014348871657942894 0.0098453306369913306 0 -0.014465619599968341 0.0097051521295502315 0 -0.016259646966252983 0.010589478259948697 0 -0.016239398949086863 0.010307808022346468 0 -0.016505272333724574 0.010734535663299807 0 -0.015540921484090475 0.0099861159891597405 0 -0.015307962726101562 0.010001495353579177 0 -0.016231735489746532 0.010777323015270323 0 -0.016259646966252983 0.010589478259948697 0 -0.016505272333724574 0.010734535663299807 0 -0.014760682863048217 0.0096463311596939501 0 -0.014465619599968341 0.0097051521295502315 0 -0.014284637883433919 0.0094497406109791595 0 -0.016231735489746532 0.010777323015270323 0 -0.016505272333724574 0.010734535663299807 0 -0.016373629591698576 0.010962532235859251 0 -0.016505272333724574 0.010734535663299807 0 -0.016373629591698576 0.010962532235859251 0 -0.016542134557603234 0.010932528252910882 0 -0.016476360905748222 0.011129517785437403 0 -0.016373629591698576 0.010962532235859251 0 -0.016542134557603234 0.010932528252910882 0 -0.016276099519402946 0.011154966671999571 0 -0.016199999656366901 0.01097744467286085 0 -0.016373629591698576 0.010962532235859251 0 -0.016664769539925777 0.011058737735477572 0 -0.016542134557603234 0.010932528252910882 0 -0.016758863576895665 0.011069261184453671 0 -0.015307962726101562 0.010001495353579177 0 -0.015676266828388619 0.010475262560453556 0 -0.014284637883433919 0.0094497406109791595 0 -0.013912997588743011 0.0094423330713300294 0 -0.01385199463382257 0.0091111408778178186 0 -0.016505272333724574 0.010734535663299807 0 -0.016542134557603234 0.010932528252910882 0 -0.016758863576895665 0.011069261184453671 0 -0.016535154665125701 0.010700578333665127 0 -0.015676266828388619 0.010475262560453556 0 -0.016573223915876029 0.011060855718236336 0 -0.016664769539925777 0.011058737735477572 0 -0.016542134557603234 0.010932528252910882 0 -0.016573223915876029 0.011060855718236336 0 -0.016476360905748222 0.011129517785437403 0 -0.016542134557603234 0.010932528252910882 0 -0.014284637883433919 0.0094497406109791595 0 -0.013912997588743011 0.0094423330713300294 0 -0.013989552620249085 0.0097241013949808733 0 -0.014172103824458319 0.0098842672946983321 0 -0.014284637883433919 0.0094497406109791595 0 -0.013989552620249085 0.0097241013949808733 0 -0.013912997588743011 0.0094423330713300294 0 -0.013989552620249085 0.0097241013949808733 0 -0.013716593308205363 0.0096748412132015814 0 -0.013716593308205363 0.0096748412132015814 0 -0.013492676942477345 0.0095474945737225869 0 -0.013434537533168233 0.0097804166463929688 0 -0.013670744109708222 0.0094568003987829038 0 -0.013517666289460594 0.0093623049911331965 0 -0.013492676942477345 0.0095474945737225869 0 -0.013716593308205363 0.0096748412132015814 0 -0.013670744109708222 0.0094568003987829038 0 -0.013492676942477345 0.0095474945737225869 0 -0.013912997588743011 0.0094423330713300294 0 -0.013716593308205363 0.0096748412132015814 0 -0.013670744109708222 0.0094568003987829038 0 -0.013912997588743011 0.0094423330713300294 0 -0.013711341812227901 0.0092681539356050044 0 -0.01385199463382257 0.0091111408778178186 0 -0.013912997588743011 0.0094423330713300294 0 -0.013670744109708222 0.0094568003987829038 0 -0.013711341812227901 0.0092681539356050044 0 -0.013670744109708222 0.0094568003987829038 0 -0.013711341812227901 0.0092681539356050044 0 -0.013517666289460594 0.0093623049911331965 0 -0.013711341812227901 0.0092681539356050044 0 -0.013579691810154906 0.0090979524730453246 0 -0.01385199463382257 0.0091111408778178186 0 -0.013677702806768844 0.011376016492939919 0 -0.015676266828388619 0.010475262560453556 0 -0.013711341812227901 0.0092681539356050044 0 -0.013579691810154906 0.0090979524730453246 0 -0.013517666289460594 0.0093623049911331965 0 -0.013579691810154906 0.0090979524730453246 0 -0.013517666289460594 0.0093623049911331965 0 -0.013140226025068737 0.0094365191146201441 0 -0.013677702806768844 0.011376016492939919 0 -0.013124302015040569 0.010591671047730651 0 -0.012616710329711093 0.011285714344130155 0 -0.013232152860385361 0.011299571950263784 0 -0.012543341606582277 0.011845598018937671 0 -0.013517666289460594 0.0093623049911331965 0 -0.013492676942477345 0.0095474945737225869 0 -0.013140226025068737 0.0094365191146201441 0 -0.013623695429338261 0.010463130357513733 0 -0.013124302015040569 0.010591671047730651 0 -0.013751769307357359 0.011224964560435756 0 -0.013412965606505537 0.011180982554020868 0 -0.013513567576013054 0.011309593647303766 0 -0.013492676942477345 0.0095474945737225869 0 -0.013434537533168233 0.0097804166463929688 0 -0.013140226025068737 0.0094365191146201441 0 -0.013751769307357359 0.011224964560435756 0 -0.013513567576013054 0.011309593647303766 0 -0.013792015438287798 0.011449096727494086 0 -0.013825538538442931 0.010877341141959285 0 -0.013794606743848766 0.010243637144347716 0 -0.013923300496861893 0.010453009522475279 0 -0.013751769307357359 0.011224964560435756 0 -0.013825538538442931 0.010877341141959285 0 -0.013792015438287798 0.011449096727494086 0 -0.013825538538442931 0.010877341141959285 0 -0.013923300496861893 0.010453009522475279 0 -0.013792015438287798 0.011449096727494086 0 -0.013623695429338261 0.010463130357513733 0 -0.01377555260624715 0.010357912071370668 0 -0.013751769307357359 0.011224964560435756 0 -0.013825538538442931 0.010877341141959285 0 -0.013794606743848766 0.010243637144347716 0 -0.013989552620249085 0.0097241013949808733 0 -0.013716593308205363 0.0096748412132015814 0 -0.013794606743848766 0.010243637144347716 0 -0.013716593308205363 0.0096748412132015814 0 -0.013434537533168233 0.0097804166463929688 0 -0.013794606743848766 0.010243637144347716 0 -0.013794606743848766 0.010243637144347716 0 -0.013978423149429285 0.010095663649022445 0 -0.014055659546500609 0.0099565039154034928 0 -0.01404860389831941 0.010034433491355318 0 -0.013794606743848766 0.010243637144347716 0 -0.014055659546500609 0.0099565039154034928 0 -0.013794606743848766 0.010243637144347716 0 -0.013978423149429285 0.010095663649022445 0 -0.013923300496861893 0.010453009522475279 0 -0.013978423149429285 0.010095663649022445 0 -0.013923300496861893 0.010453009522475279 0 -0.014332385912633685 0.0099755169423704926 0 -0.013978423149429285 0.010095663649022445 0 -0.014174273713431938 0.0098116703277876197 0 -0.014332385912633685 0.0099755169423704926 0 -0.014174273713431938 0.0098116703277876197 0 -0.014118615633432419 0.0098226915484277057 0 -0.014237817500683685 0.0096099733290759045 0 -0.014174273713431938 0.0098116703277876197 0 -0.014290599557244274 0.0096098041391715384 0 -0.014332385912633685 0.0099755169423704926 0 -0.013978423149429285 0.010095663649022445 0 -0.014174273713431938 0.0098116703277876197 0 -0.014118615633432419 0.0098226915484277057 0 -0.014055659546500609 0.0099565039154034928 0 -0.014118615633432419 0.0098226915484277057 0 -0.014214251676654492 0.0096484142016916817 0 -0.013978423149429285 0.010095663649022445 0 -0.014055659546500609 0.0099565039154034928 0 -0.014118615633432419 0.0098226915484277057 0 -0.014214251676654492 0.0096484142016916817 0 -0.014345721200694158 0.0094315242523235008 0 -0.01433630017544458 0.00937584293279216 0 -0.014214251676654492 0.0096484142016916817 0 -0.014345721200694158 0.0094315242523235008 0 -0.014237817500683685 0.0096099733290759045 0 -0.014118615633432419 0.0098226915484277057 0 -0.014214251676654492 0.0096484142016916817 0 -0.014237817500683685 0.0096099733290759045 0 -0.014345721200694158 0.0094315242523235008 0 -0.014309683070554271 0.0094385856462910062 0 -0.014351354244772276 0.0092850403817120036 0 -0.014345721200694158 0.0094315242523235008 0 -0.014237817500683685 0.0096099733290759045 0 -0.014309683070554271 0.0094385856462910062 0 -0.014174273713431938 0.0098116703277876197 0 -0.014237817500683685 0.0096099733290759045 0 -0.014290599557244274 0.0096098041391715384 0 -0.014237817500683685 0.0096099733290759045 0 -0.014290599557244274 0.0096098041391715384 0 -0.014309683070554271 0.0094385856462910062 0 -0.014290599557244274 0.0096098041391715384 0 -0.014309683070554271 0.0094385856462910062 0 -0.014340739919427217 0.0093592395892381358 0 -0.014309683070554271 0.0094385856462910062 0 -0.014351354244772276 0.0092850403817120036 0 -0.014340739919427217 0.0093592395892381358 0 -0.014345721200694158 0.0094315242523235008 0 -0.014351354244772276 0.0092850403817120036 0 -0.014496521579300556 0.0092751437754906296 0 -0.014351354244772276 0.0092850403817120036 0 -0.014358169609198479 0.0093618102616027828 0 -0.014496521579300556 0.0092751437754906296 0 -0.014351354244772276 0.0092850403817120036 0 -0.014358169609198479 0.0093618102616027828 0 -0.014295459603902508 0.0091380449650844148 0 -0.014879822884933698 0.0096798246955237914 0 -0.014413246635563044 0.0095110525392396277 0 -0.014708546784500044 0.010522534516961817 0 -0.014358169609198479 0.0093618102616027828 0 -0.014496521579300556 0.0092751437754906296 0 -0.014482106077457379 0.0094936029255867863 0 -0.014879822884933698 0.0096798246955237914 0 -0.015591149925962975 0.010422136894605201 0 -0.014708546784500044 0.010522534516961817 0 -0.014673671023840327 0.0095718169056942561 0 -0.014793523731006092 0.0096307958075692555 0 -0.014496521579300556 0.0092751437754906296 0 -0.014490328094987123 0.0090071310758613327 0 -0.014830633259723293 0.0087428652330637201 0 -0.014519373885937636 0.009041877004443857 0 -0.014793523731006092 0.0096307958075692555 0 -0.014345721200694158 0.0094315242523235008 0 -0.014496521579300556 0.0092751437754906296 0 -0.01433630017544458 0.00937584293279216 0 -0.014496521579300556 0.0092751437754906296 0 -0.01433630017544458 0.00937584293279216 0 -0.014490328094987123 0.0090071310758613327 0 -0.01433630017544458 0.00937584293279216 0 -0.014490328094987123 0.0090071310758613327 0 -0.014293020428792127 0.0089770078801978369 0 -0.014490328094987123 0.0090071310758613327 0 -0.014293020428792127 0.0089770078801978369 0 -0.014479371863972869 0.0085594605002338262 0 -0.014490328094987123 0.0090071310758613327 0 -0.014479371863972869 0.0085594605002338262 0 -0.014830633259723293 0.0087428652330637201 0 -0.014293020428792127 0.0089770078801978369 0 -0.014132283819850282 0.0094791816591143548 0 -0.013993198148811911 0.0089084777364622537 0 -0.01433630017544458 0.00937584293279216 0 -0.014293020428792127 0.0089770078801978369 0 -0.014132283819850282 0.0094791816591143548 0 -0.014132283819850282 0.0094791816591143548 0 -0.014193243676763889 0.0097133403014652911 0 -0.014184848787466004 0.0098486571597333067 0 -0.01433630017544458 0.00937584293279216 0 -0.014132283819850282 0.0094791816591143548 0 -0.014193243676763889 0.0097133403014652911 0 -0.014214251676654492 0.0096484142016916817 0 -0.01433630017544458 0.00937584293279216 0 -0.014193243676763889 0.0097133403014652911 0 -0.014055659546500609 0.0099565039154034928 0 -0.014214251676654492 0.0096484142016916817 0 -0.014193243676763889 0.0097133403014652911 0 -0.014193243676763889 0.0097133403014652911 0 -0.014130006407304331 0.0099199397205931919 0 -0.014184848787466004 0.0098486571597333067 0 -0.014055659546500609 0.0099565039154034928 0 -0.014193243676763889 0.0097133403014652911 0 -0.014130006407304331 0.0099199397205931919 0 -0.014205392495796689 0.0099441901351035155 0 -0.014130006407304331 0.0099199397205931919 0 -0.014184848787466004 0.0098486571597333067 0 -0.014288767639895514 0.0098963117454434341 0 -0.014184848787466004 0.0098486571597333067 0 -0.014070577295780658 0.0098942630313506898 0 -0.014132283819850282 0.0094791816591143548 0 -0.014184848787466004 0.0098486571597333067 0 -0.014070577295780658 0.0098942630313506898 0 -0.015339697211729285 0.0093902655506336655 0 -0.015526930284881458 0.0092612939614949048 0 -0.015478422741468696 0.0090236840195447657 0 -0.015526930284881458 0.0092612939614949048 0 -0.015478422741468696 0.0090236840195447657 0 -0.015870371710408553 0.0085068463138252212 0 -0.015478422741468696 0.0090236840195447657 0 -0.015870371710408553 0.0085068463138252212 0 -0.015390302267821739 0.008568761164277813 0 -0.014132283819850282 0.0094791816591143548 0 -0.014070577295780658 0.0098942630313506898 0 -0.013776810140253164 0.0093401023491197655 0 -0.014788449993118763 0.0095184900628408342 0 -0.014818075234378827 0.008909134664966659 0 -0.014132283819850282 0.0094791816591143548 0 -0.013993198148811911 0.0089084777364622537 0 -0.013776810140253164 0.0093401023491197655 0 -0.014293020428792127 0.0089770078801978369 0 -0.013993198148811911 0.0089084777364622537 0 -0.01425876225377359 0.0082023063248569308 0 -0.013993198148811911 0.0089084777364622537 0 -0.013698922570745432 0.0085671010094176409 0 -0.013776810140253164 0.0093401023491197655 0 -0.01476459344709717 0.0080610810742626007 0 -0.014818075234378827 0.008909134664966659 0 -0.015837917484033161 0.0075479164786364638 0 -0.015870371710408553 0.0085068463138252212 0 -0.015345675083431312 0.0078895144149117788 0 -0.015870371710408553 0.0085068463138252212 0 -0.015345675083431312 0.0078895144149117788 0 -0.015390302267821739 0.008568761164277813 0 -0.015837917484033161 0.0075479164786364638 0 -0.015345675083431312 0.0078895144149117788 0 -0.015324000286172566 0.007177821812460101 0 -0.015345675083431312 0.0078895144149117788 0 -0.014999850543861366 0.0082071557409197516 0 -0.014999847204816813 0.007409252710823472 0 -0.015345675083431312 0.0078895144149117788 0 -0.014999850543861366 0.0082071557409197516 0 -0.015390302267821739 0.008568761164277813 0 -0.014999850543861366 0.0082071557409197516 0 -0.015196736100427545 0.0087341058180804513 0 -0.014999884456108831 0.0090048571404533727 0 -0.015196736100427545 0.0087341058180804513 0 -0.015390302267821739 0.008568761164277813 0 -0.015284836218313813 0.0091016340654854512 0 -0.014999850543861366 0.0082071557409197516 0 -0.015196736100427545 0.0087341058180804513 0 -0.015390302267821739 0.008568761164277813 0 -0.015478422741468696 0.0090236840195447657 0 -0.015390302267821739 0.008568761164277813 0 -0.015284836218313813 0.0091016340654854512 0 -0.015339697211729285 0.0093902655506336655 0 -0.015478422741468696 0.0090236840195447657 0 -0.015284836218313813 0.0091016340654854512 0 -0.014999903177464703 0.0098028252931505154 0 -0.014999884456108831 0.0090048571404533727 0 -0.015284836218313813 0.0091016340654854512 0 -0.015196736100427545 0.0087341058180804513 0 -0.014999884456108831 0.0090048571404533727 0 -0.015284836218313813 0.0091016340654854512 0 -0.0087625436090145135 0.011393484031945008 0 -0.0070888036716364221 0.011373972185634641 0 -0.0089306850252967706 0.012696218614669907 0 -0.0089513674683126907 0.012526272805691246 0 -0.0077298783814932683 0.011801522367046648 0 -0.0089513674683126907 0.012526272805691246 0 -0.0086585331328538385 0.011992656628216891 0 -0.0077298783814932683 0.011801522367046648 0 -0.0087625436090145135 0.011393484031945008 0 -0.0087515632507673986 0.011671344883423838 0 -0.0086585331328538385 0.011992656628216891 0 -0.0077298783814932683 0.011801522367046648 0 -0.0086646091932004315 0.011627802835571603 0 -0.0086585331328538385 0.011992656628216891 0 -0.0092761207548180385 0.012017318678232483 0 -0.0086646091932004315 0.011627802835571603 0 -0.0089513674683126907 0.012526272805691246 0 -0.0086585331328538385 0.011992656628216891 0 -0.0092761207548180385 0.012017318678232483 0 -0.0089396065106800739 0.012676716398079636 0 -0.0089513674683126907 0.012526272805691246 0 -0.0099355594311042964 0.012705270441512451 0 -0.0089513674683126907 0.012526272805691246 0 -0.0092761207548180385 0.012017318678232483 0 -0.0099355594311042964 0.012705270441512451 0 -0.0092761207548180385 0.012017318678232483 0 -0.0099355594311042964 0.012705270441512451 0 -0.009695675474663738 0.011419619264484909 0 -0.0096311206788430928 0.010368664741782442 0 -0.010163167004280304 0.010735279056194098 0 -0.0095684140085557784 0.010907460531248832 0 -0.0087625436090145135 0.011393484031945008 0 -0.010178707491541971 0.012457242593075287 0 -0.0089396065106800739 0.012676716398079636 0 -0.0099355594311042964 0.012705270441512451 0 -0.010251870293656446 0.013566254750743773 0 -0.0069069441215234215 0.011073215340669143 0 -0.0067750891718151218 0.011197309091998696 0 -0.0068770409434384706 0.011346296834012689 0 -0.0087625436090145135 0.011393484031945008 0 -0.0079265354143384682 0.010767087687738274 0 -0.0069069441215234215 0.011073215340669143 0 -0.0067750891718151218 0.011197309091998696 0 -0.0067600407617827056 0.01109041900536579 0 -0.0067750891718151218 0.011197309091998696 0 -0.0067600407617827056 0.01109041900536579 0 -0.0065995184070085566 0.011200144848231329 0 -0.0067750891718151218 0.011197309091998696 0 -0.0065995184070085566 0.011200144848231329 0 -0.0068770409434384706 0.011346296834012689 0 -0.0067272817578871609 0.010486700571528952 0 -0.0067280351026883347 0.010455941629715212 0 -0.0068759805355429263 0.010588364779188357 0 -0.0067285493581618694 0.011116287642679221 0 -0.0064971437352151391 0.010945594572049126 0 -0.0066111593479450262 0.011132009862468605 0 -0.0067600407617827056 0.01109041900536579 0 -0.0066493734999085166 0.011074693917163784 0 -0.0066111593479450262 0.011132009862468605 0 -0.0067600407617827056 0.01109041900536579 0 -0.0065792672129421402 0.011189084435557243 0 -0.0066111593479450262 0.011132009862468605 0 -0.0065939343290534599 0.011089799245832683 0 -0.0066493734999085166 0.011074693917163784 0 -0.0063307245807271506 0.01126207717440293 0 -0.006461996190892879 0.011180455363462597 0 -0.0065792672129421402 0.011189084435557243 0 -0.0063912839704969478 0.011137574445754873 0 -0.006461996190892879 0.011180455363462597 0 -0.0064901796060775731 0.011125141604194514 0 -0.006461996190892879 0.011180455363462597 0 -0.0065124560933643751 0.011161387877007939 0 -0.0064901796060775731 0.011125141604194514 0 -0.006461996190892879 0.011180455363462597 0 -0.0065124560933643751 0.011161387877007939 0 -0.0065792672129421402 0.011189084435557243 0 -0.0067272817578871609 0.010486700571528952 0 -0.0067280351026883347 0.010455941629715212 0 -0.0065549543251697626 0.01066675576863135 0 -0.0065124560933643751 0.011161387877007939 0 -0.0065792672129421402 0.011189084435557243 0 -0.006532985444615157 0.0111491061519064 0 -0.0066111593479450262 0.011132009862468605 0 -0.0065792672129421402 0.011189084435557243 0 -0.0065868312692661038 0.011160334283039666 0 -0.0065792672129421402 0.011189084435557243 0 -0.00656449313428602 0.011154003458371925 0 -0.006532985444615157 0.0111491061519064 0 -0.0065792672129421402 0.011189084435557243 0 -0.0065868312692661038 0.011160334283039666 0 -0.00656449313428602 0.011154003458371925 0 -0.0066111593479450262 0.011132009862468605 0 -0.006575918585738319 0.011130448938433733 0 -0.0065939343290534599 0.011089799245832683 0 -0.0066111593479450262 0.011132009862468605 0 -0.0065868312692661038 0.011160334283039666 0 -0.006575918585738319 0.011130448938433733 0 -0.00656449313428602 0.011154003458371925 0 -0.006575918585738319 0.011130448938433733 0 -0.006545815661931448 0.011129943261307127 0 -0.0065868312692661038 0.011160334283039666 0 -0.00656449313428602 0.011154003458371925 0 -0.006575918585738319 0.011130448938433733 0 -0.0065939343290534599 0.011089799245832683 0 -0.0065502425966205763 0.01110107749177775 0 -0.0065616101620877528 0.011057417799616305 0 -0.006575918585738319 0.011130448938433733 0 -0.0065939343290534599 0.011089799245832683 0 -0.0065502425966205763 0.01110107749177775 0 -0.0065218573810937493 0.011086231414541486 0 -0.0065502425966205763 0.01110107749177775 0 -0.0064901796060775731 0.011125141604194514 0 -0.0065218573810937493 0.011086231414541486 0 -0.0065502425966205763 0.01110107749177775 0 -0.0065616101620877528 0.011057417799616305 0 -0.006545815661931448 0.011129943261307127 0 -0.006532985444615157 0.0111491061519064 0 -0.0064901796060775731 0.011125141604194514 0 -0.0065502425966205763 0.01110107749177775 0 -0.006545815661931448 0.011129943261307127 0 -0.0064901796060775731 0.011125141604194514 0 -0.006575918585738319 0.011130448938433733 0 -0.0065502425966205763 0.01110107749177775 0 -0.006545815661931448 0.011129943261307127 0 -0.00656449313428602 0.011154003458371925 0 -0.006545815661931448 0.011129943261307127 0 -0.006532985444615157 0.0111491061519064 0 -0.0065124560933643751 0.011161387877007939 0 -0.006532985444615157 0.0111491061519064 0 -0.0064901796060775731 0.011125141604194514 0 -0.0063912839704969478 0.011137574445754873 0 -0.0064201931458697159 0.011072194290057799 0 -0.0064901796060775731 0.011125141604194514 0 -0.0065218573810937493 0.011086231414541486 0 -0.0064901796060775731 0.011125141604194514 0 -0.0064894640702079179 0.0110593277263475 0 -0.0064201931458697159 0.011072194290057799 0 -0.0064901796060775731 0.011125141604194514 0 -0.0064894640702079179 0.0110593277263475 0 -0.0064201931458697159 0.011072194290057799 0 -0.0064788931312553437 0.011015441254995014 0 -0.0064894640702079179 0.0110593277263475 0 -0.0064788931312553437 0.011015441254995014 0 -0.0064894640702079179 0.0110593277263475 0 -0.0065418199196869359 0.011022528661771421 0 -0.0065418199196869359 0.011022528661771421 0 -0.0065616101620877528 0.011057417799616305 0 -0.0066084256906685087 0.011000202995536707 0 -0.0064894640702079179 0.0110593277263475 0 -0.0065418199196869359 0.011022528661771421 0 -0.0065616101620877528 0.011057417799616305 0 -0.0065218573810937493 0.011086231414541486 0 -0.0064894640702079179 0.0110593277263475 0 -0.0065616101620877528 0.011057417799616305 0 -0.0065939343290534599 0.011089799245832683 0 -0.0065616101620877528 0.011057417799616305 0 -0.0066198795973791604 0.01104683559001501 0 -0.0065616101620877528 0.011057417799616305 0 -0.0066084256906685087 0.011000202995536707 0 -0.0066198795973791604 0.01104683559001501 0 -0.0066127041112025243 0.010960156172540578 0 -0.0066658355437962044 0.010943052784499644 0 -0.0066027704949337311 0.010926268481665646 0 -0.0066084256906685087 0.011000202995536707 0 -0.0066127041112025243 0.010960156172540578 0 -0.0065619083730524552 0.01097904259608559 0 -0.0066127041112025243 0.010960156172540578 0 -0.0065619083730524552 0.01097904259608559 0 -0.0066027704949337311 0.010926268481665646 0 -0.0065418199196869359 0.011022528661771421 0 -0.0066084256906685087 0.011000202995536707 0 -0.0065619083730524552 0.01097904259608559 0 -0.0065619083730524552 0.01097904259608559 0 -0.0064772966242010264 0.010948705244687777 0 -0.0066027704949337311 0.010926268481665646 0 -0.0064788931312553437 0.011015441254995014 0 -0.0065619083730524552 0.01097904259608559 0 -0.0064772966242010264 0.010948705244687777 0 -0.0064788931312553437 0.011015441254995014 0 -0.0065418199196869359 0.011022528661771421 0 -0.0065619083730524552 0.01097904259608559 0 -0.0069069441215234215 0.011073215340669143 0 -0.0067600407617827056 0.01109041900536579 0 -0.0066887973177290764 0.011026489519741554 0 -0.0069069441215234215 0.011073215340669143 0 -0.0066887973177290764 0.011026489519741554 0 -0.0066658355437962044 0.010943052784499644 0 -0.0067600407617827056 0.01109041900536579 0 -0.0066493734999085166 0.011074693917163784 0 -0.0066887973177290764 0.011026489519741554 0 -0.0066198795973791604 0.01104683559001501 0 -0.0066493734999085166 0.011074693917163784 0 -0.0066887973177290764 0.011026489519741554 0 -0.0066084256906685087 0.011000202995536707 0 -0.0066198795973791604 0.01104683559001501 0 -0.0066887973177290764 0.011026489519741554 0 -0.0065939343290534599 0.011089799245832683 0 -0.0066198795973791604 0.01104683559001501 0 -0.0066493734999085166 0.011074693917163784 0 -0.0066084256906685087 0.011000202995536707 0 -0.0066127041112025243 0.010960156172540578 0 -0.0066658355437962044 0.010943052784499644 0 -0.0066084256906685087 0.011000202995536707 0 -0.0066887973177290764 0.011026489519741554 0 -0.0066658355437962044 0.010943052784499644 0 -0.0077298783814932683 0.011801522367046648 0 -0.0079190800451704613 0.010965627750486403 0 -0.0086646091932004315 0.011627802835571603 0 -0.0077298783814932683 0.011801522367046648 0 -0.0079190800451704613 0.010965627750486403 0 -0.0066553596707374782 0.010865506481076136 0 -0.0083221934892916041 0.011429448384166868 0 -0.0089914427454563708 0.011612351347663018 0 -0.0066658355437962044 0.010943052784499644 0 -0.0066027704949337311 0.010926268481665646 0 -0.0066553596707374782 0.010865506481076136 0 -0.0070888036716364221 0.011373972185634641 0 -0.0067213025370445141 0.010922957479455504 0 -0.0063350206177533045 0.010642157288885176 0 -0.0079190800451704613 0.010965627750486403 0 -0.0066553596707374782 0.010865506481076136 0 -0.0065481080931376161 0.010901383051037026 0 -0.0066027704949337311 0.010926268481665646 0 -0.0066553596707374782 0.010865506481076136 0 -0.0064772966242010264 0.010948705244687777 0 -0.0065481080931376161 0.010901383051037026 0 -0.0066027704949337311 0.010926268481665646 0 -0.0064158177631642634 0.010849281615699155 0 -0.0065481080931376161 0.010901383051037026 0 -0.0066553596707374782 0.010865506481076136 0 -0.0095661540310330272 0.012343805683514869 0 -0.010271258554097757 0.01225299940401565 0 -0.0099762419366527418 0.012117501188574473 0 -0.0095661540310330272 0.012343805683514869 0 -0.0099762419366527418 0.012117501188574473 0 -0.0096915219291884968 0.012094380383186746 0 -0.0097901931561761545 0.011958846338877581 0 -0.0099446019141565933 0.011907683641701382 0 -0.0099762419366527418 0.012117501188574473 0 -0.0099446019141565933 0.011907683641701382 0 -0.0099762419366527418 0.012117501188574473 0 -0.010123423442083399 0.011989829136366561 0 -0.0097901931561761545 0.011958846338877581 0 -0.0099762419366527418 0.012117501188574473 0 -0.0096915219291884968 0.012094380383186746 0 -0.0095945864717523009 0.011926420757998614 0 -0.0097901931561761545 0.011958846338877581 0 -0.0096915219291884968 0.012094380383186746 0 -0.010271258554097757 0.01225299940401565 0 -0.010261586481370226 0.012096429864562403 0 -0.010475502015060728 0.012027116092810706 0 -0.010271258554097757 0.01225299940401565 0 -0.0099762419366527418 0.012117501188574473 0 -0.010261586481370226 0.012096429864562403 0 -0.0099762419366527418 0.012117501188574473 0 -0.010261586481370226 0.012096429864562403 0 -0.010123423442083399 0.011989829136366561 0 -0.010387837665642096 0.012007662657947778 0 -0.010261586481370226 0.012096429864562403 0 -0.010123423442083399 0.011989829136366561 0 -0.010387837665642096 0.012007662657947778 0 -0.010261586481370226 0.012096429864562403 0 -0.010475502015060728 0.012027116092810706 0 -0.0089914427454563708 0.011612351347663018 0 -0.010162984050057867 0.011745509759963123 0 -0.010271258554097757 0.01225299940401565 0 -0.010475502015060728 0.012027116092810706 0 -0.010600532147466606 0.01207850099169506 0 -0.0079190800451704613 0.010965627750486403 0 -0.0086646091932004315 0.011627802835571603 0 -0.009695675474663738 0.011419619264484909 0 -0.0092761207548180385 0.012017318678232483 0 -0.0086646091932004315 0.011627802835571603 0 -0.009695675474663738 0.011419619264484909 0 -0.010473960919759202 0.012097256331504878 0 -0.010475502015060728 0.012027116092810706 0 -0.010671666343282253 0.011856842658087594 0 -0.010475502015060728 0.012027116092810706 0 -0.010600532147466606 0.01207850099169506 0 -0.010671666343282253 0.011856842658087594 0 -0.010819726553024069 0.011696226903269472 0 -0.010671666343282253 0.011856842658087594 0 -0.011380560029726712 0.011567113980716944 0 -0.012436600735123968 0.010674483218828176 0 -0.010819726553024069 0.011696226903269472 0 -0.011380560029726712 0.011567113980716944 0 -0.011380560029726712 0.011567113980716944 0 -0.011229916016633401 0.011871861263897075 0 -0.012171431295534366 0.011910628507845919 0 -0.010671666343282253 0.011856842658087594 0 -0.011380560029726712 0.011567113980716944 0 -0.011229916016633401 0.011871861263897075 0 -0.010162984050057867 0.011745509759963123 0 -0.011145201938743391 0.011868927317693205 0 -0.010600532147466606 0.01207850099169506 0 -0.010671666343282253 0.011856842658087594 0 -0.011229916016633401 0.011871861263897075 0 -0.012001471056070093 0.011274357414368701 0 -0.012616710329711093 0.011285714344130155 0 -0.012543341606582277 0.011845598018937671 0 -0.012436600735123968 0.010674483218828176 0 -0.013382605324780967 0.011123516424566745 0 -0.013265822915903296 0.011219137391818051 0 -0.012436600735123968 0.010674483218828176 0 -0.012401742489431615 0.011317827352586431 0 -0.013265822915903296 0.011219137391818051 0 -0.011385737349578578 0.011915760951368417 0 -0.013124302015040569 0.010591671047730651 0 -0.012436600735123968 0.010674483218828176 0 -0.011380560029726712 0.011567113980716944 0 -0.012401742489431615 0.011317827352586431 0 -0.012401742489431615 0.011317827352586431 0 -0.013064624034868523 0.011430457317451796 0 -0.012171431295534366 0.011910628507845919 0 -0.011380560029726712 0.011567113980716944 0 -0.012401742489431615 0.011317827352586431 0 -0.012171431295534366 0.011910628507845919 0 -0.012401742489431615 0.011317827352586431 0 -0.013064624034868523 0.011430457317451796 0 -0.013265822915903296 0.011219137391818051 0 -0.013064624034868523 0.011430457317451796 0 -0.013513567576013054 0.011309593647303766 0 -0.013792015438287798 0.011449096727494086 0 -0.013064624034868523 0.011430457317451796 0 -0.013513567576013054 0.011309593647303766 0 -0.013265822915903296 0.011219137391818051 0 -0.013412965606505537 0.011180982554020868 0 -0.013513567576013054 0.011309593647303766 0 -0.013265822915903296 0.011219137391818051 0 -0.013124302015040569 0.010591671047730651 0 -0.013089873194966382 0.010717940626923356 0 -0.013792015438287798 0.011449096727494086 0 -0.012171431295534366 0.011910628507845919 0 -0.01247459920724728 0.013280923811448155 0 -0.013064624034868523 0.011430457317451796 0 -0.013792015438287798 0.011449096727494086 0 -0.012171431295534366 0.011910628507845919 0 -0.013755196365010242 0.011421679085066598 0 -0.013785529405681873 0.011947984506353681 0 -0.012171431295534366 0.011910628507845919 0 -0.01247459920724728 0.013280923811448155 0 -0.011244551055967077 0.012959973804919731 0 -0.013923300496861893 0.010453009522475279 0 -0.014809057582901543 0.010274146255189529 0 -0.014332385912633685 0.0099755169423704926 0 -0.013923300496861893 0.010453009522475279 0 -0.013792015438287798 0.011449096727494086 0 -0.014809057582901543 0.010274146255189529 0 -0.0099355594311042964 0.012705270441512451 0 -0.009695675474663738 0.011419619264484909 0 -0.011229916016633401 0.011871861263897075 0 -0.0099355594311042964 0.012705270441512451 0 -0.011229916016633401 0.011871861263897075 0 -0.011244551055967077 0.012959973804919731 0 -0.011229916016633401 0.011871861263897075 0 -0.012171431295534366 0.011910628507845919 0 -0.011244551055967077 0.012959973804919731 0 -0.0099355594311042964 0.012705270441512451 0 -0.011244551055967077 0.012959973804919731 0 -0.010251870293656446 0.013566254750743773 0 -0.010163167004280304 0.010735279056194098 0 -0.010580747177220903 0.011142718418200062 0 -0.010687686226149889 0.011089718491447543 0 -0.010178707491541971 0.012457242593075287 0 -0.012176070924723783 0.010870919609970931 0 -0.011244551055967077 0.012959973804919731 0 -0.010251870293656446 0.013566254750743773 0 -0.011476859476702817 0.014440114442262885 0 -0.010163167004280304 0.010735279056194098 0 -0.010580747177220903 0.011142718418200062 0 -0.010097543939100234 0.011172792248180581 0 -0.01247459920724728 0.013280923811448155 0 -0.011244551055967077 0.012959973804919731 0 -0.011476859476702817 0.014440114442262885 0 -0.010580747177220903 0.011142718418200062 0 -0.010687686226149889 0.011089718491447543 0 -0.010491576210384247 0.011308909557068885 0 -0.012163260499426272 0.0075132835806028531 0 -0.01244215744438704 0.0082393691708674902 0 -0.01310998099845165 0.0081664168198081286 0 -0.012176070924723783 0.010870919609970931 0 -0.011113021686361701 0.0088600139311452563 0 -0.012163260499426272 0.0075132835806028531 0 -0.01244215744438704 0.0082393691708674902 0 -0.011542857025018309 0.0082612757456106568 0 -0.010508219903909736 0.011243847372360531 0 -0.010220732865605913 0.010288394451749807 0 -0.011113021686361701 0.0088600139311452563 0 -0.010220732865605913 0.010288394451749807 0 -0.011071436260505904 0.0085525397529914934 0 -0.010373957443218049 0.0088060013396346823 0 -0.010302302417182229 0.0081347243629344285 0 -0.010580747177220903 0.011142718418200062 0 -0.010491576210384247 0.011308909557068885 0 -0.010184901822608321 0.011129524227548628 0 -0.014809057582901543 0.010274146255189529 0 -0.014332385912633685 0.0099755169423704926 0 -0.01468643319793396 0.0097057315867784995 0 -0.014290599557244274 0.0096098041391715384 0 -0.014332385912633685 0.0099755169423704926 0 -0.014425950041930006 0.0095809767771944682 0 -0.014332385912633685 0.0099755169423704926 0 -0.01468643319793396 0.0097057315867784995 0 -0.014425950041930006 0.0095809767771944682 0 -0.013785529405681873 0.011947984506353681 0 -0.012176070924723783 0.010870919609970931 0 -0.014809057582901543 0.010274146255189529 0 -0.015216748265726681 0.0096474823276803817 0 -0.01468643319793396 0.0097057315867784995 0 -0.015216748265726681 0.0096474823276803817 0 -0.01468643319793396 0.0097057315867784995 0 -0.014838160128335066 0.0093556583788359914 0 -0.012176070924723783 0.010870919609970931 0 -0.013976139443899166 0.0087406247890901463 0 -0.01468643319793396 0.0097057315867784995 0 -0.014838160128335066 0.0093556583788359914 0 -0.014498070230356959 0.0094241633918805186 0 -0.01468643319793396 0.0097057315867784995 0 -0.014498070230356959 0.0094241633918805186 0 -0.014425950041930006 0.0095809767771944682 0 -0.014498070230356959 0.0094241633918805186 0 -0.014340739919427217 0.0093592395892381358 0 -0.014408130931088475 0.0092699259606715718 0 -0.014838160128335066 0.0093556583788359914 0 -0.014498070230356959 0.0094241633918805186 0 -0.014408130931088475 0.0092699259606715718 0 -0.014498070230356959 0.0094241633918805186 0 -0.014340739919427217 0.0093592395892381358 0 -0.014425950041930006 0.0095809767771944682 0 -0.014290599557244274 0.0096098041391715384 0 -0.014340739919427217 0.0093592395892381358 0 -0.014425950041930006 0.0095809767771944682 0 -0.014879822884933698 0.0096798246955237914 0 -0.014295459603902508 0.0091380449650844148 0 -0.014413246635563044 0.0095110525392396277 0 -0.014673671023840327 0.0095718169056942561 0 -0.014319975863056415 0.0091765690638889817 0 -0.014295459603902508 0.0091380449650844148 0 -0.014216525258733853 0.0093244123873753686 0 -0.014413246635563044 0.0095110525392396277 0 -0.014295459603902508 0.0091380449650844148 0 -0.014251315808029307 0.0090871758152927078 0 -0.014216525258733853 0.0093244123873753686 0 -0.014340739919427217 0.0093592395892381358 0 -0.014295459603902508 0.0091380449650844148 0 -0.014408130931088475 0.0092699259606715718 0 -0.014351354244772276 0.0092850403817120036 0 -0.014340739919427217 0.0093592395892381358 0 -0.014295459603902508 0.0091380449650844148 0 -0.014838160128335066 0.0093556583788359914 0 -0.014408130931088475 0.0092699259606715718 0 -0.014251315808029307 0.0090871758152927078 0 -0.014295459603902508 0.0091380449650844148 0 -0.014408130931088475 0.0092699259606715718 0 -0.014251315808029307 0.0090871758152927078 0 -0.014251315808029307 0.0090871758152927078 0 -0.01393143444282627 0.0092873025402610103 0 -0.013584979471147807 0.0090710794811204257 0 -0.014216525258733853 0.0093244123873753686 0 -0.013740983674690907 0.0095578764877030861 0 -0.014413246635563044 0.0095110525392396277 0 -0.01393143444282627 0.0092873025402610103 0 -0.013584979471147807 0.0090710794811204257 0 -0.013740983674690907 0.0095578764877030861 0 -0.014251315808029307 0.0090871758152927078 0 -0.014216525258733853 0.0093244123873753686 0 -0.01393143444282627 0.0092873025402610103 0 -0.014216525258733853 0.0093244123873753686 0 -0.01393143444282627 0.0092873025402610103 0 -0.013740983674690907 0.0095578764877030861 0 -0.013584979471147807 0.0090710794811204257 0 -0.012960019958065965 0.0090322596187733979 0 -0.013740983674690907 0.0095578764877030861 0 -0.013976139443899166 0.0087406247890901463 0 -0.014242934908550837 0.0090433810632089759 0 -0.01310998099845165 0.0081664168198081286 0 -0.014251315808029307 0.0090871758152927078 0 -0.013584979471147807 0.0090710794811204257 0 -0.01310998099845165 0.0081664168198081286 0 -0.013584979471147807 0.0090710794811204257 0 -0.012960019958065965 0.0090322596187733979 0 -0.01244215744438704 0.0082393691708674902 0 -0.01310998099845165 0.0081664168198081286 0 -0.012960019958065965 0.0090322596187733979 0 -0.01270291148830892 0.0099490147733627705 0 -0.013740983674690907 0.0095578764877030861 0 -0.01370172226932163 0.010247901399175656 0 -0.012960019958065965 0.0090322596187733979 0 -0.01270291148830892 0.0099490147733627705 0 -0.013740983674690907 0.0095578764877030861 0 -0.01370172226932163 0.010247901399175656 0 -0.014413246635563044 0.0095110525392396277 0 -0.014708546784500044 0.010522534516961817 0 -0.013740983674690907 0.0095578764877030861 0 -0.01370172226932163 0.010247901399175656 0 -0.014413246635563044 0.0095110525392396277 0 -0.011071436260505904 0.0085525397529914934 0 -0.010373957443218049 0.0088060013396346823 0 -0.010230667497389484 0.0095965345837873989 0 -0.011394051138595858 0.0081442433463324495 0 -0.011572237101280969 0.0095011996993501456 0 -0.010230667497389484 0.0095965345837873989 0 -0.011113021686361701 0.0088600139311452563 0 -0.010355985375165088 0.0093428163089971667 0 -0.011113021686361701 0.0088600139311452563 0 -0.012949255328347039 0.0088441011174149528 0 -0.01244215744438704 0.0082393691708674902 0 -0.011542857025018309 0.0082612757456106568 0 -0.012960019958065965 0.0090322596187733979 0 -0.011394051138595858 0.0081442433463324495 0 -0.012960019958065965 0.0090322596187733979 0 -0.011572237101280969 0.0095011996993501456 0 -0.012960019958065965 0.0090322596187733979 0 -0.01270291148830892 0.0099490147733627705 0 -0.011572237101280969 0.0095011996993501456 0 -0.01270291148830892 0.0099490147733627705 0 -0.011572237101280969 0.0095011996993501456 0 -0.011770703203460384 0.010231103186026907 0 -0.011572237101280969 0.0095011996993501456 0 -0.011770703203460384 0.010231103186026907 0 -0.01098818716070578 0.01003525852536725 0 -0.011572237101280969 0.0095011996993501456 0 -0.01098818716070578 0.01003525852536725 0 -0.010230667497389484 0.0095965345837873989 0 -0.01098818716070578 0.01003525852536725 0 -0.010230667497389484 0.0095965345837873989 0 -0.010431862890577424 0.010255236126775109 0 -0.0097614260211152069 0.0099762530332086988 0 -0.010230667497389484 0.0095965345837873989 0 -0.010431862890577424 0.010255236126775109 0 -0.0097614260211152069 0.0099762530332086988 0 -0.010230667497389484 0.0095965345837873989 0 -0.0098903491251714128 0.0089407819663515561 0 -0.0086815399884363174 0.0080718773687376774 0 -0.0070060148115458042 0.0051906403362496911 0 -0.0065595430980717635 0.0086139252395951212 0 -0.0073713496974745288 0.0073368572699810839 0 -0.0063310666595730617 0.0081121161592679486 0 -0.009316399135622792 0.0090001019795877771 0 -0.0073713496974745288 0.0073368572699810839 0 -0.0090412481725681716 0.0087494682279384839 0 -0.0098903491251714128 0.0089407819663515561 0 -0.0095888060831759037 0.0084912248572976603 0 -0.0097614260211152069 0.0099762530332086988 0 -0.0090412481725681716 0.0087494682279384839 0 -0.0098903491251714128 0.0089407819663515561 0 -0.010373957443218049 0.0088060013396346823 0 -0.010230667497389484 0.0095965345837873989 0 -0.0098903491251714128 0.0089407819663515561 0 -0.010302302417182229 0.0081347243629344285 0 -0.0095888060831759037 0.0084912248572976603 0 -0.0091176574241678948 0.008143783573708532 0 -0.010373957443218049 0.0088060013396346823 0 -0.0098903491251714128 0.0089407819663515561 0 -0.010302302417182229 0.0081347243629344285 0 -0.0098903491251714128 0.0089407819663515561 0 -0.010302302417182229 0.0081347243629344285 0 -0.0095888060831759037 0.0084912248572976603 0 -0.010220732865605913 0.010288394451749807 0 -0.0080819523235034305 0.0093881967003083752 0 -0.0097237640146902986 0.010398674900250576 0 -0.0082572032491981147 0.010423303346099418 0 -0.0083476450264599652 0.0096627032161355399 0 -0.0090412481725681716 0.0087494682279384839 0 -0.0095888060831759037 0.0084912248572976603 0 -0.0091176574241678948 0.008143783573708532 0 -0.0072366275679839288 0.0080677722560423045 0 -0.0071247613315207296 0.009009343999800877 0 -0.0077600604134726078 0.0089988457662376377 0 -0.0073713496974745288 0.0073368572699810839 0 -0.0080819523235034305 0.0093881967003083752 0 -0.0073713496974745288 0.0073368572699810839 0 -0.0066615627982449842 0.0092617380241791017 0 -0.0070468928609262538 0.010699220593350663 0 -0.007022374137104926 0.010681037793799612 0 -0.0070028105793984424 0.01069529958761868 0 -0.0070468928609262538 0.010699220593350663 0 -0.007022374137104926 0.010681037793799612 0 -0.0070467121160433816 0.010647938624700213 0 -0.0080819523235034305 0.0093881967003083752 0 -0.0066615627982449842 0.0092617380241791017 0 -0.0080819523235034305 0.0093881967003083752 0 -0.0079265354143384682 0.010767087687738274 0 -0.0070468928609262538 0.010699220593350663 0 -0.0070672602627816928 0.010631582984562732 0 -0.0070467121160433816 0.010647938624700213 0 -0.007022374137104926 0.010681037793799612 0 -0.0070467121160433816 0.010647938624700213 0 -0.0069935509911602965 0.010680805100762088 0 -0.0070672602627816928 0.010631582984562732 0 -0.0069756803654537946 0.01065400319172741 0 -0.0068759805355429263 0.010588364779188357 0 -0.0070672602627816928 0.010631582984562732 0 -0.0070467121160433816 0.010647938624700213 0 -0.0069756803654537946 0.01065400319172741 0 -0.010163167004280304 0.010735279056194098 0 -0.010097543939100234 0.011172792248180581 0 -0.0095684140085557784 0.010907460531248832 0 -0.010220732865605913 0.010288394451749807 0 -0.0079265354143384682 0.010767087687738274 0 -0.0063618309817997992 0.010970176032175337 0 -0.0064971437352151391 0.010945594572049126 0 -0.0063159500990781813 0.010731500269251303 0 -0.0067280351026883347 0.010455941629715212 0 -0.0065549543251697626 0.01066675576863135 0 -0.0066444975432886815 0.010773739558224582 0 -0.0067454369982971191 0.010786219213166937 0 -0.0066872073539453389 0.010708065510169245 0 -0.0067454369982971191 0.010786219213166937 0 -0.0066872073539453389 0.010708065510169245 0 -0.0067775511039843625 0.010739045613574437 0 -0.0066444975432886815 0.010773739558224582 0 -0.0067454369982971191 0.010786219213166937 0 -0.0066772353597089563 0.010881790280258258 0 -0.0067454369982971191 0.010786219213166937 0 -0.0066772353597089563 0.010881790280258258 0 -0.0068257680627985037 0.010866247366828582 0 -0.0066444975432886815 0.010773739558224582 0 -0.0066772353597089563 0.010881790280258258 0 -0.00653339776479728 0.010818316025623683 0 -0.0063159500990781813 0.010731500269251303 0 -0.00653339776479728 0.010818316025623683 0 -0.0065549543251697626 0.01066675576863135 0 -0.0063159500990781813 0.010731500269251303 0 -0.00653339776479728 0.010818316025623683 0 -0.0064302587204591814 0.011035829160739979 0 -0.0066444975432886815 0.010773739558224582 0 -0.00653339776479728 0.010818316025623683 0 -0.0065549543251697626 0.01066675576863135 0 -0.0067272817578871609 0.010486700571528952 0 -0.0066969235380034001 0.010636499399727162 0 -0.0067775511039843625 0.010739045613574437 0 -0.0067272817578871609 0.010486700571528952 0 -0.0065549543251697626 0.01066675576863135 0 -0.0066969235380034001 0.010636499399727162 0 -0.0066444975432886815 0.010773739558224582 0 -0.0065549543251697626 0.01066675576863135 0 -0.0066872073539453389 0.010708065510169245 0 -0.0065549543251697626 0.01066675576863135 0 -0.0066872073539453389 0.010708065510169245 0 -0.0066969235380034001 0.010636499399727162 0 -0.0066872073539453389 0.010708065510169245 0 -0.0066969235380034001 0.010636499399727162 0 -0.0067775511039843625 0.010739045613574437 0 -0.0067280351026883347 0.010455941629715212 0 -0.0070672602627816928 0.010631582984562732 0 -0.0068759805355429263 0.010588364779188357 0 -0.0068150858104784624 0.010698123388100372 0 -0.0068284313151095871 0.010349201733972394 0 -0.0064971437352151391 0.010945594572049126 0 -0.0079265354143384682 0.010767087687738274 0 -0.0067272817578871609 0.010486700571528952 0 -0.0068759805355429263 0.010588364779188357 0 -0.0069047293946681281 0.010758768349748985 0 -0.0067272817578871609 0.010486700571528952 0 -0.0067775511039843625 0.010739045613574437 0 -0.0069823651600086139 0.010950441453737792 0 -0.0069756803654537946 0.01065400319172741 0 -0.0068759805355429263 0.010588364779188357 0 -0.0069047293946681281 0.010758768349748985 0 -0.0070467121160433816 0.010647938624700213 0 -0.0069756803654537946 0.01065400319172741 0 -0.0069047293946681281 0.010758768349748985 0 -0.0069564814815198878 0.010611065348971592 0 -0.0068284313151095871 0.010349201733972394 0 -0.0067775511039843625 0.010739045613574437 0 -0.0068257680627985037 0.010866247366828582 0 -0.0069823651600086139 0.010950441453737792 0 -0.0067454369982971191 0.010786219213166937 0 -0.0067775511039843625 0.010739045613574437 0 -0.0068257680627985037 0.010866247366828582 0 -0.0066772353597089563 0.010881790280258258 0 -0.0068257680627985037 0.010866247366828582 0 -0.0068855326733010527 0.011020982820704153 0 -0.0057616343838403699 0.007140996087446237 0 -0.005912015327102756 0.007409345931188898 0 -0.0056167121645766954 0.0076890038030065014 0 -0.0068257680627985037 0.010866247366828582 0 -0.0068855326733010527 0.011020982820704153 0 -0.0069823651600086139 0.010950441453737792 0 -0.007022374137104926 0.010681037793799612 0 -0.0069935509911602965 0.010680805100762088 0 -0.0070028105793984424 0.01069529958761868 0 -0.0064589484127005672 0.0098940580401849377 0 -0.0066615627982449842 0.0092617380241791017 0 -0.0064589484127005672 0.0098940580401849377 0 -0.0068284313151095871 0.010349201733972394 0 -0.0065075519147390097 0.0097621073530759616 0 -0.0068521272194429954 0.0095081117114467692 0 -0.0069917855267326943 0.0097527288449957197 0 -0.0068284313151095871 0.010349201733972394 0 -0.0066615627982449842 0.0092617380241791017 0 -0.0061958890133578569 0.0074150782236656436 0 -0.0059576736068397071 0.007133696736227161 0 -0.005912015327102756 0.007409345931188898 0 -0.0057616343838403699 0.007140996087446237 0 -0.0059576736068397071 0.007133696736227161 0 -0.005912015327102756 0.007409345931188898 0 -0.0059976941296956913 0.011054183215209045 0 -0.0060645760210797702 0.011005363691950478 0 -0.0060087746981113107 0.011021184219042317 0 -0.0054339470032464584 0.0093816864346520264 0 -0.0064589484127005672 0.0098940580401849377 0 -0.0066772353597089563 0.010881790280258258 0 -0.0068855326733010527 0.011020982820704153 0 -0.0064302587204591814 0.011035829160739979 0 -0.0064589484127005672 0.0098940580401849377 0 -0.0062184852557331848 0.011094326823325118 0 -0.0066772353597089563 0.010881790280258258 0 -0.00653339776479728 0.010818316025623683 0 -0.0064302587204591814 0.011035829160739979 0 -0.0051929509736237953 0.0078798914988873689 0 -0.0056167121645766954 0.0076890038030065014 0 -0.0052913123826982423 0.0079871567692635891 0 -0.0051929509736237953 0.0078798914988873689 0 -0.0057616343838403699 0.007140996087446237 0 -0.0056167121645766954 0.0076890038030065014 0 -0.0056167121645766954 0.0076890038030065014 0 -0.0056159284115961418 0.0079863131610168527 0 -0.0052913123826982423 0.0079871567692635891 0 -0.0061958890133578569 0.0074150782236656436 0 -0.005912015327102756 0.007409345931188898 0 -0.0059833565642724452 0.0077879474742369665 0 -0.005912015327102756 0.007409345931188898 0 -0.0056167121645766954 0.0076890038030065014 0 -0.0059833565642724452 0.0077879474742369665 0 -0.0056167121645766954 0.0076890038030065014 0 -0.0059833565642724452 0.0077879474742369665 0 -0.0056159284115961418 0.0079863131610168527 0 -0.0059833565642724452 0.0077879474742369665 0 -0.0056159284115961418 0.0079863131610168527 0 -0.0065595430980717635 0.0086139252395951212 0 -0.0061958890133578569 0.0074150782236656436 0 -0.0059833565642724452 0.0077879474742369665 0 -0.0065595430980717635 0.0086139252395951212 0 -0.0056159284115961418 0.0079863131610168527 0 -0.0051799824620574787 0.0082284567932274892 0 -0.0065595430980717635 0.0086139252395951212 0 -0.0053109420961439859 0.0079787683736949853 0 -0.0052913123826982423 0.0079871567692635891 0 -0.0051799824620574787 0.0082284567932274892 0 -0.0056159284115961418 0.0079863131610168527 0 -0.0052913123826982423 0.0079871567692635891 0 -0.0051799824620574787 0.0082284567932274892 0 -0.0053109420961439859 0.0079787683736949853 0 -0.0051799824620574787 0.0082284567932274892 0 -0.0051150831558460438 0.0077951329886694846 0 -0.0051799824620574787 0.0082284567932274892 0 -0.0051150831558460438 0.0077951329886694846 0 -0.0045136009264448631 0.0075977578765291992 0 -0.0051799824620574787 0.0082284567932274892 0 -0.0059243414798405792 0.010344647547762629 0 -0.0065595430980717635 0.0086139252395951212 0 -0.0051216469401646099 0.0082059496088820218 0 -0.0051606909439555803 0.0092738712983126848 0 -0.0051606909439555803 0.0092738712983126848 0 -0.0077657021749704619 0.0073846043457810942 0 -0.0045136009264448631 0.0075977578765291992 0 -0.0044790276328419308 0.0072537332612772776 0 -0.0041214040665366602 0.0069678639282318485 0 -0.0044790276328419308 0.0072537332612772776 0 -0.0048982272640331484 0.0073563087884691361 0 -0.0046258922492882822 0.0070754881890085809 0 -0.0045136009264448631 0.0075977578765291992 0 -0.0044790276328419308 0.0072537332612772776 0 -0.0048982272640331484 0.0073563087884691361 0 -0.0051150831558460438 0.0077951329886694846 0 -0.0045136009264448631 0.0075977578765291992 0 -0.0048982272640331484 0.0073563087884691361 0 -0.0048982272640331484 0.0073563087884691361 0 -0.0051060942849364714 0.0070974651805931514 0 -0.0052946777791017105 0.0075755196445408002 0 -0.0051150831558460438 0.0077951329886694846 0 -0.0048982272640331484 0.0073563087884691361 0 -0.0052946777791017105 0.0075755196445408002 0 -0.0048982272640331484 0.0073563087884691361 0 -0.0051060942849364714 0.0070974651805931514 0 -0.0048416629185422796 0.0069880300012894487 0 -0.0051060942849364714 0.0070974651805931514 0 -0.0049267581278096871 0.0067107272870396469 0 -0.0048416629185422796 0.0069880300012894487 0 -0.0051060942849364714 0.0070974651805931514 0 -0.0049267581278096871 0.0067107272870396469 0 -0.0052362245077466592 0.0067076654733344782 0 -0.0047482072172036153 0.0067311618092254014 0 -0.0048416629185422796 0.0069880300012894487 0 -0.00462393127633567 0.0068556064106593288 0 -0.0049267581278096871 0.0067107272870396469 0 -0.0047482072172036153 0.0067311618092254014 0 -0.0048416629185422796 0.0069880300012894487 0 -0.0048982272640331484 0.0073563087884691361 0 -0.0048416629185422796 0.0069880300012894487 0 -0.0046258922492882822 0.0070754881890085809 0 -0.0048416629185422796 0.0069880300012894487 0 -0.0046258922492882822 0.0070754881890085809 0 -0.00462393127633567 0.0068556064106593288 0 -0.0046258922492882822 0.0070754881890085809 0 -0.0044999346962684931 0.0069435810877834948 0 -0.0043935424927026888 0.0070923256596409565 0 -0.0044790276328419308 0.0072537332612772776 0 -0.0046258922492882822 0.0070754881890085809 0 -0.0043935424927026888 0.0070923256596409565 0 -0.0046258922492882822 0.0070754881890085809 0 -0.0044999346962684931 0.0069435810877834948 0 -0.00462393127633567 0.0068556064106593288 0 -0.0043935424927026888 0.0070923256596409565 0 -0.0042491839355632537 0.0069832634550069947 0 -0.0041214040665366602 0.0069678639282318485 0 -0.0044790276328419308 0.0072537332612772776 0 -0.0043935424927026888 0.0070923256596409565 0 -0.0041214040665366602 0.0069678639282318485 0 -0.0044999346962684931 0.0069435810877834948 0 -0.0043935424927026888 0.0070923256596409565 0 -0.0043713494964762664 0.006917461723177208 0 -0.0042491839355632537 0.0069832634550069947 0 -0.0042668680278737494 0.0068974898683655259 0 -0.0043713494964762664 0.006917461723177208 0 -0.0043935424927026888 0.0070923256596409565 0 -0.0042491839355632537 0.0069832634550069947 0 -0.0043713494964762664 0.006917461723177208 0 -0.0042668680278737494 0.0068974898683655259 0 -0.0042864735751518635 0.0067423503712181259 0 -0.0041356370384467971 0.0069684096486480598 0 -0.0042668680278737494 0.0068974898683655259 0 -0.0043713494964762664 0.006917461723177208 0 -0.0042864735751518635 0.0067423503712181259 0 -0.0044999346962684931 0.0069435810877834948 0 -0.0043713494964762664 0.006917461723177208 0 -0.0044602469139019881 0.006769552295988082 0 -0.0043713494964762664 0.006917461723177208 0 -0.0042864735751518635 0.0067423503712181259 0 -0.0044602469139019881 0.006769552295988082 0 -0.0042864735751518635 0.0067423503712181259 0 -0.0044602469139019881 0.006769552295988082 0 -0.0043999341072490259 0.006557669093414588 0 -0.0044999346962684931 0.0069435810877834948 0 -0.00462393127633567 0.0068556064106593288 0 -0.0044602469139019881 0.006769552295988082 0 -0.00462393127633567 0.0068556064106593288 0 -0.0044602469139019881 0.006769552295988082 0 -0.0045659142752050427 0.006625430267303941 0 -0.0047482072172036153 0.0067311618092254014 0 -0.00462393127633567 0.0068556064106593288 0 -0.0045659142752050427 0.006625430267303941 0 -0.0042864735751518635 0.0067423503712181259 0 -0.0043999341072490259 0.006557669093414588 0 -0.0042753703802388089 0.0061788082459750052 0 -0.0077657021749704619 0.0073846043457810942 0 -0.0063803376665062467 0.0062645186634967247 0 -0.0042864735751518635 0.0067423503712181259 0 -0.0041356370384467971 0.0069684096486480598 0 -0.0042753703802388089 0.0061788082459750052 0 -0.0044602469139019881 0.006769552295988082 0 -0.0045659142752050427 0.006625430267303941 0 -0.0043999341072490259 0.006557669093414588 0 -0.0045659142752050427 0.006625430267303941 0 -0.0043999341072490259 0.006557669093414588 0 -0.004511181660324195 0.0063965206960949136 0 -0.0045659142752050427 0.006625430267303941 0 -0.004511181660324195 0.0063965206960949136 0 -0.0047099255809229974 0.0064690654406543494 0 -0.0043999341072490259 0.006557669093414588 0 -0.004511181660324195 0.0063965206960949136 0 -0.0042753703802388089 0.0061788082459750052 0 -0.004511181660324195 0.0063965206960949136 0 -0.004606823989509061 0.0061521921262489253 0 -0.0042753703802388089 0.0061788082459750052 0 -0.004511181660324195 0.0063965206960949136 0 -0.0047099255809229974 0.0064690654406543494 0 -0.004606823989509061 0.0061521921262489253 0 -0.004798878344935825 0.0062708840362670744 0 -0.0047099255809229974 0.0064690654406543494 0 -0.004606823989509061 0.0061521921262489253 0 -0.004798878344935825 0.0062708840362670744 0 -0.0050180836827556571 0.0064133413224644019 0 -0.0048984588430206919 0.0060741796627682056 0 -0.004798878344935825 0.0062708840362670744 0 -0.0050180836827556571 0.0064133413224644019 0 -0.0047099255809229974 0.0064690654406543494 0 -0.0049267581278096871 0.0067107272870396469 0 -0.0050180836827556571 0.0064133413224644019 0 -0.0047099255809229974 0.0064690654406543494 0 -0.0049267581278096871 0.0067107272870396469 0 -0.0050180836827556571 0.0064133413224644019 0 -0.0052362245077466592 0.0067076654733344782 0 -0.0047482072172036153 0.0067311618092254014 0 -0.0045659142752050427 0.006625430267303941 0 -0.0047099255809229974 0.0064690654406543494 0 -0.0049267581278096871 0.0067107272870396469 0 -0.0047482072172036153 0.0067311618092254014 0 -0.0047099255809229974 0.0064690654406543494 0 -0.0097736753164412542 0.0061214337423729078 0 -0.010638934124800546 0.0064041554881152834 0 -0.010047411397015737 0.0066821574048111874 0 -0.010540153179966847 0.0060675614396080166 0 -0.010870460159087499 0.0067030446033412971 0 -0.0095316172728971294 0.0060897337163896151 0 -0.0092130197054226017 0.0061038701973984847 0 -0.0093263711675696248 0.0062974730657237308 0 -0.0094235872670854533 0.0061181172413887694 0 -0.0092130197054226017 0.0061038701973984847 0 -0.0091653271492225415 0.0056491915959589285 0 -0.0097736753164412542 0.0061214337423729078 0 -0.0077657021749704619 0.0073846043457810942 0 -0.0097736753164412542 0.0061214337423729078 0 -0.0092646947230560026 0.0060974481844078996 0 -0.0092130197054226017 0.0061038701973984847 0 -0.0091653271492225415 0.0056491915959589285 0 -0.0089836111282718227 0.0061853270322346854 0 -0.0071871539707300007 0.012602279206484813 0 -0.0072502533672175245 0.01139946846679411 0 -0.0078030125249530053 0.0117324942105341 0 -0.0061715389539899225 0.0071742681216835878 0 -0.0077657021749704619 0.0073846043457810942 0 -0.0042491839355632537 0.0069832634550069947 0 -0.0042668680278737494 0.0068974898683655259 0 -0.0041356370384467971 0.0069684096486480598 0 -0.0071871539707300007 0.012602279206484813 0 -0.0087023789562352231 0.01196450009507799 0 -0.0078030125249530053 0.0117324942105341 0 -0.0071871539707300007 0.012602279206484813 0 -0.010005132851770486 0.012703607555955896 0 -0.0087023789562352231 0.01196450009507799 0 -0.0077657021749704619 0.0073846043457810942 0 -0.01041417906512611 0.0096202754843055949 0 -0.010047411397015737 0.0066821574048111874 0 -0.009640866432336968 0.0059568511615936612 0 -0.010540153179966847 0.0060675614396080166 0 -0.010005132851770486 0.012703607555955896 0 -0.0087023789562352231 0.01196450009507799 0 -0.010322338342351354 0.011142065337309815 0 -0.0087023789562352231 0.01196450009507799 0 -0.0080797051048978538 0.010820433483241727 0 -0.010322338342351354 0.011142065337309815 0 -0.0080797051048978538 0.010820433483241727 0 -0.0079060253771822912 0.0095134313628208039 0 -0.010322338342351354 0.011142065337309815 0 -0.0059243414798405792 0.010344647547762629 0 -0.0080797051048978538 0.010820433483241727 0 -0.0079060253771822912 0.0095134313628208039 0 -0.0059243414798405792 0.010344647547762629 0 -0.0072502533672175245 0.01139946846679411 0 -0.0080797051048978538 0.010820433483241727 0 -0.0059243414798405792 0.010344647547762629 0 -0.0071871539707300007 0.012602279206484813 0 -0.0072502533672175245 0.01139946846679411 0 -0.0072502533672175245 0.01139946846679411 0 -0.0078030125249530053 0.0117324942105341 0 -0.0080797051048978538 0.010820433483241727 0 -0.0087023789562352231 0.01196450009507799 0 -0.0078030125249530053 0.0117324942105341 0 -0.0080797051048978538 0.010820433483241727 0 -0.0059243414798405792 0.010344647547762629 0 -0.0079060253771822912 0.0095134313628208039 0 -0.0065595430980717635 0.0086139252395951212 0 -0.0086815399884363174 0.0080718773687376774 0 -0.0079060253771822912 0.0095134313628208039 0 -0.0065595430980717635 0.0086139252395951212 0 -0.009316399135622792 0.0090001019795877771 0 -0.010255656889874658 0.011048656413859447 0 -0.0097614260211152069 0.0099762530332086988 0 -0.010431862890577424 0.010255236126775109 0 -0.010322338342351354 0.011142065337309815 0 -0.0086815399884363174 0.0080718773687376774 0 -0.0079060253771822912 0.0095134313628208039 0 -0.010322338342351354 0.011142065337309815 0 -0.010431862890577424 0.010255236126775109 0 -0.011014028756775703 0.010583911412226591 0 -0.010322338342351354 0.011142065337309815 0 -0.01098818716070578 0.01003525852536725 0 -0.010431862890577424 0.010255236126775109 0 -0.011014028756775703 0.010583911412226591 0 -0.011770703203460384 0.010231103186026907 0 -0.01098818716070578 0.01003525852536725 0 -0.011014028756775703 0.010583911412226591 0 -0.011770703203460384 0.010231103186026907 0 -0.011014028756775703 0.010583911412226591 0 -0.012705245873660004 0.0112083243216762 0 -0.01270291148830892 0.0099490147733627705 0 -0.011770703203460384 0.010231103186026907 0 -0.012705245873660004 0.0112083243216762 0 -0.011135927833936268 0.010636089850924386 0 -0.012422908602541154 0.011005569499154079 0 -0.011377966081987326 0.011553195819918162 0 -0.01221262033595619 0.010861223206294471 0 -0.012553461371341204 0.011844428930251448 0 -0.011014028756775703 0.010583911412226591 0 -0.011377966081987326 0.011553195819918162 0 -0.01221262033595619 0.010861223206294471 0 -0.011014028756775703 0.010583911412226591 0 -0.011377966081987326 0.011553195819918162 0 -0.010322338342351354 0.011142065337309815 0 -0.010005132851770486 0.012703607555955896 0 -0.011377966081987326 0.011553195819918162 0 -0.010322338342351354 0.011142065337309815 0 -0.01370172226932163 0.010247901399175656 0 -0.014175053119185873 0.011522860658551274 0 -0.014708546784500044 0.010522534516961817 0 -0.01370172226932163 0.010247901399175656 0 -0.012705245873660004 0.0112083243216762 0 -0.014175053119185873 0.011522860658551274 0 -0.01270291148830892 0.0099490147733627705 0 -0.01370172226932163 0.010247901399175656 0 -0.012705245873660004 0.0112083243216762 0 -0.01221262033595619 0.010861223206294471 0 -0.013397050585522496 0.011185954244523467 0 -0.012553461371341204 0.011844428930251448 0 -0.012422908602541154 0.011005569499154079 0 -0.013843306579342214 0.011451380588014211 0 -0.013397050585522496 0.011185954244523467 0 -0.013211236730831752 0.01201692035776313 0 -0.012553461371341204 0.011844428930251448 0 -0.013397050585522496 0.011185954244523467 0 -0.013211236730831752 0.01201692035776313 0 -0.013856911193763701 0.01211235104754035 0 -0.013211236730831752 0.01201692035776313 0 -0.012553461371341204 0.011844428930251448 0 -0.013125872057689305 0.012674519736415918 0 -0.013211236730831752 0.01201692035776313 0 -0.013125872057689305 0.012674519736415918 0 -0.013856911193763701 0.01211235104754035 0 -0.012553461371341204 0.011844428930251448 0 -0.013125872057689305 0.012674519736415918 0 -0.011751758713088317 0.012639974241806382 0 -0.012689727883154202 0.0095494348867350941 0 -0.011521138053468509 0.0093672943445414197 0 -0.012187621737566053 0.0062490667042954728 0 -0.011412913045584006 0.0061693623244100946 0 -0.011657614708192633 0.0066789848494525836 0 -0.012187621737566053 0.0062490667042954728 0 -0.012336687211496654 0.0066005746679489536 0 -0.011657614708192633 0.0066789848494525836 0 -0.012187621737566053 0.0062490667042954728 0 -0.012336687211496654 0.0066005746679489536 0 -0.012777266611995953 0.0062707880299406413 0 -0.01041417906512611 0.0096202754843055949 0 -0.011521138053468509 0.0093672943445414197 0 -0.010005132851770486 0.012703607555955896 0 -0.011377966081987326 0.011553195819918162 0 -0.011751758713088317 0.012639974241806382 0 -0.011377966081987326 0.011553195819918162 0 -0.012553461371341204 0.011844428930251448 0 -0.011751758713088317 0.012639974241806382 0 -0.011412913045584006 0.0061693623244100946 0 -0.010870460159087499 0.0067030446033412971 0 -0.011657614708192633 0.0066789848494525836 0 -0.010638934124800546 0.0064041554881152834 0 -0.011458011000222904 0.0064033081308344508 0 -0.010540153179966847 0.0060675614396080166 0 -0.011412913045584006 0.0061693623244100946 0 -0.010870460159087499 0.0067030446033412971 0 -0.010143164937631682 0.0063955909610458189 0 -0.01066280457817744 0.0064978012475767647 0 -0.010270349059201121 0.0068101915748548731 0 -0.010399410697479815 0.006062215453238224 0 -0.010143164937631682 0.0063955909610458189 0 -0.01066280457817744 0.0064978012475767647 0 -0.010399410697479815 0.006062215453238224 0 -0.01066280457817744 0.0064978012475767647 0 -0.011279239627667576 0.0061337674237062932 0 -0.01066280457817744 0.0064978012475767647 0 -0.011111345048407039 0.0067559736598728545 0 -0.011279239627667576 0.0061337674237062932 0 -0.01066280457817744 0.0064978012475767647 0 -0.011111345048407039 0.0067559736598728545 0 -0.010270349059201121 0.0068101915748548731 0 -0.010679030461330303 0.0045418260898577425 0 -0.010451906531902767 0.0045614148047409429 0 -0.010408214255503697 0.0023468859068690824 0 -0.010830839897195603 0.0022908513646399255 0 -0.010576161385374183 0.0020701321345017445 0 -0.010408214255503697 0.0023468859068690824 0 -0.010329440826291563 0.0020468245618564286 0 -0.010576161385374183 0.0020701321345017445 0 -0.010830839897195603 0.0022908513646399255 0 -0.010801653721451518 0.0020428026629551494 0 -0.010576161385374183 0.0020701321345017445 0 -0.010830839897195603 0.0022908513646399255 0 -0.010801653721451518 0.0020428026629551494 0 -0.011021461902990165 0.002024737287818012 0 -0.012150701844630036 0.006252471051835214 0 -0.012057506009342987 0.0063271081066364832 0 -0.011279239627667576 0.0061337674237062932 0 -0.012260752547915891 0.0065304784955032271 0 -0.011955236573066944 0.0067036667981713004 0 -0.01244792100876535 0.0066661974714857693 0 -0.011468841252639379 0.0046972885100890413 0 -0.012601798502259372 0.0052462483629620782 0 -0.012260752547915891 0.0065304784955032271 0 -0.012175752195437883 0.0064283630445558888 0 -0.011955236573066944 0.0067036667981713004 0 -0.012260752547915891 0.0065304784955032271 0 -0.012315449897236966 0.0064866305247734801 0 -0.012175752195437883 0.0064283630445558888 0 -0.012315449897236966 0.0064866305247734801 0 -0.012150701844630036 0.006252471051835214 0 -0.012175752195437883 0.0064283630445558888 0 -0.012150701844630036 0.006252471051835214 0 -0.012175752195437883 0.0064283630445558888 0 -0.012057506009342987 0.0063271081066364832 0 -0.011688324729925313 0.0066627687841883613 0 -0.011468841252639379 0.0046972885100890413 0 -0.012057506009342987 0.0063271081066364832 0 -0.011618297818726182 0.0064373664360036602 0 -0.011937070687291084 0.0066946840802301283 0 -0.012175752195437883 0.0064283630445558888 0 -0.012057506009342987 0.0063271081066364832 0 -0.011955236573066944 0.0067036667981713004 0 -0.011111345048407039 0.0067559736598728545 0 -0.011279239627667576 0.0061337674237062932 0 -0.011618297818726182 0.0064373664360036602 0 -0.011111345048407039 0.0067559736598728545 0 -0.011618297818726182 0.0064373664360036602 0 -0.011937070687291084 0.0066946840802301283 0 -0.012057506009342987 0.0063271081066364832 0 -0.011279239627667576 0.0061337674237062932 0 -0.011618297818726182 0.0064373664360036602 0 -0.012232817389000167 0.0064292456221401147 0 -0.011458011000222904 0.0064033081308344508 0 -0.010679030461330303 0.0045418260898577425 0 -0.011468841252639379 0.0046972885100890413 0 -0.010408214255503697 0.0023468859068690824 0 -0.01022168934477651 0.0022631822005607476 0 -0.0099799193340381221 0.0024081591748213948 0 -0.010408214255503697 0.0023468859068690824 0 -0.01022168934477651 0.0022631822005607476 0 -0.010329440826291563 0.0020468245618564286 0 -0.01022168934477651 0.0022631822005607476 0 -0.010155665211547635 0.0020767373891906827 0 -0.010329440826291563 0.0020468245618564286 0 -0.01022168934477651 0.0022631822005607476 0 -0.010119586603144321 0.0022170587175698868 0 -0.010155665211547635 0.0020767373891906827 0 -0.010119586603144321 0.0022170587175698868 0 -0.010040068878664153 0.0021445032790053976 0 -0.010155665211547635 0.0020767373891906827 0 -0.01022168934477651 0.0022631822005607476 0 -0.010119586603144321 0.0022170587175698868 0 -0.0099799193340381221 0.0024081591748213948 0 -0.010119586603144321 0.0022170587175698868 0 -0.0099799193340381221 0.0024081591748213948 0 -0.010040068878664153 0.0021445032790053976 0 -0.012397744501939497 0.003856348093848948 0 -0.012364603775000598 0.0039704310811279533 0 -0.01249754063680992 0.003943445579944845 0 -0.011468841252639379 0.0046972885100890413 0 -0.011754274816630267 0.0027563850232793291 0 -0.012397744501939497 0.003856348093848948 0 -0.01249754063680992 0.003943445579944845 0 -0.012548088701729807 0.0038458205507665632 0 -0.012364603775000598 0.0039704310811279533 0 -0.01249754063680992 0.003943445579944845 0 -0.012542060543153117 0.0040896269453253066 0 -0.011754274816630267 0.0027563850232793291 0 -0.012387704575152479 0.0031845927230451797 0 -0.012078942066948739 0.0021921636369445817 0 -0.012080380888354759 0.0021698903962001008 0 -0.012075084215052441 0.0021814083560523427 0 -0.011754274816630267 0.0027563850232793291 0 -0.011025600923817352 0.00183815338133712 0 -0.010329440826291563 0.0020468245618564286 0 -0.010166480541497599 0.0016433312429211856 0 -0.010453701775592629 0.0018380683426993231 0 -0.010155665211547635 0.0020767373891906827 0 -0.010329440826291563 0.0020468245618564286 0 -0.010166480541497599 0.0016433312429211856 0 -0.010040068878664153 0.0021445032790053976 0 -0.010155665211547635 0.0020767373891906827 0 -0.010166480541497599 0.0016433312429211856 0 -0.012080380888354759 0.0021698903962001008 0 -0.012075084215052441 0.0021814083560523427 0 -0.012075440095056299 0.0021671175900246234 0 -0.012080380888354759 0.0021698903962001008 0 -0.012075440095056299 0.0021671175900246234 0 -0.01207728777665913 0.002161299306711985 0 -0.010655333690412626 0.0018214153574444233 0 -0.010801653721451518 0.0020428026629551494 0 -0.010870776690832829 0.0017443673065043483 0 -0.010801653721451518 0.0020428026629551494 0 -0.010870776690832829 0.0017443673065043483 0 -0.011021461902990165 0.002024737287818012 0 -0.010655333690412626 0.0018214153574444233 0 -0.010801653721451518 0.0020428026629551494 0 -0.010576161385374183 0.0020701321345017445 0 -0.010329440826291563 0.0020468245618564286 0 -0.010576161385374183 0.0020701321345017445 0 -0.010453701775592629 0.0018380683426993231 0 -0.010655333690412626 0.0018214153574444233 0 -0.010576161385374183 0.0020701321345017445 0 -0.010453701775592629 0.0018380683426993231 0 -0.010166480541497599 0.0016433312429211856 0 -0.010516261157573923 0.0016130163091613975 0 -0.010452001553580928 0.0013733582747059957 0 -0.010655333690412626 0.0018214153574444233 0 -0.010453701775592629 0.0018380683426993231 0 -0.010516261157573923 0.0016130163091613975 0 -0.010166480541497599 0.0016433312429211856 0 -0.010453701775592629 0.0018380683426993231 0 -0.010516261157573923 0.0016130163091613975 0 -0.010655333690412626 0.0018214153574444233 0 -0.010516261157573923 0.0016130163091613975 0 -0.010712637713652478 0.001618401056181467 0 -0.010516261157573923 0.0016130163091613975 0 -0.010655204518986031 0.0014415511798421712 0 -0.010452001553580928 0.0013733582747059957 0 -0.010516261157573923 0.0016130163091613975 0 -0.010712637713652478 0.001618401056181467 0 -0.010655204518986031 0.0014415511798421712 0 -0.010712637713652478 0.001618401056181467 0 -0.010845989914241756 0.001478360466201514 0 -0.010655204518986031 0.0014415511798421712 0 -0.010655333690412626 0.0018214153574444233 0 -0.010712637713652478 0.001618401056181467 0 -0.010870776690832829 0.0017443673065043483 0 -0.010712637713652478 0.001618401056181467 0 -0.010870776690832829 0.0017443673065043483 0 -0.010845989914241756 0.001478360466201514 0 -0.010870776690832829 0.0017443673065043483 0 -0.010845989914241756 0.001478360466201514 0 -0.011118109620005926 0.0015322361555526519 0 -0.011118109620005926 0.0015322361555526519 0 -0.011102727480606905 0.0017982152920645949 0 -0.011384582788547981 0.0016959590033045 0 -0.010870776690832829 0.0017443673065043483 0 -0.011118109620005926 0.0015322361555526519 0 -0.011102727480606905 0.0017982152920645949 0 -0.010870776690832829 0.0017443673065043483 0 -0.011102727480606905 0.0017982152920645949 0 -0.011021461902990165 0.002024737287818012 0 -0.011102727480606905 0.0017982152920645949 0 -0.011021461902990165 0.002024737287818012 0 -0.011238723872243625 0.0019830884702568365 0 -0.011459435567397567 0.0019856891981895096 0 -0.011238723872243625 0.0019830884702568365 0 -0.011248874702329669 0.0022412697442936 0 -0.011102727480606905 0.0017982152920645949 0 -0.011238723872243625 0.0019830884702568365 0 -0.011384582788547981 0.0016959590033045 0 -0.011459435567397567 0.0019856891981895096 0 -0.011238723872243625 0.0019830884702568365 0 -0.011384582788547981 0.0016959590033045 0 -0.011384582788547981 0.0016959590033045 0 -0.011629097771094313 0.0013460233723815924 0 -0.011376788288664329 0.0014368902951491121 0 -0.011118109620005926 0.0015322361555526519 0 -0.011384582788547981 0.0016959590033045 0 -0.011376788288664329 0.0014368902951491121 0 -0.011384582788547981 0.0016959590033045 0 -0.011807370088603823 0.0016808884671972038 0 -0.011629097771094313 0.0013460233723815924 0 -0.0034538556423431882 0.002789459495105665 0 -0.0045966904730999642 0.0035624508832938786 0 -0.0054998901213856267 0.0027199546418041351 0 -0.0034538556423431882 0.002789459495105665 0 -0.0055612920380181301 0.0010030730170250766 0 -0.0054998901213856267 0.0027199546418041351 0 -0.0034538556423431882 0.002789459495105665 0 -0.0042202732613057948 0.0044161276459635784 0 -0.0028566910743783166 0.0055869201069741791 0 -0.0034538556423431882 0.002789459495105665 0 -0.0045966904730999642 0.0035624508832938786 0 -0.0042202732613057948 0.0044161276459635784 0 -0.0045966904730999642 0.0035624508832938786 0 -0.0042202732613057948 0.0044161276459635784 0 -0.0051919354533605635 0.0047982631727406877 0 -0.0042202732613057948 0.0044161276459635784 0 -0.0048384714001838847 0.0053145417194939643 0 -0.0051919354533605635 0.0047982631727406877 0 -0.011459435567397567 0.0019856891981895096 0 -0.011384582788547981 0.0016959590033045 0 -0.011807370088603823 0.0016808884671972038 0 -0.0076187182915160787 0.0020344317963216854 0 -0.0074569286243446548 0.0048490000121086084 0 -0.011459435567397567 0.0019856891981895096 0 -0.011807370088603823 0.0016808884671972038 0 -0.011662905494202866 0.0022081282196951229 0 -0.0044142020787212048 0.0054285793088104722 0 -0.0048384714001838847 0.0053145417194939643 0 -0.0047260619113628534 0.0055521388755860671 0 -0.0074569286243446548 0.0048490000121086084 0 -0.003365885202136354 0.0054931350099830644 0 -0.0042202732613057948 0.0044161276459635784 0 -0.0028566910743783166 0.0055869201069741791 0 -0.0048384714001838847 0.0053145417194939643 0 -0.0044142020787212048 0.0054285793088104722 0 -0.0047260619113628534 0.0055521388755860671 0 -0.0046598707894622803 0.0057816356494767235 0 -0.0048384714001838847 0.0053145417194939643 0 -0.0047260619113628534 0.0055521388755860671 0 -0.0050451537267975624 0.0057161422421646048 0 -0.0047260619113628534 0.0055521388755860671 0 -0.0046598707894622803 0.0057816356494767235 0 -0.0050451537267975624 0.0057161422421646048 0 -0.0046598707894622803 0.0057816356494767235 0 -0.0048984588430206919 0.0060741796627682056 0 -0.0050451537267975624 0.0057161422421646048 0 -0.004798878344935825 0.0062708840362670744 0 -0.004606823989509061 0.0061521921262489253 0 -0.0048984588430206919 0.0060741796627682056 0 -0.0046598707894622803 0.0057816356494767235 0 -0.004606823989509061 0.0061521921262489253 0 -0.0048984588430206919 0.0060741796627682056 0 -0.0050180836827556571 0.0064133413224644019 0 -0.0048984588430206919 0.0060741796627682056 0 -0.0051622068320843796 0.0060594767674582335 0 -0.008769902004750401 0.0068807402678924164 0 -0.0089836111282718227 0.0061853270322346854 0 -0.0092103411649521079 0.006496777976605474 0 -0.0044142020787212048 0.0054285793088104722 0 -0.0046598707894622803 0.0057816356494767235 0 -0.0042753703802388089 0.0061788082459750052 0 -0.0074569286243446548 0.0048490000121086084 0 -0.0063803376665062467 0.0062645186634967247 0 -0.0046598707894622803 0.0057816356494767235 0 -0.004606823989509061 0.0061521921262489253 0 -0.0042753703802388089 0.0061788082459750052 0 -0.0089836111282718227 0.0061853270322346854 0 -0.009182870618917335 0.0062681983806576018 0 -0.0092103411649521079 0.006496777976605474 0 -0.0092130197054226017 0.0061038701973984847 0 -0.0089836111282718227 0.0061853270322346854 0 -0.009182870618917335 0.0062681983806576018 0 -0.009182870618917335 0.0062681983806576018 0 -0.0092103411649521079 0.006496777976605474 0 -0.0093263711675696248 0.0062974730657237308 0 -0.0092130197054226017 0.0061038701973984847 0 -0.009182870618917335 0.0062681983806576018 0 -0.0093263711675696248 0.0062974730657237308 0 -0.0092103411649521079 0.006496777976605474 0 -0.0094765674413518439 0.0064656540520047195 0 -0.0093263711675696248 0.0062974730657237308 0 -0.0092103411649521079 0.006496777976605474 0 -0.0094765674413518439 0.0064656540520047195 0 -0.0094745950457908214 0.0068470231418154412 0 -0.0095316172728971294 0.0060897337163896151 0 -0.0094765674413518439 0.0064656540520047195 0 -0.0093263711675696248 0.0062974730657237308 0 -0.0095316172728971294 0.0060897337163896151 0 -0.0094765674413518439 0.0064656540520047195 0 -0.0098516793604076988 0.0066018133083024814 0 -0.0095460185356936317 0.0060126448329288519 0 -0.010143164937631682 0.0063955909610458189 0 -0.0098516793604076988 0.0066018133083024814 0 -0.0095460185356936317 0.0060126448329288519 0 -0.010399410697479815 0.006062215453238224 0 -0.010143164937631682 0.0063955909610458189 0 -0.0097736753164412542 0.0061214337423729078 0 -0.0097818974827598004 0.0065074989692096869 0 -0.010143164937631682 0.0063955909610458189 0 -0.010270349059201121 0.0068101915748548731 0 -0.0098516793604076988 0.0066018133083024814 0 -0.0094765674413518439 0.0064656540520047195 0 -0.0098516793604076988 0.0066018133083024814 0 -0.0094745950457908214 0.0068470231418154412 0 -0.010270349059201121 0.0068101915748548731 0 -0.0098516793604076988 0.0066018133083024814 0 -0.0094745950457908214 0.0068470231418154412 0 -0.010451906531902767 0.0045614148047409429 0 -0.010942290345632337 0.004485730231357888 0 -0.010830839897195603 0.0022908513646399255 0 -0.011021461902990165 0.002024737287818012 0 -0.011248874702329669 0.0022412697442936 0 -0.011021461902990165 0.002024737287818012 0 -0.011238723872243625 0.0019830884702568365 0 -0.011248874702329669 0.0022412697442936 0 -0.0074569286243446548 0.0048490000121086084 0 -0.010942290345632337 0.004485730231357888 0 -0.011459435567397567 0.0019856891981895096 0 -0.011662905494202866 0.0022081282196951229 0 -0.011248874702329669 0.0022412697442936 0 -0.008769902004750401 0.0068807402678924164 0 -0.0092103411649521079 0.006496777976605474 0 -0.0094745950457908214 0.0068470231418154412 0 -0.015000012242471567 0.0058133450336131402 0 -0.01556061982155886 0.0057213596036900724 0 -0.015563520334623888 0.0055811314985501036 0 -0.014999927731309374 0.005815252694020917 0 -0.014686293928351756 0.0067092394408876021 0 -0.015033879621036056 0.0063907838853118921 0 -0.01499991700572274 0.0058137038628445674 0 -0.015046009708576495 0.0061970608602353091 0 -0.01556061982155886 0.0057213596036900724 0 -0.016010336950346024 0.0056680930849959303 0 -0.015563520334623888 0.0055811314985501036 0 -0.014641860049681708 0.0066685069334197523 0 -0.014686293928351756 0.0067092394408876021 0 -0.014455558356870854 0.0068841231136553185 0 -0.014641860049681708 0.0066685069334197523 0 -0.0142389917108102 0.0071632036548751853 0 -0.014455558356870854 0.0068841231136553185 0 -0.014641860049681708 0.0066685069334197523 0 -0.014686293928351756 0.0067092394408876021 0 -0.015033879621036056 0.0063907838853118921 0 -0.014648958557788999 0.0067728787780119001 0 -0.014658014665426322 0.0071866633252762775 0 -0.014641860049681708 0.0066685069334197523 0 -0.013842899016896348 0.0076426269400744562 0 -0.0142389917108102 0.0071632036548751853 0 -0.014641860049681708 0.0066685069334197523 0 -0.015033879621036056 0.0063907838853118921 0 -0.015437402668633131 0.006620044944777673 0 -0.015033879621036056 0.0063907838853118921 0 -0.014999718952813799 0.0066110060433484056 0 -0.015437402668633131 0.006620044944777673 0 -0.014999927731309374 0.005815252694020917 0 -0.015033879621036056 0.0063907838853118921 0 -0.014999718952813799 0.0066110060433484056 0 -0.015345675083431312 0.0078895144149117788 0 -0.014999847204816813 0.007409252710823472 0 -0.015324000286172566 0.007177821812460101 0 -0.014999718952813799 0.0066110060433484056 0 -0.014999847204816813 0.007409252710823472 0 -0.015324000286172566 0.007177821812460101 0 -0.015837917484033161 0.0075479164786364638 0 -0.015324000286172566 0.007177821812460101 0 -0.015437402668633131 0.006620044944777673 0 -0.014999718952813799 0.0066110060433484056 0 -0.015324000286172566 0.007177821812460101 0 -0.015437402668633131 0.006620044944777673 0 -0.01476459344709717 0.0080610810742626007 0 -0.014658014665426322 0.0071866633252762775 0 -0.013698922570745432 0.0085671010094176409 0 -0.013842899016896348 0.0076426269400744562 0 -0.01425876225377359 0.0082023063248569308 0 -0.013993198148811911 0.0089084777364622537 0 -0.013698922570745432 0.0085671010094176409 0 -0.01425876225377359 0.0082023063248569308 0 -0.013842899016896348 0.0076426269400744562 0 -0.01425876225377359 0.0082023063248569308 0 -0.014316052648065179 0.0073378414704576862 0 -0.01425876225377359 0.0082023063248569308 0 -0.014316052648065179 0.0073378414704576862 0 -0.014533866707351727 0.0075119266913900576 0 -0.013842899016896348 0.0076426269400744562 0 -0.014316052648065179 0.0073378414704576862 0 -0.0142389917108102 0.0071632036548751853 0 -0.015046009708576495 0.0061970608602353091 0 -0.015280767739302103 0.0062740409425101088 0 -0.014316052648065179 0.0073378414704576862 0 -0.0142389917108102 0.0071632036548751853 0 -0.014291014912115886 0.0070374229592919417 0 -0.0142389917108102 0.0071632036548751853 0 -0.014455558356870854 0.0068841231136553185 0 -0.014291014912115886 0.0070374229592919417 0 -0.014686293928351756 0.0067092394408876021 0 -0.014455558356870854 0.0068841231136553185 0 -0.014291014912115886 0.0070374229592919417 0 -0.015280767739302103 0.0062740409425101088 0 -0.014260132582449365 0.0063885610463577181 0 -0.015280767739302103 0.0062740409425101088 0 -0.013930586433151962 0.0069453219855106036 0 -0.014316052648065179 0.0073378414704576862 0 -0.014291014912115886 0.0070374229592919417 0 -0.014357606071228169 0.0070700187015144775 0 -0.014316052648065179 0.0073378414704576862 0 -0.014357606071228169 0.0070700187015144775 0 -0.014533866707351727 0.0075119266913900576 0 -0.015058514448938815 0.0066296548567767377 0 -0.014050606263706458 0.0064919499307814765 0 -0.01427793229775455 0.0067328704786888474 0 -0.013930586433151962 0.0069453219855106036 0 -0.013999907700029703 0.0082039422342984111 0 -0.013930586433151962 0.0069453219855106036 0 -0.014260132582449365 0.0063885610463577181 0 -0.013930586433151962 0.0069453219855106036 0 -0.013429310714355833 0.0070989550292447417 0 -0.013754607102535194 0.0063868345849399993 0 -0.013240827696829719 0.0063151682779338802 0 -0.013422464497742157 0.0064633612860582682 0 -0.012997366856381393 0.008105771679248917 0 -0.013799925265265469 0.0082395742204654475 0 -0.01349761195290328 0.0086726702667669648 0 -0.013799925265265469 0.0082395742204654475 0 -0.013803984187253772 0.008648104080441409 0 -0.014071069196322799 0.0086259213100183113 0 -0.013766636671211653 0.0089264253622418719 0 -0.01349761195290328 0.0086726702667669648 0 -0.014040713243224697 0.0092718869485593613 0 -0.013803984187253772 0.008648104080441409 0 -0.014071069196322799 0.0086259213100183113 0 -0.013965312925386112 0.0088197286267692916 0 -0.013965312925386112 0.0088197286267692916 0 -0.013766636671211653 0.0089264253622418719 0 -0.014164751292092099 0.0090297032322173634 0 -0.014071069196322799 0.0086259213100183113 0 -0.013965312925386112 0.0088197286267692916 0 -0.014164751292092099 0.0090297032322173634 0 -0.013803984187253772 0.008648104080441409 0 -0.013965312925386112 0.0088197286267692916 0 -0.013766636671211653 0.0089264253622418719 0 -0.013799925265265469 0.0082395742204654475 0 -0.013803984187253772 0.008648104080441409 0 -0.01349761195290328 0.0086726702667669648 0 -0.013803984187253772 0.008648104080441409 0 -0.013766636671211653 0.0089264253622418719 0 -0.01349761195290328 0.0086726702667669648 0 -0.01425876225377359 0.0082023063248569308 0 -0.014533866707351727 0.0075119266913900576 0 -0.014699797722646041 0.0081751448784567644 0 -0.01425876225377359 0.0082023063248569308 0 -0.014479371863972869 0.0085594605002338262 0 -0.014699797722646041 0.0081751448784567644 0 -0.014293020428792127 0.0089770078801978369 0 -0.01425876225377359 0.0082023063248569308 0 -0.014479371863972869 0.0085594605002338262 0 -0.014479371863972869 0.0085594605002338262 0 -0.014699797722646041 0.0081751448784567644 0 -0.014830633259723293 0.0087428652330637201 0 -0.013999907700029703 0.0082039422342984111 0 -0.014330056181703778 0.0086316442937805771 0 -0.013766636671211653 0.0089264253622418719 0 -0.014040713243224697 0.0092718869485593613 0 -0.01420515770561551 0.0090402775426870734 0 -0.013851256396161813 0.0089547740758755996 0 -0.01407272127260973 0.0090744917931663924 0 -0.01407272127260973 0.0090744917931663924 0 -0.014839251427082844 0.010698832097297535 0 -0.014040713243224697 0.0092718869485593613 0 -0.01420515770561551 0.0090402775426870734 0 -0.01466197708378642 0.009161366517496633 0 -0.014839251427082844 0.010698832097297535 0 -0.014793523731006092 0.0096307958075692555 0 -0.014330056181703778 0.0086316442937805771 0 -0.014793523731006092 0.0096307958075692555 0 -0.014040713243224697 0.0092718869485593613 0 -0.01466197708378642 0.009161366517496633 0 -0.014620606094671581 0.0098928281237282041 0 -0.014175053119185873 0.011522860658551274 0 -0.015510391074071254 0.011835470581665468 0 -0.014708546784500044 0.010522534516961817 0 -0.015510391074071254 0.011835470581665468 0 -0.015591149925962975 0.010422136894605201 0 -0.014708546784500044 0.010522534516961817 0 -0.013843306579342214 0.011451380588014211 0 -0.014839251427082844 0.010698832097297535 0 -0.013397050585522496 0.011185954244523467 0 -0.014489433006427349 0.011470738139862727 0 -0.013856911193763701 0.01211235104754035 0 -0.014839251427082844 0.010698832097297535 0 -0.013495212628244319 0.0088624211142752304 0 -0.013125872057689305 0.012674519736415918 0 -0.013856911193763701 0.01211235104754035 0 -0.01439719334168091 0.012787445086215142 0 -0.014489433006427349 0.011470738139862727 0 -0.013856911193763701 0.01211235104754035 0 -0.01439719334168091 0.012787445086215142 0 -0.014164751292092099 0.0090297032322173634 0 -0.014570976806705853 0.009142785251230889 0 -0.014611000411219786 0.0083732935371557057 0 -0.014071069196322799 0.0086259213100183113 0 -0.014164751292092099 0.0090297032322173634 0 -0.014611000411219786 0.0083732935371557057 0 -0.013429310714355833 0.0070989550292447417 0 -0.013495212628244319 0.0088624211142752304 0 -0.012770694967698436 0.0062910755845303895 0 -0.012837440628464449 0.0064655152671306932 0 -0.013078651640080961 0.00648501669653019 0 -0.013240827696829719 0.0063151682779338802 0 -0.012770694967698436 0.0062910755845303895 0 -0.013078651640080961 0.00648501669653019 0 -0.013799925265265469 0.0082395742204654475 0 -0.014071069196322799 0.0086259213100183113 0 -0.014611000411219786 0.0083732935371557057 0 -0.012762713819270926 0.0063618298143708141 0 -0.012770694967698436 0.0062910755845303895 0 -0.012837440628464449 0.0064655152671306932 0 -0.012689727883154202 0.0095494348867350941 0 -0.013495212628244319 0.0088624211142752304 0 -0.012336687211496654 0.0066005746679489536 0 -0.012762713819270926 0.0063618298143708141 0 -0.012777266611995953 0.0062707880299406413 0 -0.012336687211496654 0.0066005746679489536 0 -0.012762713819270926 0.0063618298143708141 0 -0.012837440628464449 0.0064655152671306932 0 -0.013402044055606889 0.0074090658216792588 0 -0.013495212628244319 0.0088624211142752304 0 -0.012232817389000167 0.0064292456221401147 0 -0.012782316669429498 0.0064608318676390225 0 -0.012150701844630036 0.006252471051835214 0 -0.012539874884011567 0.0065381237683603691 0 -0.012837440628464449 0.0064655152671306932 0 -0.012700373141490697 0.0064323540003067775 0 -0.012763381026887887 0.0059296752599283112 0 -0.012601798502259372 0.0052462483629620782 0 -0.012763381026887887 0.0059296752599283112 0 -0.01244792100876535 0.0066661974714857693 0 -0.012539874884011567 0.0065381237683603691 0 -0.012837272659960099 0.0066221128616712728 0 -0.012539874884011567 0.0065381237683603691 0 -0.012837440628464449 0.0064655152671306932 0 -0.012847002450109756 0.0066323549962648233 0 -0.012315449897236966 0.0064866305247734801 0 -0.01244792100876535 0.0066661974714857693 0 -0.012539874884011567 0.0065381237683603691 0 -0.012260752547915891 0.0065304784955032271 0 -0.012315449897236966 0.0064866305247734801 0 -0.01244792100876535 0.0066661974714857693 0 -0.012315449897236966 0.0064866305247734801 0 -0.012150701844630036 0.006252471051835214 0 -0.012539874884011567 0.0065381237683603691 0 -0.012837440628464449 0.0064655152671306932 0 -0.013067964189986674 0.0065723340602461041 0 -0.013078651640080961 0.00648501669653019 0 -0.012763381026887887 0.0059296752599283112 0 -0.013020875515468076 0.0064584178339267559 0 -0.012837440628464449 0.0064655152671306932 0 -0.012847002450109756 0.0066323549962648233 0 -0.013067964189986674 0.0065723340602461041 0 -0.012696137089430874 0.0038372212542268388 0 -0.012619874083819132 0.0039511198862356043 0 -0.01274359416481923 0.004022759458191809 0 -0.012696137089430874 0.0038372212542268388 0 -0.01274359416481923 0.004022759458191809 0 -0.012921496225484446 0.0039073490007512082 0 -0.01249754063680992 0.003943445579944845 0 -0.012619874083819132 0.0039511198862356043 0 -0.012542060543153117 0.0040896269453253066 0 -0.012548088701729807 0.0038458205507665632 0 -0.012696137089430874 0.0038372212542268388 0 -0.012619874083819132 0.0039511198862356043 0 -0.01249754063680992 0.003943445579944845 0 -0.012548088701729807 0.0038458205507665632 0 -0.012619874083819132 0.0039511198862356043 0 -0.012619874083819132 0.0039511198862356043 0 -0.012542060543153117 0.0040896269453253066 0 -0.01274359416481923 0.004022759458191809 0 -0.012387704575152479 0.0031845927230451797 0 -0.012438909459943503 0.0033002463764272641 0 -0.012075084215052441 0.0021814083560523427 0 -0.012076954726281921 0.0021725278037201083 0 -0.012075440095056299 0.0021671175900246234 0 -0.012438909459943503 0.0033002463764272641 0 -0.012477435387265198 0.0022104532563436158 0 -0.012542060543153117 0.0040896269453253066 0 -0.012714638170047846 0.0042018339830912112 0 -0.01274359416481923 0.004022759458191809 0 -0.012714638170047846 0.0042018339830912112 0 -0.01274359416481923 0.004022759458191809 0 -0.012803670639454794 0.0041202524000856682 0 -0.012889694523214965 0.0040474646787910691 0 -0.013021589673421942 0.0040662452884457191 0 -0.012921496225484446 0.0039073490007512082 0 -0.01274359416481923 0.004022759458191809 0 -0.012889694523214965 0.0040474646787910691 0 -0.012803670639454794 0.0041202524000856682 0 -0.012889694523214965 0.0040474646787910691 0 -0.012917427980254501 0.0041663481894825116 0 -0.013021589673421942 0.0040662452884457191 0 -0.012889694523214965 0.0040474646787910691 0 -0.012803670639454794 0.0041202524000856682 0 -0.012917427980254501 0.0041663481894825116 0 -0.012714638170047846 0.0042018339830912112 0 -0.012917427980254501 0.0041663481894825116 0 -0.012881315812417674 0.004309920784419316 0 -0.012917427980254501 0.0041663481894825116 0 -0.013017061965793077 0.0042743723036144073 0 -0.012881315812417674 0.004309920784419316 0 -0.012714638170047846 0.0042018339830912112 0 -0.012803670639454794 0.0041202524000856682 0 -0.012917427980254501 0.0041663481894825116 0 -0.013050243636289977 0.0041583258192312142 0 -0.013152006580781504 0.0042360989867072209 0 -0.013017061965793077 0.0042743723036144073 0 -0.014424693601956064 0.0037159821009998166 0 -0.013055544326534009 0.0033285102749948496 0 -0.012917427980254501 0.0041663481894825116 0 -0.013050243636289977 0.0041583258192312142 0 -0.013017061965793077 0.0042743723036144073 0 -0.013050243636289977 0.0041583258192312142 0 -0.013021589673421942 0.0040662452884457191 0 -0.013142606888145928 0.0040506293063732801 0 -0.012917427980254501 0.0041663481894825116 0 -0.013050243636289977 0.0041583258192312142 0 -0.013021589673421942 0.0040662452884457191 0 -0.012918662924731259 0.0041530447059207436 0 -0.013727542747489552 0.0044320811247512953 0 -0.013242559703561342 0.0066913107897747922 0 -0.013446574993255547 0.0065883091022006721 0 -0.013664060775334066 0.0068025453128356759 0 -0.013035522876215136 0.0051780500949921166 0 -0.013503636914883349 0.0056872159526642121 0 -0.013021589673421942 0.0040662452884457191 0 -0.012921496225484446 0.0039073490007512082 0 -0.013145203020249284 0.0039806610768631815 0 -0.01274359416481923 0.004022759458191809 0 -0.012889694523214965 0.0040474646787910691 0 -0.012921496225484446 0.0039073490007512082 0 -0.012763381026887887 0.0059296752599283112 0 -0.013035522876215136 0.0051780500949921166 0 -0.012861453901312922 0.0065946876340825982 0 -0.013242559703561342 0.0066913107897747922 0 -0.013067964189986674 0.0065723340602461041 0 -0.013150000902087976 0.0064720803940267867 0 -0.013327930400119238 0.0064356022051317002 0 -0.013245194285092276 0.0065449619063524377 0 -0.013078651640080961 0.00648501669653019 0 -0.013432490917441245 0.006385742562069939 0 -0.013240827696829719 0.0063151682779338802 0 -0.013078651640080961 0.00648501669653019 0 -0.013422464497742157 0.0064633612860582682 0 -0.013242559703561342 0.0066913107897747922 0 -0.013245194285092276 0.0065449619063524377 0 -0.013067964189986674 0.0065723340602461041 0 -0.013245194285092276 0.0065449619063524377 0 -0.013067964189986674 0.0065723340602461041 0 -0.013078651640080961 0.00648501669653019 0 -0.013432490917441245 0.006385742562069939 0 -0.013446574993255547 0.0065883091022006721 0 -0.013658402368941128 0.006521388773691828 0 -0.013242559703561342 0.0066913107897747922 0 -0.013245194285092276 0.0065449619063524377 0 -0.013446574993255547 0.0065883091022006721 0 -0.013245194285092276 0.0065449619063524377 0 -0.013432490917441245 0.006385742562069939 0 -0.013446574993255547 0.0065883091022006721 0 -0.013658402368941128 0.006521388773691828 0 -0.013781203385771245 0.0063387797745772852 0 -0.013816921256247812 0.0066128934000272525 0 -0.013432490917441245 0.006385742562069939 0 -0.013658402368941128 0.006521388773691828 0 -0.013781203385771245 0.0063387797745772852 0 -0.013327930400119238 0.0064356022051317002 0 -0.014260132582449365 0.0063885610463577181 0 -0.013754607102535194 0.0063868345849399993 0 -0.013422464497742157 0.0064633612860582682 0 -0.013785959156861956 0.0064199628330106964 0 -0.013781203385771245 0.0063387797745772852 0 -0.013998999216563066 0.0065635373411019882 0 -0.013816921256247812 0.0066128934000272525 0 -0.016103074610523561 0.0055745949408623052 0 -0.016242391116286 0.005559447834474953 0 -0.015894372710940918 0.0051465096436997164 0 -0.016103074610523561 0.0055745949408623052 0 -0.015894372710940918 0.0051465096436997164 0 -0.015584409612799083 0.0055048619506743489 0 -0.014260132582449365 0.0063885610463577181 0 -0.015033038678340035 0.0058960505016279734 0 -0.015280767739302103 0.0062740409425101088 0 -0.01570557061704211 0.0055074574389215487 0 -0.013816921256247812 0.0066128934000272525 0 -0.013681505407736135 0.0067235703924498451 0 -0.013986544762212777 0.0068059128356869917 0 -0.013998999216563066 0.0065635373411019882 0 -0.013816921256247812 0.0066128934000272525 0 -0.013986544762212777 0.0068059128356869917 0 -0.013667952835466032 0.0068867057786599541 0 -0.013503636914883349 0.0056872159526642121 0 -0.013446574993255547 0.0065883091022006721 0 -0.013658402368941128 0.006521388773691828 0 -0.013664060775334066 0.0068025453128356759 0 -0.013658402368941128 0.006521388773691828 0 -0.013816921256247812 0.0066128934000272525 0 -0.013681505407736135 0.0067235703924498451 0 -0.013021589673421942 0.0040662452884457191 0 -0.013145203020249284 0.0039806610768631815 0 -0.013148980426896606 0.0040613413151877878 0 -0.013638110308180802 0.0050421165475897358 0 -0.013648359599468668 0.0053020154221169709 0 -0.01425820799822866 0.0052352900612474672 0 -0.013503636914883349 0.0056872159526642121 0 -0.013727542747489552 0.0044320811247512953 0 -0.014515963927327045 0.0043840690184890974 0 -0.014527742792577944 0.0046038934151524883 0 -0.014639396868388131 0.0044708627522555616 0 -0.013050243636289977 0.0041583258192312142 0 -0.013142606888145928 0.0040506293063732801 0 -0.013152006580781504 0.0042360989867072209 0 -0.013727542747489552 0.0044320811247512953 0 -0.014424693601956064 0.0037159821009998166 0 -0.016490952030212051 0.0037789038730804553 0 -0.015860563991108023 0.003996521943842605 0 -0.016216571368979697 0.0035651647950014419 0 -0.014424693601956064 0.0037159821009998166 0 -0.015523970734837881 0.0042945806009893331 0 -0.014527742792577944 0.0046038934151524883 0 -0.014776520583123972 0.0045380565128962996 0 -0.014639396868388131 0.0044708627522555616 0 -0.015860563991108023 0.003996521943842605 0 -0.015849200108373072 0.0035984917917801468 0 -0.016216571368979697 0.0035651647950014419 0 -0.013727542747489552 0.0044320811247512953 0 -0.014393735391133859 0.0053543306653877354 0 -0.014776520583123972 0.0045380565128962996 0 -0.014749380585400569 0.0044390262496454055 0 -0.014639396868388131 0.0044708627522555616 0 -0.014749380585400569 0.0044390262496454055 0 -0.014639396868388131 0.0044708627522555616 0 -0.014737267431213527 0.0043637380011845306 0 -0.013503636914883349 0.0056872159526642121 0 -0.014393735391133859 0.0053543306653877354 0 -0.014515963927327045 0.0043840690184890974 0 -0.014639396868388131 0.0044708627522555616 0 -0.014737267431213527 0.0043637380011845306 0 -0.014749380585400569 0.0044390262496454055 0 -0.014762160945485854 0.0043717602348233913 0 -0.014737267431213527 0.0043637380011845306 0 -0.014421528215263924 0.0052995956833560348 0 -0.014393735391133859 0.0053543306653877354 0 -0.014393735391133859 0.0053543306653877354 0 -0.014982514491895275 0.0052469772766793659 0 -0.014762160945485854 0.0043717602348233913 0 -0.014737419836987628 0.0043644435827184507 0 -0.014909269914372707 0.0043464552766777371 0 -0.014776520583123972 0.0045380565128962996 0 -0.014844672609374486 0.004432602555660959 0 -0.015025453319830285 0.004467262903816804 0 -0.014762160945485854 0.0043717602348233913 0 -0.014909269914372707 0.0043464552766777371 0 -0.014844672609374486 0.004432602555660959 0 -0.014909269914372707 0.0043464552766777371 0 -0.014844672609374486 0.004432602555660959 0 -0.015025453319830285 0.004467262903816804 0 -0.014776520583123972 0.0045380565128962996 0 -0.014749380585400569 0.0044390262496454055 0 -0.014844672609374486 0.004432602555660959 0 -0.014749380585400569 0.0044390262496454055 0 -0.014762160945485854 0.0043717602348233913 0 -0.014844672609374486 0.004432602555660959 0 -0.015860563991108023 0.003996521943842605 0 -0.015399438120312293 0.0037403300646195732 0 -0.015217069942173572 0.0042405045461368631 0 -0.015523970734837881 0.0042945806009893331 0 -0.015089429895975519 0.0043194462634673211 0 -0.015860563991108023 0.003996521943842605 0 -0.015399438120312293 0.0037403300646195732 0 -0.015849200108373072 0.0035984917917801468 0 -0.015399438120312293 0.0037403300646195732 0 -0.014999984370195727 0.0040317475134610536 0 -0.015217069942173572 0.0042405045461368631 0 -0.014999997788780674 0.0040319083418804249 0 -0.015063348916773737 0.0043345149082285456 0 -0.015232835978147105 0.0042828049980779071 0 -0.015000058740957476 0.0040320493648631824 0 -0.015089429895975519 0.0043194462634673211 0 -0.014999997788780674 0.0040319083418804249 0 -0.015063348916773737 0.0043345149082285456 0 -0.014999993177105146 0.0047008192963951725 0 -0.015552138723088742 0.004638930794110506 0 -0.015229531048956814 0.0042854692454933098 0 -0.014999993177105146 0.0047008192963951725 0 -0.015063348916773737 0.0043345149082285456 0 -0.015229531048956814 0.0042854692454933098 0 -0.014999993177105146 0.0047008192963951725 0 -0.014982514491895275 0.0052469772766793659 0 -0.015000731411353311 0.0047006986400214045 0 -0.015109928106793652 0.0043152917444035585 0 -0.015089429895975519 0.0043194462634673211 0 -0.014982514491895275 0.0052469772766793659 0 -0.015089429895975519 0.0043194462634673211 0 -0.014999973220468088 0.0047009925660755425 0 -0.015371472494860932 0.0051136084060910423 0 -0.014999989274841422 0.0054608656874565583 0 -0.015510730657273552 0.0046862736913982524 0 -0.014999973220468088 0.0047009925660755425 0 -0.015371472494860932 0.0051136084060910423 0 -0.015033038678340035 0.0058960505016279734 0 -0.014982514491895275 0.0052469772766793659 0 -0.015894372710940918 0.0051465096436997164 0 -0.015510730657273552 0.0046862736913982524 0 -0.015371472494860932 0.0051136084060910423 0 -0.013998999216563066 0.0065635373411019882 0 -0.013986544762212777 0.0068059128356869917 0 -0.01421651051442817 0.0067704216130130886 0 -0.015894372710940918 0.0051465096436997164 0 -0.015371472494860932 0.0051136084060910423 0 -0.015584409612799083 0.0055048619506743489 0 -0.015000012242471567 0.0058133450336131402 0 -0.015563520334623888 0.0055811314985501036 0 -0.014999967803106621 0.0054611720071997688 0 -0.015371472494860932 0.0051136084060910423 0 -0.015584409612799083 0.0055048619506743489 0 -0.014999989274841422 0.0054608656874565583 0 -0.01570557061704211 0.0055074574389215487 0 -0.014999955286818288 0.0054610221397493434 0 -0.0151744052068504 0.0013978578030198669 0 -0.015000012079682934 0.0017451212314967554 0 -0.015481402644455713 0.0021448274242131232 0 -0.01499995440221419 0.0023599217267347189 0 -0.015000001407385378 0.0017454581908192864 0 -0.0151744052068504 0.0013978578030198669 0 -0.015283046047251961 0.0012084973958345845 0 -0.015481402644455713 0.0021448274242131232 0 -0.015386820551001674 0.0027199209273542219 0 -0.015944055343538904 0.0024863320120688962 0 -0.015435635746010895 0.00279236198059855 0 -0.014999995466636254 0.0023600529095300442 0 -0.014999980647441357 0.0031960113520767813 0 -0.015481402644455713 0.0021448274242131232 0 -0.015386820551001674 0.0027199209273542219 0 -0.01499995440221419 0.0023599217267347189 0 -0.015407120167066123 0.0027557098296662965 0 -0.015000096536699805 0.002360137250305842 0 -0.015435635746010895 0.00279236198059855 0 -0.014999980647441357 0.0031960113520767813 0 -0.015486448256376815 0.0033182489362485073 0 -0.015399438120312293 0.0037403300646195732 0 -0.014999980647441357 0.0031960113520767813 0 -0.015486448256376815 0.0033182489362485073 0 -0.015399438120312293 0.0037403300646195732 0 -0.014999984370195727 0.0040317475134610536 0 -0.014999980647441357 0.0031960113520767813 0 -0.015399438120312293 0.0037403300646195732 0 -0.015849200108373072 0.0035984917917801468 0 -0.015486448256376815 0.0033182489362485073 0 -0.015849200108373072 0.0035984917917801468 0 -0.015486448256376815 0.0033182489362485073 0 -0.015838970348738834 0.0032096119296350055 0 -0.015386820551001674 0.0027199209273542219 0 -0.015775709332020001 0.0031167433850514486 0 -0.015944055343538904 0.0024863320120688962 0 -0.015435635746010895 0.00279236198059855 0 -0.015486448256376815 0.0033182489362485073 0 -0.015838970348738834 0.0032096119296350055 0 -0.015407120167066123 0.0027557098296662965 0 -0.015816390489990687 0.0031694377412474183 0 -0.015775709332020001 0.0031167433850514486 0 -0.016125230592108845 0.002969721478782814 0 -0.015944055343538904 0.0024863320120688962 0 -0.016125230592108845 0.002969721478782814 0 -0.016457896858467054 0.002847395008411485 0 -0.015944055343538904 0.0024863320120688962 0 -0.015849200108373072 0.0035984917917801468 0 -0.015838970348738834 0.0032096119296350055 0 -0.016216571368979697 0.0035651647950014419 0 -0.015775709332020001 0.0031167433850514486 0 -0.016125230592108845 0.002969721478782814 0 -0.016216571368979697 0.0035651647950014419 0 -0.015816390489990687 0.0031694377412474183 0 -0.01618411673666879 0.0035288376314603852 0 -0.016125230592108845 0.002969721478782814 0 -0.016216571368979697 0.0035651647950014419 0 -0.016404704336861569 0.0031940740513901524 0 -0.014424693601956064 0.0037159821009998166 0 -0.014772220068994906 0.0023044653216293329 0 -0.013486581732774953 0.0023158890670445364 0 -0.013493842684003476 0.0025357552120593989 0 -0.013372557281051013 0.0024383961954179034 0 -0.016490952030212051 0.0037789038730804553 0 -0.016478452360311376 0.0031492708518072021 0 -0.016404704336861569 0.0031940740513901524 0 -0.016490952030212051 0.0037789038730804553 0 -0.016216571368979697 0.0035651647950014419 0 -0.016404704336861569 0.0031940740513901524 0 -0.013493842684003476 0.0025357552120593989 0 -0.013411766046508181 0.0025802323858968739 0 -0.013372557281051013 0.0024383961954179034 0 -0.014335588319674842 0.001293567106471003 0 -0.014386930343615092 0.0012594190990468225 0 -0.014333143824437157 0.0012184296516794385 0 -0.014772220068994906 0.0023044653216293329 0 -0.013270754536817708 0.00070311572607553263 0 -0.014772220068994906 0.0023044653216293329 0 -0.014543566557311325 0.00088747964207773098 0 -0.016479587958490385 0.0031445246095052315 0 -0.01635119689108978 0.003010525860188751 0 -0.016457896858467054 0.002847395008411485 0 -0.016125230592108845 0.002969721478782814 0 -0.016404704336861569 0.0031940740513901524 0 -0.01635119689108978 0.003010525860188751 0 -0.016479587958490385 0.0031445246095052315 0 -0.016404704336861569 0.0031940740513901524 0 -0.01635119689108978 0.003010525860188751 0 -0.014772220068994906 0.0023044653216293329 0 -0.015082345197034171 0.0022764853675369969 0 -0.016125230592108845 0.002969721478782814 0 -0.01635119689108978 0.003010525860188751 0 -0.016457896858467054 0.002847395008411485 0 -0.013439127049421181 -0.00099868940646836231 0 -0.013731755278963696 -0.00080329499339155247 0 -0.013301063714510172 -0.00049629854558671399 0 -0.013270754536817708 0.00070311572607553263 0 -0.014543566557311325 0.00088747964207773098 0 -0.013754786393319989 -0.00078262845788911318 0 -0.013767080045804231 -0.00030661640898198983 0 -0.014447427270064888 -0.00019309440403197407 0 -0.013731755278963696 -0.00080329499339155247 0 -0.013767080045804231 -0.00030661640898198983 0 -0.013301063714510172 -0.00049629854558671399 0 -0.013767080045804231 -0.00030661640898198983 0 -0.013421490450125655 -6.2619709715225165e-05 0 -0.013301063714510172 -0.00049629854558671399 0 -0.014543566557311325 0.00088747964207773098 0 -0.013902059565502793 -0.00078226550088172973 0 -0.013767080045804231 -0.00030661640898198983 0 -0.014447427270064888 -0.00019309440403197407 0 -0.014136125529880989 0.00012299381281820007 0 -0.014543566557311325 0.00088747964207773098 0 -0.015283046047251961 0.0012084973958345845 0 -0.015026692643003603 0.00070365380326147789 0 -0.014447427270064888 -0.00019309440403197407 0 -0.014136125529880989 0.00012299381281820007 0 -0.015026692643003603 0.00070365380326147789 0 -0.014136125529880989 0.00012299381281820007 0 -0.014165965553174373 0.00053865406709173913 0 -0.014136125529880989 0.00012299381281820007 0 -0.013537870585289193 0.00037950697096072875 0 -0.014165965553174373 0.00053865406709173913 0 -0.014136125529880989 0.00012299381281820007 0 -0.013421490450125655 -6.2619709715225165e-05 0 -0.013537870585289193 0.00037950697096072875 0 -0.013767080045804231 -0.00030661640898198983 0 -0.014136125529880989 0.00012299381281820007 0 -0.013421490450125655 -6.2619709715225165e-05 0 -0.013421490450125655 -6.2619709715225165e-05 0 -0.012990585681428786 0.00015243020867549561 0 -0.012947164250051799 -0.00022937237002039701 0 -0.013421490450125655 -6.2619709715225165e-05 0 -0.012990585681428786 0.00015243020867549561 0 -0.013537870585289193 0.00037950697096072875 0 -0.012990585681428786 0.00015243020867549561 0 -0.012563479917873805 -0.00011410970407884388 0 -0.012398723968046246 0.00021060180539552074 0 -0.012990585681428786 0.00015243020867549561 0 -0.012563479917873805 -0.00011410970407884388 0 -0.012947164250051799 -0.00022937237002039701 0 -0.012563479917873805 -0.00011410970407884388 0 -0.012696253563842812 -0.00056432756329612935 0 -0.012166113210944705 -0.00018924893197924688 0 -0.012323799938407123 -0.00035184898949860001 0 -0.012050749025791351 -2.4618254064608487e-05 0 -0.012563479917873805 -0.00011410970407884388 0 -0.012696253563842812 -0.00056432756329612935 0 -0.012947164250051799 -0.00022937237002039701 0 -0.012020651943642116 0.00010399648953828727 0 -0.01198580177820751 7.8382833640711633e-05 0 -0.011930035608230822 8.4526272314604104e-05 0 -0.012696253563842812 -0.00056432756329612935 0 -0.012947164250051799 -0.00022937237002039701 0 -0.013301063714510172 -0.00049629854558671399 0 -0.013421490450125655 -6.2619709715225165e-05 0 -0.012947164250051799 -0.00022937237002039701 0 -0.013301063714510172 -0.00049629854558671399 0 -0.012053794439942974 9.9028773506517573e-05 0 -0.012045113951924442 9.9480298110271416e-05 0 -0.01205353738980121 0.00013517613686039889 0 -0.012053794439942974 9.9028773506517573e-05 0 -0.012020651943642116 0.00010399648953828727 0 -0.012045113951924442 9.9480298110271416e-05 0 -0.013439127049421181 -0.00099868940646836231 0 -0.012696253563842812 -0.00056432756329612935 0 -0.013301063714510172 -0.00049629854558671399 0 -0.013270754536817708 0.00070311572607553263 0 -0.012323799938407123 -0.00035184898949860001 0 -0.013372557281051013 0.0024383961954179034 0 -0.013318404879145988 0.0023571853362048599 0 -0.013148086830259545 0.0024044349118551452 0 -0.013411766046508181 0.0025802323858968739 0 -0.013372557281051013 0.0024383961954179034 0 -0.013148086830259545 0.0024044349118551452 0 -0.013270754536817708 0.00070311572607553263 0 -0.012477435387265198 0.0022104532563436158 0 -0.013055544326534009 0.0033285102749948496 0 -0.012477435387265198 0.0022104532563436158 0 -0.013486581732774953 0.0023158890670445364 0 -0.013372557281051013 0.0024383961954179034 0 -0.013318404879145988 0.0023571853362048599 0 -0.012048699890008984 0.00011504277833517963 0 -0.01197841045362608 4.1127911496743643e-07 0 -0.012045113951924442 9.9480298110271416e-05 0 -0.01205353738980121 0.00013517613686039889 0 -0.012068082019658853 0.00012817767497251458 0 -0.012045113951924442 9.9480298110271416e-05 0 -0.01198580177820751 7.8382833640711633e-05 0 -0.011937115337085287 3.4064283638168702e-05 0 -0.012020651943642116 0.00010399648953828727 0 -0.012045113951924442 9.9480298110271416e-05 0 -0.01198580177820751 7.8382833640711633e-05 0 -0.01198580177820751 7.8382833640711633e-05 0 -0.011937115337085287 3.4064283638168702e-05 0 -0.011930035608230822 8.4526272314604104e-05 0 -0.011937115337085287 3.4064283638168702e-05 0 -0.011874331333228778 8.1904783028323205e-05 0 -0.011930035608230822 8.4526272314604104e-05 0 -0.012477435387265198 0.0022104532563436158 0 -0.012031790401096096 0.0011039792288148338 0 -0.01205353738980121 0.00013517613686039889 0 -0.012068082019658853 0.00012817767497251458 0 -0.012070071166627264 0.00013760135428931441 0 -0.012076954726281921 0.0021725278037201083 0 -0.012080926962170431 0.0021682206825261049 0 -0.012076208504250062 0.0021634053723591467 0 -0.012076954726281921 0.0021725278037201083 0 -0.012076208504250062 0.0021634053723591467 0 -0.012075440095056299 0.0021671175900246234 0 -0.012031790401096096 0.0011039792288148338 0 -0.012021628232260693 0.0007876770585864705 0 -0.012076208504250062 0.0021634053723591467 0 -0.012075440095056299 0.0021671175900246234 0 -0.012075114500224526 0.0021550439608909429 0 -0.01197841045362608 4.1127911496743643e-07 0 -0.012021628232260693 0.0007876770585864705 0 -0.012068082019658853 0.00012817767497251458 0 -0.012070071166627264 0.00013760135428931441 0 -0.012075930513172146 0.00014967061637571302 0 -0.011937115337085287 3.4064283638168702e-05 0 -0.011874331333228778 8.1904783028323205e-05 0 -0.011831421415533006 2.5465112100088609e-05 0 -0.011874331333228778 8.1904783028323205e-05 0 -0.011831421415533006 2.5465112100088609e-05 0 -0.011818336100727505 6.8794165359818915e-05 0 -0.011874331333228778 8.1904783028323205e-05 0 -0.011818336100727505 6.8794165359818915e-05 0 -0.011826323065525408 0.00012879417498127085 0 -0.012020651943642116 0.00010399648953828727 0 -0.011930035608230822 8.4526272314604104e-05 0 -0.011916785606225805 0.00012321601388800196 0 -0.011874331333228778 8.1904783028323205e-05 0 -0.011930035608230822 8.4526272314604104e-05 0 -0.011916785606225805 0.00012321601388800196 0 -0.012563479917873805 -0.00011410970407884388 0 -0.012166113210944705 -0.00018924893197924688 0 -0.012398723968046246 0.00021060180539552074 0 -0.012166113210944705 -0.00018924893197924688 0 -0.012061112779560837 0.00017317905674023 0 -0.012398723968046246 0.00021060180539552074 0 -0.012050749025791351 -2.4618254064608487e-05 0 -0.011864893340129619 7.129620320598309e-05 0 -0.011874331333228778 8.1904783028323205e-05 0 -0.011916785606225805 0.00012321601388800196 0 -0.011826323065525408 0.00012879417498127085 0 -0.012166113210944705 -0.00018924893197924688 0 -0.012061112779560837 0.00017317905674023 0 -0.011896367704815053 2.883566122343286e-05 0 -0.012061112779560837 0.00017317905674023 0 -0.011896367704815053 2.883566122343286e-05 0 -0.011871060746456616 0.00017029532512897536 0 -0.012061112779560837 0.00017317905674023 0 -0.012201198566521252 0.00035957259859745123 0 -0.012398723968046246 0.00021060180539552074 0 -0.012201198566521252 0.00035957259859745123 0 -0.012138811523633003 0.00034414014088130049 0 -0.012425248680852225 0.00061503520146017991 0 -0.012201198566521252 0.00035957259859745123 0 -0.01204925155577858 0.00027577776938266017 0 -0.012138811523633003 0.00034414014088130049 0 -0.012061112779560837 0.00017317905674023 0 -0.012201198566521252 0.00035957259859745123 0 -0.01204925155577858 0.00027577776938266017 0 -0.012061112779560837 0.00017317905674023 0 -0.01204925155577858 0.00027577776938266017 0 -0.011871060746456616 0.00017029532512897536 0 -0.01204925155577858 0.00027577776938266017 0 -0.011939596941765142 0.00021431993627692251 0 -0.011871060746456616 0.00017029532512897536 0 -0.01204925155577858 0.00027577776938266017 0 -0.011939596941765142 0.00021431993627692251 0 -0.012138811523633003 0.00034414014088130049 0 -0.011939596941765142 0.00021431993627692251 0 -0.011882963114700008 0.00013389828920492726 0 -0.012011864752549015 0.00021930311056590182 0 -0.011951554595115056 0.00014503730352044572 0 -0.011882963114700008 0.00013389828920492726 0 -0.012011864752549015 0.00021930311056590182 0 -0.011951554595115056 0.00014503730352044572 0 -0.012026270856466922 0.000200395370082804 0 -0.012011864752549015 0.00021930311056590182 0 -0.012026270856466922 0.000200395370082804 0 -0.012011864752549015 0.00021930311056590182 0 -0.012091001207389278 0.00027431407448739922 0 -0.012011864752549015 0.00021930311056590182 0 -0.012091001207389278 0.00027431407448739922 0 -0.012138811523633003 0.00034414014088130049 0 -0.011939596941765142 0.00021431993627692251 0 -0.012011864752549015 0.00021930311056590182 0 -0.012138811523633003 0.00034414014088130049 0 -0.012138811523633003 0.00034414014088130049 0 -0.01218391901359402 0.00035938656231707545 0 -0.012425248680852225 0.00061503520146017991 0 -0.01218391901359402 0.00035938656231707545 0 -0.012000338070750812 0.00032355252536201291 0 -0.012425248680852225 0.00061503520146017991 0 -0.01218391901359402 0.00035938656231707545 0 -0.012076758322819275 0.0002841200226173737 0 -0.012076357475609194 0.00024722628856139599 0 -0.01218391901359402 0.00035938656231707545 0 -0.012076758322819275 0.0002841200226173737 0 -0.012000338070750812 0.00032355252536201291 0 -0.012091001207389278 0.00027431407448739922 0 -0.012138811523633003 0.00034414014088130049 0 -0.01218391901359402 0.00035938656231707545 0 -0.012091001207389278 0.00027431407448739922 0 -0.01218391901359402 0.00035938656231707545 0 -0.012076357475609194 0.00024722628856139599 0 -0.012026270856466922 0.000200395370082804 0 -0.012091001207389278 0.00027431407448739922 0 -0.012076357475609194 0.00024722628856139599 0 -0.012076758322819275 0.0002841200226173737 0 -0.012076357475609194 0.00024722628856139599 0 -0.012031711799060008 0.00022849641477237607 0 -0.012076357475609194 0.00024722628856139599 0 -0.012023324751699429 0.00018690551441450702 0 -0.012031711799060008 0.00022849641477237607 0 -0.012026270856466922 0.000200395370082804 0 -0.012076357475609194 0.00024722628856139599 0 -0.012023324751699429 0.00018690551441450702 0 -0.012534394325621737 0.00086941284162801215 0 -0.012532486451544939 0.0010147504199025223 0 -0.012031711799060008 0.00022849641477237607 0 -0.012000338070750812 0.00032355252536201291 0 -0.011984217194432304 0.00019406630115709349 0 -0.013035801773773789 0.0014783441151631595 0 -0.013316685565290545 0.0015381288039253156 0 -0.013343700855680762 0.0017280512638934984 0 -0.012012646614137302 0.00018476938533430317 0 -0.012031711799060008 0.00022849641477237607 0 -0.011984217194432304 0.00019406630115709349 0 -0.012023324751699429 0.00018690551441450702 0 -0.012012646614137302 0.00018476938533430317 0 -0.012031711799060008 0.00022849641477237607 0 -0.012534394325621737 0.00086941284162801215 0 -0.012410516691134929 0.00063113020555498171 0 -0.013035801773773789 0.0014783441151631595 0 -0.01318064742556539 0.0012200163842926587 0 -0.012973045240623699 0.00079658337070036701 0 -0.013257028243582802 0.0014178070779749996 0 -0.013035801773773789 0.0014783441151631595 0 -0.013316685565290545 0.0015381288039253156 0 -0.012076758322819275 0.0002841200226173737 0 -0.012031711799060008 0.00022849641477237607 0 -0.012000338070750812 0.00032355252536201291 0 -0.013257028243582802 0.0014178070779749996 0 -0.013035801773773789 0.0014783441151631595 0 -0.01318064742556539 0.0012200163842926587 0 -0.01318064742556539 0.0012200163842926587 0 -0.012973045240623699 0.00079658337070036701 0 -0.013542961182989657 0.00096368114138777625 0 -0.013035801773773789 0.0014783441151631595 0 -0.012973045240623699 0.00079658337070036701 0 -0.012425248680852225 0.00061503520146017991 0 -0.012973045240623699 0.00079658337070036701 0 -0.013253632228013429 0.00061869215162669189 0 -0.013542961182989657 0.00096368114138777625 0 -0.012973045240623699 0.00079658337070036701 0 -0.012740993309690436 0.00038987373477477011 0 -0.013253632228013429 0.00061869215162669189 0 -0.012973045240623699 0.00079658337070036701 0 -0.012425248680852225 0.00061503520146017991 0 -0.012740993309690436 0.00038987373477477011 0 -0.012425248680852225 0.00061503520146017991 0 -0.012398723968046246 0.00021060180539552074 0 -0.012740993309690436 0.00038987373477477011 0 -0.012990585681428786 0.00015243020867549561 0 -0.012398723968046246 0.00021060180539552074 0 -0.012740993309690436 0.00038987373477477011 0 -0.012201198566521252 0.00035957259859745123 0 -0.012425248680852225 0.00061503520146017991 0 -0.012398723968046246 0.00021060180539552074 0 -0.012990585681428786 0.00015243020867549561 0 -0.012740993309690436 0.00038987373477477011 0 -0.013253632228013429 0.00061869215162669189 0 -0.012990585681428786 0.00015243020867549561 0 -0.013253632228013429 0.00061869215162669189 0 -0.013537870585289193 0.00037950697096072875 0 -0.013717682140531573 0.00071467114098146332 0 -0.014165965553174373 0.00053865406709173913 0 -0.013973447523624031 0.00097652569103103134 0 -0.013253632228013429 0.00061869215162669189 0 -0.013717682140531573 0.00071467114098146332 0 -0.013537870585289193 0.00037950697096072875 0 -0.013717682140531573 0.00071467114098146332 0 -0.013537870585289193 0.00037950697096072875 0 -0.014165965553174373 0.00053865406709173913 0 -0.014165965553174373 0.00053865406709173913 0 -0.014812946302952008 0.0010342653360830344 0 -0.015057182018634782 0.0011213228139632604 0 -0.01420028551854456 0.00050979882383939525 0 -0.014383293644023954 0.00099155668568423638 0 -0.014812946302952008 0.0010342653360830344 0 -0.015077322830767159 0.0009186185642081437 0 -0.015057182018634782 0.0011213228139632604 0 -0.013973447523624031 0.00097652569103103134 0 -0.013542961182989657 0.00096368114138777625 0 -0.013659760135421499 0.0014547799691202318 0 -0.013717682140531573 0.00071467114098146332 0 -0.013973447523624031 0.00097652569103103134 0 -0.013542961182989657 0.00096368114138777625 0 -0.013253632228013429 0.00061869215162669189 0 -0.013717682140531573 0.00071467114098146332 0 -0.013542961182989657 0.00096368114138777625 0 -0.013257028243582802 0.0014178070779749996 0 -0.01318064742556539 0.0012200163842926587 0 -0.013457405820602576 0.0014375522284110808 0 -0.01318064742556539 0.0012200163842926587 0 -0.013542961182989657 0.00096368114138777625 0 -0.013659760135421499 0.0014547799691202318 0 -0.013249104143033021 0.0012617717463070828 0 -0.013493528479377346 0.0013642856939957728 0 -0.013493528479377346 0.0013642856939957728 0 -0.014734658698259495 0.0010444670966275784 0 -0.013457405820602576 0.0014375522284110808 0 -0.013316685565290545 0.0015381288039253156 0 -0.013468692781734744 0.0016133764271779693 0 -0.013257028243582802 0.0014178070779749996 0 -0.013457405820602576 0.0014375522284110808 0 -0.013316685565290545 0.0015381288039253156 0 -0.013316685565290545 0.0015381288039253156 0 -0.013468692781734744 0.0016133764271779693 0 -0.013343700855680762 0.0017280512638934984 0 -0.013457405820602576 0.0014375522284110808 0 -0.013468692781734744 0.0016133764271779693 0 -0.013664191264242884 0.0015563380416209469 0 -0.013468692781734744 0.0016133764271779693 0 -0.013542340813271152 0.0017521723458314036 0 -0.013664191264242884 0.0015563380416209469 0 -0.013468692781734744 0.0016133764271779693 0 -0.013542340813271152 0.0017521723458314036 0 -0.013343700855680762 0.0017280512638934984 0 -0.015255810724042309 0.00024312149016554696 0 -0.014734658698259495 0.0010444670966275784 0 -0.01577360406854765 -0.00023441811083422419 0 -0.015816118432399259 0.00015167339491221926 0 -0.015667265043047041 -4.9046821871251222e-05 0 -0.013704759630105416 0.0018902351843677399 0 -0.013542340813271152 0.0017521723458314036 0 -0.013664191264242884 0.0015563380416209469 0 -0.014383293644023954 0.00099155668568423638 0 -0.014734658698259495 0.0010444670966275784 0 -0.013973447523624031 0.00097652569103103134 0 -0.013659760135421499 0.0014547799691202318 0 -0.014065283966670493 0.0016670777509136675 0 -0.014812946302952008 0.0010342653360830344 0 -0.015218787834769914 0.00078831226269678034 0 -0.015077322830767159 0.0009186185642081437 0 -0.015218787834769914 0.00078831226269678034 0 -0.015077322830767159 0.0009186185642081437 0 -0.015159778713369333 0.00072362815622328673 0 -0.015077322830767159 0.0009186185642081437 0 -0.015111555574357647 0.00089467996931538892 0 -0.015159778713369333 0.00072362815622328673 0 -0.015111555574357647 0.00089467996931538892 0 -0.015159778713369333 0.00072362815622328673 0 -0.015125812151558922 0.00060006685760796968 0 -0.015218787834769914 0.00078831226269678034 0 -0.015159778713369333 0.00072362815622328673 0 -0.015228388017950718 0.00039080527695984393 0 -0.014734658698259495 0.0010444670966275784 0 -0.015435256219892843 0.00013679327856070848 0 -0.015816118432399259 0.00015167339491221926 0 -0.015491412864515237 -2.3089561301328335e-05 0 -0.015667265043047041 -4.9046821871251222e-05 0 -0.015159778713369333 0.00072362815622328673 0 -0.015228388017950718 0.00039080527695984393 0 -0.015125812151558922 0.00060006685760796968 0 -0.015495496273506019 -0.00015269395610935493 0 -0.015491412864515237 -2.3089561301328335e-05 0 -0.015580358586659369 -8.2641124301238421e-05 0 -0.015491412864515237 -2.3089561301328335e-05 0 -0.015580358586659369 -8.2641124301238421e-05 0 -0.015667265043047041 -4.9046821871251222e-05 0 -0.014999947927818646 -0.00022929553948020291 0 -0.015228388017950718 0.00039080527695984393 0 -0.014999795503991475 0.0004286615801641699 0 -0.015228388017950718 0.00039080527695984393 0 -0.014999795503991475 0.0004286615801641699 0 -0.015125812151558922 0.00060006685760796968 0 -0.015111555574357647 0.00089467996931538892 0 -0.015125812151558922 0.00060006685760796968 0 -0.014999657212977639 0.0010875257791232074 0 -0.014999795503991475 0.0004286615801641699 0 -0.015125812151558922 0.00060006685760796968 0 -0.014999657212977639 0.0010875257791232074 0 -0.015111555574357647 0.00089467996931538892 0 -0.014999657212977639 0.0010875257791232074 0 -0.015057182018634782 0.0011213228139632604 0 -0.014999657212977639 0.0010875257791232074 0 -0.015057182018634782 0.0011213228139632604 0 -0.015000478941328534 0.0017428075608068969 0 -0.015077322830767159 0.0009186185642081437 0 -0.015111555574357647 0.00089467996931538892 0 -0.015057182018634782 0.0011213228139632604 0 -0.015026692643003603 0.00070365380326147789 0 -0.014165965553174373 0.00053865406709173913 0 -0.015057182018634782 0.0011213228139632604 0 -0.015026692643003603 0.00070365380326147789 0 -0.015057182018634782 0.0011213228139632604 0 -0.015000478941328534 0.0017428075608068969 0 -0.011478967343554488 0.00077946151841621388 0 -0.011335911766313817 0.00069754433094918508 0 -0.011296795170764264 0.00093553509987737854 0 -0.011478967343554488 0.00077946151841621388 0 -0.011335911766313817 0.00069754433094918508 0 -0.011472988419798012 0.00060609114391240403 0 -0.011478967343554488 0.00077946151841621388 0 -0.011472988419798012 0.00060609114391240403 0 -0.011649239769193924 0.00063771175956006047 0 -0.011335911766313817 0.00069754433094918508 0 -0.011296795170764264 0.00093553509987737854 0 -0.011175729979953457 0.00077529152192467113 0 -0.011335911766313817 0.00069754433094918508 0 -0.011218971200610852 0.00060277589459058038 0 -0.011175729979953457 0.00077529152192467113 0 -0.011335911766313817 0.00069754433094918508 0 -0.011218971200610852 0.00060277589459058038 0 -0.011376317805557036 0.00052774886839887394 0 -0.011218971200610852 0.00060277589459058038 0 -0.011376317805557036 0.00052774886839887394 0 -0.011371263767848914 0.00034431545582677816 0 -0.011376317805557036 0.00052774886839887394 0 -0.011472988419798012 0.00060609114391240403 0 -0.011522294180536999 0.00042947622882231898 0 -0.011472988419798012 0.00060609114391240403 0 -0.011649239769193924 0.00063771175956006047 0 -0.011522294180536999 0.00042947622882231898 0 -0.011335911766313817 0.00069754433094918508 0 -0.011376317805557036 0.00052774886839887394 0 -0.011472988419798012 0.00060609114391240403 0 -0.011649239769193924 0.00063771175956006047 0 -0.011522294180536999 0.00042947622882231898 0 -0.011754403074686387 0.00042351854848494372 0 -0.0066545394236456933 -0.0021112373728612928 0 -0.0067764038857582214 -0.0019326781251006195 0 -0.0065731909167258901 -0.001906846875529345 0 -0.011649239769193924 0.00063771175956006047 0 -0.011956480416212488 0.00074089830574615022 0 -0.011754403074686387 0.00042351854848494372 0 -0.0073296388414811646 -0.0011901958190285969 0 -0.0094582285540624304 -0.00063047441702973421 0 -0.011649239769193924 0.00063771175956006047 0 -0.011956480416212488 0.00074089830574615022 0 -0.011718346004986257 0.00088682398805656573 0 -0.011478967343554488 0.00077946151841621388 0 -0.011649239769193924 0.00063771175956006047 0 -0.011718346004986257 0.00088682398805656573 0 -0.011718346004986257 0.00088682398805656573 0 -0.01190105672150984 0.0011692411567858529 0 -0.011629097771094313 0.0013460233723815924 0 -0.011718346004986257 0.00088682398805656573 0 -0.011629097771094313 0.0013460233723815924 0 -0.01150286674371852 0.0010028150417484779 0 -0.011478967343554488 0.00077946151841621388 0 -0.011718346004986257 0.00088682398805656573 0 -0.01150286674371852 0.0010028150417484779 0 -0.0073296388414811646 -0.0011901958190285969 0 -0.0082098180926373637 0.00054802473026760749 0 -0.011956480416212488 0.00074089830574615022 0 -0.011718346004986257 0.00088682398805656573 0 -0.01190105672150984 0.0011692411567858529 0 -0.011807370088603823 0.0016808884671972038 0 -0.01190105672150984 0.0011692411567858529 0 -0.011629097771094313 0.0013460233723815924 0 -0.0034538556423431882 0.002789459495105665 0 -0.0042471734390818845 -0.00016280755623581826 0 -0.0055612920380181301 0.0010030730170250766 0 -0.0076187182915160787 0.0020344317963216854 0 -0.0082098180926373637 0.00054802473026760749 0 -0.011629097771094313 0.0013460233723815924 0 -0.011376788288664329 0.0014368902951491121 0 -0.011355116743033387 0.0011759155561195855 0 -0.011118109620005926 0.0015322361555526519 0 -0.011376788288664329 0.0014368902951491121 0 -0.011355116743033387 0.0011759155561195855 0 -0.011629097771094313 0.0013460233723815924 0 -0.011355116743033387 0.0011759155561195855 0 -0.01150286674371852 0.0010028150417484779 0 -0.011355116743033387 0.0011759155561195855 0 -0.01150286674371852 0.0010028150417484779 0 -0.011296795170764264 0.00093553509987737854 0 -0.011478967343554488 0.00077946151841621388 0 -0.01150286674371852 0.0010028150417484779 0 -0.011296795170764264 0.00093553509987737854 0 -0.011355116743033387 0.0011759155561195855 0 -0.011296795170764264 0.00093553509987737854 0 -0.011181481277905031 0.0011040283311139838 0 -0.011296795170764264 0.00093553509987737854 0 -0.011181481277905031 0.0011040283311139838 0 -0.011100738962452403 0.00096440667387168947 0 -0.011296795170764264 0.00093553509987737854 0 -0.011100738962452403 0.00096440667387168947 0 -0.011175729979953457 0.00077529152192467113 0 -0.011335839680684658 0.001170494883307793 0 -0.011077450208370879 0.0011466297005853414 0 -0.010845989914241756 0.001478360466201514 0 -0.011118109620005926 0.0015322361555526519 0 -0.010980431778376418 0.0011816070417072484 0 -0.011118109620005926 0.0015322361555526519 0 -0.011355116743033387 0.0011759155561195855 0 -0.010980431778376418 0.0011816070417072484 0 -0.011077450208370879 0.0011466297005853414 0 -0.010880672153064914 0.0010717082768261536 0 -0.010980431778376418 0.0011816070417072484 0 -0.010648108518310285 0.0011799692190201726 0 -0.010754061283007309 0.001304616205328736 0 -0.010845989914241756 0.001478360466201514 0 -0.010980431778376418 0.0011816070417072484 0 -0.010754061283007309 0.001304616205328736 0 -0.010645274956612766 0.0012427452706486257 0 -0.010648108518310285 0.0011799692190201726 0 -0.010754061283007309 0.001304616205328736 0 -0.010854389841290902 0.0011257231115933406 0 -0.010880672153064914 0.0010717082768261536 0 -0.010645274956612766 0.0012427452706486257 0 -0.010754061283007309 0.001304616205328736 0 -0.010655204518986031 0.0014415511798421712 0 -0.010845989914241756 0.001478360466201514 0 -0.010754061283007309 0.001304616205328736 0 -0.010655204518986031 0.0014415511798421712 0 -0.010645274956612766 0.0012427452706486257 0 -0.010655204518986031 0.0014415511798421712 0 -0.010452001553580928 0.0013733582747059957 0 -0.010650452893121493 0.0011816262319953141 0 -0.010452001553580928 0.0013733582747059957 0 -0.010303124794937706 0.0011596434755345975 0 -0.010645274956612766 0.0012427452706486257 0 -0.010650452893121493 0.0011816262319953141 0 -0.010452001553580928 0.0013733582747059957 0 -0.010880672153064914 0.0010717082768261536 0 -0.011396147979140393 0.0015146036763422567 0 -0.011634477114218294 0.00045819570385823331 0 -0.01133910773226892 0.0006011580398181044 0 -0.011371934723629143 0.00095170179516439939 0 -0.011299546541423665 0.00089041307728270004 0 -0.01137826381547411 0.00086447266459328831 0 -0.011371934723629143 0.00095170179516439939 0 -0.011299546541423665 0.00089041307728270004 0 -0.011284347194146832 0.00094598000689082972 0 -0.011181481277905031 0.0011040283311139838 0 -0.010960141564246486 0.0010833579896749766 0 -0.011100738962452403 0.00096440667387168947 0 -0.010880672153064914 0.0010717082768261536 0 -0.01133910773226892 0.0006011580398181044 0 -0.010960141564246486 0.0010833579896749766 0 -0.011100738962452403 0.00096440667387168947 0 -0.010971509114008304 0.00083766645819894757 0 -0.012075440095056299 0.0021671175900246234 0 -0.01207728777665913 0.002161299306711985 0 -0.012075114500224526 0.0021550439608909429 0 -0.01207728777665913 0.002161299306711985 0 -0.012078102909828498 0.0021513046859888076 0 -0.012075114500224526 0.0021550439608909429 0 -0.012080380888354759 0.0021698903962001008 0 -0.01207728777665913 0.002161299306711985 0 -0.012078102909828498 0.0021513046859888076 0 -0.010166480541497599 0.0016433312429211856 0 -0.010452001553580928 0.0013733582747059957 0 -0.010303124794937706 0.0011596434755345975 0 -0.011025600923817352 0.00183815338133712 0 -0.011396147979140393 0.0015146036763422567 0 -0.011396147979140393 0.0015146036763422567 0 -0.012021628232260693 0.0007876770585864705 0 -0.011573720392398533 0.00080431240537582769 0 -0.011714173501419879 0.00088085860760411512 0 -0.011891694464283641 0.00082692251672107468 0 -0.011634477114218294 0.00045819570385823331 0 -0.011396147979140393 0.0015146036763422567 0 -0.011538014922277231 0.00093243007725426694 0 -0.011573720392398533 0.00080431240537582769 0 -0.011714173501419879 0.00088085860760411512 0 -0.011634477114218294 0.00045819570385823331 0 -0.01174870596035343 0.00047624585172492987 0 -0.011753824923994641 5.7086610871636046e-05 0 -0.011787352716630634 4.3246639052555339e-05 0 -0.011775968988473579 6.9964492956640375e-05 0 -0.011787352716630634 4.3246639052555339e-05 0 -0.011818336100727505 6.8794165359818915e-05 0 -0.011775968988473579 6.9964492956640375e-05 0 -0.01174870596035343 0.00047624585172492987 0 -0.012021628232260693 0.0007876770585864705 0 -0.011787352716630634 4.3246639052555339e-05 0 -0.011831421415533006 2.5465112100088609e-05 0 -0.011818336100727505 6.8794165359818915e-05 0 -0.011818336100727505 6.8794165359818915e-05 0 -0.01178757169346146 9.0004762393107793e-05 0 -0.011775968988473579 6.9964492956640375e-05 0 -0.011818336100727505 6.8794165359818915e-05 0 -0.01178757169346146 9.0004762393107793e-05 0 -0.011826323065525408 0.00012879417498127085 0 -0.011753824923994641 5.7086610871636046e-05 0 -0.011775968988473579 6.9964492956640375e-05 0 -0.011746803733192144 8.9862524078882289e-05 0 -0.01178757169346146 9.0004762393107793e-05 0 -0.011775968988473579 6.9964492956640375e-05 0 -0.011746803733192144 8.9862524078882289e-05 0 -0.01178757169346146 9.0004762393107793e-05 0 -0.011763015339786244 9.9000405005155126e-05 0 -0.011746803733192144 8.9862524078882289e-05 0 -0.011763015339786244 9.9000405005155126e-05 0 -0.011826323065525408 0.00012879417498127085 0 -0.011772007239789967 0.00010373080377501948 0 -0.01178757169346146 9.0004762393107793e-05 0 -0.011763015339786244 9.9000405005155126e-05 0 -0.011826323065525408 0.00012879417498127085 0 -0.011218971200610852 0.00060277589459058038 0 -0.011175729979953457 0.00077529152192467113 0 -0.011033504797079137 0.00081461177128188821 0 -0.011047859303821801 0.00079405484234059288 0 -0.01133910773226892 0.0006011580398181044 0 -0.011100738962452403 0.00096440667387168947 0 -0.011175729979953457 0.00077529152192467113 0 -0.010971509114008304 0.00083766645819894757 0 -0.01174239804048152 9.4646375601009904e-05 0 -0.011742110369842037 9.1345969914642159e-05 0 -0.011746803733192144 8.9862524078882289e-05 0 -0.011634477114218294 0.00045819570385823331 0 -0.011781103119591843 -3.7459024083058242e-05 0 -0.011742110369842037 9.1345969914642159e-05 0 -0.011746803733192144 8.9862524078882289e-05 0 -0.011735276743231569 9.7736345899767543e-05 0 -0.011763015339786244 9.9000405005155126e-05 0 -0.011746803733192144 8.9862524078882289e-05 0 -0.011735276743231569 9.7736345899767543e-05 0 -0.01133910773226892 0.0006011580398181044 0 -0.011438941462624164 0.00024571369404691933 0 -0.011218971200610852 0.00060277589459058038 0 -0.011033504797079137 0.00081461177128188821 0 -0.011124145184480081 0.00045246000002230731 0 -0.011218971200610852 0.00060277589459058038 0 -0.011124145184480081 0.00045246000002230731 0 -0.011371263767848914 0.00034431545582677816 0 -0.011124145184480081 0.00045246000002230731 0 -0.011286475504139323 0.00014450807606807345 0 -0.011371263767848914 0.00034431545582677816 0 -0.011438941462624164 0.00024571369404691933 0 -0.011489355119746237 0.00013244637786509429 0 -0.011735276743231569 9.7736345899767543e-05 0 -0.011738232738980467 9.753847652225304e-05 0 -0.011698063004400707 7.8399929482545326e-05 0 -0.011763015339786244 9.9000405005155126e-05 0 -0.011735276743231569 9.7736345899767543e-05 0 -0.011738232738980467 9.753847652225304e-05 0 -0.011738232738980467 9.753847652225304e-05 0 -0.011698063004400707 7.8399929482545326e-05 0 -0.01174928870120236 0.00011333602057214005 0 -0.011896367704815053 2.883566122343286e-05 0 -0.011772007239789967 0.00010373080377501948 0 -0.011871060746456616 0.00017029532512897536 0 -0.011864893340129619 7.129620320598309e-05 0 -0.011780292279246974 0.00010546865905501916 0 -0.011763015339786244 9.9000405005155126e-05 0 -0.011738232738980467 9.753847652225304e-05 0 -0.011772007239789967 0.00010373080377501948 0 -0.011738232738980467 9.753847652225304e-05 0 -0.011772007239789967 0.00010373080377501948 0 -0.01174928870120236 0.00011333602057214005 0 -0.011772007239789967 0.00010373080377501948 0 -0.01174928870120236 0.00011333602057214005 0 -0.011871060746456616 0.00017029532512897536 0 -0.01174928870120236 0.00011333602057214005 0 -0.011871060746456616 0.00017029532512897536 0 -0.011805025204921681 0.00013850090680470265 0 -0.011939596941765142 0.00021431993627692251 0 -0.011805025204921681 0.00013850090680470265 0 -0.011803835954935015 0.00011625338714422452 0 -0.011939596941765142 0.00021431993627692251 0 -0.011871060746456616 0.00017029532512897536 0 -0.011805025204921681 0.00013850090680470265 0 -0.01174928870120236 0.00011333602057214005 0 -0.011805025204921681 0.00013850090680470265 0 -0.01171270102286026 8.0976506145559891e-05 0 -0.011805025204921681 0.00013850090680470265 0 -0.01171270102286026 8.0976506145559891e-05 0 -0.011803835954935015 0.00011625338714422452 0 -0.01171270102286026 8.0976506145559891e-05 0 -0.011701367744239409 5.5022983955618985e-05 0 -0.011803835954935015 0.00011625338714422452 0 -0.011750114888520666 5.8498768776680914e-05 0 -0.011701367744239409 5.5022983955618985e-05 0 -0.011803835954935015 0.00011625338714422452 0 -0.01171270102286026 8.0976506145559891e-05 0 -0.011701367744239409 5.5022983955618985e-05 0 -0.011634470566450424 3.0393952530752443e-05 0 -0.011750114888520666 5.8498768776680914e-05 0 -0.011882963114700008 0.00013389828920492726 0 -0.011803835954935015 0.00011625338714422452 0 -0.011939596941765142 0.00021431993627692251 0 -0.011882963114700008 0.00013389828920492726 0 -0.011803835954935015 0.00011625338714422452 0 -0.011489355119746237 0.00013244637786509429 0 -0.011528213432413783 2.4904105386691965e-05 0 -0.011286475504139323 0.00014450807606807345 0 -0.011533906383984086 5.8388911715850825e-06 0 -0.011450581975866384 5.3536618753086952e-05 0 -0.011698063004400707 7.8399929482545326e-05 0 -0.01174928870120236 0.00011333602057214005 0 -0.01171270102286026 8.0976506145559891e-05 0 -0.011698063004400707 7.8399929482545326e-05 0 -0.01171270102286026 8.0976506145559891e-05 0 -0.011634470566450424 3.0393952530752443e-05 0 -0.011564545974820258 -2.1515628008386085e-05 0 -0.011634470566450424 3.0393952530752443e-05 0 -0.011533906383984086 5.8388911715850825e-06 0 -0.011698063004400707 7.8399929482545326e-05 0 -0.011634470566450424 3.0393952530752443e-05 0 -0.011533906383984086 5.8388911715850825e-06 0 -0.011525639885963557 -2.3361400218252926e-05 0 -0.011533906383984086 5.8388911715850825e-06 0 -0.011450581975866384 5.3536618753086952e-05 0 -0.011525639885963557 -2.3361400218252926e-05 0 -0.011500017744443387 5.1136595105180195e-05 0 -0.011450581975866384 5.3536618753086952e-05 0 -0.011332417510385887 -0.00012186271323927371 0 -0.011292477124064707 -7.5039847411248809e-05 0 -0.011145558060501378 0.00014002956887101438 0 -0.010693541951245795 -7.5697276696921144e-05 0 -0.010767536057793308 -0.00046768664251516968 0 -0.010693541951245795 -7.5697276696921144e-05 0 -0.010767536057793308 -0.00046768664251516968 0 -0.010243470051929635 -0.00029442672849431492 0 -0.011066017306390929 -0.00029435175299867864 0 -0.0094357021573490928 -0.00087198098804687246 0 -0.011292477124064707 -7.5039847411248809e-05 0 -0.010059467421425217 -0.00076751253708713326 0 -0.010767536057793308 -0.00046768664251516968 0 -0.010393012296527936 -0.0010714803979043539 0 -0.010243470051929635 -0.00029442672849431492 0 -0.011500017744443387 5.1136595105180195e-05 0 -0.011458048654200016 0.00015957038704885398 0 -0.011582169686736673 0.00020256869939079181 0 -0.011500017744443387 5.1136595105180195e-05 0 -0.011450581975866384 5.3536618753086952e-05 0 -0.011458048654200016 0.00015957038704885398 0 -0.011286475504139323 0.00014450807606807345 0 -0.011450581975866384 5.3536618753086952e-05 0 -0.011458048654200016 0.00015957038704885398 0 -0.011286475504139323 0.00014450807606807345 0 -0.011458048654200016 0.00015957038704885398 0 -0.011371263767848914 0.00034431545582677816 0 -0.011458048654200016 0.00015957038704885398 0 -0.011371263767848914 0.00034431545582677816 0 -0.011582169686736673 0.00020256869939079181 0 -0.011784194660769331 0.00071488087419626419 0 -0.010059467421425217 -0.00076751253708713326 0 -0.011522294180536999 0.00042947622882231898 0 -0.011371263767848914 0.00034431545582677816 0 -0.011582169686736673 0.00020256869939079181 0 -0.011376317805557036 0.00052774886839887394 0 -0.011522294180536999 0.00042947622882231898 0 -0.011371263767848914 0.00034431545582677816 0 -0.0067764038857582214 -0.0019326781251006195 0 -0.006732186696390711 -0.001837156599291886 0 -0.0065731909167258901 -0.001906846875529345 0 -0.011522294180536999 0.00042947622882231898 0 -0.011754403074686387 0.00042351854848494372 0 -0.011556095805235225 9.9593856985316485e-05 0 -0.0094582285540624304 -0.00063047441702973421 0 -0.010059467421425217 -0.00076751253708713326 0 -0.0067764038857582214 -0.0019326781251006195 0 -0.0068991545051369915 -0.0018142987391360438 0 -0.006732186696390711 -0.001837156599291886 0 -0.0068991545051369915 -0.0018142987391360438 0 -0.006732186696390711 -0.001837156599291886 0 -0.0068043804351836969 -0.0017541220977032447 0 -0.006732186696390711 -0.001837156599291886 0 -0.0067167483345390846 -0.0017325703314098021 0 -0.0068043804351836969 -0.0017541220977032447 0 -0.0067167483345390846 -0.0017325703314098021 0 -0.0068043804351836969 -0.0017541220977032447 0 -0.0068828442742964518 -0.001625106505310877 0 -0.0068991545051369915 -0.0018142987391360438 0 -0.0068043804351836969 -0.0017541220977032447 0 -0.0068828442742964518 -0.001625106505310877 0 -0.010059467421425217 -0.00076751253708713326 0 -0.0094357021573490928 -0.00087198098804687246 0 -0.010247564756023746 -0.00072116482644074759 0 -0.0099153207191210093 -0.0014466502532690724 0 -0.010787170470336359 -0.0010406279315939195 0 -0.0081799430562427226 -0.0016675587217264375 0 -0.0094357021573490928 -0.00087198098804687246 0 -0.010247564756023746 -0.00072116482644074759 0 -0.0099153207191210093 -0.0014466502532690724 0 -0.0092564019357330857 -0.00092671336687541147 0 -0.0096930757774842322 -0.00042970093400132613 0 -0.0092564019357330857 -0.00092671336687541147 0 -0.0079748456014344191 -0.00058111516539881313 0 -0.0092564019357330857 -0.00092671336687541147 0 -0.0085667256814264646 -0.0018191427372815734 0 -0.0079748456014344191 -0.00058111516539881313 0 -0.0085667256814264646 -0.0018191427372815734 0 -0.0079748456014344191 -0.00058111516539881313 0 -0.0074433275794526989 -0.0013587886477201918 0 -0.0081799430562427226 -0.0016675587217264375 0 -0.0076525619956110957 -0.0018000422109425158 0 -0.0099153207191210093 -0.0014466502532690724 0 -0.0092564019357330857 -0.00092671336687541147 0 -0.0085667256814264646 -0.0018191427372815734 0 -0.0067167483345390846 -0.0017325703314098021 0 -0.0066529197754886327 -0.00188123974531103 0 -0.0066371473187091688 -0.0018691515029357654 0 -0.0066103483791244387 -0.00057239572540610949 0 -0.006497527207111462 -0.0016200939756051496 0 -0.0060993431371488887 -0.00092495534703088253 0 -0.0066103483791244387 -0.00057239572540610949 0 -0.0073065717575399496 -0.00079540963576683508 0 -0.006497527207111462 -0.0016200939756051496 0 -0.0080483857591962474 -0.00089964595800096287 0 -0.0064979633723526043 -0.0013513525852434285 0 -0.0073065717575399496 -0.00079540963576683508 0 -0.0080780265143769736 -0.0011944043922433008 0 -0.006497527207111462 -0.0016200939756051496 0 -0.0079748456014344191 -0.00058111516539881313 0 -0.0074433275794526989 -0.0013587886477201918 0 -0.0064987275316362456 -0.0011198158811753711 0 -0.0074433275794526989 -0.0013587886477201918 0 -0.0064987275316362456 -0.0011198158811753711 0 -0.0068743824777392883 -0.0019065343724721485 0 -0.0064987275316362456 -0.0011198158811753711 0 -0.0063588489795735146 -0.0016940400271546012 0 -0.0068743824777392883 -0.0019065343724721485 0 -0.0064987275316362456 -0.0011198158811753711 0 -0.0063588489795735146 -0.0016940400271546012 0 -0.0059626616695407616 -0.0016249509280935397 0 -0.0063588489795735146 -0.0016940400271546012 0 -0.0068743824777392883 -0.0019065343724721485 0 -0.006344537872234819 -0.0019164152028194128 0 -0.0063588489795735146 -0.0016940400271546012 0 -0.006344537872234819 -0.0019164152028194128 0 -0.0059626616695407616 -0.0016249509280935397 0 -0.0076525619956110957 -0.0018000422109425158 0 -0.0069632468893422259 -0.0019285506401010685 0 -0.0085667256814264646 -0.0018191427372815734 0 -0.0074433275794526989 -0.0013587886477201918 0 -0.0068743824777392883 -0.0019065343724721485 0 -0.0068743824777392883 -0.0019065343724721485 0 -0.0066636255191986826 -0.0018631517394044623 0 -0.0066587357445152514 -0.001900490676829813 0 -0.006344537872234819 -0.0019164152028194128 0 -0.0066587357445152514 -0.001900490676829813 0 -0.0065703657633746169 -0.0019226358215917124 0 -0.0068743824777392883 -0.0019065343724721485 0 -0.006344537872234819 -0.0019164152028194128 0 -0.0066587357445152514 -0.001900490676829813 0 -0.006732186696390711 -0.001837156599291886 0 -0.0067167483345390846 -0.0017325703314098021 0 -0.0066371473187091688 -0.0018691515029357654 0 -0.0066529197754886327 -0.00188123974531103 0 -0.0068743824777392883 -0.0019065343724721485 0 -0.0066636255191986826 -0.0018631517394044623 0 -0.0066529197754886327 -0.00188123974531103 0 -0.0066371473187091688 -0.0018691515029357654 0 -0.0066636255191986826 -0.0018631517394044623 0 -0.006732186696390711 -0.001837156599291886 0 -0.0066371473187091688 -0.0018691515029357654 0 -0.0065731909167258901 -0.001906846875529345 0 -0.0066371473187091688 -0.0018691515029357654 0 -0.0066636255191986826 -0.0018631517394044623 0 -0.0065731909167258901 -0.001906846875529345 0 -0.0061360992891038172 -0.0016987541286876127 0 -0.0065731909167258901 -0.001906846875529345 0 -0.0064859520012716934 -0.0016275514896481823 0 -0.0073296388414811646 -0.0011901958190285969 0 -0.00633040029992027 -0.0021413126825532577 0 -0.0065731909167258901 -0.001906846875529345 0 -0.0064859520012716934 -0.0016275514896481823 0 -0.0065899406357878311 -0.0017604010396682079 0 -0.0061360992891038172 -0.0016987541286876127 0 -0.0064859520012716934 -0.0016275514896481823 0 -0.0065447722089797145 -0.0012356579261507553 0 -0.0064859520012716934 -0.0016275514896481823 0 -0.0065958180958822516 -0.0015573505975841971 0 -0.0065447722089797145 -0.0012356579261507553 0 -0.0064859520012716934 -0.0016275514896481823 0 -0.0065958180958822516 -0.0015573505975841971 0 -0.0065899406357878311 -0.0017604010396682079 0 -0.0065958180958822516 -0.0015573505975841971 0 -0.0065899406357878311 -0.0017604010396682079 0 -0.0066322211883285661 -0.0017680262912163128 0 -0.0066636255191986826 -0.0018631517394044623 0 -0.0065731909167258901 -0.001906846875529345 0 -0.0065899406357878311 -0.0017604010396682079 0 -0.0066636255191986826 -0.0018631517394044623 0 -0.0065899406357878311 -0.0017604010396682079 0 -0.0066322211883285661 -0.0017680262912163128 0 -0.0066636255191986826 -0.0018631517394044623 0 -0.0066587357445152514 -0.001900490676829813 0 -0.0066322211883285661 -0.0017680262912163128 0 -0.0066587357445152514 -0.001900490676829813 0 -0.0066322211883285661 -0.0017680262912163128 0 -0.0066489717830151146 -0.0017875929158831065 0 -0.0066587357445152514 -0.001900490676829813 0 -0.0065703657633746169 -0.0019226358215917124 0 -0.0066489717830151146 -0.0017875929158831065 0 -0.0066489717830151146 -0.0017875929158831065 0 -0.0066373201531034444 -0.0015702682788887295 0 -0.006787420477799175 -0.0015258532540926447 0 -0.0065703657633746169 -0.0019226358215917124 0 -0.0066990011343085491 -0.0017662420963440672 0 -0.0066489717830151146 -0.0017875929158831065 0 -0.0066990011343085491 -0.0017662420963440672 0 -0.0066489717830151146 -0.0017875929158831065 0 -0.006787420477799175 -0.0015258532540926447 0 -0.0065958180958822516 -0.0015573505975841971 0 -0.0066322211883285661 -0.0017680262912163128 0 -0.0066373201531034444 -0.0015702682788887295 0 -0.0066322211883285661 -0.0017680262912163128 0 -0.0066489717830151146 -0.0017875929158831065 0 -0.0066373201531034444 -0.0015702682788887295 0 -0.0065958180958822516 -0.0015573505975841971 0 -0.0066373201531034444 -0.0015702682788887295 0 -0.006572109259159486 -0.0013425166785256755 0 -0.0066373201531034444 -0.0015702682788887295 0 -0.0066321986062120872 -0.0013423954884972296 0 -0.006572109259159486 -0.0013425166785256755 0 -0.0066321986062120872 -0.0013423954884972296 0 -0.0067271477299630849 -0.001402374195058199 0 -0.0066729134996003385 -0.0012122027869512517 0 -0.0066373201531034444 -0.0015702682788887295 0 -0.0066321986062120872 -0.0013423954884972296 0 -0.0067271477299630849 -0.001402374195058199 0 -0.0066321986062120872 -0.0013423954884972296 0 -0.0065809240204858293 -0.0012508141578272476 0 -0.006572109259159486 -0.0013425166785256755 0 -0.0067271477299630849 -0.001402374195058199 0 -0.0066729134996003385 -0.0012122027869512517 0 -0.0070245224159244356 -0.0013210851743542531 0 -0.0066373201531034444 -0.0015702682788887295 0 -0.006787420477799175 -0.0015258532540926447 0 -0.0067271477299630849 -0.001402374195058199 0 -0.006787420477799175 -0.0015258532540926447 0 -0.0067271477299630849 -0.001402374195058199 0 -0.0070245224159244356 -0.0013210851743542531 0 -0.0056269400823382668 0.00039976267889530489 0 -0.0070245224159244356 -0.0013210851743542531 0 -0.0072198505284649531 0.001128690847009791 0 -0.0061014138540314618 -0.00067874402364159422 0 -0.0070210476491980971 -0.0012037040048303645 0 -0.0065809240204858293 -0.0012508141578272476 0 -0.0066729134996003385 -0.0012122027869512517 0 -0.0065275443942816608 -0.0010703090659921158 0 -0.0066321986062120872 -0.0013423954884972296 0 -0.0065809240204858293 -0.0012508141578272476 0 -0.0066729134996003385 -0.0012122027869512517 0 -0.0065809240204858293 -0.0012508141578272476 0 -0.0065091002078563019 -0.0012387603340130874 0 -0.0065275443942816608 -0.0010703090659921158 0 -0.0065809240204858293 -0.0012508141578272476 0 -0.0065091002078563019 -0.0012387603340130874 0 -0.006572109259159486 -0.0013425166785256755 0 -0.0042471734390818845 -0.00016280755623581826 0 -0.0055612920380181301 0.0010030730170250766 0 -0.0065157031924137979 -0.00044086188215567611 0 -0.0070524001064264027 0.00029646677924557253 0 -0.0055612920380181301 0.0010030730170250766 0 -0.0064677101960592173 0.0016619580409640035 0 -0.0070524001064264027 0.00029646677924557253 0 -0.0055612920380181301 0.0010030730170250766 0 -0.0065157031924137979 -0.00044086188215567611 0 -0.0050232493133433509 -0.0029083532349983431 0 -0.0042471734390818845 -0.00016280755623581826 0 -0.0065157031924137979 -0.00044086188215567611 0 -0.0070524001064264027 0.00029646677924557253 0 -0.0065157031924137979 -0.00044086188215567611 0 -0.0065447722089797145 -0.0012356579261507553 0 -0.0073296388414811646 -0.0011901958190285969 0 -0.0058979134948203699 -0.0010870423216759813 0 -0.0061360992891038172 -0.0016987541286876127 0 -0.0065157031924137979 -0.00044086188215567611 0 -0.0065447722089797145 -0.0012356579261507553 0 -0.0068063040253013296 -0.00064077822277538391 0 -0.0065815782486676284 -0.0011037982273757734 0 -0.0065091002078563019 -0.0012387603340130874 0 -0.0065447722089797145 -0.0012356579261507553 0 -0.006572109259159486 -0.0013425166785256755 0 -0.0065958180958822516 -0.0015573505975841971 0 -0.0065447722089797145 -0.0012356579261507553 0 -0.006572109259159486 -0.0013425166785256755 0 -0.0042823855439555044 0.0028173543812616453 0 -0.0054208908369411087 0.0017327274228648741 0 -0.0048720312448165019 0.0038768890899207914 0 -0.0031167997269593525 0.0032060853529365728 0 -0.0051691634141997353 0.0031760429242000863 0 -0.0042823855439555044 0.0028173543812616453 0 -0.0043527070533110768 0.001856622950999372 0 -0.0035159648953806797 0.0024432302906633079 0 -0.0042823855439555044 0.0028173543812616453 0 -0.0043527070533110768 0.001856622950999372 0 -0.0054208908369411087 0.0017327274228648741 0 -0.0043527070533110768 0.001856622950999372 0 -0.0037560904429889299 0.0013751375932166009 0 -0.0046774662623649882 0.00069839518381866925 0 -0.0043527070533110768 0.001856622950999372 0 -0.0054208908369411087 0.0017327274228648741 0 -0.0046774662623649882 0.00069839518381866925 0 0.0040881892920468345 0.0071369292272757262 0 0.0040513904004738834 0.0071784753309122743 0 0.004040383929567461 0.0072554958448154388 0 0.0040881892920468345 0.0071369292272757262 0 0.0040513904004738834 0.0071784753309122743 0 0.0040697748482486839 0.0071067503234356066 0 -0.0031167997269593525 0.0032060853529365728 0 -0.0013574375604414443 0.0057660634305620219 0 -0.0063870258027656744 0.0038438739650000749 0 -0.0048720312448165019 0.0038768890899207914 0 -0.0055097030807400634 0.0046802904109101949 0 -0.0050671924653940617 0.0022780659973964537 0 -0.0063870258027656744 0.0038438739650000749 0 -0.0048720312448165019 0.0038768890899207914 0 -0.0048720312448165019 0.0038768890899207914 0 -0.0032292485979342968 0.0037946258240852048 0 -0.0045107805829168544 0.0051378441881053203 0 -0.0042823855439555044 0.0028173543812616453 0 -0.0048720312448165019 0.0038768890899207914 0 -0.0032292485979342968 0.0037946258240852048 0 -0.0032292485979342968 0.0037946258240852048 0 -0.0022035719362359699 0.0036382019273576574 0 -0.0021507030355744088 0.004720193661332194 0 -0.0032292485979342968 0.0037946258240852048 0 -0.0027818414702098873 0.0029353314095836185 0 -0.0022035719362359699 0.0036382019273576574 0 -0.0027818414702098873 0.0029353314095836185 0 -0.0022035719362359699 0.0036382019273576574 0 -0.0020911508899231655 0.0028007031756080792 0 -0.0032292485979342968 0.0037946258240852048 0 -0.0027818414702098873 0.0029353314095836185 0 -0.0035159648953806797 0.0024432302906633079 0 -0.0042823855439555044 0.0028173543812616453 0 -0.0032292485979342968 0.0037946258240852048 0 -0.0035159648953806797 0.0024432302906633079 0 -0.0022035719362359699 0.0036382019273576574 0 -0.0020911508899231655 0.0028007031756080792 0 -0.00059039981043118291 0.0047760576747131727 0 -0.0020911508899231655 0.0028007031756080792 0 -0.0017477186976941758 0.0018074900875341404 0 -0.00059039981043118291 0.0047760576747131727 0 -0.0044264667047592835 0.00028975256045041947 0 -0.0038964267374444776 0.0029913914930479639 0 -0.007117203626237037 -0.0014075113376749607 0 -0.0070245224159244356 -0.0013210851743542531 0 -0.0072198505284649531 0.001128690847009791 0 -0.0022035719362359699 0.0036382019273576574 0 -0.00059039981043118291 0.0047760576747131727 0 -0.0021507030355744088 0.004720193661332194 0 -0.0020911508899231655 0.0028007031756080792 0 -0.0024146581952377826 0.0019279079768233993 0 -0.0017477186976941758 0.0018074900875341404 0 -0.0020911508899231655 0.0028007031756080792 0 -0.0024146581952377826 0.0019279079768233993 0 -0.0028664573115917322 0.002034642353231671 0 -0.0024146581952377826 0.0019279079768233993 0 -0.0017477186976941758 0.0018074900875341404 0 -0.0029510554029694904 0.0011127339327167514 0 -0.006787420477799175 -0.0015258532540926447 0 -0.007117203626237037 -0.0014075113376749607 0 -0.0070245224159244356 -0.0013210851743542531 0 -0.0027818414702098873 0.0029353314095836185 0 -0.0035159648953806797 0.0024432302906633079 0 -0.0028664573115917322 0.002034642353231671 0 -0.0027818414702098873 0.0029353314095836185 0 -0.0020911508899231655 0.0028007031756080792 0 -0.0028664573115917322 0.002034642353231671 0 -0.0028664573115917322 0.002034642353231671 0 -0.0037560904429889299 0.0013751375932166009 0 -0.0029510554029694904 0.0011127339327167514 0 -0.0024146581952377826 0.0019279079768233993 0 -0.0028664573115917322 0.002034642353231671 0 -0.0029510554029694904 0.0011127339327167514 0 -0.0035159648953806797 0.0024432302906633079 0 -0.0028664573115917322 0.002034642353231671 0 -0.0037560904429889299 0.0013751375932166009 0 -0.0043527070533110768 0.001856622950999372 0 -0.0035159648953806797 0.0024432302906633079 0 -0.0037560904429889299 0.0013751375932166009 0 -0.0029510554029694904 0.0011127339327167514 0 -0.0039536103129606303 0.00031521568174644606 0 -0.0032750176403225132 -0.00059546907941446291 0 -0.0037560904429889299 0.0013751375932166009 0 -0.0039536103129606303 0.00031521568174644606 0 -0.0046774662623649882 0.00069839518381866925 0 -0.0039536103129606303 0.00031521568174644606 0 -0.0045250793191162972 -0.00047800482271132146 0 -0.0046774662623649882 0.00069839518381866925 0 -0.0037560904429889299 0.0013751375932166009 0 -0.0029510554029694904 0.0011127339327167514 0 -0.0039536103129606303 0.00031521568174644606 0 -0.0066990011343085491 -0.0017662420963440672 0 -0.007117203626237037 -0.0014075113376749607 0 -0.0065016792521905321 -0.0020276511467791952 0 -0.0044264667047592835 0.00028975256045041947 0 -0.0048858559320382952 -0.0011833755599476622 0 -0.0017477186976941758 0.0018074900875341404 0 -0.0029510554029694904 0.0011127339327167514 0 -0.0032750176403225132 -0.00059546907941446291 0 -0.0066990011343085491 -0.0017662420963440672 0 -0.006787420477799175 -0.0015258532540926447 0 -0.007117203626237037 -0.0014075113376749607 0 -0.006344537872234819 -0.0019164152028194128 0 -0.0065703657633746169 -0.0019226358215917124 0 -0.0065016792521905321 -0.0020276511467791952 0 -0.0065703657633746169 -0.0019226358215917124 0 -0.0066990011343085491 -0.0017662420963440672 0 -0.0065016792521905321 -0.0020276511467791952 0 -0.0032750176403225132 -0.00059546907941446291 0 -0.0045250793191162972 -0.00047800482271132146 0 -0.0047329650206532799 -0.0013232929216217811 0 -0.0039536103129606303 0.00031521568174644606 0 -0.0032750176403225132 -0.00059546907941446291 0 -0.0045250793191162972 -0.00047800482271132146 0 -0.0054631893561277022 -0.00025332949000761239 0 -0.0052847201141283315 -0.0013137212102781552 0 -0.0049720680036179077 -0.0010755771900495862 0 -0.0045250793191162972 -0.00047800482271132146 0 -0.0054631893561277022 -0.00025332949000761239 0 -0.0049720680036179077 -0.0010755771900495862 0 -0.0045250793191162972 -0.00047800482271132146 0 -0.0049720680036179077 -0.0010755771900495862 0 -0.0047329650206532799 -0.0013232929216217811 0 -0.0031167997269593525 0.0032060853529365728 0 -0.00043887520910914322 0.0036832663453994553 0 -0.0045250793191162972 -0.00047800482271132146 0 -0.0046774662623649882 0.00069839518381866925 0 -0.0054631893561277022 -0.00025332949000761239 0 -0.005292351097738424 0.0014618279304867529 0 -0.0046774662623649882 0.00069839518381866925 0 -0.0054631893561277022 -0.00025332949000761239 0 -0.0031167997269593525 0.0032060853529365728 0 -0.0044074257025330946 0.0012421817285051141 0 0.0040881892920468345 0.0071369292272757262 0 0.0040697748482486839 0.0071067503234356066 0 0.0040934181495603135 0.0070304468163798917 0 0.0040934181495603135 0.0070304468163798917 0 0.0040810996674417576 0.0069324818068010104 0 0.0040583231596050895 0.007018113146464962 0 0.0040697748482486839 0.0071067503234356066 0 0.0040934181495603135 0.0070304468163798917 0 0.0040583231596050895 0.007018113146464962 0 -0.00043887520910914322 0.0036832663453994553 0 -0.00063589977553963749 0.0027288223111823291 0 -0.0052847201141283315 -0.0013137212102781552 0 -0.0049720680036179077 -0.0010755771900495862 0 -0.0050003028841016138 -0.0014934408949975079 0 -0.0049720680036179077 -0.0010755771900495862 0 -0.0050003028841016138 -0.0014934408949975079 0 -0.0047329650206532799 -0.0013232929216217811 0 -0.0050633379695108364 -0.0014583849894874207 0 -0.0050003028841016138 -0.0014934408949975079 0 -0.0050249765430805506 -0.0014624873248498989 0 -0.0052847201141283315 -0.0013137212102781552 0 -0.0050633379695108364 -0.0014583849894874207 0 -0.0050003028841016138 -0.0014934408949975079 0 -0.0050003028841016138 -0.0014934408949975079 0 -0.005158152711134829 -0.0015059392543947561 0 -0.0050249765430805506 -0.0014624873248498989 0 -0.0050633379695108364 -0.0014583849894874207 0 -0.0049941243226153224 -0.0014467429475187657 0 -0.0050249765430805506 -0.0014624873248498989 0 -0.00063589977553963749 0.0027288223111823291 0 -0.00036425038236293791 0.0030086538115508465 0 -0.0052847201141283315 -0.0013137212102781552 0 -0.0050633379695108364 -0.0014583849894874207 0 -0.0049941243226153224 -0.0014467429475187657 0 0.0040810996674417576 0.0069324818068010104 0 0.0040599448214832055 0.0068751464513537109 0 0.0040620421382473824 0.0069017540551784846 0 -0.0048858559320382952 -0.0011833755599476622 0 -0.0052152747941110389 -0.0015634477567319244 0 -0.006344537872234819 -0.0019164152028194128 0 -0.0065016792521905321 -0.0020276511467791952 0 -0.005297177601286839 -0.0017099561046548515 0 -0.0032750176403225132 -0.00059546907941446291 0 -0.0047329650206532799 -0.0013232929216217811 0 -0.005297177601286839 -0.0017099561046548515 0 -0.0047329650206532799 -0.0013232929216217811 0 -0.0050693569042642135 -0.0015622833692646536 0 -0.005297177601286839 -0.0017099561046548515 0 -0.0050003028841016138 -0.0014934408949975079 0 -0.0047329650206532799 -0.0013232929216217811 0 -0.0050693569042642135 -0.0015622833692646536 0 -0.0050003028841016138 -0.0014934408949975079 0 -0.0050693569042642135 -0.0015622833692646536 0 -0.005158152711134829 -0.0015059392543947561 0 -0.005158152711134829 -0.0015059392543947561 0 -0.0053342329113494459 -0.0015746153734965118 0 -0.0055238595020063166 -0.0014285076970611194 0 -0.0050693569042642135 -0.0015622833692646536 0 -0.005158152711134829 -0.0015059392543947561 0 -0.0053342329113494459 -0.0015746153734965118 0 -0.0050693569042642135 -0.0015622833692646536 0 -0.0053342329113494459 -0.0015746153734965118 0 -0.005297177601286839 -0.0017099561046548515 0 -0.006344537872234819 -0.0019164152028194128 0 -0.005297177601286839 -0.0017099561046548515 0 -0.0059626616695407616 -0.0016249509280935397 0 -0.0064987275316362456 -0.0011198158811753711 0 -0.0053342329113494459 -0.0015746153734965118 0 -0.0059626616695407616 -0.0016249509280935397 0 -0.0053342329113494459 -0.0015746153734965118 0 -0.005297177601286839 -0.0017099561046548515 0 -0.0059626616695407616 -0.0016249509280935397 0 -0.0064979633723526043 -0.0013513525852434285 0 -0.0054362280611591762 -0.0016019643947728284 0 -0.006497527207111462 -0.0016200939756051496 0 -0.0053342329113494459 -0.0015746153734965118 0 -0.0055238595020063166 -0.0014285076970611194 0 -0.006497527207111462 -0.0016200939756051496 0 -0.0055238595020063166 -0.0014285076970611194 0 -0.0055695017126411051 -0.0010635648870564016 0 -0.0052480240241965766 -0.0013210196166337531 0 -0.0050249765430805506 -0.0014624873248498989 0 -0.0050727044424935894 -0.0010468986347751971 0 -0.0052480240241965766 -0.0013210196166337531 0 -0.0055695017126411051 -0.0010635648870564016 0 -0.0050727044424935894 -0.0010468986347751971 0 -0.0055238595020063166 -0.0014285076970611194 0 -0.0052480240241965766 -0.0013210196166337531 0 -0.0055695017126411051 -0.0010635648870564016 0 -0.005158152711134829 -0.0015059392543947561 0 -0.0055238595020063166 -0.0014285076970611194 0 -0.0052480240241965766 -0.0013210196166337531 0 -0.005158152711134829 -0.0015059392543947561 0 -0.0052480240241965766 -0.0013210196166337531 0 -0.0050249765430805506 -0.0014624873248498989 0 -0.005740558067454998 -0.00044275970719005449 0 -0.0052334480452979415 -0.0006735271655031491 0 -0.0055695017126411051 -0.0010635648870564016 0 -0.0052334480452979415 -0.0006735271655031491 0 -0.0055695017126411051 -0.0010635648870564016 0 -0.0050727044424935894 -0.0010468986347751971 0 -0.006497527207111462 -0.0016200939756051496 0 -0.0055695017126411051 -0.0010635648870564016 0 -0.0060993431371488887 -0.00092495534703088253 0 -0.005740558067454998 -0.00044275970719005449 0 -0.0055695017126411051 -0.0010635648870564016 0 -0.0060993431371488887 -0.00092495534703088253 0 0.0040599448214832055 0.0068751464513537109 0 0.0040406988894179981 0.0068515522571202447 0 0.0040596248145282135 0.0068906231405208105 0 -0.0049941243226153224 -0.0014467429475187657 0 -0.0050249765430805506 -0.0014624873248498989 0 -0.0049221860566984899 -0.0012827055241176727 0 -0.00036425038236293791 0.0030086538115508465 0 -0.001548395443810683 0.0015703690311848534 0 -0.0050249765430805506 -0.0014624873248498989 0 -0.0047167987173666335 -0.00096701087469227632 0 -0.0050727044424935894 -0.0010468986347751971 0 -0.0062828771523927513 -0.002630580391564248 0 -0.001548395443810683 0.0015703690311848534 0 -0.0050249765430805506 -0.0014624873248498989 0 -0.0047167987173666335 -0.00096701087469227632 0 -0.0042427302882344729 -0.00089118191434830866 0 -0.0047167987173666335 -0.00096701087469227632 0 -0.0050727044424935894 -0.0010468986347751971 0 -0.0047593035229160459 -0.00063605148318161451 0 -0.0052334480452979415 -0.0006735271655031491 0 -0.0050727044424935894 -0.0010468986347751971 0 -0.0047593035229160459 -0.00063605148318161451 0 -0.0047167987173666335 -0.00096701087469227632 0 -0.0047593035229160459 -0.00063605148318161451 0 -0.0044679939008495043 -0.00075898605338138342 0 -0.0041804123376404092 -0.00051461475165255719 0 -0.0047593035229160459 -0.00063605148318161451 0 -0.0044679939008495043 -0.00075898605338138342 0 -0.0047167987173666335 -0.00096701087469227632 0 -0.0044679939008495043 -0.00075898605338138342 0 -0.0042427302882344729 -0.00089118191434830866 0 -0.0041804123376404092 -0.00051461475165255719 0 -0.0044679939008495043 -0.00075898605338138342 0 -0.0042427302882344729 -0.00089118191434830866 0 -0.001548395443810683 0.0015703690311848534 0 0.003548082338986108 0.0043177869631990645 0 -5.9404658328064869e-05 0.0028778935924088332 0 -0.00024921188339938841 0.0015327336089602042 0 0.00076299951557350716 0.0025387221987921973 0 -0.00021528915396354595 0.00065459048263278555 0 -0.001548395443810683 0.0015703690311848534 0 0.0040459434180709292 0.0068625411384252441 0 0.0040596248145282135 0.0068906231405208105 0 0.0040878729797762577 0.0069263599054682438 0 0.0040406988894179981 0.0068515522571202447 0 0.0040459434180709292 0.0068625411384252441 0 0.0040596248145282135 0.0068906231405208105 0 0.0040599448214832055 0.0068751464513537109 0 0.0040596248145282135 0.0068906231405208105 0 0.0040620421382473824 0.0069017540551784846 0 0.0040596248145282135 0.0068906231405208105 0 0.0040620421382473824 0.0069017540551784846 0 0.0040831160020969298 0.0069204541324444924 0 0.0040596248145282135 0.0068906231405208105 0 0.0040878729797762577 0.0069263599054682438 0 0.0040831160020969298 0.0069204541324444924 0 0.003548082338986108 0.0043177869631990645 0 0.0048258192637021941 0.0070523644864357174 0 0.00461277198385806 0.0061638388552497734 0 0.0050324740530607905 0.0066484516320112711 0 0.0042134530237664053 0.0069105532890013652 0 0.00461277198385806 0.0061638388552497734 0 0.0041692356058024866 0.0065713201754975551 0 0.0042134530237664053 0.0069105532890013652 0 0.004244890508274991 0.0065006145440815637 0 0.0041771749543938778 0.0061809235532510548 0 0.0041692356058024866 0.0065713201754975551 0 0.0041692356058024866 0.0065713201754975551 0 0.0042134530237664053 0.0069105532890013652 0 0.0041824628778284701 0.0068175733262286018 0 0.0048258192637021941 0.0070523644864357174 0 0.0041450755875935283 0.0068450039924155435 0 0.0040878729797762577 0.0069263599054682438 0 0.0042134530237664053 0.0069105532890013652 0 0.0040831160020969298 0.0069204541324444924 0 0.0040709815033084231 0.0070006706575241129 0 0.0040550380146716566 0.0069887351518731341 0 0.0040831160020969298 0.0069204541324444924 0 0.0042134530237664053 0.0069105532890013652 0 0.0040709815033084231 0.0070006706575241129 0 0.0040831160020969298 0.0069204541324444924 0 0.0042134530237664053 0.0069105532890013652 0 0.0040709815033084231 0.0070006706575241129 0 0.0041470687521237689 0.0069813623991826414 0 0.0040709815033084231 0.0070006706575241129 0 0.0040550380146716566 0.0069887351518731341 0 0.0040255159973105097 0.0070645299670442883 0 0.0040550380146716566 0.0069887351518731341 0 0.0040631437177634138 0.0069499964176246501 0 0.0040583231596050895 0.007018113146464962 0 0.0040810996674417576 0.0069324818068010104 0 0.0040631437177634138 0.0069499964176246501 0 0.0040583231596050895 0.007018113146464962 0 0.0040810996674417576 0.0069324818068010104 0 0.0040631437177634138 0.0069499964176246501 0 0.0040620421382473824 0.0069017540551784846 0 0.0040550380146716566 0.0069887351518731341 0 0.0040631437177634138 0.0069499964176246501 0 0.0040831160020969298 0.0069204541324444924 0 0.0040631437177634138 0.0069499964176246501 0 0.0040620421382473824 0.0069017540551784846 0 0.0040831160020969298 0.0069204541324444924 0 0.0042672770679868721 0.007235952043171243 0 0.0042551137160324942 0.0071590254536377761 0 0.0042685545664327374 0.0071816194304593394 0 0.0042551137160324942 0.0071590254536377761 0 0.0042685545664327374 0.0071816194304593394 0 0.0042602294223597417 0.0070951928054195108 0 0.0042658791316210918 0.007117890396228988 0 0.0042602294223597417 0.0070951928054195108 0 0.0042676742063462109 0.0070225428635194752 0 0.0042685545664327374 0.0071816194304593394 0 0.0042658791316210918 0.007117890396228988 0 0.0042602294223597417 0.0070951928054195108 0 0.0042602294223597417 0.0070951928054195108 0 0.0042581450879962549 0.0069976087147631079 0 0.0042676742063462109 0.0070225428635194752 0 0.0042388051876099181 0.0071678287450463929 0 0.0042551137160324942 0.0071590254536377761 0 0.0042357974186406659 0.0070631099685932262 0 0.0042602294223597417 0.0070951928054195108 0 0.0042357974186406659 0.0070631099685932262 0 0.0042581450879962549 0.0069976087147631079 0 0.0042551137160324942 0.0071590254536377761 0 0.0042602294223597417 0.0070951928054195108 0 0.0042357974186406659 0.0070631099685932262 0 0.0042357974186406659 0.0070631099685932262 0 0.0041975120076940082 0.0069443453633775375 0 0.0042457864300035645 0.0069220783111327028 0 0.0042357974186406659 0.0070631099685932262 0 0.0042457864300035645 0.0069220783111327028 0 0.0042581450879962549 0.0069976087147631079 0 0.004165281320759457 0.0067909579558911694 0 0.0041975120076940082 0.0069443453633775375 0 0.0042383536312667136 0.0068175650209406314 0 0.0041975120076940082 0.0069443453633775375 0 0.0042457864300035645 0.0069220783111327028 0 0.0042383536312667136 0.0068175650209406314 0 0.0042457864300035645 0.0069220783111327028 0 0.0042383536312667136 0.0068175650209406314 0 0.0042826570247237296 0.0068369861654879035 0 0.0042457864300035645 0.0069220783111327028 0 0.0042581450879962549 0.0069976087147631079 0 0.0042826570247237296 0.0068369861654879035 0 0.0042581450879962549 0.0069976087147631079 0 0.0042776207271769794 0.0069286819952769467 0 0.0042826570247237296 0.0068369861654879035 0 0.0043310079646434732 0.0066700159221516125 0 0.0042826570247237296 0.0068369861654879035 0 0.0043105255597893537 0.0067895748860551186 0 0.0042776207271769794 0.0069286819952769467 0 0.0042826570247237296 0.0068369861654879035 0 0.0043105255597893537 0.0067895748860551186 0 0.0043105255597893537 0.0067895748860551186 0 0.0042711669933132796 0.0069321103611073324 0 0.0042692353322850863 0.0068370235343978179 0 0.0042776207271769794 0.0069286819952769467 0 0.0043105255597893537 0.0067895748860551186 0 0.0042711669933132796 0.0069321103611073324 0 0.0042711669933132796 0.0069321103611073324 0 0.0042577018979042753 0.0070466034538984711 0 0.0042381320482056976 0.0069880260367114356 0 0.0042581450879962549 0.0069976087147631079 0 0.0042776207271769794 0.0069286819952769467 0 0.0042676742063462109 0.0070225428635194752 0 0.0042776207271769794 0.0069286819952769467 0 0.0042711669933132796 0.0069321103611073324 0 0.0042676742063462109 0.0070225428635194752 0 0.0042711669933132796 0.0069321103611073324 0 0.0042676742063462109 0.0070225428635194752 0 0.0042577018979042753 0.0070466034538984711 0 0.0042658791316210918 0.007117890396228988 0 0.0042577018979042753 0.0070466034538984711 0 0.004259177843656912 0.0071322106812192754 0 0.0042658791316210918 0.007117890396228988 0 0.0042676742063462109 0.0070225428635194752 0 0.0042577018979042753 0.0070466034538984711 0 0.0042577018979042753 0.0070466034538984711 0 0.0042381320482056976 0.0069880260367114356 0 0.0042347336812902517 0.007092932648296392 0 0.0042381320482056976 0.0069880260367114356 0 0.0042041149701026554 0.0069265787811767744 0 0.0041812019946398373 0.0070485508701181761 0 0.0042381320482056976 0.0069880260367114356 0 0.0042041149701026554 0.0069265787811767744 0 0.0042692353322850863 0.0068370235343978179 0 0.0042711669933132796 0.0069321103611073324 0 0.0042381320482056976 0.0069880260367114356 0 0.0042692353322850863 0.0068370235343978179 0 0.0042041149701026554 0.0069265787811767744 0 0.0042692353322850863 0.0068370235343978179 0 0.0042594233856872972 0.0066975026390852632 0 0.0043105255597893537 0.0067895748860551186 0 0.0042692353322850863 0.0068370235343978179 0 0.0043250143370934897 0.0066905076646504268 0 0.0042692353322850863 0.0068370235343978179 0 0.0043250143370934897 0.0066905076646504268 0 0.0042594233856872972 0.0066975026390852632 0 0.0043343282976385251 0.006570557987900274 0 0.0043250143370934897 0.0066905076646504268 0 0.0042594233856872972 0.0066975026390852632 0 0.004244890508274991 0.0065006145440815637 0 0.0041692356058024866 0.0065713201754975551 0 0.0042594233856872972 0.0066975026390852632 0 0.0041692356058024866 0.0065713201754975551 0 0.0042594233856872972 0.0066975026390852632 0 0.0041824628778284701 0.0068175733262286018 0 0.0043343282976385251 0.006570557987900274 0 0.004244890508274991 0.0065006145440815637 0 0.0042594233856872972 0.0066975026390852632 0 0.0042041149701026554 0.0069265787811767744 0 0.0042594233856872972 0.0066975026390852632 0 0.0041824628778284701 0.0068175733262286018 0 0.0042134530237664053 0.0069105532890013652 0 0.0041824628778284701 0.0068175733262286018 0 0.0041470687521237689 0.0069813623991826414 0 0.0042041149701026554 0.0069265787811767744 0 0.0041824628778284701 0.0068175733262286018 0 0.0041470687521237689 0.0069813623991826414 0 0.0041470687521237689 0.0069813623991826414 0 0.0040520744358812609 0.0070513914245449155 0 0.0041812019946398373 0.0070485508701181761 0 0.0040709815033084231 0.0070006706575241129 0 0.0041470687521237689 0.0069813623991826414 0 0.0040520744358812609 0.0070513914245449155 0 0.0042041149701026554 0.0069265787811767744 0 0.0041470687521237689 0.0069813623991826414 0 0.0041812019946398373 0.0070485508701181761 0 0.0040709815033084231 0.0070006706575241129 0 0.0040520744358812609 0.0070513914245449155 0 0.00395155029447679 0.0071242055793078012 0 0.0040520744358812609 0.0070513914245449155 0 0.0042216902753051469 0.0072044551951972562 0 0.0042075538818811551 0.007137349554673606 0 0.0040520744358812609 0.0070513914245449155 0 0.0042075538818811551 0.007137349554673606 0 0.0041812019946398373 0.0070485508701181761 0 0.0042075538818811551 0.007137349554673606 0 0.0041812019946398373 0.0070485508701181761 0 0.0042347336812902517 0.007092932648296392 0 0.0042381320482056976 0.0069880260367114356 0 0.0041812019946398373 0.0070485508701181761 0 0.0042347336812902517 0.007092932648296392 0 0.0042347336812902517 0.007092932648296392 0 0.004259177843656912 0.0071322106812192754 0 0.0042568389917416183 0.0071838928103948032 0 0.0042577018979042753 0.0070466034538984711 0 0.0042347336812902517 0.007092932648296392 0 0.004259177843656912 0.0071322106812192754 0 0.0042658791316210918 0.007117890396228988 0 0.004259177843656912 0.0071322106812192754 0 0.0042731216079590021 0.0072070930279008591 0 0.004259177843656912 0.0071322106812192754 0 0.0042568389917416183 0.0071838928103948032 0 0.0042731216079590021 0.0072070930279008591 0 0.0042568389917416183 0.0071838928103948032 0 0.0042799903021189202 0.0072666673272636494 0 0.0042731216079590021 0.0072070930279008591 0 0.0042075538818811551 0.007137349554673606 0 0.0042347336812902517 0.007092932648296392 0 0.0042568389917416183 0.0071838928103948032 0 0.0042216902753051469 0.0072044551951972562 0 0.0042075538818811551 0.007137349554673606 0 0.0042555015776614682 0.0072308265218910053 0 0.0042075538818811551 0.007137349554673606 0 0.0042568389917416183 0.0071838928103948032 0 0.0042555015776614682 0.0072308265218910053 0 0.0042216902753051469 0.0072044551951972562 0 0.0042555015776614682 0.0072308265218910053 0 0.0042785944486116462 0.0073059179607329466 0 0.0042555015776614682 0.0072308265218910053 0 0.0042856256679019798 0.0073053236506004041 0 0.0042785944486116462 0.0073059179607329466 0 0.0042568389917416183 0.0071838928103948032 0 0.0042555015776614682 0.0072308265218910053 0 0.0042799903021189202 0.0072666673272636494 0 0.0042555015776614682 0.0072308265218910053 0 0.0042799903021189202 0.0072666673272636494 0 0.0042856256679019798 0.0073053236506004041 0 0.0042799903021189202 0.0072666673272636494 0 0.0043132687421371741 0.0073610222281592971 0 0.0042921613748915103 0.0072934599754918032 0 0.0042799903021189202 0.0072666673272636494 0 0.0042856256679019798 0.0073053236506004041 0 0.0043132687421371741 0.0073610222281592971 0 0.0042856256679019798 0.0073053236506004041 0 0.0043132687421371741 0.0073610222281592971 0 0.0043263472872179399 0.0074042028464557982 0 0.0043704116381954941 0.0074548623027285979 0 0.0043132687421371741 0.0073610222281592971 0 0.0043263472872179399 0.0074042028464557982 0 0.0043143848988045951 0.0073590257371085217 0 0.0043132687421371741 0.0073610222281592971 0 0.0042921613748915103 0.0072934599754918032 0 0.0043143848988045951 0.0073590257371085217 0 0.0043358278670689553 0.0074001320181794131 0 0.0043132687421371741 0.0073610222281592971 0 0.0042949332790133557 0.0073210234053432688 0 0.0042921613748915103 0.0072934599754918032 0 0.0042800496997259241 0.0072502842590254739 0 0.0043143848988045951 0.0073590257371085217 0 0.0042949332790133557 0.0073210234053432688 0 0.0042921613748915103 0.0072934599754918032 0 0.0042799903021189202 0.0072666673272636494 0 0.0042921613748915103 0.0072934599754918032 0 0.0042731216079590021 0.0072070930279008591 0 0.0042685545664327374 0.0071816194304593394 0 0.0042658791316210918 0.007117890396228988 0 0.0042731216079590021 0.0072070930279008591 0 0.0042685545664327374 0.0071816194304593394 0 0.0042731216079590021 0.0072070930279008591 0 0.0042800496997259241 0.0072502842590254739 0 0.0042672770679868721 0.007235952043171243 0 0.0042949332790133557 0.0073210234053432688 0 0.0042800496997259241 0.0072502842590254739 0 0.0042672770679868721 0.007235952043171243 0 0.0042685545664327374 0.0071816194304593394 0 0.0042800496997259241 0.0072502842590254739 0 0.0042921613748915103 0.0072934599754918032 0 0.0042731216079590021 0.0072070930279008591 0 0.0042800496997259241 0.0072502842590254739 0 0.004361779388085919 0.0074344848695653588 0 0.0042983170966132481 0.0073609075597951493 0 0.0043051970458787099 0.0073779137740120349 0 0.004361779388085919 0.0074344848695653588 0 0.0043263472872179399 0.0074042028464557982 0 0.0042983170966132481 0.0073609075597951493 0 0.0042856256679019798 0.0073053236506004041 0 0.0043263472872179399 0.0074042028464557982 0 0.0042785944486116462 0.0073059179607329466 0 0.0043263472872179399 0.0074042028464557982 0 0.0042785944486116462 0.0073059179607329466 0 0.0042983170966132481 0.0073609075597951493 0 0.0042803569948035598 0.0073126805465568104 0 0.0042906320711399975 0.0073116312194622902 0 0.0042983170966132481 0.0073609075597951493 0 0.0042803569948035598 0.0073126805465568104 0 0.0042785944486116462 0.0073059179607329466 0 0.0042983170966132481 0.0073609075597951493 0 0.0042803569948035598 0.0073126805465568104 0 0.0042785944486116462 0.0073059179607329466 0 0.0042660833749815089 0.0072841665917360394 0 0.0042216902753051469 0.0072044551951972562 0 0.0042785944486116462 0.0073059179607329466 0 0.0042660833749815089 0.0072841665917360394 0 0.0042216902753051469 0.0072044551951972562 0 0.0042660833749815089 0.0072841665917360394 0 0.0042906320711399975 0.0073116312194622902 0 0.0042803569948035598 0.0073126805465568104 0 0.0042660833749815089 0.0072841665917360394 0 0.0042906320711399975 0.0073116312194622902 0 0.0034279881708031571 0.0072628612283062652 0 0.0033343378612071648 0.0076766546538609755 0 0.0029787850120930538 0.0077214604150038372 0 0.0042906320711399975 0.0073116312194622902 0 0.0042983170966132481 0.0073609075597951493 0 0.0043051970458787099 0.0073779137740120349 0 0.0038595999604880424 0.0073163942540940387 0 0.0035558726003015431 0.0074419812834758325 0 0.0034279881708031571 0.0072628612283062652 0 0.0035905249713542114 0.0072379196026955955 0 0.0033343378612071648 0.0076766546538609755 0 0.0035766890998251053 0.0072378341596399153 0 0.0036783939319372035 0.0074698893595873837 0 0.0035905249713542114 0.0072379196026955955 0 0.0035606101807708472 0.0076853274358524726 0 0.0033343378612071648 0.0076766546538609755 0 0.0040520744358812609 0.0070513914245449155 0 0.0034279881708031571 0.0072628612283062652 0 0.0035905249713542114 0.0072379196026955955 0 0.0040181110963503708 0.0070851138323620366 0 0.0038595999604880424 0.0073163942540940387 0 0.0040520744358812609 0.0070513914245449155 0 0.0042216902753051469 0.0072044551951972562 0 0.0042906320711399975 0.0073116312194622902 0 0.0040520744358812609 0.0070513914245449155 0 0.0035905249713542114 0.0072379196026955955 0 0.00395155029447679 0.0071242055793078012 0 0.0035905249713542114 0.0072379196026955955 0 0.00395155029447679 0.0071242055793078012 0 0.0038242901212462276 0.0072853885696010376 0 0.00395155029447679 0.0071242055793078012 0 0.0038242901212462276 0.0072853885696010376 0 0.0039822165608471441 0.0071207727864447731 0 0.0035606101807708472 0.0076853274358524726 0 0.0034552063733937193 0.0079521906196816563 0 0.0036006464267922724 0.007989953855549391 0 0.0036783939319372035 0.0074698893595873837 0 0.0036945674117155754 0.0076783219623038895 0 0.0034552063733937193 0.0079521906196816563 0 0.003267604876455537 0.0080836576721568451 0 0.0034177651960680729 0.008218399196490098 0 0.0034552063733937193 0.0079521906196816563 0 0.0036006464267922724 0.007989953855549391 0 0.0034177651960680729 0.008218399196490098 0 0.0034552063733937193 0.0079521906196816563 0 0.003267604876455537 0.0080836576721568451 0 0.0033343378612071648 0.0076766546538609755 0 0.0035606101807708472 0.0076853274358524726 0 0.0034552063733937193 0.0079521906196816563 0 0.0033343378612071648 0.0076766546538609755 0 0.0033343378612071648 0.0076766546538609755 0 0.0030095297104941773 0.0080700940728649813 0 0.0029787850120930538 0.0077214604150038372 0 0.003267604876455537 0.0080836576721568451 0 0.0033343378612071648 0.0076766546538609755 0 0.0030095297104941773 0.0080700940728649813 0 0.0027349654506586478 0.0080663283396507097 0 0.0030095297104941773 0.0080700940728649813 0 0.0029787850120930538 0.0077214604150038372 0 0.0042955695567661115 0.0083745708044528442 0 0.0035558726003015431 0.0074419812834758325 0 0.0040345652708953621 0.0070913236928316862 0 0.0040405827819245182 0.0071378177025776725 0 0.0040045831663943956 0.0071801310089301407 0 0.0040345652708953621 0.0070913236928316862 0 0.0040255159973105097 0.0070645299670442883 0 0.0040045831663943956 0.0071801310089301407 0 0.0040697748482486839 0.0071067503234356066 0 0.0040405827819245182 0.0071378177025776725 0 0.0040583231596050895 0.007018113146464962 0 0.0040345652708953621 0.0070913236928316862 0 0.0040405827819245182 0.0071378177025776725 0 0.0040583231596050895 0.007018113146464962 0 0.0040513904004738834 0.0071784753309122743 0 0.0040697748482486839 0.0071067503234356066 0 0.0040405827819245182 0.0071378177025776725 0 0.0040345652708953621 0.0070913236928316862 0 0.0040583231596050895 0.007018113146464962 0 0.0040255159973105097 0.0070645299670442883 0 0.0040550380146716566 0.0069887351518731341 0 0.0040583231596050895 0.007018113146464962 0 0.0040255159973105097 0.0070645299670442883 0 0.0040709815033084231 0.0070006706575241129 0 0.0040255159973105097 0.0070645299670442883 0 0.0039822165608471441 0.0071207727864447731 0 0.0040709815033084231 0.0070006706575241129 0 0.00395155029447679 0.0071242055793078012 0 0.0039822165608471441 0.0071207727864447731 0 0.0038242901212462276 0.0072853885696010376 0 0.0039822165608471441 0.0071207727864447731 0 0.0039299232031020318 0.0072148539048562292 0 0.0040255159973105097 0.0070645299670442883 0 0.0039299232031020318 0.0072148539048562292 0 0.0040045831663943956 0.0071801310089301407 0 0.0040255159973105097 0.0070645299670442883 0 0.0039822165608471441 0.0071207727864447731 0 0.0039299232031020318 0.0072148539048562292 0 0.0039299232031020318 0.0072148539048562292 0 0.0039630470146503755 0.0073562209437946302 0 0.0040045831663943956 0.0071801310089301407 0 0.0038242901212462276 0.0072853885696010376 0 0.0039299232031020318 0.0072148539048562292 0 0.0037860372216143735 0.0073487546662408046 0 0.0039299232031020318 0.0072148539048562292 0 0.0037860372216143735 0.0073487546662408046 0 0.0039630470146503755 0.0073562209437946302 0 0.0037860372216143735 0.0073487546662408046 0 0.0039630470146503755 0.0073562209437946302 0 0.0038064595644096591 0.0078182985220213302 0 0.0039630470146503755 0.0073562209437946302 0 0.0040174115684851377 0.0072541350229844434 0 0.00399675765367932 0.0073282992197180657 0 0.0040405827819245182 0.0071378177025776725 0 0.0040045831663943956 0.0071801310089301407 0 0.0040174115684851377 0.0072541350229844434 0 0.0039630470146503755 0.0073562209437946302 0 0.0040045831663943956 0.0071801310089301407 0 0.0040174115684851377 0.0072541350229844434 0 0.0040513904004738834 0.0071784753309122743 0 0.0040405827819245182 0.0071378177025776725 0 0.0040174115684851377 0.0072541350229844434 0 0.0040513904004738834 0.0071784753309122743 0 0.004040383929567461 0.0072554958448154388 0 0.0040174115684851377 0.0072541350229844434 0 0.004040383929567461 0.0072554958448154388 0 0.0040174115684851377 0.0072541350229844434 0 0.00399675765367932 0.0073282992197180657 0 -0.0013574375604414443 0.0057660634305620219 0 0.0016332783392574339 0.0069363239559679353 0 -0.0063870258027656744 0.0038438739650000749 0 -0.0077998892514315118 0.0056093092368734668 0 -0.0060650896641374734 0.0056697991578817143 0 0.0016332783392574339 0.0069363239559679353 0 -0.001475694499349519 0.0084116905716911088 0 0.0044435354196026228 0.0080701871549029702 0 0.0045933445494449531 0.0084510348727772407 0 0.0049556767405385489 0.0084861432482077649 0 0.0044435354196026228 0.0080701871549029702 0 0.0045933445494449531 0.0084510348727772407 0 0.0044146932081361471 0.0083282644810222239 0 0.0045933445494449531 0.0084510348727772407 0 0.0044146932081361471 0.0083282644810222239 0 0.0043665662170461134 0.0086052650367839847 0 0.004228782917051855 0.0083091220936838753 0 0.0043665662170461134 0.0086052650367839847 0 0.0041238480241345115 0.0086211210782141615 0 0.004228782917051855 0.0083091220936838753 0 0.0044146932081361471 0.0083282644810222239 0 0.0043665662170461134 0.0086052650367839847 0 0.0044435354196026228 0.0080701871549029702 0 0.004228782917051855 0.0083091220936838753 0 0.0044146932081361471 0.0083282644810222239 0 0.0016332783392574339 0.0069363239559679353 0 0.0044955982656615413 0.0080023868535954047 0 0.0039630470146503755 0.0073562209437946302 0 0.004574732107708388 0.007839917125502702 0 0.0041364267392805035 0.0078144716226923126 0 0.0050291008917715549 0.0077843297299453034 0 0.0016332783392574339 0.0069363239559679353 0 0.004574732107708388 0.007839917125502702 0 0.004228782917051855 0.0083091220936838753 0 0.0041364267392805035 0.0078144716226923126 0 0.0039630470146503755 0.0073562209437946302 0 0.0041364267392805035 0.0078144716226923126 0 0.0038064595644096591 0.0078182985220213302 0 0.004228782917051855 0.0083091220936838753 0 0.0041364267392805035 0.0078144716226923126 0 0.0038064595644096591 0.0078182985220213302 0 0.0037493647046344079 0.0082582575750630056 0 0.0035129108272765118 0.0084841017032024919 0 0.0034177651960680729 0.008218399196490098 0 0.0036945674117155754 0.0076783219623038895 0 0.0038014831980468494 0.0080588036921962394 0 0.0036006464267922724 0.007989953855549391 0 0.0037493647046344079 0.0082582575750630056 0 0.0034177651960680729 0.008218399196490098 0 0.0037493647046344079 0.0082582575750630056 0 0.0035129108272765118 0.0084841017032024919 0 0.0037742998500919409 0.008556128360129962 0 0.0035129108272765118 0.0084841017032024919 0 0.0037742998500919409 0.008556128360129962 0 0.0036323924254500917 0.0087903188294304324 0 0.0035129108272765118 0.0084841017032024919 0 0.0033567805105924001 0.0087971010770115567 0 0.0033054276510754714 0.0084413218994020735 0 0.0037493647046344079 0.0082582575750630056 0 0.0037742998500919409 0.008556128360129962 0 0.0041238480241345115 0.0086211210782141615 0 0.0038014831980468494 0.0080588036921962394 0 0.0041162030317321479 0.0085931571174228567 0 0.004228782917051855 0.0083091220936838753 0 0.0038064595644096591 0.0078182985220213302 0 0.0041238480241345115 0.0086211210782141615 0 0.0037742998500919409 0.008556128360129962 0 0.0038905589995922624 0.0087704574231702182 0 0.0041238480241345115 0.0086211210782141615 0 0.0037742998500919409 0.008556128360129962 0 0.0038905589995922624 0.0087704574231702182 0 0.0036323924254500917 0.0087903188294304324 0 0.0038905589995922624 0.0087704574231702182 0 0.0036323924254500917 0.0087903188294304324 0 0.0038576593213388265 0.0090638456422682482 0 0.0036323924254500917 0.0087903188294304324 0 0.0034270742859069357 0.0092494472122745894 0 0.0038576593213388265 0.0090638456422682482 0 0.0038905589995922624 0.0087704574231702182 0 0.0038576593213388265 0.0090638456422682482 0 0.0041614142293067711 0.0089468899106945575 0 0.0035129108272765118 0.0084841017032024919 0 0.0033567805105924001 0.0087971010770115567 0 0.0036323924254500917 0.0087903188294304324 0 0.0033567805105924001 0.0087971010770115567 0 0.0036323924254500917 0.0087903188294304324 0 0.0034270742859069357 0.0092494472122745894 0 0.0034270742859069357 0.0092494472122745894 0 0.0029552715271548009 0.0091479539176450315 0 0.0031130733203205106 0.0096083735615340483 0 0.0033567805105924001 0.0087971010770115567 0 0.0034270742859069357 0.0092494472122745894 0 0.0029552715271548009 0.0091479539176450315 0 0.0034270742859069357 0.0092494472122745894 0 0.0031130733203205106 0.0096083735615340483 0 0.0032798744164003802 0.0098211308563892659 0 0.0034270742859069357 0.0092494472122745894 0 0.0038576593213388265 0.0090638456422682482 0 0.0040384762700727819 0.0096255240186639592 0 0.0038576593213388265 0.0090638456422682482 0 0.0041614142293067711 0.0089468899106945575 0 0.0040384762700727819 0.0096255240186639592 0 0.0045623259328968014 0.0089906113876140163 0 0.0041614142293067711 0.0089468899106945575 0 0.0040384762700727819 0.0096255240186639592 0 0.0038974977459209892 0.010341912658304768 0 0.0030556450650112048 0.010314476046604642 0 0.0017507631490456075 0.011463585968911233 0 0.0016491816652059617 0.010910190554662172 0 0.0023666234983739419 0.010984974929542533 0 0.0017507631490456075 0.011463585968911233 0 0.0016491816652059617 0.010910190554662172 0 0.0012241189656047786 0.011439359522363935 0 0.0045933445494449531 0.0084510348727772407 0 0.0045623259328968014 0.0089906113876140163 0 0.0043665662170461134 0.0086052650367839847 0 0.0045933445494449531 0.0084510348727772407 0 0.0045623259328968014 0.0089906113876140163 0 0.0049556767405385489 0.0084861432482077649 0 0.0045623259328968014 0.0089906113876140163 0 0.0043665662170461134 0.0086052650367839847 0 0.0041614142293067711 0.0089468899106945575 0 0.0043665662170461134 0.0086052650367839847 0 0.0041238480241345115 0.0086211210782141615 0 0.0041614142293067711 0.0089468899106945575 0 0.0038905589995922624 0.0087704574231702182 0 0.0041238480241345115 0.0086211210782141615 0 0.0041614142293067711 0.0089468899106945575 0 0.0042955695567661115 0.0083745708044528442 0 0.0035956933142376776 0.0088732471270594956 0 0.0027349654506586478 0.0080663283396507097 0 0.0030095297104941773 0.0080700940728649813 0 0.0029378221977057911 0.0083249493319273483 0 0.0030095297104941773 0.0080700940728649813 0 0.0029378221977057911 0.0083249493319273483 0 0.0031962241074819583 0.0083520777209554319 0 0.003267604876455537 0.0080836576721568451 0 0.0030095297104941773 0.0080700940728649813 0 0.0031962241074819583 0.0083520777209554319 0 0.0035956933142376776 0.0088732471270594956 0 0.0036809620292802829 0.0090392357622457384 0 0.0029378221977057911 0.0083249493319273483 0 0.0031962241074819583 0.0083520777209554319 0 0.0030914726444203218 0.008539540685906415 0 0.0031962241074819583 0.0083520777209554319 0 0.0032390818836753985 0.0085499618610390404 0 0.0030914726444203218 0.008539540685906415 0 0.0031962241074819583 0.0083520777209554319 0 0.0033054276510754714 0.0084413218994020735 0 0.0032390818836753985 0.0085499618610390404 0 0.003267604876455537 0.0080836576721568451 0 0.0031962241074819583 0.0083520777209554319 0 0.0034177651960680729 0.008218399196490098 0 0.0035129108272765118 0.0084841017032024919 0 0.0034177651960680729 0.008218399196490098 0 0.0033054276510754714 0.0084413218994020735 0 0.0031962241074819583 0.0083520777209554319 0 0.0034177651960680729 0.008218399196490098 0 0.0033054276510754714 0.0084413218994020735 0 0.0033567805105924001 0.0087971010770115567 0 0.0033054276510754714 0.0084413218994020735 0 0.0029552715271548009 0.0091479539176450315 0 0.0032804976954716319 0.0085116376520304217 0 0.003150312918588861 0.0088748473718906346 0 0.0033054276510754714 0.0084413218994020735 0 0.0033643764183734675 0.0086775433396325315 0 0.0032390818836753985 0.0085499618610390404 0 0.0033643764183734675 0.0086775433396325315 0 0.0032160735136175242 0.0087419810119217668 0 0.0033827112072493948 0.0089851173337288769 0 0.0033643764183734675 0.0086775433396325315 0 0.0032160735136175242 0.0087419810119217668 0 0.0032390818836753985 0.0085499618610390404 0 0.0032160735136175242 0.0087419810119217668 0 0.0032390818836753985 0.0085499618610390404 0 0.0030914726444203218 0.008539540685906415 0 0.0036299522933108349 0.0091921442733326562 0 0.0036809620292802829 0.0090392357622457384 0 0.0040230709822904227 0.0097621936918157268 0 0.0042813883343118357 0.0095492173465143212 0 0.0041465041473207273 0.0097162960827689038 0 0.0042813883343118357 0.0095492173465143212 0 0.0041465041473207273 0.0097162960827689038 0 0.0043259244034500807 0.0095154642356032933 0 0.0041465041473207273 0.0097162960827689038 0 0.0043259244034500807 0.0095154642356032933 0 0.0042255216863052152 0.0097577812516553338 0 0.0045072694289566726 0.009304497466297957 0 0.004413626109357173 0.0093468420415046011 0 0.0043259244034500807 0.0095154642356032933 0 0.004413626109357173 0.0093468420415046011 0 0.0042813883343118357 0.0095492173465143212 0 0.0043259244034500807 0.0095154642356032933 0 0.0041465041473207273 0.0097162960827689038 0 0.0042255216863052152 0.0097577812516553338 0 0.00404489837199286 0.0097787356410548379 0 0.0041198978475241238 0.0097499511282266738 0 0.0042255216863052152 0.0097577812516553338 0 0.00404489837199286 0.0097787356410548379 0 0.0041465041473207273 0.0097162960827689038 0 0.00404489837199286 0.0097787356410548379 0 0.0038911279739015179 0.0098023093906273624 0 0.00404489837199286 0.0097787356410548379 0 0.0038456937112962791 0.0097893760243141312 0 0.0038911279739015179 0.0098023093906273624 0 0.0041198978475241238 0.0097499511282266738 0 0.00404489837199286 0.0097787356410548379 0 0.0038456937112962791 0.0097893760243141312 0 0.0038456937112962791 0.0097893760243141312 0 0.0036511149894801684 0.009832586813479767 0 0.0038911279739015179 0.0098023093906273624 0 0.0036511149894801684 0.009832586813479767 0 0.0038911279739015179 0.0098023093906273624 0 0.0037292338638551963 0.009839190259990728 0 0.0040230709822904227 0.0097621936918157268 0 0.0041465041473207273 0.0097162960827689038 0 0.0038911279739015179 0.0098023093906273624 0 0.0040230709822904227 0.0097621936918157268 0 0.0038911279739015179 0.0098023093906273624 0 0.0037292338638551963 0.009839190259990728 0 0.0036299522933108349 0.0091921442733326562 0 0.0033144702039679275 0.0097258653755309572 0 0.0029552715271548009 0.0091479539176450315 0 0.002866675367964333 0.010044161644950802 0 0.0031130733203205106 0.0096083735615340483 0 0.003150312918588861 0.0088748473718906346 0 0.0033144702039679275 0.0097258653755309572 0 0.002866675367964333 0.010044161644950802 0 0.0031130733203205106 0.0096083735615340483 0 0.0030803175423483723 0.0099880809445572726 0 0.002866675367964333 0.010044161644950802 0 0.0030578100107771971 0.010213171086400285 0 0.0030803175423483723 0.0099880809445572726 0 0.0030578100107771971 0.010213171086400285 0 0.0032871083510979619 0.0098855605489998263 0 0.0030985509165424182 0.010162709934074022 0 0.0030754962739844732 0.01027730725183508 0 0.0030578100107771971 0.010213171086400285 0 0.0032871083510979619 0.0098855605489998263 0 0.0033144702039679275 0.0097258653755309572 0 0.0033282935355956451 0.0099956647639087796 0 0.0036511149894801684 0.009832586813479767 0 0.0037292338638551963 0.009839190259990728 0 0.0032871083510979619 0.0098855605489998263 0 0.0033144702039679275 0.0097258653755309572 0 0.0032852096233805523 0.0099264223110121716 0 0.0032871083510979619 0.0098855605489998263 0 0.0031905388940004571 0.0096846101890945228 0 0.0028731509759072015 0.0097714608769322343 0 0.0032871083510979619 0.0098855605489998263 0 0.0031905388940004571 0.0096846101890945228 0 0.0035415989112455959 0.0097539745415671716 0 0.0033501836274417831 0.0095270905765132731 0 0.0031905388940004571 0.0096846101890945228 0 0.0035415989112455959 0.0097539745415671716 0 0.0038456937112962791 0.0097893760243141312 0 0.0036511149894801684 0.009832586813479767 0 0.0035415989112455959 0.0097539745415671716 0 0.0036511149894801684 0.009832586813479767 0 0.0032871083510979619 0.0098855605489998263 0 0.0035415989112455959 0.0097539745415671716 0 0.0041198978475241238 0.0097499511282266738 0 0.0038456937112962791 0.0097893760243141312 0 0.0038457912934704852 0.0096615261712563599 0 0.0038456937112962791 0.0097893760243141312 0 0.0035415989112455959 0.0097539745415671716 0 0.0038457912934704852 0.0096615261712563599 0 0.0033501836274417831 0.0095270905765132731 0 0.0037551900656213498 0.0094194988401478819 0 0.0038457912934704852 0.0096615261712563599 0 0.0033501836274417831 0.0095270905765132731 0 0.0035415989112455959 0.0097539745415671716 0 0.0038457912934704852 0.0096615261712563599 0 0.0037551900656213498 0.0094194988401478819 0 0.0038457912934704852 0.0096615261712563599 0 0.0039839344997509287 0.0095005478811400496 0 0.0042064410654997731 0.0096207034713038462 0 0.0042550660148900007 0.0092299127613407091 0 0.0039839344997509287 0.0095005478811400496 0 0.0042064410654997731 0.0096207034713038462 0 0.0038457912934704852 0.0096615261712563599 0 0.0039839344997509287 0.0095005478811400496 0 0.0042064410654997731 0.0096207034713038462 0 0.0041198978475241238 0.0097499511282266738 0 0.0038457912934704852 0.0096615261712563599 0 0.0018529803077779645 0.010414839706732203 0 0.0023666234983739419 0.010984974929542533 0 0.0024548766573994946 0.01042804586047673 0 0.0018529803077779645 0.010414839706732203 0 0.0024548766573994946 0.01042804586047673 0 0.0019544553262575625 0.010076049004175172 0 0.0018529803077779645 0.010414839706732203 0 0.0016491816652059617 0.010910190554662172 0 0.0012469226427440072 0.010408984524893623 0 0.0018529803077779645 0.010414839706732203 0 0.0016491816652059617 0.010910190554662172 0 0.0023666234983739419 0.010984974929542533 0 0.0030556450650112048 0.010314476046604642 0 0.0031856493367323092 0.010288393303432349 0 0.0034270742859069357 0.0092494472122745894 0 0.0040384762700727819 0.0096255240186639592 0 0.0032798744164003802 0.0098211308563892659 0 0.0040384762700727819 0.0096255240186639592 0 0.0032798744164003802 0.0098211308563892659 0 0.0031199705313067856 0.010303256427971055 0 0.0031130733203205106 0.0096083735615340483 0 0.0032798744164003802 0.0098211308563892659 0 0.0030803175423483723 0.0099880809445572726 0 0.0032798744164003802 0.0098211308563892659 0 0.0030803175423483723 0.0099880809445572726 0 0.0031040253622556134 0.010170238446548999 0 0.0031199705313067856 0.010303256427971055 0 0.0030985509165424182 0.010162709934074022 0 0.0029890246480300505 0.010027840032874158 0 0.0032798744164003802 0.0098211308563892659 0 0.0031040253622556134 0.010170238446548999 0 0.0031199705313067856 0.010303256427971055 0 0.0030578100107771971 0.010213171086400285 0 0.0031040253622556134 0.010170238446548999 0 0.0030985509165424182 0.010162709934074022 0 0.0031040253622556134 0.010170238446548999 0 0.0031199705313067856 0.010303256427971055 0 0.0030985509165424182 0.010162709934074022 0 0.0030578100107771971 0.010213171086400285 0 0.0030803175423483723 0.0099880809445572726 0 0.0031040253622556134 0.010170238446548999 0 0.0023666234983739419 0.010984974929542533 0 0.0031199705313067856 0.010303256427971055 0 0.0024548766573994946 0.01042804586047673 0 0.0031199705313067856 0.010303256427971055 0 0.0024548766573994946 0.01042804586047673 0 0.0025256978066664553 0.010017159387151309 0 0.0025256978066664553 0.010017159387151309 0 0.0029890246480300505 0.010027840032874158 0 0.0028731509759072015 0.0097714608769322343 0 0.0032871083510979619 0.0098855605489998263 0 0.0029890246480300505 0.010027840032874158 0 0.0028731509759072015 0.0097714608769322343 0 0.0031199705313067856 0.010303256427971055 0 0.0025256978066664553 0.010017159387151309 0 0.0029890246480300505 0.010027840032874158 0 0.0032871083510979619 0.0098855605489998263 0 0.0030985509165424182 0.010162709934074022 0 0.0029890246480300505 0.010027840032874158 0 0.0026135936319428002 0.0097396814902002485 0 0.0025256978066664553 0.010017159387151309 0 0.0028731509759072015 0.0097714608769322343 0 0.0019733227156293262 0.0097707356246937976 0 0.0025256978066664553 0.010017159387151309 0 0.0019544553262575625 0.010076049004175172 0 0.0023067554770007312 0.0097815398554912478 0 0.0025112424886854483 0.01003429375391833 0 0.0024548766573994946 0.01042804586047673 0 0.0025256978066664553 0.010017159387151309 0 0.0019544553262575625 0.010076049004175172 0 0.0018529803077779645 0.010414839706732203 0 0.0015837906610657322 0.010008633519895829 0 0.0012469226427440072 0.010408984524893623 0 0.0018529803077779645 0.010414839706732203 0 0.0019544553262575625 0.010076049004175172 0 0.0015837906610657322 0.010008633519895829 0 0.0019733227156293262 0.0097707356246937976 0 0.0019544553262575625 0.010076049004175172 0 0.0015837906610657322 0.010008633519895829 0 0.0015837906610657322 0.010008633519895829 0 0.0011325022628309788 0.0099946072081259028 0 0.0011705766209088822 0.010165087103620355 0 0.0011325022628309788 0.0099946072081259028 0 0.0011705766209088822 0.010165087103620355 0 0.00072317851237779882 0.010288010747213073 0 0.0011705766209088822 0.010165087103620355 0 0.0012469226427440072 0.010408984524893623 0 0.00072317851237779882 0.010288010747213073 0 0.0015837906610657322 0.010008633519895829 0 0.0011705766209088822 0.010165087103620355 0 0.0012469226427440072 0.010408984524893623 0 0.0012469226427440072 0.010408984524893623 0 0.00076020046929207281 0.010588722170677843 0 0.00072317851237779882 0.010288010747213073 0 0.00076020046929207281 0.010588722170677843 0 0.00042592768456341582 0.010811018904433749 0 0.0010716928090614322 0.010965434666672172 0 0.0012469226427440072 0.010408984524893623 0 0.00076020046929207281 0.010588722170677843 0 0.0010716928090614322 0.010965434666672172 0 0.0016491816652059617 0.010910190554662172 0 0.0012469226427440072 0.010408984524893623 0 0.0010716928090614322 0.010965434666672172 0 6.8127754688256258e-05 0.010754573371700262 0 0.00037451603917537001 0.010663712523405889 0 -0.00051056156650402618 0.010778813816297986 0 6.8127754688256258e-05 0.010754573371700262 0 0.00036340408754863675 0.010589414563275898 0 -0.00051056156650402618 0.010778813816297986 0 0.00042592768456341582 0.010811018904433749 0 0.00036340408754863675 0.010589414563275898 0 -0.00051056156650402618 0.010778813816297986 0 0.00076020046929207281 0.010588722170677843 0 0.00042592768456341582 0.010811018904433749 0 0.00036340408754863675 0.010589414563275898 0 0.00036340408754863675 0.010589414563275898 0 0.00027771769310548612 0.010535185029404951 0 0.00072317851237779882 0.010288010747213073 0 0.00076020046929207281 0.010588722170677843 0 0.00036340408754863675 0.010589414563275898 0 0.00072317851237779882 0.010288010747213073 0 6.8127754688256258e-05 0.010754573371700262 0 0.00036340408754863675 0.010589414563275898 0 0.00027771769310548612 0.010535185029404951 0 6.8127754688256258e-05 0.010754573371700262 0 0.00027771769310548612 0.010535185029404951 0 2.8695862815720115e-05 0.01065610799223219 0 0.00027771769310548612 0.010535185029404951 0 0.00032098511308772292 0.010319008684294383 0 2.8695862815720115e-05 0.01065610799223219 0 0.00032098511308772292 0.010319008684294383 0 0.00072317851237779882 0.010288010747213073 0 0.0006110089809213459 0.01014067377932136 0 0.00027771769310548612 0.010535185029404951 0 0.00032098511308772292 0.010319008684294383 0 0.00072317851237779882 0.010288010747213073 0 0.0011325022628309788 0.0099946072081259028 0 0.00072317851237779882 0.010288010747213073 0 0.0006110089809213459 0.01014067377932136 0 0.00032098511308772292 0.010319008684294383 0 0.00040267872231683781 0.010178729785620273 0 0.0006110089809213459 0.01014067377932136 0 0.00043226879817384866 0.010071755802801393 0 0.00040267872231683781 0.010178729785620273 0 0.0006110089809213459 0.01014067377932136 0 0.00043226879817384866 0.010071755802801393 0 0.00040267872231683781 0.010178729785620273 0 0.00030667720309978459 0.010177895229385465 0 0.00032098511308772292 0.010319008684294383 0 0.00040267872231683781 0.010178729785620273 0 0.00030667720309978459 0.010177895229385465 0 -0.0063532484863335478 0.009371458053334376 0 -0.0033673237241906751 0.0096040189947380148 0 -0.0055898033548203562 0.0080382852702252823 0 -0.0062422065618224542 0.0076992766834484277 0 -0.0057654863719170737 0.0075802321972008911 0 -0.0062422065618224542 0.0076992766834484277 0 -0.0060244696672250297 0.0072725182904259779 0 -0.0057654863719170737 0.0075802321972008911 0 -0.0060244696672250297 0.0072725182904259779 0 -0.0057654863719170737 0.0075802321972008911 0 -0.0057285248697873268 0.0071680793009965531 0 -0.0062422065618224542 0.0076992766834484277 0 -0.0060244696672250297 0.0072725182904259779 0 -0.006453716636432889 0.0069787606372338209 0 -0.0033673237241906751 0.0096040189947380148 0 -0.0031910371609004326 0.0086292252338545424 0 0.001363750204030357 0.010843285528903849 0 -0.0033673237241906751 0.0096040189947380148 0 0.00032098511308772292 0.010319008684294383 0 -0.00011833174470333691 0.010005602658266966 0 2.8695862815720115e-05 0.01065610799223219 0 -0.0053109420961439859 0.0079787683736949853 0 -0.0051150831558460438 0.0077951329886694846 0 -0.0052946777791017105 0.0075755196445408002 0 -0.0053109420961439859 0.0079787683736949853 0 -0.0054719022369107634 0.0077632512650469606 0 -0.0052946777791017105 0.0075755196445408002 0 -0.0055898033548203562 0.0080382852702252823 0 -0.0054719022369107634 0.0077632512650469606 0 -0.0057654863719170737 0.0075802321972008911 0 -0.0054719022369107634 0.0077632512650469606 0 -0.0057654863719170737 0.0075802321972008911 0 -0.0055303558368161553 0.0074320946979486548 0 -0.0057654863719170737 0.0075802321972008911 0 -0.0057285248697873268 0.0071680793009965531 0 -0.0055303558368161553 0.0074320946979486548 0 -0.0057285248697873268 0.0071680793009965531 0 -0.0055303558368161553 0.0074320946979486548 0 -0.0054185152303940646 0.0070760807547679584 0 -0.0051060942849364714 0.0070974651805931514 0 -0.0052946777791017105 0.0075755196445408002 0 -0.0054185152303940646 0.0070760807547679584 0 -0.0055303558368161553 0.0074320946979486548 0 -0.0052946777791017105 0.0075755196445408002 0 -0.0054185152303940646 0.0070760807547679584 0 -0.0054719022369107634 0.0077632512650469606 0 -0.0055303558368161553 0.0074320946979486548 0 -0.0052946777791017105 0.0075755196445408002 0 -0.0052362245077466592 0.0067076654733344782 0 -0.0054185152303940646 0.0070760807547679584 0 -0.0056416946613057819 0.0066728055701105104 0 -0.0051060942849364714 0.0070974651805931514 0 -0.0052362245077466592 0.0067076654733344782 0 -0.0054185152303940646 0.0070760807547679584 0 -0.0057285248697873268 0.0071680793009965531 0 -0.0054185152303940646 0.0070760807547679584 0 -0.0056416946613057819 0.0066728055701105104 0 -0.0057285248697873268 0.0071680793009965531 0 -0.0056416946613057819 0.0066728055701105104 0 -0.0059712280617996889 0.0068833082716507916 0 -0.0056416946613057819 0.0066728055701105104 0 -0.0057228010500955462 0.006230321533249825 0 -0.0059248452711946854 0.0063937951269353102 0 -0.0056416946613057819 0.0066728055701105104 0 -0.0057228010500955462 0.006230321533249825 0 -0.0053757368304146631 0.0063174460721957546 0 -0.0052362245077466592 0.0067076654733344782 0 -0.0056416946613057819 0.0066728055701105104 0 -0.0053757368304146631 0.0063174460721957546 0 -0.0050180836827556571 0.0064133413224644019 0 -0.0053757368304146631 0.0063174460721957546 0 -0.0051622068320843796 0.0060594767674582335 0 -0.0050180836827556571 0.0064133413224644019 0 -0.0052362245077466592 0.0067076654733344782 0 -0.0053757368304146631 0.0063174460721957546 0 -0.0060244696672250297 0.0072725182904259779 0 -0.006453716636432889 0.0069787606372338209 0 -0.0059712280617996889 0.0068833082716507916 0 -0.0060244696672250297 0.0072725182904259779 0 -0.0057285248697873268 0.0071680793009965531 0 -0.0059712280617996889 0.0068833082716507916 0 -0.006453716636432889 0.0069787606372338209 0 -0.0059712280617996889 0.0068833082716507916 0 -0.0059248452711946854 0.0063937951269353102 0 -0.0056416946613057819 0.0066728055701105104 0 -0.0059712280617996889 0.0068833082716507916 0 -0.0059248452711946854 0.0063937951269353102 0 -0.006453716636432889 0.0069787606372338209 0 -0.0059248452711946854 0.0063937951269353102 0 -0.006771325421263308 0.0057038365887606517 0 -0.0031910371609004326 0.0086292252338545424 0 -0.0031999489046342189 0.0081606977755633858 0 6.8127754688256258e-05 0.010754573371700262 0 2.8695862815720115e-05 0.01065610799223219 0 0.00037451603917537001 0.010663712523405889 0 -0.006771325421263308 0.0057038365887606517 0 -0.0051635953598918463 0.005135182421280856 0 -0.0058431088740358572 0.0040806782068158942 0 -0.0059248452711946854 0.0063937951269353102 0 -0.006771325421263308 0.0057038365887606517 0 -0.0051635953598918463 0.005135182421280856 0 -0.0058781258307163626 0.006289068488041661 0 -0.0056044936999219584 0.0054224719079572943 0 -0.0057228010500955462 0.006230321533249825 0 -0.0059248452711946854 0.0063937951269353102 0 -0.0060626635152123643 0.005837221281235711 0 -0.0051635953598918463 0.005135182421280856 0 -0.0058431088740358572 0.0040806782068158942 0 -0.0044899888057550741 0.003558211203910807 0 -0.0056044936999219584 0.0054224719079572943 0 -0.0052282953403697064 0.0044519192783675403 0 -0.0031999489046342189 0.0081606977755633858 0 -0.0034005183156330951 0.0057904880667360601 0 -0.006771325421263308 0.0057038365887606517 0 -0.0058431088740358572 0.0040806782068158942 0 -0.0070484136082134058 0.0035127269547913392 0 -0.0050451537267975624 0.0057161422421646048 0 -0.0051622068320843796 0.0060594767674582335 0 -0.0054929999904431452 0.0058336612655322884 0 -0.0048984588430206919 0.0060741796627682056 0 -0.0050451537267975624 0.0057161422421646048 0 -0.0051622068320843796 0.0060594767674582335 0 -0.0053757368304146631 0.0063174460721957546 0 -0.0051622068320843796 0.0060594767674582335 0 -0.0054929999904431452 0.0058336612655322884 0 -0.0057228010500955462 0.006230321533249825 0 -0.0060626635152123643 0.005837221281235711 0 -0.0054929999904431452 0.0058336612655322884 0 -0.0060626635152123643 0.005837221281235711 0 -0.0054929999904431452 0.0058336612655322884 0 -0.005712448705220783 0.0054054622972738381 0 -0.0057228010500955462 0.006230321533249825 0 -0.0053757368304146631 0.0063174460721957546 0 -0.0054929999904431452 0.0058336612655322884 0 -0.0060626635152123643 0.005837221281235711 0 -0.0060218147621982137 0.0050321712664954318 0 -0.005712448705220783 0.0054054622972738381 0 -0.0060218147621982137 0.0050321712664954318 0 -0.005712448705220783 0.0054054622972738381 0 -0.0056291795948732121 0.0049517382950183819 0 -0.005712448705220783 0.0054054622972738381 0 -0.0053419766612673456 0.0053307629572797791 0 -0.0056291795948732121 0.0049517382950183819 0 -0.0050451537267975624 0.0057161422421646048 0 -0.0054929999904431452 0.0058336612655322884 0 -0.0053419766612673456 0.0053307629572797791 0 -0.0054929999904431452 0.0058336612655322884 0 -0.005712448705220783 0.0054054622972738381 0 -0.0053419766612673456 0.0053307629572797791 0 -0.0053419766612673456 0.0053307629572797791 0 -0.0051919354533605635 0.0047982631727406877 0 -0.0056291795948732121 0.0049517382950183819 0 -0.0048384714001838847 0.0053145417194939643 0 -0.0053419766612673456 0.0053307629572797791 0 -0.0051919354533605635 0.0047982631727406877 0 -0.0048384714001838847 0.0053145417194939643 0 -0.0050451537267975624 0.0057161422421646048 0 -0.0053419766612673456 0.0053307629572797791 0 -0.0045966904730999642 0.0035624508832938786 0 -0.0051919354533605635 0.0047982631727406877 0 -0.0054998901213856267 0.0027199546418041351 0 -0.0054330617802752302 0.0051529532627788881 0 -0.0059971464429413824 0.0020298095384247523 0 -0.0051919354533605635 0.0047982631727406877 0 -0.0077981201300676064 0.0026684978704949866 0 -0.0054998901213856267 0.0027199546418041351 0 -0.0051919354533605635 0.0047982631727406877 0 -0.0056291795948732121 0.0049517382950183819 0 -0.0058467031428231335 0.0043739150146848947 0 -0.0052282953403697064 0.0044519192783675403 0 -0.0059971464429413824 0.0020298095384247523 0 -0.0060218147621982137 0.0050321712664954318 0 -0.0056291795948732121 0.0049517382950183819 0 -0.0058467031428231335 0.0043739150146848947 0 -0.0068063040253013296 -0.00064077822277538391 0 -0.0059971464429413824 0.0020298095384247523 0 -0.0070524001064264027 0.00029646677924557253 0 -0.0077981201300676064 0.0026684978704949866 0 -0.0064677101960592173 0.0016619580409640035 0 -0.0077981201300676064 0.0026684978704949866 0 -0.0064677101960592173 0.0016619580409640035 0 -0.0054998901213856267 0.0027199546418041351 0 -0.0055612920380181301 0.0010030730170250766 0 -0.0064677101960592173 0.0016619580409640035 0 -0.0054998901213856267 0.0027199546418041351 0 -0.0058431088740358572 0.0040806782068158942 0 -0.0070484136082134058 0.0035127269547913392 0 -0.0056707529325551185 0.0023131370650321345 0 -0.0070484136082134058 0.0035127269547913392 0 -0.0056707529325551185 0.0023131370650321345 0 -0.0072198505284649531 0.001128690847009791 0 -0.0044899888057550741 0.003558211203910807 0 -0.0039840437024435795 0.0019280166895043192 0 -0.0056707529325551185 0.0023131370650321345 0 -0.0058431088740358572 0.0040806782068158942 0 -0.0044899888057550741 0.003558211203910807 0 -0.0056707529325551185 0.0023131370650321345 0 -0.0061014138540314618 -0.00067874402364159422 0 -0.0059971464429413824 0.0020298095384247523 0 -0.0056269400823382668 0.00039976267889530489 0 -0.0039840437024435795 0.0019280166895043192 0 -0.0056707529325551185 0.0023131370650321345 0 -0.0056269400823382668 0.00039976267889530489 0 -0.0056707529325551185 0.0023131370650321345 0 -0.0072198505284649531 0.001128690847009791 0 -0.00059039981043118291 0.0047760576747131727 0 -0.0015490625928959261 0.0060846734967914002 0 -0.0021507030355744088 0.004720193661332194 0 -0.0034005183156330951 0.0057904880667360601 0 -0.0038964267374444776 0.0029913914930479639 0 0.0002947477727715632 0.0080706408569710831 0 -0.0015490625928959261 0.0060846734967914002 0 -0.0023586065527418103 0.0073844642494980276 0 0.0002947477727715632 0.0080706408569710831 0 -0.00059039981043118291 0.0047760576747131727 0 -0.0015490625928959261 0.0060846734967914002 0 -0.0023586065527418103 0.0073844642494980276 0 -0.0030836459724757344 0.0053663699093939327 0 -0.0046259806916186703 0.0065586028602922638 0 -0.0015490625928959261 0.0060846734967914002 0 -0.0023586065527418103 0.0073844642494980276 0 -0.0030836459724757344 0.0053663699093939327 0 -0.0015490625928959261 0.0060846734967914002 0 -0.0030836459724757344 0.0053663699093939327 0 -0.0021507030355744088 0.004720193661332194 0 -0.0032292485979342968 0.0037946258240852048 0 -0.0030836459724757344 0.0053663699093939327 0 -0.0021507030355744088 0.004720193661332194 0 -0.0032292485979342968 0.0037946258240852048 0 -0.0030836459724757344 0.0053663699093939327 0 -0.0045107805829168544 0.0051378441881053203 0 -0.0045107805829168544 0.0051378441881053203 0 -0.0060650896641374734 0.0056697991578817143 0 -0.0046259806916186703 0.0065586028602922638 0 -0.0048720312448165019 0.0038768890899207914 0 -0.0045107805829168544 0.0051378441881053203 0 -0.0055097030807400634 0.0046802904109101949 0 -0.0030836459724757344 0.0053663699093939327 0 -0.0045107805829168544 0.0051378441881053203 0 -0.0046259806916186703 0.0065586028602922638 0 -0.0045107805829168544 0.0051378441881053203 0 -0.0060650896641374734 0.0056697991578817143 0 -0.0055097030807400634 0.0046802904109101949 0 -0.0063870258027656744 0.0038438739650000749 0 -0.0060650896641374734 0.0056697991578817143 0 -0.0055097030807400634 0.0046802904109101949 0 -0.0060650896641374734 0.0056697991578817143 0 -0.0055931550575527922 0.0073789190423992675 0 -0.0046259806916186703 0.0065586028602922638 0 -0.0077998892514315118 0.0056093092368734668 0 -0.0060650896641374734 0.0056697991578817143 0 -0.0055931550575527922 0.0073789190423992675 0 -0.0023586065527418103 0.0073844642494980276 0 -0.0046259806916186703 0.0065586028602922638 0 -0.0034665348526255191 0.0094024700331956906 0 -0.0058440602757835435 0.0076910014279788445 0 -0.0046259806916186703 0.0065586028602922638 0 -0.0034665348526255191 0.0094024700331956906 0 -0.001475694499349519 0.0084116905716911088 0 -0.0049277593313495904 0.0075602878102644551 0 -0.001475694499349519 0.0084116905716911088 0 -0.0015459826172214636 0.010599032135049249 0 0.0010862035505970569 0.012019687285076771 0 0.0004670650931298412 0.011599045250796226 0 0.0012241189656047786 0.011439359522363935 0 0.0017507631490456075 0.011463585968911233 0 0.0010862035505970569 0.012019687285076771 0 0.0012241189656047786 0.011439359522363935 0 0.0038974977459209892 0.010341912658304768 0 -0.001475694499349519 0.0084116905716911088 0 0.0016491816652059617 0.010910190554662172 0 0.0010716928090614322 0.010965434666672172 0 0.0012241189656047786 0.011439359522363935 0 0.00042592768456341582 0.010811018904433749 0 0.0010716928090614322 0.010965434666672172 0 0.0004670650931298412 0.011599045250796226 0 0.0010716928090614322 0.010965434666672172 0 0.0004670650931298412 0.011599045250796226 0 0.0012241189656047786 0.011439359522363935 0 -0.0015459826172214636 0.010599032135049249 0 -0.00064113113253370631 0.010757549754890589 0 0.00042592768456341582 0.010811018904433749 0 0.0004670650931298412 0.011599045250796226 0 -0.00051056156650402618 0.010778813816297986 0 -0.0034665348526255191 0.0094024700331956906 0 -0.00051056156650402618 0.010778813816297986 0 -0.00085556647976482811 0.0093851456183715667 0 0.00037451603917537001 0.010663712523405889 0 -0.00051056156650402618 0.010778813816297986 0 -0.00085556647976482811 0.0093851456183715667 0 0.0002947477727715632 0.0080706408569710831 0 -0.0023586065527418103 0.0073844642494980276 0 -0.00085556647976482811 0.0093851456183715667 0 0.00037451603917537001 0.010663712523405889 0 0.0002947477727715632 0.0080706408569710831 0 -0.00085556647976482811 0.0093851456183715667 0 -0.0023586065527418103 0.0073844642494980276 0 -0.0034665348526255191 0.0094024700331956906 0 -0.00085556647976482811 0.0093851456183715667 0 
</DataArray>
</PointData>
<CellData Scalars="region_id,cross_section_updated," Vectors="" Tensors="stress,">
<DataArray type="Float64" Name="region_id" format="ascii">
5 5 5 5 5 5 5 5 5 5 5 5 5 5 6 5 5 5 6 6 5 5 5 5 5 5 5 5 5 5 5 5 5 5 5 5 5 5 5 5 5 5 5 5 5 5 5 5 5 5 5 5 5 5 5 5 5 5 5 5 6 5 5 5 5 5 5 5 5 5 5 5 5 5 5 5 5 6 5 5 5 5 5 5 5 5 5 6 6 5 5 5 5 5 5 5 5 5 5 5 5 5 5 5 5 6 5 6 5 6 5 5 6 5 5 6 5 5 5 5 5 5 5 5 5 6 5 5 5 5 5 5 5 5 5 5 5 5 5 5 5 5 5 5 5 5 5 5 5 5 5 6 5 5 5 5 5 6 6 5 6 5 6 5 5 5 5 5 5 5 5 5 6 5 5 5 5 6 5 5 5 6 5 5 5 5 5 5 5 5 6 6 5 6 5 6 5 5 5 5 5 5 6 5 5 6 6 5 5 5 5 5 5 5 5 5 6 5 5 5 5 5 5 5 5 5 5 5 6 5 6 5 5 5 5 5 5 6 5 5 6 5 5 6 5 5 5 5 5 5 6 5 5 6 6 5 5 5 6 5 6 5 5 6 6 6 5 5 5 5 5 5 5 5 5 5 5 5 5 5 5 5 5 5 5 5 5 5 5 5 5 5 5 5 5 5 5 6 5 5 5 6 5 5 5 6 5 5 5 5 5 5 5 5 5 6 5 5 5 5 5 5 5 5 5 5 5 5 6 5 5 5 5 5 5 5 5 5 6 6 5 5 5 5 5 5 5 5 5 5 5 5 5 5 5 6 5 5 5 6 5 5 5 5 5 5 5 5 6 5 5 5 5 5 5 5 5 5 5 6 5 5 5 5 5 5 5 5 6 6 5 5 5 5 5 5 5 6 6 5 5 6 5 5 5 5 5 5 6 5 5 5 5 5 5 6 5 5 5 5 5 6 5 5 5 5 5 5 5 5 5 5 5 5 5 5 5 5 5 5 5 5 5 5 5 5 5 5 5 5 5 5 5 5 5 6 5 5 5 5 6 5 5 5 6 5 5 5 5 6 5 5 5 5 5 5 5 5 5 5 5 5 5 5 5 5 5 5 5 5 5 6 5 5 5 6 5 5 5 5 5 5 5 5 6 5 5 5 5 5 6 5 5 6 6 5 6 5 5 6 5 5 6 5 5 5 6 6 5 5 5 6 5 5 6 6 5 5 5 5 5 6 5 5 5 5 6 5 5 5 6 5 5 5 5 5 5 5 6 5 5 5 5 5 5 5 5 5 5 5 5 5 5 5 5 6 5 5 5 5 5 5 5 5 5 5 5 5 5 5 5 5 5 6 5 5 5 5 5 5 6 5 5 6 5 5 5 5 5 6 5 5 6 5 5 5 5 5 6 6 5 5 5 6 5 5 5 6 5 6 5 5 6 6 5 5 6 6 6 5 6 5 5 6 6 5 5 5 5 6 5 5 5 5 6 5 6 5 6 5 6 5 6 5 5 5 6 5 5 5 5 5 6 5 5 5 5 5 6 5 5 6 5 5 6 5 5 5 5 6 5 5 5 5 5 6 5 5 5 5 5 5 5 5 5 5 5 5 5 5 5 5 5 5 5 5 5 5 5 5 5 5 5 5 5 5 5 5 5 5 5 5 5 5 5 5 5 5 5 5 5 5 5 5 5 5 5 5 5 5 5 5 5 5 5 5 5 5 5 5 5 5 5 5 5 5 5 5 5 5 5 5 5 5 5 5 5 5 5 5 5 5 5 6 5 5 5 5 5 5 5 5 5 5 5 5 5 5 5 5 5 5 5 5 5 5 6 6 6 6 5 5 5 5 6 5 6 5 6 5 5 5 5 6 5 5 5 6 5 5 5 5 5 5 5 5 5 5 5 5 5 6 5 5 5 5 5 5 5 5 5 5 5 5 5 6 5 5 6 5 5 6 5 5 5 5 5 6 5 5 6 5 5 5 5 6 5 6 5 5 5 6 6 6 5 5 5 5 5 5 5 5 6 5 5 5 5 5 5 5 5 5 5 5 6 5 5 5 5 5 5 5 5 5 5 5 5 6 5 5 5 6 5 5 5 5 5 5 6 5 6 5 5 6 5 5 5 5 5 5 5 5 5 5 5 5 5 5 5 6 5 5 6 5 5 5 5 5 6 6 5 5 5 5 5 6 5 6 5 5 5 5 5 5 5 5 5 5 5 5 5 5 5 5 5 5 5 5 5 5 6 5 5 5 5 5 5 5 6 5 5 5 5 5 5 5 6 5 6 5 5 5 5 6 5 5 5 5 5 5 5 5 5 6 5 5 5 6 5 5 5 6 5 5 5 5 5 5 5 5 5 5 5 5 5 5 5 5 6 5 5 5 5 5 5 5 5 5 5 5 6 6 5 5 5 5 5 5 6 5 5 5 5 5 5 5 5 5 5 5 6 5 5 5 5 5 5 5 5 5 5 5 5 5 5 5 5 5 5 5 5 5 5 5 6 5 5 5 5 5 5 5 5 5 5 5 5 5 5 5 5 5 5 5 5 5 5 5 5 5 5 5 5 5 5 5 5 6 5 6 5 5 5 5 5 6 5 5 5 5 5 6 5 6 6 5 6 5 5 6 5 5 5 5 6 5 5 5 5 5 5 5 5 5 5 5 5 5 5 5 5 5 6 5 5 5 6 5 5 6 5 5 5 5 5 5 6 5 5 5 5 5 5 5 6 5 5 6 5 6 6 5 5 5 5 5 5 5 5 5 6 5 5 6 5 5 5 5 5 5 5 5 5 5 5 5 5 5 5 5 5 5 5 5 5 5 5 5 5 5 5 5 5 5 5 5 5 5 5 5 5 5 5 5 5 5 5 5 5 5 5 5 5 5 5 5 5 5 5 5 5 6 5 5 5 6 5 6 5 5 5 6 5 5 5 5 5 5 6 5 5 6 5 5 5 5 5 5 5 5 5 5 5 5 5 5 5 5 5 5 5 5 6 6 5 5 5 5 5 5 5 5 5 5 6 5 5 5 6 5 5 5 6 5 5 5 6 5 6 5 5 5 5 5 5 5 6 5 5 5 5 5 5 5 5 5 5 5 5 5 5 5 5 5 5 5 5 5 5 5 5 5 5 5 5 5 5 5 5 5 5 5 5 5 5 5 6 5 5 5 5 5 5 5 5 5 5 6 5 5 5 6 5 5 5 5 5 5 5 5 5 5 5 5 5 5 5 5 5 5 5 5 5 5 5 5 5 5 5 5 5 5 5 6 5 5 5 5 6 5 5 5 5 5 5 5 5 5 5 5 5 5 5 5 5 6 5 5 5 5 5 6 5 5 5 5 5 6 5 5 5 5 5 5 5 6 5 5 5 6 5 5 5 5 5 5 5 5 5 5 5 5 5 5 5 5 5 5 5 5 5 5 5 5 5 5 5 5 5 5 5 5 5 5 5 5 5 5 6 5 6 5 5 5 5 5 5 5 5 5 5 5 5 5 5 5 5 5 5 5 5 6 5 5 5 5 5 5 5 5 5 5 5 5 5 5 5 5 5 5 5 5 5 5 6 5 6 5 5 6 5 5 5 5 6 6 5 5 5 5 5 5 5 6 5 5 5 5 5 5 5 6 5 5 5 5 5 6 5 5 6 5 6 5 5 5 5 5 6 5 5 5 5 5 5 6 5 5 6 5 5 5 5 5 5 5 5 5 5 5 6 5 5 5 6 6 5 6 6 5 5 5 5 5 5 5 5 5 6 5 6 5 5 6 5 6 5 5 5 5 5 5 5 5 5 5 5 5 5 5 5 5 5 5 6 5 6 5 5 5 5 6 5 5 5 6 6 5 6 5 5 5 5 6 5 5 5 6 5 5 5 5 5 6 5 5 5 5 5 5 5 5 6 5 5 5 5 5 6 5 5 5 6 5 5 5 6 5 5 5 6 5 5 5 5 5 5 5 5 5 5 6 5 5 5 5 5 5 5 5 5 5 5 5 5 5 6 5 5 5 5 5 5 5 5 5 5 6 5 5 5 5 5 5 5 6 5 5 5 5 5 5 6 5 5 6 5 5 5 6 5 5 5 5 5 5 5 5 5 5 5 5 5 5 6 5 5 5 6 5 5 5 6 5 6 5 5 5 5 5 5 5 5 5 6 5 5 5 5 6 5 5 6 5 5 6 5 5 6 5 5 5 6 5 5 5 5 5 5 6 5 5 5 5 5 5 5 6 6 5 5 5 5 6 5 5 5 5 5 5 6 5 6 5 6 5 5 5 5 5 5 5 5 5 5 6 5 5 5 6 5 5 5 5 5 6 5 5 6 5 5 5 5 5 5 5 5 5 5 5 5 5 5 6 5 5 5 5 5 5 5 5 5 5 5 6 5 5 5 5 5 5 5 5 6 5 5 5 6 5 6 5 5 5 5 5 5 5 5 5 5 5 5 5 5 5 5 6 5 5 5 5 5 6 5 5 5 5 5 5 6 5 5 5 5 5 5 5 5 5 5 5 5 5 5 6 5 5 6 5 5 5 5 5 5 5 5 5 5 5 5 5 5 5 5 5 5 5 5 5 5 5 5 5 5 5 5 5 5 5 6 5 5 5 5 5 5 5 5 5 5 5 5 6 5 5 5 5 5 5 5 5 5 5 5 5 5 5 6 5 5 5 5 5 5 5 5 5 5 6 5 5 5 5 5 5 5 5 5 6 5 5 5 6 5 5 5 5 5 5 5 5 5 5 5 5 5 5 5 5 5 5 5 5 5 5 5 5 5 5 5 5 5 5 6 5 5 5 5 5 5 6 6 5 5 5 5 6 5 5 5 5 5 6 6 5 6 6 6 5 5 5 5 5 5 5 5 6 5 5 6 5 5 5 5 5 5 5 5 5 5 5 5 5 5 5 5 5 5 5 5 5 5 5 5 5 5 5 5 5 5 5 5 5 5 5 5 5 5 5 5 5 5 5 5 5 5 5 6 5 5 5 5 5 6 5 6 5 5 6 5 5 5 5 5 6 5 5 5 5 6 5 5 6 5 5 5 5 5 5 5 5 5 5 5 5 5 5 5 5 5 5 5 6 5 5 5 5 5 5 5 5 6 5 5 5 5 5 5 5 5 5 5 5 5 6 5 5 6 5 5 6 5 6 5 5 5 6 5 5 5 6 5 5 5 5 5 5 5 5 5 5 5 5 5 5 5 6 5 5 5 5 5 5 5 5 5 5 5 5 5 5 5 5 5 5 5 6 5 5 5 5 5 5 5 5 5 5 5 5 5 5 5 6 5 5 5 6 5 5 5 5 5 6 5 5 5 5 5 5 5 5 6 5 5 5 5 5 5 6 5 5 5 5 5 5 5 5 5 6 5 6 5 5 5 5 6 5 5 5 5 5 6 5 5 5 5 5 5 6 5 5 5 5 5 5 5 5 5 5 5 5 6 5 5 5 5 5 5 5 5 5 5 5 5 5 6 5 5 5 5 5 5 5 5 5 5 5 5 5 5 5 5 5 5 5 5 5 5 5 5 6 5 5 6 5 5 5 5 5 5 6 5 5 5 5 5 5 5 6 5 5 5 5 5 5 5 5 5 5 5 5 5 5 5 5 5 5 5 5 5 5 5 6 5 5 5 5 5 5 5 5 5 5 5 5 5 5 5 5 5 5 5 5 5 5 5 5 5 5 5 5 5 5 5 5 5 5 5 5 5 6 5 5 5 5 6 5 5 6 5 5 6 5 5 5 6 5 6 5 5 5 5 5 5 5 5 5 5 5 5 5 5 5 5 5 5 5 5 5 5 5 5 5 5 5 5 5 5 5 5 5 5 5 5 5 5 5 5 5 6 5 5 5 5 6 5 5 5 5 5 6 5 5 5 5 5 5 6 5 6 6 5 5 5 5 5 6 5 6 5 6 5 5 5 5 5 5 5 5 5 5 6 5 5 6 5 5 5 5 5 5 5 5 5 5 5 6 5 5 5 6 5 6 5 5 5 5 5 6 5 5 5 5 5 5 5 5 5 5 5 5 6 5 5 5 5 5 5 5 5 6 5 5 5 6 5 5 6 5 5 5 5 5 5 5 5 5 5 6 5 5 5 5 5 5 5 5 6 5 5 5 5 5 5 5 5 5 5 5 5 5 5 5 5 5 5 6 5 6 5 5 5 5 6 5 5 5 5 6 5 5 5 5 5 5 5 5 5 5 5 5 5 5 5 5 5 6 5 6 5 5 5 6 5 5 5 6 5 5 6 5 5 6 6 5 5 5 5 5 5 5 6 5 5 6 5 5 6 5 5 5 5 5 5 6 5 5 5 5 5 5 6 5 5 5 5 5 5 5 5 5 5 5 5 6 5 5 5 5 5 5 5 5 5 5 5 5 5 5 6 5 5 5 6 5 5 5 5 5 6 5 6 5 6 5 5 5 6 5 5 5 6 5 6 5 5 5 5 5 5 5 5 5 5 5 5 5 5 5 5 5 5 5 5 5 5 5 5 5 5 5 5 5 5 5 5 5 5 5 5 5 5 6 5 5 6 5 5 5 6 5 5 5 6 6 5 5 5 5 5 6 5 6 5 5 5 5 5 5 6 5 5 6 5 5 5 5 5 6 5 5 5 5 5 5 5 5 5 5 5 5 5 5 5 5 5 5 5 5 5 5 5 5 6 5 5 5 5 5 5 5 5 5 5 5 5 5 6 5 5 5 5 5 6 5 5 5 5 5 6 5 5 5 5 5 5 5 5 5 6 5 5 5 6 5 6 5 5 5 5 6 5 5 6 5 5 5 5 5 5 5 5 6 5 5 5 5 5 5 5 5 5 6 5 5 6 5 6 6 5 5 5 5 5 5 5 5 6 6 5 5 5 5 5 5 5 5 5 5 5 5 5 5 6 5 5 5 5 5 5 6 6 5 6 6 5 5 5 5 5 6 6 6 5 6 5 5 5 5 5 5 5 5 5 6 5 5 5 5 5 5 6 5 5 5 5 5 5 5 5 5 5 5 5 5 5 5 5 5 5 6 5 5 5 5 5 6 5 6 5 5 5 5 5 5 5 6 5 5 5 6 5 5 5 5 5 5 6 5 5 5 5 5 6 5 5 5 5 5 5 5 6 5 5 5 5 5 5 5 5 5 5 5 6 5 6 5 6 5 6 5 5 5 5 6 5 6 5 5 5 5 5 5 6 5 6 5 5 5 5 5 5 5 5 5 5 5 5 5 5 5 5 5 5 5 5 6 5 5 5 5 6 6 5 5 5 6 5 5 5 5 6 5 5 5 5 5 5 6 5 5 5 5 5 5 5 5 5 5 6 6 5 6 5 5 5 5 5 5 5 5 5 5 5 5 6 5 5 5 5 5 5 5 5 5 5 5 5 6 5 5 5 5 5 5 5 5 5 5 5 6 5 5 5 5 5 5 5 6 5 5 5 5 5 5 5 5 6 5 5 5 5 6 5 5 5 5 5 5 5 5 5 5 5 5 5 6 5 5 6 5 5 6 5 5 5 5 5 5 5 6 5 5 5 6 5 5 5 5 6 5 5 5 5 5 5 5 5 5 5 5 5 5 5 5 5 5 5 5 5 5 5 5 5 5 6 5 5 5 5 6 5 5 5 5 5 5 5 5 5 5 5 5 5 5 5 5 5 5 6 5 6 5 5 5 5 5 5 6 5 6 5 6 5 5 5 5 5 5 5 5 6 5 5 5 5 5 5 5 5 5 5 5 5 5 5 5 5 5 6 5 5 5 5 5 5 5 5 5 5 5 5 5 5 5 5 5 5 5 5 5 5 5 5 5 5 5 5 5 5 5 5 5 5 5 5 5 5 5 5 5 5 5 5 5 5 5 5 5 5 5 5 5 5 5 5 5 5 5 5 5 5 5 5 5 5 5 6 5 5 5 5 5 5 5 5 5 6 5 5 5 6 5 5 5 5 5 5 5 5 5 5 5 5 5 5 5 5 5 5 5 5 5 5 6 5 5 5 6 5 5 5 5 5 5 5 5 5 5 5 5 5 5 5 5 5 5 5 5 5 6 5 5 5 5 5 5 5 5 5 5 5 5 5 5 5 5 5 5 5 5 5 5 5 5 5 5 5 5 5 5 5 5 5 5 5 5 5 5 5 6 5 5 5 5 5 6 5 5 6 5 5 5 5 5 5 5 5 5 5 5 5 5 5 5 6 5 5 5 5 6 5 5 6 5 5 5 5 5 5 5 5 5 5 5 5 5 5 6 5 5 6 5 5 5 5 5 5 5 5 5 5 5 5 6 5 5 5 6 5 6 5 5 5 5 5 5 5 5 5 5 5 5 5 5 5 6 5 6 5 5 5 5 5 5 5 5 6 5 5 5 5 5 5 5 5 5 5 5 5 5 5 5 5 5 5 5 5 5 5 5 5 6 5 5 5 6 5 5 5 5 5 5 5 5 5 5 5 5 5 5 5 5 5 5 6 5 5 5 5 6 5 5 5 6 5 6 5 6 5 5 5 6 5 5 5 6 5 5 5 5 5 5 5 5 5 5 5 5 5 6 5 5 5 5 6 5 5 5 5 5 5 5 5 5 5 5 5 5 5 5 5 5 5 5 5 5 5 5 5 5 5 5 6 5 5 5 5 6 5 5 5 5 5 5 5 5 5 5 5 6 5 5 5 5 6 5 5 5 5 5 5 6 5 5 5 5 6 6 5 5 5 6 5 5 6 5 5 5 5 5 5 6 5 5 5 5 5 5 6 6 5 5 5 5 5 5 6 5 5 5 5 5 5 5 5 5 5 5 5 6 5 5 5 5 5 5 5 5 5 5 5 5 5 5 5 6 5 5 5 5 5 6 5 6 5 5 5 5 5 5 5 5 5 5 5 5 6 5 5 5 5 5 5 5 5 5 5 5 5 5 5 5 5 6 5 5 5 5 5 5 5 5 5 5 5 5 6 5 5 6 5 5 5 5 5 5 5 6 5 6 5 5 5 5 5 5 5 5 5 5 5 5 5 6 5 5 5 5 5 5 5 5 5 5 5 5 5 5 5 5 5 6 5 5 5 5 5 5 6 5 5 5 5 5 5 5 5 5 5 5 5 5 5 5 5 5 5 5 5 5 6 5 5 5 6 5 5 5 5 5 5 5 5 5 5 6 5 6 6 5 5 5 5 6 5 5 5 5 5 6 5 6 5 5 5 5 5 5 6 6 5 5 5 6 5 5 5 5 6 5 5 5 5 5 5 6 5 5 5 6 5 5 5 5 5 6 5 5 5 5 5 5 5 5 6 5 5 5 5 5 5 5 6 5 5 5 5 5 5 6 5 5 5 6 5 6 5 5 5 5 6 5 5 5 5 5 5 6 5 5 5 5 6 5 5 5 5 6 5 6 5 5 6 5 5 6 5 6 5 5 5 5 5 5 5 5 5 5 5 5 5 5 5 5 5 5 5 5 5 5 5 6 5 5 5 5 5 6 5 5 5 5 5 5 5 6 5 5 5 5 6 5 5 5 5 5 5 5 5 5 5 5 5 5 5 5 5 5 5 5 5 5 5 5 5 5 5 5 5 5 6 5 5 5 5 5 6 5 5 5 5 5 5 5 5 5 5 5 5 5 6 5 5 5 5 6 5 5 5 5 5 6 5 5 5 6 5 5 5 5 5 5 6 5 5 5 5 6 5 5 5 5 5 5 5 5 5 5 6 5 5 5 5 5 5 5 6 5 5 5 5 5 5 5 5 5 5 5 5 6 5 5 5 6 5 5 5 6 5 5 5 5 6 5 5 5 5 5 5 5 5 5 5 5 6 5 6 5 5 5 6 5 6 5 5 5 5 5 5 5 5 5 5 5 5 6 5 5 6 5 5 5 5 5 5 5 5 5 6 5 5 5 5 5 5 5 5 5 6 5 5 5 5 5 5 5 5 5 5 5 5 5 5 5 5 5 5 5 5 5 5 5 5 5 5 5 5 5 5 5 5 5 5 5 5 5 5 5 5 5 5 5 5 5 5 6 5 5 5 5 5 5 5 5 5 5 5 5 5 5 5 5 5 5 5 5 5 5 6 6 5 5 5 5 5 5 5 5 5 6 5 5 5 5 5 5 5 5 5 5 5 5 5 5 5 5 5 5 5 5 5 5 5 5 5 5 5 5 5 5 5 5 5 5 5 5 5 5 5 5 5 5 5 5 5 5 5 5 5 5 5 5 5 5 5 5 5 5 5 5 5 5 5 5 5 5 5 5 5 5 5 5 5 5 5 5 5 5 5 5 5 5 5 5 5 5 5 5 5 6 5 5 5 5 5 5 5 5 5 5 5 5 5 5 6 5 5 5 5 6 5 6 5 5 5 5 5 5 5 5 6 5 5 5 5 6 5 6 6 5 5 5 5 5 5 5 5 5 5 5 5 5 5 5 5 5 6 5 5 5 5 5 6 5 5 5 5 5 5 5 5 5 6 5 6 5 5 5 5 5 5 5 5 5 5 5 5 5 5 5 5 5 5 5 5 6 5 6 5 5 5 5 5 5 5 5 6 5 5 5 5 5 5 5 5 5 5 5 6 5 6 5 5 5 5 5 5 5 5 5 5 5 5 6 5 5 5 5 6 5 5 5 6 5 5 6 5 5 6 5 5 5 6 5 5 6 5 5 5 5 5 5 5 5 5 5 5 5 5 5 5 5 5 5 5 5 6 5 6 5 5 6 5 5 5 5 6 5 5 5 5 5 5 5 5 5 5 5 6 5 5 5 5 5 5 5 5 5 5 5 5 5 5 6 5 5 5 5 5 5 5 5 5 5 5 5 5 5 5 5 5 5 5 5 5 5 5 5 5 5 5 5 5 5 5 5 5 5 6 5 5 5 5 5 5 6 5 5 5 5 5 5 6 5 5 6 5 6 5 5 5 5 5 5 5 5 5 5 5 5 5 6 5 5 5 5 5 5 5 5 5 5 5 5 5 6 6 5 5 5 5 5 5 5 5 5 5 5 5 5 6 5 5 5 5 5 5 5 6 5 5 5 5 5 5 5 5 6 5 5 6 5 5 5 6 6 5 5 5 5 5 5 5 5 5 6 5 5 6 5 5 5 5 5 5 5 5 5 5 5 5 5 5 5 5 5 5 6 5 5 5 5 5 5 5 5 5 6 5 5 5 5 5 6 5 5 6 5 5 5 5 5 5 5 5 5 5 5 5 5 5 5 5 5 5 5 5 5 5 5 5 6 5 5 5 5 5 5 5 5 6 5 5 6 5 5 5 6 5 5 5 5 5 5 6 5 5 5 5 5 5 5 5 6 5 5 5 5 6 5 6 5 5 5 5 6 5 5 6 5 5 5 5 5 5 5 5 6 5 5 5 5 5 5 5 5 5 5 5 6 5 5 5 5 5 5 5 5 5 6 5 5 5 5 5 5 6 5 5 5 5 5 6 5 5 5 5 5 5 5 5 5 5 5 5 5 5 5 6 5 5 5 5 5 5 5 5 5 5 6 6 5 5 5 5 5 5 6 5 5 5 5 5 5 5 6 5 5 5 5 5 5 5 5 5 5 5 5 5 5 5 6 5 5 6 5 5 5 5 5 5 6 5 5 5 5 5 5 5 5 5 5 5 5 6 5 5 5 5 5 6 5 5 6 5 5 5 6 6 5 5 5 5 5 5 5 5 5 5 5 5 5 5 5 5 5 5 6 5 5 5 5 5 5 5 5 5 5 5 5 5 5 5 5 5 5 5 5 5 5 5 5 5 5 5 5 5 5 5 5 5 5 5 5 5 5 5 5 5 5 5 5 5 5 5 5 5 5 5 5 5 5 5 5 5 5 5 5 5 5 5 5 5 5 5 5 5 5 5 5 5 5 5 5 5 5 5 6 5 5 6 5 5 5 6 5 5 5 5 5 5 5 5 5 5 5 5 5 5 6 5 5 5 5 5 6 5 6 5 5 5 5 5 5 5 5 5 5 5 5 5 5 5 5 5 5 5 5 5 5 5 5 5 5 5 5 5 5 5 5 5 5 5 5 5 5 5 5 5 5 5 5 5 5 5 5 5 5 5 5 5 5 5 6 5 5 5 5 5 5 5 5 5 5 5 5 5 5 5 5 5 5 5 5 5 6 5 5 5 5 5 5 5 5 5 5 5 5 5 5 5 5 5 5 5 5 5 5 5 5 5 5 5 5 5 5 5 5 5 5 5 5 5 5 6 5 5 5 5 5 5 5 5 5 5 5 5 5 6 5 5 6 5 5 5 5 5 6 5 6 5 6 5 5 6 5 5 6 5 5 5 5 5 5 5 5 5 5 5 5 5 5 5 5 5 5 5 6 5 5 5 6 5 5 5 6 6 5 5 5 6 6 5 6 5 5 5 5 5 5 5 5 5 5 5 5 5 5 5 5 5 6 6 5 5 5 5 5 5 5 5 5 6 5 5 5 5 5 5 5 5 5 5 5 5 5 5 5 6 5 5 5 5 5 5 5 5 5 5 5 5 5 5 5 5 5 5 5 5 5 5 5 5 6 6 5 5 5 6 5 5 5 5 5 5 5 5 5 5 5 5 5 5 5 6 5 5 5 5 5 5 5 5 5 5 5 5 5 5 5 5 5 5 5 5 5 5 5 5 5 5 5 5 5 5 5 5 5 5 5 5 5 5 5 5 5 5 5 5 5 6 5 5 5 5 5 5 5 5 5 5 5 5 5 5 5 5 5 5 5 5 5 5 5 5 5 5 5 5 5 5 5 5 5 5 5 5 5 5 5 5 5 5 5 5 5 5 5 5 5 5 5 5 5 5 5 5 5 5 5 5 6 5 5 5 6 5 5 5 5 5 5 5 5 5 5 5 5 5 5 5 5 5 5 5 6 5 6 5 5 5 5 5 5 5 5 6 5 6 5 5 6 5 5 5 5 5 5 6 5 6 5 5 5 5 5 5 5 5 5 5 5 5 5 5 6 5 5 5 5 5 5 5 5 5 5 5 5 5 5 5 5 5 6 6 5 5 5 5 5 5 5 5 5 5 5 5 5 5 5 5 5 5 5 5 5 5 5 5 5 5 5 5 5 5 5 5 5 5 5 5 5 5 5 5 5 5 5 6 5 5 5 5 6 5 5 5 5 5 5 5 5 5 5 5 6 5 6 5 5 5 5 5 6 5 5 5 5 5 5 6 5 5 5 5 5 5 5 5 5 5 6 5 5 5 5 5 5 5 5 5 5 5 5 5 5 5 5 5 5 5 5 5 5 5 5 5 5 5 5 5 5 5 5 5 5 5 5 5 5 5 5 5 6 5 5 5 5 5 5 5 5 5 5 5 5 5 5 5 5 5 5 5 5 5 5 5 5 5 5 5 5 5 5 5 5 5 5 5 5 5 5 5 5 5 5 6 5 5 5 5 5 5 5 5 5 5 5 6 5 5 5 5 6 5 5 6 5 5 5 5 5 5 5 5 5 6 6 5 5 5 5 5 5 5 5 5 5 5 5 5 5 5 6 5 5 5 5 5 5 5 5 5 5 5 5 5 5 5 5 5 5 5 5 5 5 5 5 5 5 5 5 5 5 5 5 5 5 5 5 5 5 5 5 5 5 5 5 5 5 5 5 5 5 5 5 5 5 5 5 5 5 5 5 5 5 5 5 5 5 5 5 5 5 5 5 5 5 5 5 5 5 5 5 5 5 5 5 5 5 5 5 5 6 5 5 5 5 5 5 5 5 5 5 5 6 5 5 5 5 5 5 6 6 5 5 5 5 5 5 6 5 5 5 5 5 5 5 5 5 5 5 5 5 5 5 5 5 5 5 5 5 5 5 5 5 5 5 5 5 6 5 5 5 5 5 6 5 5 5 5 5 5 5 5 5 5 5 5 5 5 5 5 5 5 5 6 5 5 5 6 5 5 5 5 5 5 5 6 5 5 5 5 6 5 5 5 5 5 5 5 5 6 5 5 5 5 5 6 5 5 6 5 5 5 5 5 6 6 5 5 5 6 5 5 5 5 5 6 5 5 6 5 5 5 5 5 6 5 5 6 5 5 5 6 5 6 6 5 5 5 5 5 5 5 5 6 5 6 5 5 5 6 5 5 5 5 5 5 5 5 5 5 5 5 5 5 5 5 5 5 5 5 5 5 6 6 5 5 5 6 5 5 5 5 5 6 6 6 5 5 5 6 5 6 5 5 5 5 5 5 6 6 5 5 5 5 5 5 5 5 5 5 5 5 5 5 5 6 5 5 5 5 5 5 5 6 5 5 5 5 5 5 5 5 5 5 5 5 5 5 5 5 5 5 5 5 5 5 5 5 5 6 5 5 5 5 5 6 5 6 5 5 5 5 6 5 5 5 5 5 5 5 5 6 6 5 5 5 6 5 5 5 5 6 5 5 5 5 5 5 6 5 5 5 5 5 5 5 6 5 5 6 5 6 5 5 5 6 5 5 5 5 5 5 5 5 5 5 5 6 5 5 5 5 5 5 5 5 5 5 5 6 5 5 5 5 5 5 5 5 5 5 5 6 5 5 6 5 5 5 5 5 5 5 5 6 5 5 5 5 5 5 5 5 5 5 5 5 5 5 5 5 5 5 5 5 5 5 5 5 5 5 5 5 5 5 5 5 5 5 5 5 5 5 5 5 5 5 5 5 6 5 5 5 5 6 5 5 5 5 5 5 5 5 5 5 5 5 5 5 5 6 5 5 5 5 5 5 5 5 5 5 5 5 5 5 5 5 5 5 5 5 5 5 5 5 5 5 5 5 6 5 5 5 5 5 6 5 5 5 5 5 5 5 5 5 5 5 5 5 5 5 5 5 6 6 5 5 5 5 5 6 5 6 5 5 5 5 5 5 6 5 5 5 5 5 6 5 5 5 5 5 5 5 5 5 5 5 6 5 5 6 5 6 5 5 5 5 5 5 5 5 5 5 5 6 5 5 5 5 5 5 5 5 5 5 5 5 5 5 5 5 6 5 5 5 5 5 5 5 5 6 5 5 5 6 6 5 5 5 5 5 5 5 5 5 6 5 6 5 5 5 5 6 6 5 5 5 6 6 5 5 5 5 5 5 5 5 5 5 5 5 5 5 5 6 5 5 6 5 6 5 5 5 5 5 5 6 5 5 5 6 5 5 5 5 5 5 5 5 5 5 5 5 5 5 5 5 5 5 5 5 5 5 5 5 6 5 5 6 5 5 6 5 5 6 5 5 5 5 5 5 5 5 6 5 5 6 5 5 6 5 5 5 5 5 5 5 5 5 5 5 5 5 5 6 5 5 6 5 5 5 5 6 5 5 6 5 5 5 6 5 5 5 5 5 5 5 5 5 5 6 5 5 5 5 5 6 5 5 5 5 5 5 5 5 5 5 5 5 5 5 5 5 5 6 5 5 6 5 5 5 6 5 6 5 5 5 5 5 5 5 5 5 5 6 5 5 5 5 6 6 5 5 5 5 5 5 5 5 5 5 5 5 5 6 5 5 5 5 5 5 5 5 5 6 5 6 5 5 5 5 5 5 5 5 5 5 5 5 5 5 5 5 6 5 5 5 5 6 5 5 5 5 5 5 6 5 5 5 5 5 5 5 5 6 5 5 5 5 5 5 5 5 6 5 5 5 5 5 6 5 5 5 5 5 5 5 6 5 5 5 5 5 5 6 5 5 5 6 5 5 5 5 5 5 5 5 5 5 5 6 5 5 5 5 5 5 6 5 5 5 5 5 6 5 5 5 6 5 5 5 5 5 5 5 6 5 5 5 5 5 5 5 5 6 5 5 5 6 5 6 6 5 5 5 6 5 5 6 5 5 5 5 5 5 6 5 5 5 5 5 5 6 5 5 6 5 5 5 5 5 5 5 5 5 5 5 5 5 6 5 5 5 5 5 5 5 5 5 5 5 5 5 6 5 5 5 5 5 6 5 5 5 6 5 5 5 6 5 6 5 5 5 5 5 5 6 5 5 5 5 5 6 6 5 5 5 5 5 6 5 5 5 6 5 5 5 5 5 5 5 5 5 6 5 5 6 5 5 5 5 5 5 5 6 5 5 5 5 5 5 5 5 5 5 5 5 5 5 5 6 5 5 5 5 6 5 5 5 5 5 6 5 5 6 6 5 6 5 5 5 5 5 5 5 5 5 5 5 5 5 6 5 5 5 5 6 5 6 5 5 5 5 5 6 5 5 5 5 5 5 6 5 5 5 5 5 5 5 5 6 5 6 5 5 5 5 6 5 5 5 5 5 5 5 5 5 5 5 5 5 5 5 5 5 5 5 5 5 5 6 5 5 6 5 5 6 5 5 6 5 5 5 5 5 5 5 5 5 6 5 5 6 5 6 5 5 5 5 5 5 5 5 6 5 5 5 5 5 5 5 5 5 5 5 5 5 5 5 5 5 5 5 6 5 5 5 6 5 5 5 5 5 5 5 5 5 5 5 5 5 5 5 5 5 5 5 5 5 5 5 5 5 5 5 5 5 5 5 5 5 5 5 5 6 5 5 5 5 5 5 6 5 5 5 5 6 5 5 5 5 5 5 5 5 5 5 5 5 6 5 6 5 5 6 5 5 6 5 5 5 5 5 5 5 5 5 5 5 5 5 5 5 5 5 5 6 5 5 5 5 6 5 6 5 5 5 5 5 5 6 5 6 6 6 5 5 5 5 5 5 5 5 5 6 5 5 5 6 5 5 5 5 5 5 5 5 5 6 5 5 5 6 5 5 5 5 5 5 5 5 5 5 5 5 5 5 5 5 5 5 5 5 5 6 5 5 5 5 5 5 5 5 5 5 5 5 6 5 5 6 5 5 5 5 5 5 5 5 5 5 6 5 6 5 5 5 6 5 6 5 5 5 6 5 5 5 5 5 5 5 5 5 5 5 5 6 5 5 5 5 5 5 5 5 5 5 5 5 5 5 5 5 5 6 5 5 5 5 5 6 5 5 5 5 5 5 5 5 5 5 5 5 5 5 5 5 5 5 5 5 5 6 5 5 5 5 5 5 6 5 5 5 5 5 5 5 5 5 5 5 5 5 5 5 5 5 5 5 6 5 5 5 5 5 5 5 5 6 5 5 5 5 5 5 5 5 6 5 5 5 5 5 5 5 5 6 5 5 5 5 6 5 5 5 5 5 5 5 5 6 5 5 5 6 5 5 5 5 5 5 5 5 5 5 5 5 5 5 5 5 5 5 5 6 5 5 5 6 6 5 5 5 6 5 5 5 5 5 5 5 6 5 5 5 5 5 5 5 5 5 5 5 5 5 5 5 5 5 5 5 5 5 5 5 5 5 5 5 6 5 6 5 6 5 5 5 6 5 5 6 5 5 5 5 6 5 5 5 5 5 5 5 5 5 5 5 6 5 5 5 6 5 5 5 5 5 5 6 5 5 5 5 5 5 5 5 5 5 5 5 5 5 5 5 6 5 5 5 5 5 5 5 5 5 5 5 5 5 5 6 5 5 5 5 5 5 5 5 5 5 5 5 5 5 5 5 5 5 5 5 5 5 5 6 5 5 5 6 5 5 5 5 5 5 5 5 5 5 5 5 5 5 5 5 5 5 5 5 5 5 5 5 5 5 5 5 5 5 5 5 5 6 5 5 5 6 5 5 5 5 5 5 5 6 5 5 6 6 5 5 5 5 5 5 6 5 5 5 5 5 5 5 6 5 5 5 5 6 5 5 5 5 5 5 5 5 5 5 5 5 5 6 5 5 5 5 5 5 5 5 5 5 5 5 5 5 6 5 5 6 5 5 5 5 5 5 5 5 5 5 5 5 5 5 5 6 5 5 5 5 5 6 5 5 5 5 6 5 5 6 5 5 5 5 5 5 6 5 5 5 5 5 6 5 6 5 5 5 5 5 5 6 5 5 5 5 6 5 5 5 5 6 5 5 5 5 5 5 5 5 5 5 5 5 5 5 5 5 5 5 5 6 5 5 5 5 5 5 5 6 5 5 5 5 5 5 6 5 6 5 5 5 5 5 5 5 5 5 5 5 5 5 5 5 5 5 5 5 6 5 5 5 5 5 5 5 5 6 5 5 5 5 5 5 5 6 5 5 5 5 5 5 5 6 5 5 5 6 5 5 5 5 5 5 5 5 5 5 5 6 5 6 5 6 6 5 6 5 5 5 5 5 5 5 6 6 6 5 5 5 5 5 5 6 5 5 5 5 5 5 5 5 5 5 5 5 6 5 5 5 5 5 5 5 5 5 5 5 5 5 5 5 5 5 5 6 5 5 5 6 5 5 5 5 5 5 5 5 5 5 5 5 5 5 5 5 5 5 5 5 5 5 5 5 5 5 6 5 6 5 6 5 5 5 5 5 5 5 5 5 5 6 6 5 5 5 5 6 5 5 6 5 5 5 5 6 5 5 5 6 6 5 5 5 6 5 5 5 6 5 5 5 5 5 5 5 5 6 5 6 5 6 5 5 6 5 5 6 5 5 5 5 5 5 5 5 5 5 6 5 5 5 5 5 5 5 5 5 5 5 5 5 5 5 5 6 5 5 5 5 6 5 5 5 5 6 6 5 5 5 5 5 5 6 5 5 5 5 5 5 5 5 5 5 5 5 5 5 5 5 5 5 6 5 5 5 5 5 5 6 5 5 5 6 5 6 5 5 5 5 5 6 5 6 5 5 5 6 5 5 5 5 5 5 5 5 6 6 5 5 5 5 6 5 6 5 5 5 5 5 5 6 5 5 5 6 5 5 5 5 5 5 5 5 5 5 5 6 5 5 5 5 6 5 5 5 5 5 5 5 5 5 5 5 5 5 6 5 5 6 5 5 5 5 5 5 5 5 5 5 5 6 5 5 5 5 5 5 5 5 5 5 6 6 6 5 5 5 5 5 5 5 5 5 5 5 5 5 6 5 5 5 5 5 5 5 5 5 5 6 5 5 5 5 5 5 5 5 5 5 5 5 5 5 5 5 5 5 6 5 5 5 5 5 5 6 5 5 5 5 5 5 5 5 5 5 5 5 6 6 5 6 5 5 5 5 6 5 5 6 5 5 5 5 5 5 6 5 5 6 5 5 5 5 5 5 5 5 5 5 5 5 5 5 5 5 6 5 5 5 5 5 5 5 6 5 6 5 5 5 5 5 5 5 5 5 5 6 5 5 6 5 5 5 6 5 5 5 5 5 6 5 5 5 5 6 5 5 5 5 5 6 5 5 5 5 5 5 5 5 5 5 5 5 6 5 5 5 5 6 5 5 5 5 5 5 5 5 5 5 6 6 5 5 5 5 5 5 5 5 5 5 5 6 6 5 5 5 6 5 5 5 5 5 5 5 6 5 5 5 5 6 5 6 5 5 5 5 5 5 5 6 5 5 5 5 5 5 5 5 5 5 5 5 6 5 5 5 5 5 5 5 5 5 5 5 5 5 5 5 5 5 5 5 5 5 5 5 5 5 5 5 5 5 5 5 6 5 5 5 6 5 5 5 5 5 5 5 5 5 5 5 5 5 5 5 6 5 5 5 5 5 5 5 6 5 5 6 5 5 5 5 5 5 5 5 5 5 5 5 5 6 5 5 6 5 5 6 5 5 5 5 5 5 6 5 5 5 5 5 5 5 5 5 5 5 5 5 5 5 5 5 5 5 5 5 5 5 5 5 5 5 5 6 5 6 5 5 5 5 5 5 5 5 5 5 5 5 5 5 5 5 5 5 5 5 6 5 5 5 6 5 5 5 5 5 5 5 5 5 5 5 5 6 5 5 6 5 5 5 5 5 5 5 6 5 5 6 5 5 5 5 6 5 5 5 5 5 5 5 5 5 5 5 5 5 5 5 5 5 5 5 5 5 5 5 5 5 5 5 5 5 5 5 5 5 5 5 5 5 5 5 5 5 5 5 5 5 5 5 5 5 5 5 5 6 5 6 5 5 5 5 5 5 5 5 5 5 5 5 5 5 5 6 5 5 5 5 5 5 5 5 5 6 5 5 5 5 6 5 5 5 5 5 5 5 6 5 5 6 5 5 5 5 5 5 5 5 6 5 5 5 5 5 6 5 6 6 5 5 5 5 5 6 5 5 6 5 5 5 5 5 5 5 6 5 5 5 5 5 5 5 5 5 5 5 5 6 5 5 5 5 5 5 5 5 5 6 6 5 5 5 5 5 5 5 5 5 5 6 6 5 5 5 5 5 5 6 5 5 5 6 6 5 5 6 6 5 5 5 5 5 6 6 5 5 5 5 5 5 5 5 5 5 5 5 5 5 5 6 6 5 5 5 5 6 5 5 5 5 5 5 6 6 5 6 5 5 5 6 5 6 5 5 5 5 5 5 5 5 5 5 5 5 5 5 5 6 6 5 5 5 5 5 5 5 5 5 5 5 5 5 5 5 5 5 5 5 5 5 5 5 5 5 5 5 5 5 5 6 5 5 5 5 5 5 5 5 5 5 5 5 5 5 6 5 5 5 6 6 5 5 6 5 5 5 6 5 5 5 5 5 5 5 5 5 5 5 6 5 5 5 5 5 5 5 6 5 5 5 5 5 5 5 5 6 5 5 5 5 5 6 5 5 5 6 5 5 5 6 5 5 5 5 5 5 6 5 5 5 5 5 5 6 5 5 5 5 6 5 5 5 5 5 6 6 5 5 5 5 5 5 5 5 6 5 5 6 5 6 5 5 5 5 5 5 5 5 5 5 5 5 5 5 5 5 5 5 5 5 5 5 5 5 5 5 5 5 5 5 5 5 5 5 5 5 5 6 5 5 6 5 5 5 5 5 5 5 5 5 5 6 5 5 5 5 5 5 5 5 5 5 5 6 5 5 5 6 5 5 6 5 5 5 5 6 5 5 5 5 6 5 5 5 5 5 5 5 5 6 5 5 5 5 5 6 5 5 5 6 6 5 5 5 6 6 6 5 5 5 5 5 5 5 5 5 5 5 5 5 5 6 5 6 6 5 6 6 5 5 5 6 5 6 5 5 5 5 6 5 5 5 5 6 5 5 6 6 5 6 6 5 5 5 5 5 5 6 5 5 5 5 5 5 5 6 5 6 5 5 5 5 5 5 5 5 5 5 6 5 5 5 6 5 6 5 5 6 5 6 5 5 5 5 5 5 5 5 5 6 5 5 5 5 6 6 5 5 6 5 5 5 5 6 5 5 6 5 6 5 5 6 5 5 6 5 5 6 6 5 5 5 5 5 5 5 6 5 5 5 6 5 5 5 6 6 6 5 5 6 5 5 5 5 5 6 6 5 6 5 5 5 6 5 5 5 5 5 5 5 6 5 5 5 5 6 5 6 5 5 5 5 5 6 6 5 5 5 6 5 5 6 5 5 5 6 5 6 5 5 5 5 5 5 5 5 5 5 6 5 5 5 5 5 5 5 6 5 5 6 6 5 6 5 5 5 5 5 6 5 5 5 6 5 6 5 5 5 5 5 5 5 5 6 5 5 5 5 5 5 5 5 5 5 5 5 5 5 5 5 5 5 5 5 5 5 5 5 5 5 6 5 5 5 5 6 5 5 5 5 5 5 5 5 5 5 5 5 5 5 5 5 5 5 6 5 5 5 5 5 5 6 6 5 5 5 5 5 5 6 5 5 6 5 5 5 5 5 5 6 5 5 5 5 5 5 5 5 5 5 5 5 5 5 5 5 5 5 5 5 5 5 5 5 5 5 6 5 5 5 5 5 6 5 5 5 6 5 5 5 5 5 5 5 5 6 5 5 6 5 5 5 6 5 5 5 5 5 6 6 5 5 5 6 5 5 5 5 5 6 6 5 6 5 6 5 5 6 5 5 5 5 5 5 5 5 5 6 5 5 6 5 5 6 5 5 5 6 5 5 5 5 6 5 5 5 5 5 5 5 5 5 5 5 5 5 6 5 5 5 5 5 5 5 6 5 5 6 6 5 5 5 5 5 5 6 5 5 5 5 6 5 5 5 5 5 6 5 6 5 5 5 5 6 5 5 5 5 6 5 5 5 5 5 5 5 6 5 5 5 5 5 5 5 5 5 5 6 5 5 5 5 5 5 5 5 5 5 5 5 5 5 5 5 5 5 5 5 5 5 5 5 6 5 5 5 5 5 5 5 5 5 6 5 6 5 5 5 6 5 5 5 5 5 5 6 5 5 5 5 5 5 5 5 5 5 5 6 5 5 5 5 5 5 5 5 5 5 5 5 5 5 5 5 5 6 5 5 5 5 5 5 5 5 5 6 5 5 6 5 5 5 6 5 5 5 5 5 5 6 5 5 6 5 5 5 5 5 5 5 5 5 5 5 6 5 5 5 5 5 5 5 5 5 5 5 5 5 6 5 6 5 5 5 5 5 5 5 6 5 6 5 5 5 5 5 6 5 5 5 5 6 5 5 5 5 5 5 5 5 5 5 5 5 5 5 5 5 5 5 5 5 5 5 5 5 5 5 5 5 5 5 5 5 5 5 5 5 5 5 5 5 5 5 5 5 5 5 5 5 5 5 5 5 5 5 5 5 5 5 5 5 5 5 5 5 5 5 5 5 5 5 5 5 5 5 5 5 5 5 5 5 5 5 5 5 5 5 5 5 5 5 5 5 5 5 5 6 5 6 5 5 6 5 5 5 5 5 6 5 5 5 5 5 5 5 6 5 5 5 5 5 5 5 5 5 5 5 5 5 5 5 5 5 5 5 5 5 5 6 5 6 5 5 5 5 5 5 6 5 6 5 5 5 5 6 5 5 5 5 5 6 5 5 5 5 5 5 5 5 5 5 5 5 5 5 6 5 5 5 5 5 5 5 6 5 5 5 6 5 5 5 5 5 5 5 6 5 5 5 5 6 5 5 5 5 5 5 5 5 5 5 5 5 5 5 6 5 6 5 5 5 5 6 5 6 5 5 5 5 5 5 5 5 5 5 5 5 5 5 5 5 5 6 5 5 5 5 5 5 5 5 5 5 5 5 5 5 5 5 5 6 5 5 5 5 5 5 5 5 5 5 5 5 5 5 5 5 5 5 5 5 5 5 5 5 5 5 5 5 6 5 5 5 5 6 6 5 5 5 5 5 5 5 5 5 5 5 5 5 5 5 5 5 5 5 5 5 5 5 5 6 5 5 5 6 5 5 6 6 5 5 5 5 5 5 5 5 5 5 5 5 5 5 5 5 6 5 5 6 5 6 5 5 5 5 5 5 5 6 5 5 5 6 5 5 5 5 5 5 5 5 5 5 5 5 5 5 5 5 6 6 5 5 6 5 5 5 6 5 5 5 5 5 5 
</DataArray>
<DataArray type="Float64" Name="stress" NumberOfComponents="9" format="ascii">
-386.52197797585541 1273.1460274401243 0 1273.1460274401243 -311.9101178164492 0 0 0 0 -0.11641273685108899 1055.7501138243965 0 1055.7501138243965 -528.92893580988675 0 0 0 0 -1022.7534454740235 1098.7059357995968 0 1098.7059357995968 0.51860544420560473 0 0 0 0 -346.4995953402904 1096.7124187452027 0 1096.7124187452027 -418.78288253334631 0 0 0 0 -910.47177397914129 1081.6373965732182 0 1081.6373965732182 -331.5775300876594 0 0 0 0 -919.20848260846492 829.17163668681496 0 829.17163668681496 -550.18890313765587 0 0 0 0 -1486.2953106134955 726.17306071609892 0 726.17306071609892 -247.94852859354796 0 0 0 0 -1693.1965768645459 1021.204589964892 0 1021.204589964892 -261.79766899054084 0 0 0 0 -1698.7703508983323 1283.6871518458101 0 1283.6871518458101 -629.57990373684697 0 0 0 0 -1381.0317874193788 1007.9541980095964 0 1007.9541980095964 -456.86394573855068 0 0 0 0 -1897.5341542159294 817.06843382525039 0 817.06843382525039 -207.8582294759035 0 0 0 0 -1537.2404252214874 607.79671508345928 0 607.79671508345928 -1.4203892878958868 0 0 0 0 -102.28627883575246 107.24793105239223 0 107.24793105239223 -50.441623715280002 0 0 0 0 63.910467862213409 48.282170126392884 0 48.282170126392884 -382.83812461687921 0 0 0 0 -3.8972550425312846 2.546436530438406 0 2.546436530438406 -1.6474206367909474 0 0 0 0 -487.46114281526388 -271.16959465023683 0 -271.16959465023683 -60.208053888582072 0 0 0 0 -120.05084416295722 19.023942301017087 0 19.023942301017087 466.68120151582298 0 0 0 0 -97.427393126101379 44.714752120131379 0 44.714752120131379 -28.057313316043292 0 0 0 0 -26.864205061351356 1.7952209682317601 0 1.7952209682317601 0.34688355179032726 0 0 0 0 -13.655018066149964 2.5195389873196845 0 2.5195389873196845 -1.2054345930813923 0 0 0 0 -89.898998079268495 230.35035394453007 0 230.35035394453007 378.16390340353428 0 0 0 0 -20.623493991784926 222.77729173342232 0 222.77729173342232 107.02816752757644 0 0 0 0 7.6498236315674148 161.97837802328286 0 161.97837802328286 -50.334374040703551 0 0 0 0 -10.919959499471588 122.78414980946036 0 122.78414980946036 112.0925848284096 0 0 0 0 29.868440678310435 234.71968106483473 0 234.71968106483473 -74.539913318789331 0 0 0 0 106.23675006526901 241.84772569545385 0 241.84772569545385 95.633390427479753 0 0 0 0 -32.818397607639781 112.11384633238777 0 112.11384633238777 16.156802530480491 0 0 0 0 -135.90154173626797 98.304775258286099 0 98.304775258286099 -92.950667019555112 0 0 0 0 -431.48456108981918 -125.14264970763543 0 -125.14264970763543 167.71840681089088 0 0 0 0 -158.91318940697056 236.52961528901506 0 236.52961528901506 -96.209490532812197 0 0 0 0 -408.24626241213991 127.55466855511622 0 127.55466855511622 -84.756986105669057 0 0 0 0 -500.84368886824814 224.29293798255821 0 224.29293798255821 -224.33916176268394 0 0 0 0 -525.8965006541257 261.86333199582441 0 261.86333199582441 -210.38842792226933 0 0 0 0 -187.18341066426365 204.77109590520558 0 204.77109590520558 -288.7033933089333 0 0 0 0 -261.00321688799158 281.03857898620845 0 281.03857898620845 -243.65894535032567 0 0 0 0 -178.47401590575464 181.06435141044494 0 181.06435141044494 -130.644724132595 0 0 0 0 -143.97736194847676 278.2783667061376 0 278.2783667061376 -389.25795707701764 0 0 0 0 -44.409743918731692 202.95850970382889 0 202.95850970382889 -281.5160834598646 0 0 0 0 -57.900080106483074 173.04780656523508 0 173.04780656523508 -263.71269471274718 0 0 0 0 -151.66387059728731 248.02197486752993 0 248.02197486752993 -208.97317023841606 0 0 0 0 -61.884732229838846 145.71194300468051 0 145.71194300468051 -99.76228706544498 0 0 0 0 -173.80058350584295 211.82763347476794 0 211.82763347476794 -21.78981710554217 0 0 0 0 21.069469713082071 176.71330768984626 0 176.71330768984626 -97.237691700880532 0 0 0 0 -1.8578693932213355 213.2902590032827 0 213.2902590032827 -138.63762881912407 0 0 0 0 10.682255228384747 194.3574333687684 0 194.3574333687684 -203.69113226773334 0 0 0 0 -31.968990238994593 165.32325934497931 0 165.32325934497931 -199.45359382941388 0 0 0 0 8.0907395793583419 172.19437196012404 0 172.19437196012404 -201.35782086561085 0 0 0 0 21.234687226475216 126.47882958236733 0 126.47882958236733 -252.56819163380715 0 0 0 0 12.315416782337707 167.7840210723225 0 167.7840210723225 -283.92084477203025 0 0 0 0 34.701372155483114 170.89950573201349 0 170.89950573201349 -207.19338836353563 0 0 0 0 30.759904962382279 188.8997685709619 0 188.8997685709619 -163.30818137958704 0 0 0 0 29.432691798458109 151.17265042828512 0 151.17265042828512 -180.16095539626986 0 0 0 0 31.301789869554341 164.43417852108541 0 164.43417852108541 -191.0167990981281 0 0 0 0 25.049591891249293 168.27292677703736 0 168.27292677703736 -154.13419999662437 0 0 0 0 24.806289940497663 185.03331479154804 0 185.03331479154804 -151.14112867307267 0 0 0 0 23.215933278468583 178.0242269236096 0 178.0242269236096 -145.10302529603359 0 0 0 0 29.081640689488268 219.1206659095551 0 219.1206659095551 -122.40952998068678 0 0 0 0 1.0645597484981408 190.38008983659529 0 190.38008983659529 -39.453885966795497 0 0 0 0 -347.31342289240274 -434.44925321477967 0 -434.44925321477967 637.96820952706912 0 0 0 0 -1063.1041863037826 -54.877815374289639 0 -54.877815374289639 457.65122405591683 0 0 0 0 -11.766249392784161 -1.0715519686752657 0 -1.0715519686752657 0.65778551847240863 0 0 0 0 -1251.2157887797584 98.844876964434661 0 98.844876964434661 356.90364211233828 0 0 0 0 -957.03479862346285 221.88900140756596 0 221.88900140756596 -150.50199989420071 0 0 0 0 -847.44229991891189 41.825963898656482 0 41.825963898656482 102.61093096512195 0 0 0 0 -1049.1515704693884 1063.4594159879762 0 1063.4594159879762 -333.38327329993263 0 0 0 0 -1486.0074410420566 602.79651791751894 0 602.79651791751894 19.879944308348058 0 0 0 0 -692.0825255925738 502.07211601213567 0 502.07211601213567 -19.410630410848171 0 0 0 0 -728.97837499898014 543.02014750842864 0 543.02014750842864 -62.519548118383682 0 0 0 0 -650.75260643904039 238.22910756694182 0 238.22910756694182 -533.31871904379659 0 0 0 0 -923.55379258151515 -19.949551199220878 0 -19.949551199220878 -291.78155727593548 0 0 0 0 -1066.175615609387 469.31706418735303 0 469.31706418735303 -19.601490505883703 0 0 0 0 -572.4615526734633 412.66361748575582 0 412.66361748575582 -302.72768883749814 0 0 0 0 -713.57618718603044 483.31448527737666 0 483.31448527737666 -57.954916137754481 0 0 0 0 -773.29727049931535 323.84801887788672 0 323.84801887788672 -235.41583230270771 0 0 0 0 -480.51632265967055 354.59941180782698 0 354.59941180782698 5.8309483513003215 0 0 0 0 -468.43449462830904 368.29906972104072 0 368.29906972104072 21.249862624332309 0 0 0 0 -580.85842980171583 593.20739633354151 0 593.20739633354151 -53.881194199879246 0 0 0 0 19.228965458842097 21.572862981512685 0 21.572862981512685 2.5758930913042093 0 0 0 0 33.498503362479823 7.8170687439705944 0 7.8170687439705944 -245.76162882394419 0 0 0 0 13.710847303766059 105.03538955378463 0 105.03538955378463 -139.84266514355841 0 0 0 0 29.696672143050819 73.540705439270823 0 73.540705439270823 -222.30056854161012 0 0 0 0 35.274401475449849 78.757198094968771 0 78.757198094968771 -420.16841667391418 0 0 0 0 26.328061997031909 55.714219178335043 0 55.714219178335043 -316.02695486864468 0 0 0 0 18.108481744275196 142.60020587161125 0 142.60020587161125 -276.24166002201673 0 0 0 0 -2.9644895242527127 135.83877769557876 0 135.83877769557876 -258.35956210963923 0 0 0 0 3.1746371149929473 132.40646678537814 0 132.40646678537814 -360.2855606424564 0 0 0 0 29.156668882875238 -15.61336868028593 0 -15.61336868028593 -372.18278314518466 0 0 0 0 -3.7600249603192424 2.8036539803057217 0 2.8036539803057217 -2.547857119776225 0 0 0 0 3.0270164958990335 0.83890445903382727 0 0.83890445903382727 -0.3424271755172299 0 0 0 0 47.283111177850515 68.258007938075025 0 68.258007938075025 58.085423463278858 0 0 0 0 5.160368410332012 42.01520693468774 0 42.01520693468774 -500.63049641245561 0 0 0 0 3.4297225606896973 265.21384115406727 0 265.21384115406727 -521.58597128486144 0 0 0 0 -96.37550936837215 236.67187308336725 0 236.67187308336725 -581.20765182118339 0 0 0 0 -11.395671182404385 119.1785361614817 0 119.1785361614817 -426.85185436857864 0 0 0 0 -11.504135018345551 114.56814944108919 0 114.56814944108919 -339.11965502623934 0 0 0 0 -407.22949884078116 366.06364737975673 0 366.06364737975673 -404.94734160014195 0 0 0 0 -450.52603865989295 92.616980324841279 0 92.616980324841279 43.515135408073547 0 0 0 0 -591.86459466429005 325.03577163360615 0 325.03577163360615 -51.144384699873626 0 0 0 0 -244.94433262701205 61.559563428138063 0 61.559563428138063 127.71855522628903 0 0 0 0 -171.44463565459591 146.0419263251606 0 146.0419263251606 4.0094091737119015 0 0 0 0 173.31431131930731 -65.254042849643156 0 -65.254042849643156 12.427504243236399 0 0 0 0 22.813439370751439 32.991888096570619 0 32.991888096570619 7.2269213794388634 0 0 0 0 -46.992474482794933 37.478262091164652 0 37.478262091164652 -22.104404246463673 0 0 0 0 36.327051174113876 30.903111978899688 0 30.903111978899688 7.5118680655941716 0 0 0 0 31.155739467125386 40.394684011043864 0 40.394684011043864 8.2207434011361329 0 0 0 0 -15.095825903396801 18.915117362406825 0 18.915117362406825 -4.3312101825213176 0 0 0 0 4.2717776436657005 32.392253508722206 0 32.392253508722206 -12.775135139629128 0 0 0 0 -3.5291302712707449 21.769883511283894 0 21.769883511283894 3.1844519503038811 0 0 0 0 200.14197306137066 53.301713334894885 0 53.301713334894885 -36.422004824416945 0 0 0 0 -1.6726635980518267 10.344536825754957 0 10.344536825754957 -7.8645266827175959 0 0 0 0 18.730308285139472 41.899651992784129 0 41.899651992784129 8.0397223438194487 0 0 0 0 -16.32710729324026 22.538628248294117 0 22.538628248294117 -17.475709705158806 0 0 0 0 -13.882763603097658 68.339154064219272 0 68.339154064219272 1.759200542131115 0 0 0 0 197.31910895607143 23.024293827700603 0 23.024293827700603 8.179262191431917 0 0 0 0 187.39268691137841 92.934714246286603 0 92.934714246286603 48.435027994313714 0 0 0 0 2.6996336883159131 6.3878702251784247 0 6.3878702251784247 -2.0006906238662125 0 0 0 0 198.86204816624559 104.44379989768277 0 104.44379989768277 8.8324441874283366 0 0 0 0 -154.50348306958767 207.55025186016428 0 207.55025186016428 62.555476178935351 0 0 0 0 184.27870089308999 106.66501220548844 0 106.66501220548844 4.8616835590510163 0 0 0 0 351.94281954762118 211.89735633515011 0 211.89735633515011 -81.385000061045503 0 0 0 0 221.25853162738349 21.347117763831193 0 21.347117763831193 16.845383120042243 0 0 0 0 204.4888941134268 59.418463584897836 0 59.418463584897836 -39.602607873326633 0 0 0 0 194.48089811355749 95.256144434086309 0 95.256144434086309 -3.9966257672640495 0 0 0 0 200.52622854885703 67.263797400053591 0 67.263797400053591 0.37511347692270647 0 0 0 0 -57.430115114617365 82.181148637866499 0 82.181148637866499 -17.605285855061084 0 0 0 0 -1.9125225325709536 9.8247100813022143 0 9.8247100813022143 10.084086769400812 0 0 0 0 -21.953386168461293 8.018597824167955 0 8.018597824167955 -7.4893086879192197 0 0 0 0 -382.3953612279729 478.18800096146879 0 478.18800096146879 -4.20465187933587 0 0 0 0 -400.89326121332851 460.78793053648405 0 460.78793053648405 -18.638770093475614 0 0 0 0 -134.44187369996507 226.36914251501366 0 226.36914251501366 56.275854596092358 0 0 0 0 -36.712916801676329 320.06161810791673 0 320.06161810791673 -18.865722313902197 0 0 0 0 -97.317875459513743 252.40790108821966 0 252.40790108821966 -22.732577495851729 0 0 0 0 -320.26255374774337 525.64489281299757 0 525.64489281299757 -75.244235037011094 0 0 0 0 -213.59809585147559 760.74880897363255 0 760.74880897363255 -368.12668047613988 0 0 0 0 -460.6195430343505 691.58750282115579 0 691.58750282115579 -190.20280267656926 0 0 0 0 -308.21956217910338 538.54519245812844 0 538.54519245812844 -61.784124134283047 0 0 0 0 -554.51434680885177 696.96226850149651 0 696.96226850149651 -102.12153738589768 0 0 0 0 -412.35120611550519 733.25789610442735 0 733.25789610442735 -175.8342861148285 0 0 0 0 -519.94887144379754 615.45628888472675 0 615.45628888472675 -221.72596222926222 0 0 0 0 -431.76302719427622 646.96518614130036 0 646.96518614130036 -285.96762260526157 0 0 0 0 -445.34144961816492 578.44383858024958 0 578.44383858024958 -353.93493168867099 0 0 0 0 -756.46074428236716 824.49255950984571 0 824.49255950984571 -174.44179642667405 0 0 0 0 -664.47085623370913 848.92245979520385 0 848.92245979520385 -168.72042475632043 0 0 0 0 -445.94968006341151 748.50646966495697 0 748.50646966495697 -125.29472110644929 0 0 0 0 -119.40819027752332 31.546446159398329 0 31.546446159398329 47.291345740450197 0 0 0 0 -11.544480735867182 133.19911835485618 0 133.19911835485618 -2.4289273831236642 0 0 0 0 77.171102645943392 39.091188184938801 0 39.091188184938801 -0.90615919571428094 0 0 0 0 47.97380452323705 13.14132861688995 0 13.14132861688995 -21.510839010360542 0 0 0 0 840.18783778171928 -350.17791500689782 0 -350.17791500689782 -345.37565532413282 0 0 0 0 584.31925661913192 167.18971406300625 0 167.18971406300625 947.25252715483657 0 0 0 0 -175.29589119097818 135.92624929615795 0 135.92624929615795 18.061703465187747 0 0 0 0 3.7540115588637644 10.055644506290349 0 10.055644506290349 20.585450321455539 0 0 0 0 1057.1455974551682 397.84627635194011 0 397.84627635194011 -213.15307032076089 0 0 0 0 55.681588231105707 60.620286447730905 0 60.620286447730905 -30.344425601235571 0 0 0 0 -1.5844087604418746 16.287456589416252 0 16.287456589416252 -28.091449827872566 0 0 0 0 51.217104886482048 96.759076217349502 0 96.759076217349502 7.2532390052510891 0 0 0 0 -17.352459051093319 57.539016140907734 0 57.539016140907734 21.115559343590576 0 0 0 0 4.8825256946264002 13.403517430455594 0 13.403517430455594 25.323124873295583 0 0 0 0 14.954215309656561 5.3648677907308944 0 5.3648677907308944 -18.945472203547894 0 0 0 0 41.091307707676606 40.384105618137255 0 40.384105618137255 -8.0791016028997547 0 0 0 0 5.8185427386084712 2.0759082309315033 0 2.0759082309315033 -1.118288154652646 0 0 0 0 12.999050666902804 17.73084031628332 0 17.73084031628332 0.033555246933246963 0 0 0 0 4.3255357920084592 4.4055582749859994 0 4.4055582749859994 2.2862896778241151 0 0 0 0 77.870173086073009 20.184551116620241 0 20.184551116620241 -8.80722538511327 0 0 0 0 -157.54416508807844 9.5468303163524979 0 9.5468303163524979 24.240610522901989 0 0 0 0 170.08828793693647 360.01583828535149 0 360.01583828535149 -0.36132358614850091 0 0 0 0 303.71599511568274 -55.440924459018788 0 -55.440924459018788 -152.9618850130646 0 0 0 0 33.683078675706383 99.150103976203354 0 99.150103976203354 66.046915140417696 0 0 0 0 469.03353271798915 303.48926245941402 0 303.48926245941402 -48.47216570391538 0 0 0 0 483.81702825344473 244.46358117061027 0 244.46358117061027 -89.725229773590399 0 0 0 0 301.54257542735286 223.32869064978877 0 223.32869064978877 -27.318276101901574 0 0 0 0 431.449474198811 371.51137517649295 0 371.51137517649295 0.42789741366141243 0 0 0 0 1.167326261859472 1.2081497231957457 0 1.2081497231957457 2.3056158241787017 0 0 0 0 704.55657851407796 -38.444007756439532 0 -38.444007756439532 -42.507951612213219 0 0 0 0 598.00960147732621 340.15967349792481 0 340.15967349792481 -108.14759556996432 0 0 0 0 86.20463584070967 31.234826771022199 0 31.234826771022199 11.482202304010571 0 0 0 0 318.78372656381816 165.95341938104275 0 165.95341938104275 66.214039364545897 0 0 0 0 18.008261573990708 -3.4290311350362188 0 -3.4290311350362188 0.034893184118161003 0 0 0 0 553.97888313845942 738.07550589086713 0 738.07550589086713 720.755150481491 0 0 0 0 281.73460221215282 261.25891902596049 0 261.25891902596049 99.055531924666866 0 0 0 0 -65.963531632343802 39.683430187644262 0 39.683430187644262 -76.530831356511044 0 0 0 0 7.3605409641971846 -0.68511795022543964 0 -0.68511795022543964 0.0018188857818657311 0 0 0 0 336.2460970302709 -438.66187416384855 0 -438.66187416384855 -285.60666111854152 0 0 0 0 100.72910896710528 14.348834382646601 0 14.348834382646601 -357.6580377494829 0 0 0 0 -43.628978084281698 15.927547303650499 0 15.927547303650499 0.098043508576665772 0 0 0 0 29.652244160726696 50.724019230576232 0 50.724019230576232 -81.756956467504267 0 0 0 0 58.376294132185649 76.549086422253822 0 76.549086422253822 -86.502301638316567 0 0 0 0 47.011086424672612 68.007991426722583 0 68.007991426722583 -34.568924451887142 0 0 0 0 61.280241233497634 38.038514378057982 0 38.038514378057982 -46.177180535414664 0 0 0 0 61.597524345844334 28.420960531534888 0 28.420960531534888 -125.88781784529419 0 0 0 0 64.705529655984009 30.26442250281994 0 30.26442250281994 -9.7749360069522311 0 0 0 0 29.756338705708934 0.58228728481461189 0 0.58228728481461189 -2.5406005733988053 0 0 0 0 91.34802040681825 16.87060163561182 0 16.87060163561182 -4.4657006337893108 0 0 0 0 3.3816926049430123 5.2662109152335432 0 5.2662109152335432 1.9126696507535712 0 0 0 0 45.336002164229285 2.2643198909572675 0 2.2643198909572675 -17.197681063174969 0 0 0 0 -0.97892372016352169 0.43349734871262058 0 0.43349734871262058 0.21952034698262679 0 0 0 0 -6.0328154290418752 112.55383651964439 0 112.55383651964439 -139.3896247942539 0 0 0 0 -73.328358910595853 86.08596239588951 0 86.08596239588951 78.062640566255141 0 0 0 0 -143.68361159435881 -20.245513030058646 0 -20.245513030058646 19.922051905585249 0 0 0 0 22.768017155947746 -39.770433514931938 0 -39.770433514931938 3.2771651010771166 0 0 0 0 -20.790110593822874 80.945444603978387 0 80.945444603978387 -9.3159037015648209 0 0 0 0 -12.332964444383833 -7.6148527022669441 0 -7.6148527022669441 10.878634608623543 0 0 0 0 -40.162422292835714 27.232148790966846 0 27.232148790966846 -7.322713859683887 0 0 0 0 -22.913142525612784 -11.58495276823669 0 -11.58495276823669 -29.874374959836132 0 0 0 0 -52.485540655641671 -2.4564636961113138 0 -2.4564636961113138 25.188307125150459 0 0 0 0 -43.350717453720677 12.717808283078483 0 12.717808283078483 -3.1066420792665213 0 0 0 0 -6.5587502129690023 6.6024047900205858 0 6.6024047900205858 -0.97639015769902926 0 0 0 0 -43.765794436520082 91.14077875847579 0 91.14077875847579 114.2901976131725 0 0 0 0 5.1001210424583405 -5.890399943349621 0 -5.890399943349621 184.62858826968295 0 0 0 0 -51.412657019074686 164.4625587033097 0 164.4625587033097 159.41969570019137 0 0 0 0 16.859543487780684 193.96643409588614 0 193.96643409588614 -63.07639491414011 0 0 0 0 -23.430553035344929 102.84140140958334 0 102.84140140958334 66.079534493728715 0 0 0 0 -11.038701264486008 135.04812274300639 0 135.04812274300639 -135.630006430496 0 0 0 0 -64.515975985683326 145.19758614553939 0 145.19758614553939 -7.9539308664261625 0 0 0 0 -60.430948031098524 54.127340644139622 0 54.127340644139622 71.461929813616734 0 0 0 0 45.162658604842363 72.43660755851306 0 72.43660755851306 -15.578780395757349 0 0 0 0 69.222534239406713 30.290427765979132 0 30.290427765979132 -9.8093532663084346 0 0 0 0 50.460314190884674 65.684192036638706 0 65.684192036638706 -49.443847458504933 0 0 0 0 -79.965547263811459 169.29549967559433 0 169.29549967559433 -109.88916782067099 0 0 0 0 1.4595263807859737 156.50154613258201 0 156.50154613258201 -135.62622933010789 0 0 0 0 -7.2296394116383453 199.22775427480883 0 199.22775427480883 -101.07634595809213 0 0 0 0 -18.212333250630763 197.69292679464343 0 197.69292679464343 -62.486905617144657 0 0 0 0 9.330586926000251 194.47836574775647 0 194.47836574775647 -104.17928945578751 0 0 0 0 -13.082948779483559 182.10279366467148 0 182.10279366467148 -108.20766665317933 0 0 0 0 -26.602392580534797 173.66828179295408 0 173.66828179295408 -95.634438685156056 0 0 0 0 -61.912724699825048 247.16297750926606 0 247.16297750926606 -116.44924760512367 0 0 0 0 -20.743906487012282 235.56178809268022 0 235.56178809268022 -132.9397521662645 0 0 0 0 -16.919191680099914 38.674732783423053 0 38.674732783423053 116.24678430967469 0 0 0 0 -5.4441727106249687 0.0023340166927710015 0 0.0023340166927710015 1.3554745265458052 0 0 0 0 -14.763688165912754 113.73965256613155 0 113.73965256613155 66.171884084586054 0 0 0 0 -10.908920730238648 24.905902045021222 0 24.905902045021222 -13.042127667059304 0 0 0 0 40.868154021717601 67.219499910124796 0 67.219499910124796 24.298962224951538 0 0 0 0 47.385226539618088 75.132644369481568 0 75.132644369481568 -16.514521409132612 0 0 0 0 34.928239923538058 46.70404717812562 0 46.70404717812562 -15.382231245268486 0 0 0 0 68.105603624404466 30.104756689925125 0 30.104756689925125 -12.753339747476275 0 0 0 0 73.848746686626328 13.431476738443052 0 13.431476738443052 -11.499228805827443 0 0 0 0 43.811338147286733 22.62482835287301 0 22.62482835287301 -2.4974452744681912 0 0 0 0 4.8214489556223725 11.782109852629844 0 11.782109852629844 -14.131515594562643 0 0 0 0 2.760397794565506 33.392705087169816 0 33.392705087169816 1.0900810576786171 0 0 0 0 14.907559040017077 8.3760696966055548 0 8.3760696966055548 -6.5597953119649901 0 0 0 0 24.912233594535081 16.21855897635335 0 16.21855897635335 -9.2183784737213337 0 0 0 0 13.837484382755065 22.404955338966829 0 22.404955338966829 -27.968463173769123 0 0 0 0 259.69841284533686 -133.82428701168465 0 -133.82428701168465 -153.20062429388054 0 0 0 0 -32.171512296328743 32.287502518859093 0 32.287502518859093 -17.972578167416714 0 0 0 0 -36.056503953447645 59.398590962186063 0 59.398590962186063 -21.547997387533542 0 0 0 0 217.83811053729005 125.15034415037007 0 125.15034415037007 -21.179553793002015 0 0 0 0 137.33089747541453 -269.85711060739777 0 -269.85711060739777 -277.34559770969645 0 0 0 0 7.3229557507293066 -94.493531760457699 0 -94.493531760457699 124.81933947206562 0 0 0 0 -177.93208840837542 -246.31684611124365 0 -246.31684611124365 4.1870470640205895 0 0 0 0 17.261837389045468 44.744787075022032 0 44.744787075022032 18.863461479086254 0 0 0 0 -15.467666612893154 11.583443434464346 0 11.583443434464346 5.7441477195007167 0 0 0 0 21.747342826338354 33.702309346170296 0 33.702309346170296 22.901777772422065 0 0 0 0 19.9416904998061 18.659799247789124 0 18.659799247789124 -5.7226592860679375 0 0 0 0 7.390538182525745 9.5461987940433417 0 9.5461987940433417 -9.3090031892776324 0 0 0 0 12.908325344331601 8.3295467952647471 0 8.3295467952647471 -6.5752246773647123 0 0 0 0 2.4034154735782067 37.422823940411035 0 37.422823940411035 59.184808393059939 0 0 0 0 -10.740771098437108 13.872123560166074 0 13.872123560166074 17.498129335217527 0 0 0 0 167.75007344329788 -178.16008977091406 0 -178.16008977091406 -328.42515580810687 0 0 0 0 13.14046779923973 14.656585605233971 0 14.656585605233971 -7.8662514379675734 0 0 0 0 15.07442601466937 3.3765617415265297 0 3.3765617415265297 16.783634738480032 0 0 0 0 -3.4841831535572112 3.9535952159015437 0 3.9535952159015437 2.751103310411267 0 0 0 0 8.6637632312704227 18.53647643810109 0 18.53647643810109 10.830604421447788 0 0 0 0 -113.5387464544981 278.3212117504811 0 278.3212117504811 -206.88325382819312 0 0 0 0 5.1990832952639607 7.4888400790523839 0 7.4888400790523839 -5.7176369353246059 0 0 0 0 -3.2911655315012993 6.2672176271254649 0 6.2672176271254649 4.7600326588712818 0 0 0 0 0.10253227338333204 0.91629108560409733 0 0.91629108560409733 0.98611945467236239 0 0 0 0 -57.313364299439854 201.42537621892006 0 201.42537621892006 -461.88300953981525 0 0 0 0 48.511324312086799 262.33948465170397 0 262.33948465170397 -459.52078815262757 0 0 0 0 -233.96928731670778 309.55096472507284 0 309.55096472507284 -118.04162384259416 0 0 0 0 61.259673094049504 -51.618796672984899 0 -51.618796672984899 -86.913914783463042 0 0 0 0 -46.197978755307304 112.24385220149634 0 112.24385220149634 290.62913790360471 0 0 0 0 -73.484839320728497 30.002688663909794 0 30.002688663909794 146.5952102082083 0 0 0 0 40.282688364324713 114.05072723450576 0 114.05072723450576 90.459559970309783 0 0 0 0 56.690534660379853 105.39583759623565 0 105.39583759623565 26.413530619793164 0 0 0 0 50.081656525617291 80.804962942052953 0 80.804962942052953 27.751518062061223 0 0 0 0 56.61706440522903 89.041245880333008 0 89.041245880333008 33.597121297440026 0 0 0 0 14.64811351962453 82.549272133837803 0 82.549272133837803 54.307696922747709 0 0 0 0 18.71490177553278 67.246431261719408 0 67.246431261719408 26.984747692422388 0 0 0 0 42.208926905557746 90.884213704277499 0 90.884213704277499 -26.430052023339158 0 0 0 0 85.06726734145559 107.51609761253712 0 107.51609761253712 -80.637892128112071 0 0 0 0 39.911850685513855 97.471262534549169 0 97.471262534549169 35.211237169271044 0 0 0 0 243.07794114750504 -24.864580375749938 0 -24.864580375749938 -67.963127194384924 0 0 0 0 87.458799677478964 152.69317330910417 0 152.69317330910417 57.876497453893535 0 0 0 0 717.8816974951842 -310.19780936002462 0 -310.19780936002462 -353.27919658768224 0 0 0 0 474.30414898228901 187.96203822364259 0 187.96203822364259 24.577021928780596 0 0 0 0 84.108670180998161 24.157616540160234 0 24.157616540160234 290.99875671874906 0 0 0 0 561.00655358952827 121.80900491550346 0 121.80900491550346 -5.5770623900316423 0 0 0 0 831.44938475931667 491.18686602798152 0 491.18686602798152 168.36074344192457 0 0 0 0 349.51187885086256 360.89190119418708 0 360.89190119418708 419.17205193483824 0 0 0 0 154.98336383026981 -1.4509755225426488 0 -1.4509755225426488 -83.363960437163769 0 0 0 0 92.61099893197752 31.740455753013521 0 31.740455753013521 114.90730836092553 0 0 0 0 169.37576120491212 212.39930402337995 0 212.39930402337995 127.12956600594771 0 0 0 0 180.85760590019026 182.25298791204978 0 182.25298791204978 -192.80672896201577 0 0 0 0 302.02645351132378 473.61860729277032 0 473.61860729277032 -184.98552997902152 0 0 0 0 520.04135513559231 -16.976886946569721 0 -16.976886946569721 -30.336830547385034 0 0 0 0 -237.85895358095149 124.04823352308449 0 124.04823352308449 -269.92185724503724 0 0 0 0 4.6712878766265931 683.04886646910563 0 683.04886646910563 458.46882530662333 0 0 0 0 -1.4651237763504881 0.051178315711297273 0 0.051178315711297273 -0.11335769278491625 0 0 0 0 142.29423755524294 191.95235006619987 0 191.95235006619987 88.257578488144645 0 0 0 0 -36.564059559881571 -381.12722418407066 0 -381.12722418407066 12.714798847606289 0 0 0 0 473.52820180898561 -188.38854754981003 0 -188.38854754981003 -850.46886081127195 0 0 0 0 4.7924247459791403 1.8584774749451327 0 1.8584774749451327 -0.65361364500688524 0 0 0 0 379.92982886901518 622.14945035356141 0 622.14945035356141 -105.24904401336244 0 0 0 0 181.18480144504065 390.22078056446844 0 390.22078056446844 -327.54726899107754 0 0 0 0 199.19324763249369 111.33134254504876 0 111.33134254504876 -316.22606852501849 0 0 0 0 7.9320778048340514 4.3987824992156845 0 4.3987824992156845 -1.2911486622596478 0 0 0 0 104.32009474808365 112.80780169738682 0 112.80780169738682 -76.011936392416828 0 0 0 0 -39.122767934313742 93.023761522303175 0 93.023761522303175 -11.118781976641912 0 0 0 0 94.336652004854841 220.68252021559601 0 220.68252021559601 -153.25557034854864 0 0 0 0 68.798244437055473 357.86621219625704 0 357.86621219625704 -15.194690730160801 0 0 0 0 65.734925112468773 195.61414264556515 0 195.61414264556515 -266.77515383705759 0 0 0 0 50.814607073402385 351.69116772032976 0 351.69116772032976 -122.00303755617642 0 0 0 0 -60.411743038323038 104.99420292222931 0 104.99420292222931 -182.50513500222587 0 0 0 0 -113.42098667749087 314.94664515986369 0 314.94664515986369 -18.345547563716536 0 0 0 0 -208.68437096461275 309.24474498442578 0 309.24474498442578 25.572001714172075 0 0 0 0 2.1055391506540548 4.1980026503492951 0 4.1980026503492951 7.7455136674394396 0 0 0 0 -25.002706638571908 452.89280235929255 0 452.89280235929255 109.90185108872538 0 0 0 0 -456.67033225109026 164.5122282333632 0 164.5122282333632 52.456642389166518 0 0 0 0 1392.924024550699 38.727216953104289 0 38.727216953104289 -293.10524037978757 0 0 0 0 -77.572183908203442 28.10948573771384 0 28.10948573771384 -129.24965915136636 0 0 0 0 -48.748696818453027 100.53746691481138 0 100.53746691481138 -58.037944722316752 0 0 0 0 86.205731965990708 57.278167229520477 0 57.278167229520477 -27.496658888849197 0 0 0 0 107.1942644445171 118.0118315952086 0 118.0118315952086 -217.01090292916342 0 0 0 0 102.55555879324675 78.865683817481568 0 78.865683817481568 -178.31792683778622 0 0 0 0 169.4154264279241 109.25598257666934 0 109.25598257666934 -232.82851317228051 0 0 0 0 2.2220877128347638 144.05118808328916 0 144.05118808328916 40.129282621935999 0 0 0 0 -6.5602745246887935 88.293562062206547 0 88.293562062206547 -112.05271280089801 0 0 0 0 -101.92276221142311 133.49715329066385 0 133.49715329066385 -25.837884019638295 0 0 0 0 -1.562221251850417 1.6961448016333875 0 1.6961448016333875 -1.6380103550012279 0 0 0 0 64.97849529636369 -26.403324637238256 0 -26.403324637238256 -46.206021770849475 0 0 0 0 206.73274506667804 69.493123227533943 0 69.493123227533943 -67.277670600965394 0 0 0 0 -155.90864884629445 -31.459127814088788 0 -31.459127814088788 76.47701747129031 0 0 0 0 -184.28884037005446 21.003736319917152 0 21.003736319917152 46.766754086915171 0 0 0 0 -149.17361700857145 -31.677694523143145 0 -31.677694523143145 76.464343773208384 0 0 0 0 -182.77032202745249 -80.301908501434809 0 -80.301908501434809 76.790760506825791 0 0 0 0 -113.30793889352935 -50.88812375463749 0 -50.88812375463749 68.982541601180856 0 0 0 0 81.883836927623634 397.89936674715136 0 397.89936674715136 405.3906022347237 0 0 0 0 228.82582756540432 345.67853049291443 0 345.67853049291443 497.43239256546076 0 0 0 0 -6.8959636836366087 3.9972295965619864 0 3.9972295965619864 -1.5214757355055326 0 0 0 0 -0.85432306891624421 2.1198018598118864 0 2.1198018598118864 -1.0156112800011385 0 0 0 0 53.930955428946618 91.625189757265616 0 91.625189757265616 -18.302330038230139 0 0 0 0 -17.593858207153971 -30.278285758162383 0 -30.278285758162383 57.18525119984406 0 0 0 0 122.01696546867606 331.39249357970402 0 331.39249357970402 233.70506829988153 0 0 0 0 136.16411881915292 153.06513787216954 0 153.06513787216954 260.94035873035318 0 0 0 0 296.78969917894938 115.7793697291745 0 115.7793697291745 327.14774454031431 0 0 0 0 110.46252182911485 244.97697817008157 0 244.97697817008157 476.54931231436058 0 0 0 0 188.4775321946654 126.21092720333036 0 126.21092720333036 125.35913833157792 0 0 0 0 170.54869083302401 252.34268082214112 0 252.34268082214112 183.71128490504634 0 0 0 0 155.13492471238351 196.55753653385182 0 196.55753653385182 -0.21854923976934515 0 0 0 0 92.251038033768054 80.619354574804674 0 80.619354574804674 86.120908317287103 0 0 0 0 194.79788126911444 231.93324991196278 0 231.93324991196278 -50.094807538505847 0 0 0 0 114.21205295867912 125.13433744319263 0 125.13433744319263 61.601824700410361 0 0 0 0 195.74349823477314 220.05305400287034 0 220.05305400287034 42.015149243804444 0 0 0 0 171.70073650012046 266.39728048074221 0 266.39728048074221 190.56637354406121 0 0 0 0 126.91999452113123 257.16607444617875 0 257.16607444617875 317.55463304285513 0 0 0 0 -2.5176224667438092 3.8481119446897623 0 3.8481119446897623 -2.6865206392228203 0 0 0 0 -219.30363517716614 393.12327388030099 0 393.12327388030099 369.18973697518959 0 0 0 0 382.61937214066711 264.2987171253917 0 264.2987171253917 339.82214301844942 0 0 0 0 229.07044604131261 368.57242875747397 0 368.57242875747397 270.22057737597788 0 0 0 0 -2.2733674623839448 1.7177194867854695 0 1.7177194867854695 -0.45921570943529844 0 0 0 0 359.0636341309546 258.0753091824663 0 258.0753091824663 160.18216601386303 0 0 0 0 2.9966251811965776 168.59141762354739 0 168.59141762354739 -55.683341573429061 0 0 0 0 -289.61841524390184 93.05201870784731 0 93.05201870784731 86.238461944762093 0 0 0 0 127.07204112647378 -94.732254973194358 0 -94.732254973194358 145.28748325667402 0 0 0 0 447.73504289263656 -8.3326818138739327 0 -8.3326818138739327 -39.844947866418806 0 0 0 0 213.34898956350662 146.20662504661959 0 146.20662504661959 -163.77426946745391 0 0 0 0 214.34137173432828 129.68384508943564 0 129.68384508943564 81.973518514387251 0 0 0 0 30.714618953970785 98.82666082992364 0 98.82666082992364 63.707098324084654 0 0 0 0 -1.1710588657460121 1.9620310658027975 0 1.9620310658027975 -1.8709416439627802 0 0 0 0 73.342010936168663 -45.774693205356016 0 -45.774693205356016 151.63065732860832 0 0 0 0 -43.483733626893809 257.1178617024234 0 257.1178617024234 -267.42578021611553 0 0 0 0 -22.516390551263612 59.363382435163658 0 59.363382435163658 66.514403650973691 0 0 0 0 1.218513999334391 -16.001168671387859 0 -16.001168671387859 -51.426635442781844 0 0 0 0 146.81871946343745 -14.217333215539838 0 -14.217333215539838 129.76823161105858 0 0 0 0 111.09889617470617 -30.224051754099492 0 -30.224051754099492 95.622977141712909 0 0 0 0 79.629814310755137 101.88437902048008 0 101.88437902048008 81.375065712447395 0 0 0 0 93.405934387854359 -21.285083103284705 0 -21.285083103284705 95.520905697001581 0 0 0 0 62.382515852143115 -41.081681796837074 0 -41.081681796837074 112.32420080137672 0 0 0 0 89.689652946268325 -45.629773977161676 0 -45.629773977161676 112.71180087676112 0 0 0 0 -5.1796661658440257 4.8600517156043139 0 4.8600517156043139 -3.707164187478611 0 0 0 0 152.97939020340345 130.44436147099987 0 130.44436147099987 61.578890659948229 0 0 0 0 170.36363208805824 26.59767792061848 0 26.59767792061848 56.860094164345355 0 0 0 0 20.928012326010503 133.90990456182408 0 133.90990456182408 96.836036234764833 0 0 0 0 61.193406790338486 29.470630135543615 0 29.470630135543615 64.025733589278389 0 0 0 0 101.34071420986584 128.44394328506678 0 128.44394328506678 56.974944895817316 0 0 0 0 89.45285463449477 122.4464484283551 0 122.4464484283551 63.093018149251293 0 0 0 0 91.535242564217697 144.4516121040142 0 144.4516121040142 219.27352040496771 0 0 0 0 -24.671807453662041 18.266201200233809 0 18.266201200233809 5.4969220811981359 0 0 0 0 -1.774461747740304 5.5496276747381366 0 5.5496276747381366 -3.076311280837956 0 0 0 0 -29.126838744312181 34.491399715569685 0 34.491399715569685 -14.631221055441372 0 0 0 0 -6.4203995445204782 63.068737586901989 0 63.068737586901989 29.449508339621389 0 0 0 0 131.33493140188966 138.60166095988234 0 138.60166095988234 -32.878948750025302 0 0 0 0 61.201726347746444 122.55221910405817 0 122.55221910405817 -72.509828457569256 0 0 0 0 84.37322262730595 59.18689254743731 0 59.18689254743731 19.197788992798451 0 0 0 0 20.389553449014784 140.94690663776055 0 140.94690663776055 102.02005417331566 0 0 0 0 78.203274528001202 181.56213853626105 0 181.56213853626105 63.328602059496916 0 0 0 0 76.190998908451547 143.50897816533688 0 143.50897816533688 86.659852127791964 0 0 0 0 -38.091323862150261 31.755723339955413 0 31.755723339955413 -20.303700161577567 0 0 0 0 -0.63027723349724596 1.0594602075275503 0 1.0594602075275503 -2.1363655943921458 0 0 0 0 71.550505802066255 171.74983185755627 0 171.74983185755627 -77.627257241976622 0 0 0 0 -176.37748657522752 -26.545332010711718 0 -26.545332010711718 56.330957496611518 0 0 0 0 -7.0946109761988581 6.5648100171649872 0 6.5648100171649872 -4.7848778121743436 0 0 0 0 -241.5223910336681 234.8842255429845 0 234.8842255429845 472.2467963067902 0 0 0 0 62.94526298708297 27.156276885642001 0 27.156276885642001 59.459745070533245 0 0 0 0 -172.83719819051839 244.66273993439791 0 244.66273993439791 212.88049799732653 0 0 0 0 -107.83363011761685 60.94949730909866 0 60.94949730909866 92.644584089881391 0 0 0 0 17.561424556159182 -502.25784842483699 0 -502.25784842483699 205.4213369295976 0 0 0 0 -606.58351379297892 182.43977683084813 0 182.43977683084813 -289.46971780959575 0 0 0 0 0.40609787497759697 3.0741750597584172 0 3.0741750597584172 -2.9687288162507741 0 0 0 0 -97.732134473422775 -328.29543392603227 0 -328.29543392603227 -1139.4662458354724 0 0 0 0 364.81853546696948 -47.180810917416238 0 -47.180810917416238 -1351.325245121785 0 0 0 0 33.960646037383412 335.047081927205 0 335.047081927205 -653.59386453330808 0 0 0 0 -127.52056334081863 -164.92283752923686 0 -164.92283752923686 -569.3390518847591 0 0 0 0 25.456649197876686 20.472787445549329 0 20.472787445549329 129.1058133677725 0 0 0 0 295.00061403011932 282.62547882544459 0 282.62547882544459 -572.16933479395811 0 0 0 0 -2.4673610360886258 3.6980962949339933 0 3.6980962949339933 -3.8130495743120747 0 0 0 0 171.29999652240076 142.76215038220107 0 142.76215038220107 -433.60064726689598 0 0 0 0 34.662407058396639 28.840187902216712 0 28.840187902216712 124.37630758284649 0 0 0 0 51.391915119667829 15.090445092431764 0 15.090445092431764 130.12608810515576 0 0 0 0 59.855878110873164 104.15043125623197 0 104.15043125623197 62.480504340499465 0 0 0 0 0.5592736626858823 94.752418338332063 0 94.752418338332063 62.603157640132849 0 0 0 0 -37.133902417120694 32.395323998650795 0 32.395323998650795 -21.379691855109797 0 0 0 0 136.63374159472505 292.18715400437213 0 292.18715400437213 106.91565380784232 0 0 0 0 -4.2381815700646257 83.198248101121862 0 83.198248101121862 72.991514093999285 0 0 0 0 -378.6771728072199 429.11337261821427 0 429.11337261821427 95.679817873722641 0 0 0 0 -2.3024970826591016 27.892329618764052 0 27.892329618764052 1.4443707402824657 0 0 0 0 -3.7951200898501156 79.310450468419958 0 79.310450468419958 69.220350007708475 0 0 0 0 -60.956806431760924 81.620059153630791 0 81.620059153630791 132.63346963797812 0 0 0 0 -23.115495663812908 73.003182887674484 0 73.003182887674484 78.481704310164787 0 0 0 0 -8.4037293455985491 93.177016248579093 0 93.177016248579093 104.60120439471939 0 0 0 0 -17.179277733623167 110.66871502765571 0 110.66871502765571 92.758186931881937 0 0 0 0 -25.519413503261603 140.76995336396249 0 140.76995336396249 185.40213582849537 0 0 0 0 19.134335478283901 200.06573804068557 0 200.06573804068557 140.70438821655262 0 0 0 0 8.7183505519351456 129.60676597951897 0 129.60676597951897 24.012446436678147 0 0 0 0 11.909218607212097 177.82559774190304 0 177.82559774190304 73.471605523343896 0 0 0 0 -32.664674400075455 118.79774250423998 0 118.79774250423998 119.05286051218718 0 0 0 0 8.9504951844173775 134.79956515270351 0 134.79956515270351 64.094336361711612 0 0 0 0 40.637087057235476 147.35419870412807 0 147.35419870412807 -7.4058011233137222 0 0 0 0 13.784950228466187 149.83094352373519 0 149.83094352373519 -2.1652480800985359 0 0 0 0 10.903628832398681 125.92966593344681 0 125.92966593344681 66.759465538678342 0 0 0 0 -0.2839709587424295 120.26779582382733 0 120.26779582382733 4.9995492917441879 0 0 0 0 18.267542149682413 100.03594617712952 0 100.03594617712952 -39.553544560825685 0 0 0 0 27.543865441388334 97.113954951162668 0 97.113954951162668 16.196913861516805 0 0 0 0 31.777714653377188 124.62487598747248 0 124.62487598747248 -73.100862159488315 0 0 0 0 35.448207428868045 88.762857537971286 0 88.762857537971286 -74.334230712854605 0 0 0 0 -3.7034938448632602 92.368951977208781 0 92.368951977208781 -97.896652276514033 0 0 0 0 30.12404918242828 108.83704030818262 0 108.83704030818262 -100.40747007475875 0 0 0 0 62.308626120757253 120.31548603180272 0 120.31548603180272 -158.1632652637345 0 0 0 0 54.997642062757222 160.9167030302724 0 160.9167030302724 -99.52906060506939 0 0 0 0 12.436629905962036 110.81710622663377 0 110.81710622663377 -72.530300586178782 0 0 0 0 14.491538588961703 128.36823107320379 0 128.36823107320379 -45.148319033367443 0 0 0 0 19.947619765618583 169.36244475263084 0 169.36244475263084 -7.5845711089932593 0 0 0 0 23.62500654294854 29.243699006932729 0 29.243699006932729 -18.376119800323067 0 0 0 0 76.696440325431467 139.10048034492138 0 139.10048034492138 -302.08842564549195 0 0 0 0 8.6436028791486024 67.022368850346538 0 67.022368850346538 -151.19834267604165 0 0 0 0 22.017742993481988 20.61388464666237 0 20.61388464666237 7.2150184155835397 0 0 0 0 74.76544173180082 47.31582677012193 0 47.31582677012193 -51.392052468747352 0 0 0 0 -29.807913247059332 131.80568473996027 0 131.80568473996027 -149.78194578108378 0 0 0 0 70.781454168762139 55.737320037540485 0 55.737320037540485 -202.1146575613202 0 0 0 0 77.870818822251749 105.64649933981855 0 105.64649933981855 -199.38824447577645 0 0 0 0 58.824722199266049 34.596209791771244 0 34.596209791771244 7.7775135871414065 0 0 0 0 22.413601326614298 129.30813427484281 0 129.30813427484281 -146.97589326395246 0 0 0 0 22.046263061027275 167.3261008864647 0 167.3261008864647 -354.84805751373642 0 0 0 0 32.069555374037009 113.99970245102304 0 113.99970245102304 -148.13822641325169 0 0 0 0 15.682186126698753 -7.1417678845963763 0 -7.1417678845963763 -19.331772043554821 0 0 0 0 48.66951606994553 41.448281331107864 0 41.448281331107864 -38.470892341922081 0 0 0 0 73.994003435975173 52.832584109335585 0 52.832584109335585 -34.241767589399387 0 0 0 0 59.331882645286214 31.154756478103252 0 31.154756478103252 -28.271548742734012 0 0 0 0 47.045081696453963 64.061298014640442 0 64.061298014640442 -63.15210477112123 0 0 0 0 31.480699405795079 17.646274541938155 0 17.646274541938155 4.7150531478307656 0 0 0 0 34.950504281514441 26.903533317214169 0 26.903533317214169 -52.57470519531762 0 0 0 0 -12.937717468004848 52.931752882479486 0 52.931752882479486 -12.385137310950086 0 0 0 0 57.684138591721421 48.501786284183254 0 48.501786284183254 7.3035338655990927 0 0 0 0 52.057598426359618 60.483539872598158 0 60.483539872598158 -12.64363831114315 0 0 0 0 27.948322946480403 32.659647850961846 0 32.659647850961846 -0.65744881328282645 0 0 0 0 60.407373484289565 54.335675972333775 0 54.335675972333775 -26.239476615312014 0 0 0 0 55.570063995775854 37.784243519874508 0 37.784243519874508 25.710947567822586 0 0 0 0 52.035388017873629 66.959563251970621 0 66.959563251970621 15.705056831728143 0 0 0 0 51.848600507888477 44.03989368629118 0 44.03989368629118 20.163984076672932 0 0 0 0 55.119853221083758 48.444716199570394 0 48.444716199570394 26.05239983333388 0 0 0 0 66.327082468427761 60.80615534743356 0 60.80615534743356 73.654540890245698 0 0 0 0 90.395392472521053 49.819670145385317 0 49.819670145385317 -46.949783696803934 0 0 0 0 63.00299655431445 45.683043769386131 0 45.683043769386131 18.518668412376428 0 0 0 0 57.028905140585266 46.347287669763318 0 46.347287669763318 18.903261974584893 0 0 0 0 57.281082824600162 50.04008689328839 0 50.04008689328839 22.588515882886895 0 0 0 0 51.669544810214575 45.319187488510579 0 45.319187488510579 26.611798608573736 0 0 0 0 79.211452923154866 52.581461643358125 0 52.581461643358125 -6.0985397076383379 0 0 0 0 85.654782659650664 26.761407243513531 0 26.761407243513531 4.7944375176703034 0 0 0 0 97.567682379027246 31.099366369116979 0 31.099366369116979 4.5515165613705904 0 0 0 0 119.99470151784863 59.520463507705244 0 59.520463507705244 13.799233864434427 0 0 0 0 -138.43055892189477 65.688985601947934 0 65.688985601947934 114.37611409069814 0 0 0 0 -1.4104626200732433 1.2113961801303716 0 1.2113961801303716 -11.812685257843725 0 0 0 0 182.01840395547151 24.449361810908158 0 24.449361810908158 -15.879600857294463 0 0 0 0 -12.278056931973879 79.187075605602331 0 79.187075605602331 84.274042829139944 0 0 0 0 116.74982013025146 23.058089644577194 0 23.058089644577194 -43.543751254022936 0 0 0 0 9.8202857158951655 5.3509048594243893 0 5.3509048594243893 -19.665791398103579 0 0 0 0 142.4586558526571 99.12697079803911 0 99.12697079803911 -379.59943320009188 0 0 0 0 101.89465695912986 29.594597740295285 0 29.594597740295285 -30.73171828244449 0 0 0 0 75.612291424215073 37.11136550905394 0 37.11136550905394 -25.607232719583408 0 0 0 0 81.127300412290424 35.025513985585349 0 35.025513985585349 -38.777912646124605 0 0 0 0 94.738727885283879 37.228673567238729 0 37.228673567238729 -35.637342503789114 0 0 0 0 49.320103238445881 27.42641335908047 0 27.42641335908047 -27.702833854418714 0 0 0 0 77.931287568833795 -0.5833304246480111 0 -0.5833304246480111 -33.011315277955873 0 0 0 0 105.24047799543314 6.0350746024673754 0 6.0350746024673754 -44.962767494514992 0 0 0 0 60.181030590160532 38.287043744125327 0 38.287043744125327 11.122015022764664 0 0 0 0 66.49805212951469 51.526037322499178 0 51.526037322499178 -40.644623824378641 0 0 0 0 76.647543050792592 78.145945402902726 0 78.145945402902726 -178.58790118956676 0 0 0 0 46.447520906229329 52.612326662423584 0 52.612326662423584 -76.166037242297534 0 0 0 0 83.217628650232655 120.70628083010342 0 120.70628083010342 -119.12888661390753 0 0 0 0 60.40325502565247 97.486727945155508 0 97.486727945155508 15.135564728974714 0 0 0 0 66.992715172729106 26.567358102694925 0 26.567358102694925 -18.322947746767632 0 0 0 0 -129.57623576445985 -79.789950378713911 0 -79.789950378713911 425.36060329266547 0 0 0 0 28.236452642413497 36.876591119593286 0 36.876591119593286 -10.263525376400594 0 0 0 0 8.651116064809969 16.540677372062788 0 16.540677372062788 -8.829367116877556 0 0 0 0 1.4985671607036295 10.109414752578168 0 10.109414752578168 -21.882413688267576 0 0 0 0 182.56035060053546 61.290797201785608 0 61.290797201785608 -6.0834518272595233 0 0 0 0 0.35581692957292432 1.5220311036252241 0 1.5220311036252241 -4.6662397479183362 0 0 0 0 23.972961227930682 15.341999316221973 0 15.341999316221973 -11.858526477306441 0 0 0 0 11.472269841935486 32.044827212772361 0 32.044827212772361 0.92507990765443537 0 0 0 0 9.8737939314181347 13.221920807524882 0 13.221920807524882 -21.33380560304839 0 0 0 0 67.853518164300112 -97.060202830689377 0 -97.060202830689377 -69.956397675833614 0 0 0 0 147.07492565100529 263.6759299692917 0 263.6759299692917 -318.85160533116868 0 0 0 0 -0.11860481644538723 1.596020467618084 0 1.596020467618084 -5.2695979549312852 0 0 0 0 51.117757638798139 50.73918747863172 0 50.73918747863172 -78.318995358022221 0 0 0 0 107.63025671130345 227.23188273739288 0 227.23188273739288 56.915461106036673 0 0 0 0 270.38808151585908 223.70544986331879 0 223.70544986331879 -208.61180903146487 0 0 0 0 -1.4568038807274739 5.1973410096042159 0 5.1973410096042159 -11.773381737741673 0 0 0 0 1.75148881505487 -0.64352810203699562 0 -0.64352810203699562 -4.1942362952912902 0 0 0 0 -58.022735944639862 -27.681817849155777 0 -27.681817849155777 -30.077729145603371 0 0 0 0 33.311459254369765 -135.08624837503703 0 -135.08624837503703 1.2029568787584139 0 0 0 0 22.728987136779324 32.538301234355458 0 32.538301234355458 -1.749181926377787 0 0 0 0 6.6303830404227426 4.3486197560015452 0 4.3486197560015452 -20.370597489684926 0 0 0 0 24.111223388095823 18.80124652471568 0 18.80124652471568 -3.381517277470266 0 0 0 0 13.69755661792442 -16.358636976721755 0 -16.358636976721755 18.67611901643977 0 0 0 0 10.567777573756779 11.732224394266069 0 11.732224394266069 0.78502603211341437 0 0 0 0 0.95890024610713454 2.3554673200108986 0 2.3554673200108986 -1.7864722023599313 0 0 0 0 -128.65187056035575 -163.90979564118425 0 -163.90979564118425 -215.37976628613433 0 0 0 0 -28.755356255598599 34.399135815569025 0 34.399135815569025 -11.760942399432679 0 0 0 0 87.671614013283033 -266.54651839007238 0 -266.54651839007238 -189.54097909469783 0 0 0 0 9.4149495509869894 42.550088012464244 0 42.550088012464244 -38.772189007147972 0 0 0 0 -36.817045242263703 93.787388264576293 0 93.787388264576293 -65.903719006455503 0 0 0 0 2.0858034941643773 3.3931139135529236 0 3.3931139135529236 5.6090285186465252 0 0 0 0 -33.573991947134346 57.54373209586447 0 57.54373209586447 9.5749618211193592 0 0 0 0 -16.603905162868614 -3.7935874842041812 0 -3.7935874842041812 28.561058938284987 0 0 0 0 -41.660659773851876 13.219041015914627 0 13.219041015914627 47.299376146176655 0 0 0 0 2.7011898085738721 32.577359075608001 0 32.577359075608001 40.561693438059592 0 0 0 0 6.8096538952132519 22.481674213916136 0 22.481674213916136 23.526832089638361 0 0 0 0 10.298324820461858 18.232017486061523 0 18.232017486061523 -1.1324895226098306 0 0 0 0 -44.012984942357434 61.609613032691414 0 61.609613032691414 59.045871820211687 0 0 0 0 18.18945512466189 78.204348117435529 0 78.204348117435529 60.973935349997191 0 0 0 0 1.5336519830834305 13.618548503516266 0 13.618548503516266 -18.87894408834488 0 0 0 0 -102.54565229483705 165.36451052483972 0 165.36451052483972 81.975080007687211 0 0 0 0 118.8563594331481 167.22131946207992 0 167.22131946207992 35.588430022187822 0 0 0 0 -204.42980235073628 -24.134820706060054 0 -24.134820706060054 62.424046286650992 0 0 0 0 -28.956028825563408 -55.725105718262057 0 -55.725105718262057 -68.80861663887481 0 0 0 0 -14.324213155468897 39.0205438985613 0 39.0205438985613 66.663422689030995 0 0 0 0 -0.69719484466804715 183.45406479839858 0 183.45406479839858 -317.45841516097425 0 0 0 0 34.060375723165635 -227.46160351079016 0 -227.46160351079016 -337.84152892517886 0 0 0 0 -0.47981934168407747 1.7598949799429846 0 1.7598949799429846 -6.9205950101031277 0 0 0 0 -122.19201258876728 -104.01184653370228 0 -104.01184653370228 -92.086825419639354 0 0 0 0 -64.363513831263845 70.844978007577083 0 70.844978007577083 -216.97389630745965 0 0 0 0 -144.27636391156102 -16.783462636296008 0 -16.783462636296008 117.86460085234648 0 0 0 0 23.644919788443076 158.12566602694642 0 158.12566602694642 7.6183785120338143 0 0 0 0 -377.34100470218982 644.50453124553496 0 644.50453124553496 -838.96903262950218 0 0 0 0 -644.23832759361903 464.9141984258913 0 464.9141984258913 -346.67969169154867 0 0 0 0 -416.01737794924338 699.46913391711587 0 699.46913391711587 -513.51499941786096 0 0 0 0 77.220340137399035 108.5283335376098 0 108.5283335376098 -817.61566376516021 0 0 0 0 -186.18348439234251 481.20489198830546 0 481.20489198830546 -308.08592269066139 0 0 0 0 -200.30252245914744 332.50474282035975 0 332.50474282035975 -33.512839237478602 0 0 0 0 20.137780569766619 304.86453818203336 0 304.86453818203336 -226.7757419276968 0 0 0 0 5.0001987355626625 170.91180579127922 0 170.91180579127922 163.3018203421525 0 0 0 0 140.08499190992734 -92.827824034060541 0 -92.827824034060541 177.92502926624024 0 0 0 0 -24.015254093712429 -20.759148784254648 0 -20.759148784254648 -9.5785807341908367 0 0 0 0 -9.3531483903170738 74.286890744533821 0 74.286890744533821 -42.325762439933897 0 0 0 0 -130.58981736226997 8.456591297795967 0 8.456591297795967 149.47357474209639 0 0 0 0 1.609845859262947 1.6381000212425363 0 1.6381000212425363 4.4850298455077393 0 0 0 0 753.00002574941755 37.024107213968819 0 37.024107213968819 -47.26233274462902 0 0 0 0 329.13707482403697 371.790683898731 0 371.790683898731 222.67811909758166 0 0 0 0 -20.744778373024019 196.42659926728084 0 196.42659926728084 324.90340782551357 0 0 0 0 237.9189085592734 309.97507790683085 0 309.97507790683085 126.24725567718269 0 0 0 0 102.71961399239808 161.46876538818105 0 161.46876538818105 -14.408867389545776 0 0 0 0 448.35985512771913 61.851435047094128 0 61.851435047094128 -88.50802435812875 0 0 0 0 99.161157965856546 44.197504250505517 0 44.197504250505517 -83.308925955261657 0 0 0 0 37.031665482805693 146.84372708457886 0 146.84372708457886 -11.439557116466858 0 0 0 0 192.73260354269223 72.543102021811137 0 72.543102021811137 -147.29571611068968 0 0 0 0 57.755426884734334 48.132644368831279 0 48.132644368831279 -61.881809482565586 0 0 0 0 175.08811826245801 36.023591664959895 0 36.023591664959895 -186.67701493766799 0 0 0 0 42.536497154556855 -86.136573852219954 0 -86.136573852219954 -101.143206943113 0 0 0 0 -15.966328014270402 -45.021536589751122 0 -45.021536589751122 -59.819265830839868 0 0 0 0 -6.8831710050289985 -35.537972887042997 0 -35.537972887042997 -151.02348034359966 0 0 0 0 23.192595814191009 -19.462461917444671 0 -19.462461917444671 -213.63988636920112 0 0 0 0 48.840266247236286 -57.012894713612695 0 -57.012894713612695 -170.63456677759132 0 0 0 0 16.429735619309213 15.637733401561491 0 15.637733401561491 16.475341995803319 0 0 0 0 8.8737018814036048 15.341207647229695 0 15.341207647229695 4.007537683644788 0 0 0 0 5.8161793861327169 17.390713889462859 0 17.390713889462859 31.941800275253627 0 0 0 0 -25.917332890538091 80.931579089023217 0 80.931579089023217 -139.6203894493301 0 0 0 0 43.798323311989179 53.368257155620796 0 53.368257155620796 -313.42106981344114 0 0 0 0 103.95486286214145 -39.171675566207341 0 -39.171675566207341 -227.48749977326679 0 0 0 0 15.839137105431291 23.850253973319923 0 23.850253973319923 3.8719930938532343 0 0 0 0 7.2738503283435421 25.36075521897601 0 25.36075521897601 11.029106550933648 0 0 0 0 16.806172331839235 15.975972381569122 0 15.975972381569122 2.4082872344482595 0 0 0 0 19.774176014763725 94.202052678699147 0 94.202052678699147 -49.436744057835313 0 0 0 0 17.486790102924715 23.968223479254448 0 23.968223479254448 -8.5213824820675654 0 0 0 0 23.979448611027493 19.316585114026303 0 19.316585114026303 15.012846760537879 0 0 0 0 35.584275080964289 98.500431407713677 0 98.500431407713677 14.502905205292336 0 0 0 0 45.177499495526718 56.125323946998833 0 56.125323946998833 8.4789920267940033 0 0 0 0 1.0657297320431098 34.314990975359251 0 34.314990975359251 -21.528027222177116 0 0 0 0 8.3053267467912519 36.102429948063218 0 36.102429948063218 0.84085030754613399 0 0 0 0 -22.516657152684274 44.820978733911943 0 44.820978733911943 -10.844940674531244 0 0 0 0 22.206052896730455 20.129444714089047 0 20.129444714089047 10.529017223643962 0 0 0 0 -62.8145171919532 45.841509525478614 0 45.841509525478614 4.1377090921414492 0 0 0 0 -19.942592509731185 47.676556225193053 0 47.676556225193053 -15.391601619001449 0 0 0 0 -10.079645223158423 16.532963984537854 0 16.532963984537854 -9.8756259652422713 0 0 0 0 -55.347107956673426 21.327925285284437 0 21.327925285284437 15.06477610688853 0 0 0 0 19.114668466409057 48.572113665364668 0 48.572113665364668 -11.335669498985226 0 0 0 0 -22.78697785166878 21.836290747678504 0 21.836290747678504 8.0968595935919438 0 0 0 0 83.440721477032639 84.433707444695756 0 84.433707444695756 8.2552268784384069 0 0 0 0 -75.574034287363247 26.385262133117521 0 26.385262133117521 20.180497497975011 0 0 0 0 -1.0804000704562853 0.45917684316592045 0 0.45917684316592045 0.68765769329770876 0 0 0 0 1.784780919705625 3.7992361134843868 0 3.7992361134843868 -4.5928610647151302 0 0 0 0 80.941899380923132 45.470718760754608 0 45.470718760754608 27.801399201835011 0 0 0 0 19.846531625466014 49.845341792132785 0 49.845341792132785 52.866336303133721 0 0 0 0 19.431571765584522 47.719823400391761 0 47.719823400391761 62.882167355535785 0 0 0 0 -12.757428720036671 11.700829715085845 0 11.700829715085845 14.720888353461703 0 0 0 0 -0.50108025203371653 26.487603058776585 0 26.487603058776585 20.352428121716912 0 0 0 0 1.7340278719348134 36.500370871490304 0 36.500370871490304 12.542913117380522 0 0 0 0 9.1203269935504068 37.038281538436422 0 37.038281538436422 -9.5345928891329095 0 0 0 0 -0.76663694406683192 2.7903016527528308 0 2.7903016527528308 3.5859971477697172 0 0 0 0 -12.579939696159272 32.422624064327465 0 32.422624064327465 16.992233314580517 0 0 0 0 -5.9611481096713703 22.96919333162576 0 22.96919333162576 13.43211457030727 0 0 0 0 21.904841879430023 75.636315109786977 0 75.636315109786977 7.6925100953703804 0 0 0 0 -3.3730581076670205 21.047617470532714 0 21.047617470532714 21.155510110344039 0 0 0 0 8.0619022407535113 41.01341860504435 0 41.01341860504435 -6.9536311574877985 0 0 0 0 -0.23379561552852124 35.412698769821148 0 35.412698769821148 0.28055443523592749 0 0 0 0 4.5417708832901553 60.654751249725223 0 60.654751249725223 -2.7689827636986593 0 0 0 0 -2.6304548907355638 29.013342587200896 0 29.013342587200896 15.707103958306107 0 0 0 0 -6.0845434963005971 26.199784906909009 0 26.199784906909009 24.285925043271661 0 0 0 0 7.5502167354131302 23.346395712663426 0 23.346395712663426 -20.128499216706452 0 0 0 0 -7.1676982759537395 21.485478880626935 0 21.485478880626935 -1.4169855938170954 0 0 0 0 1.7148657392972382 34.433960006881534 0 34.433960006881534 12.173872273939196 0 0 0 0 -7.867818591079768 26.47884434313324 0 26.47884434313324 -18.783273390197976 0 0 0 0 29.597213194574579 58.295790456870236 0 58.295790456870236 15.550104686101349 0 0 0 0 -3.1381765275000362 34.661997050450736 0 34.661997050450736 21.845927104695875 0 0 0 0 5.8620894507683374 20.880208981840436 0 20.880208981840436 6.1329461015490576 0 0 0 0 3.9331143493042191 32.127873909970823 0 32.127873909970823 17.757035563256757 0 0 0 0 -4.8294462195372034 71.123826116165276 0 71.123826116165276 12.20239199118123 0 0 0 0 1.795916255749944 16.877611600519458 0 16.877611600519458 31.802123198041954 0 0 0 0 -1.4298122997352039 25.789115450892496 0 25.789115450892496 18.864391587665523 0 0 0 0 -203.72051867601658 57.612035742927787 0 57.612035742927787 7.442770390325677 0 0 0 0 -3.4892298148105425 12.702204321404906 0 12.702204321404906 20.595596825427442 0 0 0 0 -11.317283788775967 25.217002464392863 0 25.217002464392863 26.751703490404907 0 0 0 0 -51.462290169183689 1.2253417295742111 0 1.2253417295742111 23.038284828251562 0 0 0 0 93.479962061537663 51.475472296831867 0 51.475472296831867 47.968467356946348 0 0 0 0 -128.62330727679182 65.607403197249369 0 65.607403197249369 -37.473044701964682 0 0 0 0 0.79677713896538194 2.4278791248853828 0 2.4278791248853828 -1.3923492824484285 0 0 0 0 36.790398998862656 20.806959903140523 0 20.806959903140523 37.16563493123067 0 0 0 0 5.7196052325517144 17.601748789373964 0 17.601748789373964 -6.6174937325103507 0 0 0 0 10.052764425716305 45.771345016552004 0 45.771345016552004 60.408172689429193 0 0 0 0 -9.736536362108609 0.064242164300505777 0 0.064242164300505777 13.708654513224644 0 0 0 0 11.016889907681616 24.391748091537011 0 24.391748091537011 62.48529533248302 0 0 0 0 -0.94400922002404286 0.64176262331957901 0 0.64176262331957901 3.648729365904277 0 0 0 0 21.18259526651309 56.298858501453196 0 56.298858501453196 102.81793656594527 0 0 0 0 0.10964357571265282 8.7032677029717291 0 8.7032677029717291 -19.952448691694698 0 0 0 0 88.422901168021781 160.46713433164587 0 160.46713433164587 -143.63518759046565 0 0 0 0 -115.38831461535301 25.550277697970159 0 25.550277697970159 8.9829209091403754 0 0 0 0 344.65123137028422 -35.569673830470492 0 -35.569673830470492 -521.97675232244364 0 0 0 0 -1.0815177150466226 4.3102038065780022 0 4.3102038065780022 -17.622541726727718 0 0 0 0 -114.98749273408612 85.089453894268445 0 85.089453894268445 799.6770516858378 0 0 0 0 -15.746134437453293 -47.801431564650557 0 -47.801431564650557 -203.25483994476235 0 0 0 0 -29.858872078206332 34.430229256046005 0 34.430229256046005 -247.37480584906007 0 0 0 0 -31.179934945917921 32.311686938355706 0 32.311686938355706 -161.44796914278413 0 0 0 0 -14.887900192210509 -50.509209441494022 0 -50.509209441494022 -269.6979774682186 0 0 0 0 -1.2152243435862857 3.4483933871668775 0 3.4483933871668775 2.5182326807498754 0 0 0 0 -106.15454077901086 99.467152985014764 0 99.467152985014764 -16.227078265910677 0 0 0 0 -49.132433772347781 144.17772889193236 0 144.17772889193236 16.038703810378138 0 0 0 0 122.01935236163263 82.042516352673374 0 82.042516352673374 93.889930700903278 0 0 0 0 0.1999818619542566 165.54367105725055 0 165.54367105725055 381.64047392512293 0 0 0 0 79.734024279947334 142.61634030054847 0 142.61634030054847 15.723766765117489 0 0 0 0 -8.0699858370559809 19.743677108174658 0 19.743677108174658 40.236853282506182 0 0 0 0 -37.983905578606937 42.575306173560875 0 42.575306173560875 58.276070906953919 0 0 0 0 48.478284417086797 7.1234615134394517 0 7.1234615134394517 25.017159929062473 0 0 0 0 -0.5277589175668993 -1.8575985704736695 0 -1.8575985704736695 10.185371371573538 0 0 0 0 2.2997623876653961 27.264903035145835 0 27.264903035145835 162.14288799444512 0 0 0 0 -136.7340983158374 63.086982069209 0 63.086982069209 71.751951079404762 0 0 0 0 -2.4824085897987871 -1.4786647779377944 0 -1.4786647779377944 62.446805367410221 0 0 0 0 -355.79270165051003 37.761568950720971 0 37.761568950720971 127.55451596583544 0 0 0 0 -61.052390579410712 87.385092090250168 0 87.385092090250168 39.354814710722053 0 0 0 0 117.08360630922107 45.782315108547664 0 45.782315108547664 96.914660504711719 0 0 0 0 136.91934162141888 187.38777195069827 0 187.38777195069827 264.77590821487684 0 0 0 0 0.029017695968249768 -2.6905986323177729 0 -2.6905986323177729 42.573102019344788 0 0 0 0 62.466380011450383 356.56965921429355 0 356.56965921429355 850.8279378989173 0 0 0 0 233.1284147703409 220.70806718447238 0 220.70806718447238 228.98308257074086 0 0 0 0 -30.62200739727632 24.2650451124141 0 24.2650451124141 1527.2308273177525 0 0 0 0 731.66194933683801 817.32473632438314 0 817.32473632438314 917.24339503266128 0 0 0 0 -196.36035556652587 -444.52082164472654 0 -444.52082164472654 465.2211915669377 0 0 0 0 0.27720393738014337 -0.67269830005230347 0 -0.67269830005230347 16.211927885585833 0 0 0 0 511.80611635697642 12.615365206273168 0 12.615365206273168 237.07924687754348 0 0 0 0 -58.224020589696011 359.78894848605887 0 359.78894848605887 -172.80275999426613 0 0 0 0 -115.62551190316208 -19.975063347694913 0 -19.975063347694913 241.95211144036875 0 0 0 0 -7.2086857390095247 299.38673529429525 0 299.38673529429525 -259.41327173568425 0 0 0 0 13.481006087120477 -30.44036243376604 0 -30.44036243376604 615.45032265230157 0 0 0 0 -40.923151605817111 116.33302665948759 0 116.33302665948759 457.84145591815513 0 0 0 0 13.475516077913198 470.06195817419348 0 470.06195817419348 510.88196642498224 0 0 0 0 -81.072846180992201 613.04157957372718 0 613.04157957372718 469.69602375659451 0 0 0 0 -43.221229179864167 470.75501735810667 0 470.75501735810667 539.37053214607658 0 0 0 0 27.61508432302071 498.25111127040054 0 498.25111127040054 542.46732565390812 0 0 0 0 73.122414406236203 454.72817699638563 0 454.72817699638563 498.103377577233 0 0 0 0 67.908262813552483 401.65447275849812 0 401.65447275849812 449.50960490257239 0 0 0 0 147.59870053750637 455.47409797639557 0 455.47409797639557 480.87280066922358 0 0 0 0 70.013247646333184 449.94024613888178 0 449.94024613888178 558.42948949039237 0 0 0 0 96.484986475406913 484.17171811748085 0 484.17171811748085 504.79874055676373 0 0 0 0 78.230978739309649 444.83100640705925 0 444.83100640705925 604.07951227138801 0 0 0 0 120.58964512553939 434.17306963895135 0 434.17306963895135 551.66542967179885 0 0 0 0 121.32352990027721 471.53696081431099 0 471.53696081431099 655.65742667761515 0 0 0 0 113.78333957005816 364.10522892479275 0 364.10522892479275 700.6544155949814 0 0 0 0 100.56031278775481 371.44442768258023 0 371.44442768258023 716.1558270531641 0 0 0 0 99.843656004988588 386.46991995876851 0 386.46991995876851 575.96916644501107 0 0 0 0 99.100418351765256 355.91353442823311 0 355.91353442823311 614.56021024642541 0 0 0 0 89.279845935721823 399.99610595870763 0 399.99610595870763 653.13835611050308 0 0 0 0 72.128071358660236 332.7823280318953 0 332.7823280318953 694.75409213854437 0 0 0 0 97.731935437645006 367.51472040836688 0 367.51472040836688 542.4540787691767 0 0 0 0 195.0724613321363 402.61368875690459 0 402.61368875690459 479.07430936317724 0 0 0 0 91.415916059529991 431.51622743988446 0 431.51622743988446 537.43205355264945 0 0 0 0 68.627251485995657 473.49023839054462 0 473.49023839054462 524.33249909330698 0 0 0 0 127.25769129988112 512.9757356101486 0 512.9757356101486 474.85849860862982 0 0 0 0 -277.5998100709694 388.85993305236298 0 388.85993305236298 423.13030347471977 0 0 0 0 -107.36238909036911 605.56278162642957 0 605.56278162642957 -250.57021746287728 0 0 0 0 -687.0302640163427 776.7423866676836 0 776.7423866676836 38.764950863060221 0 0 0 0 -152.69403151779625 487.17856497776302 0 487.17856497776302 -342.88010116318765 0 0 0 0 -295.71403455510881 684.97015006080255 0 684.97015006080255 570.15066446060882 0 0 0 0 -166.28332432812022 690.81964838729073 0 690.81964838729073 52.224931673673382 0 0 0 0 -26.183013648740598 761.52888224679646 0 761.52888224679646 210.27750618822392 0 0 0 0 -520.23160809047113 395.53081611313701 0 395.53081611313701 415.29806908132741 0 0 0 0 -487.99008363147732 48.042930376695949 0 48.042930376695949 -390.78815832306464 0 0 0 0 -1320.8067120844498 619.51773707745269 0 619.51773707745269 -63.37457821638327 0 0 0 0 -452.97614729197812 370.91994778925073 0 370.91994778925073 2.2628438847241341 0 0 0 0 -495.29872243197315 627.13330612293248 0 627.13330612293248 198.13354972465459 0 0 0 0 -15.240546509732667 554.11202350453368 0 554.11202350453368 456.87629310896591 0 0 0 0 233.46806993052724 911.64741371134676 0 911.64741371134676 943.51310273703348 0 0 0 0 -246.8339040215651 691.77230401916222 0 691.77230401916222 569.14143124319435 0 0 0 0 -423.02185387105419 742.16475435294842 0 742.16475435294842 987.77596603813254 0 0 0 0 -182.62230300987721 593.07616020569458 0 593.07616020569458 673.8331051543646 0 0 0 0 -309.77981730485044 366.79533149942199 0 366.79533149942199 768.53098737025903 0 0 0 0 -200.45431281707715 461.93406818532003 0 461.93406818532003 691.24396880094355 0 0 0 0 -376.98665957139019 396.80732633339176 0 396.80732633339176 984.81999598082905 0 0 0 0 -161.37396044403431 117.74280055890813 0 117.74280055890813 824.72813703511292 0 0 0 0 -323.89049195413099 -231.1023420377478 0 -231.1023420377478 1345.7432753647922 0 0 0 0 -390.91109732783661 567.37197942214334 0 567.37197942214334 1619.2029207922396 0 0 0 0 -182.69663878763095 -6.6736351494000701 0 -6.6736351494000701 436.07436017126565 0 0 0 0 -48.872796990915958 44.406239050244039 0 44.406239050244039 421.21138375732596 0 0 0 0 -10.733698935524444 163.96121431631991 0 163.96121431631991 415.71237211251935 0 0 0 0 -9.2378187850190443 161.14649077748572 0 161.14649077748572 320.19673823347898 0 0 0 0 28.792195772803097 263.5912372225539 0 263.5912372225539 368.64637326027605 0 0 0 0 -139.32670617463009 161.58708125297335 0 161.58708125297335 418.58803597398582 0 0 0 0 -63.58968388705398 280.21497395498182 0 280.21497395498182 604.39590448541094 0 0 0 0 -46.262052724039677 273.84976255277252 0 273.84976255277252 386.6389032110128 0 0 0 0 0.91854561827130965 401.93257824068405 0 401.93257824068405 463.29997281140277 0 0 0 0 -136.40993619111396 403.42057647400406 0 403.42057647400406 551.0601803762529 0 0 0 0 150.82224678087368 403.09403381766151 0 403.09403381766151 381.31572928684818 0 0 0 0 62.673692280910473 312.15965393456122 0 312.15965393456122 334.44349326543852 0 0 0 0 18.71161266049603 353.11494878862504 0 353.11494878862504 480.3639777207768 0 0 0 0 65.917618077259249 318.63605570257323 0 318.63605570257323 347.35099208248721 0 0 0 0 89.737978861434385 258.76386870503757 0 258.76386870503757 242.20632055168062 0 0 0 0 28.178439964307472 248.43951927475337 0 248.43951927475337 295.48366261092951 0 0 0 0 74.36925997761864 174.00520115366635 0 174.00520115366635 194.60308636520313 0 0 0 0 120.11941741504415 178.980436914866 0 178.980436914866 159.31766558097934 0 0 0 0 97.488686530807172 135.43609245479456 0 135.43609245479456 126.72572744506942 0 0 0 0 147.10649738636857 129.05308983412965 0 129.05308983412965 105.13960598586345 0 0 0 0 96.225579971389379 133.32750838237098 0 133.32750838237098 146.33033648773107 0 0 0 0 75.543405286909547 102.67949323526454 0 102.67949323526454 134.06705070401767 0 0 0 0 60.93329940741387 126.06918858934023 0 126.06918858934023 208.79144367017307 0 0 0 0 69.511906109077245 171.01898460493658 0 171.01898460493658 210.08102090107604 0 0 0 0 61.775766639758785 103.68318152237664 0 103.68318152237664 145.07196981833113 0 0 0 0 61.68563793013891 102.87145168722782 0 102.87145168722782 163.6738243560294 0 0 0 0 74.020975940671633 97.548930364080888 0 97.548930364080888 108.41261583654978 0 0 0 0 78.594440265049343 119.60445855665012 0 119.60445855665012 133.10204973649434 0 0 0 0 66.885145544856641 97.424431824596923 0 97.424431824596923 145.87887293193762 0 0 0 0 87.586916696898697 100.71000583661498 0 100.71000583661498 87.096088396718187 0 0 0 0 89.162236706542899 100.39069466400633 0 100.39069466400633 70.533353835734488 0 0 0 0 72.292505225501372 103.25950456423425 0 103.25950456423425 104.78928590711439 0 0 0 0 91.797775192098925 87.520279271353957 0 87.520279271353957 77.89162402721513 0 0 0 0 66.948695954022696 93.698408240764593 0 93.698408240764593 78.072932669565489 0 0 0 0 -7.4016980226224405 3.9595159383788996 0 3.9595159383788996 12.561626128209809 0 0 0 0 -1.1969250488174055 3.9825128338670552 0 3.9825128338670552 -3.2728868587964595 0 0 0 0 59.959755838084675 74.655651017840285 0 74.655651017840285 88.003746012846932 0 0 0 0 69.058700161021989 73.578467152299709 0 73.578467152299709 85.485965295585174 0 0 0 0 117.89082404278452 101.13694357256395 0 101.13694357256395 79.75650831347366 0 0 0 0 1.7800264648576558 101.93443837900054 0 101.93443837900054 -70.972879125954933 0 0 0 0 -15.678309457638534 -26.23329535782841 0 -26.23329535782841 250.61261179881058 0 0 0 0 19.768175520999648 76.638598509287476 0 76.638598509287476 258.68447769991883 0 0 0 0 33.013875048043701 7.6656730062477436 0 7.6656730062477436 82.641184919685202 0 0 0 0 -33.960558940263581 55.257621752934483 0 55.257621752934483 264.84384316325622 0 0 0 0 51.024770093818006 109.22785189552366 0 109.22785189552366 50.138621946665808 0 0 0 0 -22.812495322657924 123.09709715722772 0 123.09709715722772 97.482549581834519 0 0 0 0 68.533105780188635 73.075490168917213 0 73.075490168917213 96.875683052454406 0 0 0 0 7.4978527153507457 98.96745102011019 0 98.96745102011019 35.411389995515911 0 0 0 0 -54.543254771862848 73.315062343817488 0 73.315062343817488 65.096424128282251 0 0 0 0 70.34527392038251 145.19376867802549 0 145.19376867802549 112.23903002658062 0 0 0 0 70.788327935515554 114.88311954688129 0 114.88311954688129 28.025912478945997 0 0 0 0 6.922088085382029 76.132194506327096 0 76.132194506327096 18.283707533702682 0 0 0 0 5.4085166612330795 72.483383942756717 0 72.483383942756717 11.21802785083122 0 0 0 0 26.606233293940022 72.415605130455504 0 72.415605130455504 9.8914934690147902 0 0 0 0 -45.043059020138571 73.766156785921424 0 73.766156785921424 27.086142160014774 0 0 0 0 5.3916684633004479 72.502923518417504 0 72.502923518417504 12.259637330482478 0 0 0 0 1.3053996459311747 17.125183051279237 0 17.125183051279237 -20.188036302730325 0 0 0 0 31.99735917232465 16.899166849769131 0 16.899166849769131 -84.746495057054062 0 0 0 0 -5.9257682541382906 15.97400116312383 0 15.97400116312383 -21.91273783201747 0 0 0 0 -8.6935513882606159 14.967255357512379 0 14.967255357512379 -12.506206202831279 0 0 0 0 5.3268205665425512 12.112622527536887 0 12.112622527536887 -33.552588640773948 0 0 0 0 2.5800676975323711 2.2929112881278471 0 2.2929112881278471 -6.1520778749776834 0 0 0 0 19.076261822032393 32.297273952513024 0 32.297273952513024 6.9605964444690471 0 0 0 0 71.489907228380616 72.747350954753301 0 72.747350954753301 59.342528059734377 0 0 0 0 48.994877304750844 91.713434509095578 0 91.713434509095578 94.145686095680048 0 0 0 0 51.647130403092888 128.86519876529667 0 128.86519876529667 199.49358521358454 0 0 0 0 1.095885943377084 1.1634149840360521 0 1.1634149840360521 -1.1298257449032381 0 0 0 0 48.915344061482756 6.5267345658247677 0 6.5267345658247677 -167.96684691362313 0 0 0 0 0.66293395109744324 13.871794824188072 0 13.871794824188072 -32.815654105961492 0 0 0 0 16.913342954598193 61.808093289224757 0 61.808093289224757 -16.304665373784474 0 0 0 0 -11.81781055177143 16.35122018827429 0 16.35122018827429 -10.362215068169476 0 0 0 0 -8.34614584213341 27.001420861180122 0 27.001420861180122 -8.7458838111297155 0 0 0 0 31.389399763458641 53.236858973831204 0 53.236858973831204 14.820764845033409 0 0 0 0 2.6690580718168349 32.553918179795801 0 32.553918179795801 -21.647738593230315 0 0 0 0 52.719466781585652 27.230732722566245 0 27.230732722566245 -4.361281383651658 0 0 0 0 -7.5370542748202993 13.391246359728072 0 13.391246359728072 -24.976473940993046 0 0 0 0 57.865784452711523 45.137183883512989 0 45.137183883512989 11.241507722406823 0 0 0 0 36.207533066939504 19.934779492979942 0 19.934779492979942 -6.8745310833328404 0 0 0 0 52.76547921213205 38.525300838124167 0 38.525300838124167 13.508992658536044 0 0 0 0 -6.6620740358652242 18.329534123376952 0 18.329534123376952 -27.091165040291514 0 0 0 0 78.789700041153992 67.555909506852913 0 67.555909506852913 -42.889966280146837 0 0 0 0 19.327027421411913 34.169000231584505 0 34.169000231584505 -28.551043182922513 0 0 0 0 64.123723404907651 -27.874758376583486 0 -27.874758376583486 -252.13180531784019 0 0 0 0 96.468657198282017 109.76268800584148 0 109.76268800584148 -74.011829662027594 0 0 0 0 -31.811106911987736 87.86786790349197 0 87.86786790349197 1.5967983124064631 0 0 0 0 67.855631968850503 66.725978786031192 0 66.725978786031192 5.8858818351181981 0 0 0 0 69.610011449995 62.116444541247347 0 62.116444541247347 7.7581409982776677 0 0 0 0 89.481238111580751 66.085339460001251 0 66.085339460001251 4.7667692087525211 0 0 0 0 32.873980177879503 54.405337129015606 0 54.405337129015606 17.580048979747517 0 0 0 0 76.589395913266344 43.837068464767071 0 43.837068464767071 15.410879224982637 0 0 0 0 122.69355441720836 29.386104317179161 0 29.386104317179161 28.197125313927245 0 0 0 0 284.58768991840407 30.238443892603755 0 30.238443892603755 -73.33347611575482 0 0 0 0 -406.14386736471226 38.335534100873474 0 38.335534100873474 74.412586711525364 0 0 0 0 0.13368806967477731 0.016095104456631759 0 0.016095104456631759 -3.7272871610451688 0 0 0 0 172.34018176463724 113.26895573828915 0 113.26895573828915 -125.86560529926282 0 0 0 0 171.7090322539043 62.435557904867892 0 62.435557904867892 -48.761821211464849 0 0 0 0 103.439833099721 95.133842262985127 0 95.133842262985127 -61.794962183339521 0 0 0 0 65.54173376163817 218.52876818023287 0 218.52876818023287 -129.35586369989971 0 0 0 0 121.01210695496229 84.944716713635898 0 84.944716713635898 -67.147091457620263 0 0 0 0 29.147992536403763 246.97656522169564 0 246.97656522169564 217.12176906129207 0 0 0 0 118.1891892539461 98.644118554047964 0 98.644118554047964 86.850235263878858 0 0 0 0 -150.76784394942604 -18.222666922941414 0 -18.222666922941414 121.6530401088894 0 0 0 0 -158.89926726449994 175.7044053270256 0 175.7044053270256 96.656405689107487 0 0 0 0 128.30761385022925 168.33299561324384 0 168.33299561324384 92.44240094761426 0 0 0 0 19.624671660518288 -15.236153534889127 0 -15.236153534889127 115.52928562016314 0 0 0 0 44.655785049002588 182.36789675340515 0 182.36789675340515 333.01660693312078 0 0 0 0 89.690866075368831 -58.984500562768517 0 -58.984500562768517 -308.49513434813707 0 0 0 0 0.19072276674410205 1.5678127474829822 0 1.5678127474829822 -1.0530465002888718 0 0 0 0 -77.212099808382845 -151.29037860807057 0 -151.29037860807057 74.115658027534664 0 0 0 0 -59.525442783382459 176.58338408941199 0 176.58338408941199 -35.295044985112327 0 0 0 0 1.2245872090776828 4.3663438964154011 0 4.3663438964154011 -8.4246836447425437 0 0 0 0 50.020807534856431 80.495161669125082 0 80.495161669125082 -95.52101199264871 0 0 0 0 -9.1780195365863619 53.795345420858212 0 53.795345420858212 20.635459841585543 0 0 0 0 -20.827013860187357 27.308166281340618 0 27.308166281340618 -25.556778614694494 0 0 0 0 -15.830117783130845 57.009810369836487 0 57.009810369836487 29.442630641053256 0 0 0 0 -23.898573636775836 35.747956441533461 0 35.747956441533461 37.335341609676107 0 0 0 0 -17.272859713724756 34.033619971303779 0 34.033619971303779 6.4651570778441965 0 0 0 0 168.99661458181072 56.488719974075593 0 56.488719974075593 -71.383735956713736 0 0 0 0 -5.1640455103784006 37.960445638448959 0 37.960445638448959 -10.51177793565148 0 0 0 0 -5.5192125349860248 13.224901021120814 0 13.224901021120814 -18.245501663935105 0 0 0 0 -68.231380543066734 -109.60016514085413 0 -109.60016514085413 4.2385170418710914 0 0 0 0 160.1892395523173 165.97569932274519 0 165.97569932274519 95.192451406843475 0 0 0 0 0.42885564678537946 0.35737152925693039 0 0.35737152925693039 -2.2381838984946469 0 0 0 0 -109.50832461496611 182.34752220028895 0 182.34752220028895 119.45118322245366 0 0 0 0 117.73524418879242 202.86899638620798 0 202.86899638620798 72.790364951261836 0 0 0 0 -1.7164662347131525 31.067363250518611 0 31.067363250518611 19.040089331730996 0 0 0 0 20.656158226207481 44.035851371849276 0 44.035851371849276 -22.828280631798407 0 0 0 0 4.528010593602005 11.678798648233462 0 11.678798648233462 -22.812486751087949 0 0 0 0 -55.458967705490068 97.948858921492501 0 97.948858921492501 67.246682376206081 0 0 0 0 -12.45487664067646 16.473257284777354 0 16.473257284777354 -14.045146615655396 0 0 0 0 -3.8918807156042021 42.722667271751561 0 42.722667271751561 -2.9735424994141795 0 0 0 0 -107.15678005442896 17.402584708626819 0 17.402584708626819 129.30890640365396 0 0 0 0 113.00072013166209 95.837007412665116 0 95.837007412665116 -71.070986665617966 0 0 0 0 -1.5836730487063804 2.186215226288807 0 2.186215226288807 3.2610623060520396 0 0 0 0 -5.9094083316533386 21.672738149323227 0 21.672738149323227 -24.742025053243172 0 0 0 0 -14.469850008182227 17.570340576649912 0 17.570340576649912 -4.4483167879484355 0 0 0 0 14.500152505097503 24.182660630223836 0 24.182660630223836 -27.586656637426131 0 0 0 0 -215.38288157608076 45.940079042364232 0 45.940079042364232 -12.293995894819091 0 0 0 0 -25.682763153943142 18.700790407917339 0 18.700790407917339 -324.45603590321844 0 0 0 0 -55.527524136761713 -72.615171462832222 0 -72.615171462832222 -329.26467048616905 0 0 0 0 -164.32380919372372 -96.470590468812588 0 -96.470590468812588 -231.15642474670312 0 0 0 0 -70.39107423978885 223.43609694069232 0 223.43609694069232 36.792368241091026 0 0 0 0 287.06274397333982 282.85615632812369 0 282.85615632812369 -95.984627942945735 0 0 0 0 254.4266820134917 129.18146528658417 0 129.18146528658417 -45.400506108908303 0 0 0 0 -2.0213716868080489 5.7562493469555829 0 5.7562493469555829 -11.509192397385505 0 0 0 0 104.86424808963056 -25.219429928838508 0 -25.219429928838508 -28.88896442413261 0 0 0 0 -64.088712698641757 182.16362296182342 0 182.16362296182342 -130.67972848737554 0 0 0 0 94.041776761456276 -27.330202160595945 0 -27.330202160595945 -158.49236700103575 0 0 0 0 82.755877393239643 23.462805923000815 0 23.462805923000815 -10.591570287717332 0 0 0 0 123.44234005178441 72.139159482925606 0 72.139159482925606 -30.598591659498197 0 0 0 0 221.55616839893992 270.12278534904544 0 270.12278534904544 -233.17400408617868 0 0 0 0 149.80829207506031 89.252967695036205 0 89.252967695036205 -40.323950583351689 0 0 0 0 85.990876599674266 94.294857774224965 0 94.294857774224965 -36.787172071068198 0 0 0 0 151.28544841648727 78.509858562685622 0 78.509858562685622 -54.635352990077081 0 0 0 0 91.345135343971378 11.161560187088071 0 11.161560187088071 4.9694399114450789 0 0 0 0 151.02779889024077 -22.998595111147552 0 -22.998595111147552 -131.37006170203676 0 0 0 0 -0.95135291005047407 2.2964459392150616 0 2.2964459392150616 -4.7841477045338081 0 0 0 0 145.14870698707091 115.61093307421106 0 115.61093307421106 -246.48159815751023 0 0 0 0 -243.12007214366167 167.93528080645228 0 167.93528080645228 141.21931161380598 0 0 0 0 -276.8505744902086 206.31252950015369 0 206.31252950015369 118.99858859548476 0 0 0 0 54.853412399210356 2.600353020703551 0 2.600353020703551 160.3298651673249 0 0 0 0 -207.25036606397794 40.090737037390909 0 40.090737037390909 164.41839559265281 0 0 0 0 -128.8221606366551 301.70908361784836 0 301.70908361784836 -61.102563231419481 0 0 0 0 15.662839435019123 200.16944172117837 0 200.16944172117837 158.93938172671551 0 0 0 0 63.764324982586913 117.57928901678497 0 117.57928901678497 113.72389842493703 0 0 0 0 136.73126448670428 223.64331288204903 0 223.64331288204903 -25.813865380070638 0 0 0 0 148.92190272732114 81.597474504585989 0 81.597474504585989 -58.006179499843711 0 0 0 0 112.72532433392189 229.83612254999935 0 229.83612254999935 122.51245091447345 0 0 0 0 102.66110358101287 69.224658865881793 0 69.224658865881793 50.258150971541909 0 0 0 0 -3.9138815958159654 21.656794565223457 0 21.656794565223457 -33.632158508436916 0 0 0 0 4.4530624091494246 70.974959434422999 0 70.974959434422999 44.028698559646728 0 0 0 0 -333.39531150450784 398.09556783055996 0 398.09556783055996 -14.236558573331422 0 0 0 0 182.58359528291112 244.69274304999317 0 244.69274304999317 -46.83269161492899 0 0 0 0 -23.981701670676951 27.256951235920848 0 27.256951235920848 -15.217147882780679 0 0 0 0 104.9703206731574 -239.86429382852157 0 -239.86429382852157 -293.62862611439232 0 0 0 0 -466.85776965456171 -52.78145113099572 0 -52.78145113099572 232.79363100360024 0 0 0 0 82.473876642183313 -51.345882197927267 0 -51.345882197927267 157.84666492242559 0 0 0 0 212.3209912380953 161.8800302254881 0 161.8800302254881 271.77566397619375 0 0 0 0 15.990625081843973 20.793290884390444 0 20.793290884390444 -27.466644159078896 0 0 0 0 282.99541525781933 25.274843311895211 0 25.274843311895211 47.910473218073093 0 0 0 0 -18.229657593857041 24.60028432349716 0 24.60028432349716 -26.518917527345025 0 0 0 0 1.0742154612958075 68.922287600030359 0 68.922287600030359 17.714912538327553 0 0 0 0 -11.85169332136141 23.900127726242921 0 23.900127726242921 -31.760694351034729 0 0 0 0 27.608870846641366 37.969326641356929 0 37.969326641356929 -34.894241125060944 0 0 0 0 8.5816007813646138 78.76796929112561 0 78.76796929112561 11.092082729708636 0 0 0 0 -13.670635442193927 26.011307040307013 0 26.011307040307013 -34.198033676756424 0 0 0 0 53.652996941898891 66.87977220968969 0 66.87977220968969 111.22635701259151 0 0 0 0 -27.860908901455332 69.504756522656862 0 69.504756522656862 124.89752439382937 0 0 0 0 282.11734669761427 158.98688604992617 0 158.98688604992617 62.365892903441818 0 0 0 0 142.4532133332832 167.98809700181482 0 167.98809700181482 137.55107380179106 0 0 0 0 269.90884481654302 256.59519224270014 0 256.59519224270014 179.58128384330848 0 0 0 0 261.3684354176421 204.51482281110071 0 204.51482281110071 19.766714841640351 0 0 0 0 195.00527443786268 274.37517479195958 0 274.37517479195958 196.06551189154015 0 0 0 0 219.91492768801982 344.14517325061934 0 344.14517325061934 275.77708601074164 0 0 0 0 131.6472355890528 346.88944935853192 0 346.88944935853192 345.01111523856889 0 0 0 0 130.54673019279289 298.00379454405629 0 298.00379454405629 245.18722479922872 0 0 0 0 96.939824938242964 253.16717409699413 0 253.16717409699413 243.0209175474622 0 0 0 0 165.43015365099563 214.43675478419573 0 214.43675478419573 182.95305686683787 0 0 0 0 71.063711581213283 225.37152358050116 0 225.37152358050116 208.33262396832833 0 0 0 0 47.276388905003842 265.80869852463206 0 265.80869852463206 150.8757468645872 0 0 0 0 -26.549487463187688 136.95402229953538 0 136.95402229953538 155.72193749809594 0 0 0 0 -6.0719789824088153 4.1488928968226375 0 4.1488928968226375 -0.58962718413681969 0 0 0 0 201.29497843837635 137.20414120174883 0 137.20414120174883 62.518391499266727 0 0 0 0 235.20527226674312 115.08063645060156 0 115.08063645060156 65.153515791182144 0 0 0 0 -12.4497062762849 13.638427846300253 0 13.638427846300253 -13.488290619739985 0 0 0 0 -36.93430459281808 8.2376068494650099 0 8.2376068494650099 4.3045672177045162 0 0 0 0 -17.363479101593839 57.631317527499959 0 57.631317527499959 4.3049491063920868 0 0 0 0 -55.399139323548297 29.360602155559718 0 29.360602155559718 32.664557597339808 0 0 0 0 -40.488327871435104 67.845310548795624 0 67.845310548795624 20.924327107295539 0 0 0 0 -16.835988098762755 -3.8569815094178921 0 -3.8569815094178921 -68.943942874737331 0 0 0 0 -10.545955513296505 8.9330204601197813 0 8.9330204601197813 12.715260110838656 0 0 0 0 -25.196486263152266 36.89890474253415 0 36.89890474253415 -40.175887018989883 0 0 0 0 -15.045157100947108 134.85305922107545 0 134.85305922107545 103.17819098843756 0 0 0 0 10.959666936003487 48.232457519908166 0 48.232457519908166 14.074849543463642 0 0 0 0 -110.47812625110964 -5.537698572440604 0 -5.537698572440604 107.63035467824443 0 0 0 0 22.640048200838464 54.195349776652165 0 54.195349776652165 -165.91882060126045 0 0 0 0 -174.9642227663935 -108.56055991547873 0 -108.56055991547873 15.526424101644807 0 0 0 0 -5.6499510903350796 4.5021783733771592 0 4.5021783733771592 -3.7339457543356467 0 0 0 0 -126.30306082536845 -74.881074515362343 0 -74.881074515362343 116.26416474642201 0 0 0 0 0.9719957674095383 -0.27348871039276901 0 -0.27348871039276901 -2.2808234775738505 0 0 0 0 215.27860108518507 375.69138023941105 0 375.69138023941105 111.52451584106666 0 0 0 0 73.019142200759234 139.89021852424025 0 139.89021852424025 143.25059668955691 0 0 0 0 377.84997047734942 444.59599988354694 0 444.59599988354694 163.59476212785245 0 0 0 0 257.99614037284482 133.30030383577468 0 133.30030383577468 -255.70298991893196 0 0 0 0 273.64646393938165 117.65792236127982 0 117.65792236127982 268.69671847409973 0 0 0 0 -109.65284230042744 443.68182421277106 0 443.68182421277106 5.1184569779961748 0 0 0 0 -87.73877962872939 323.82960880524024 0 323.82960880524024 634.03185283865514 0 0 0 0 525.60318726870901 547.65129273668572 0 547.65129273668572 514.3396967482048 0 0 0 0 212.38514679084255 398.33473813605815 0 398.33473813605815 542.47507019942259 0 0 0 0 175.50447392934439 577.57592117224749 0 577.57592117224749 1197.0799812239384 0 0 0 0 243.40676398533105 500.83917487972849 0 500.83917487972849 752.92414668620313 0 0 0 0 369.8617047033913 413.36297577444293 0 413.36297577444293 255.86676433936373 0 0 0 0 301.71025224411096 543.27403737216855 0 543.27403737216855 539.70764250233151 0 0 0 0 286.25453196046692 403.57932398819298 0 403.57932398819298 272.36620917470282 0 0 0 0 235.76389309662045 296.94745682068788 0 296.94745682068788 272.7598441294449 0 0 0 0 244.94557400917984 453.32718916191789 0 453.32718916191789 397.43691110378677 0 0 0 0 221.12582160418242 370.21810519428891 0 370.21810519428891 354.58380346225931 0 0 0 0 127.19564085142338 442.39023802261363 0 442.39023802261363 555.93900931929602 0 0 0 0 180.12887750538357 427.54801886673431 0 427.54801886673431 553.95359260112002 0 0 0 0 188.79439036071381 511.28043755003591 0 511.28043755003591 741.61088361912152 0 0 0 0 209.55247944490111 411.47959336364602 0 411.47959336364602 685.73309123800573 0 0 0 0 143.79453210858628 373.41366253807064 0 373.41366253807064 766.9899852709043 0 0 0 0 20.738673777681342 8.5459584484072622 0 8.5459584484072622 -2.016923798803818 0 0 0 0 -397.53567797527649 30.209743627761782 0 30.209743627761782 -398.71407290471052 0 0 0 0 102.75468522925803 388.04082964802092 0 388.04082964802092 941.40308983202704 0 0 0 0 17.56331742182374 237.70727394501591 0 237.70727394501591 1188.1053050841833 0 0 0 0 56.84385944155656 433.79207089539977 0 433.79207089539977 1305.6959742701147 0 0 0 0 152.7865988919948 526.04717792405518 0 526.04717792405518 1106.1318955852857 0 0 0 0 130.52792994642004 274.79957057436695 0 274.79957057436695 -457.5530031960061 0 0 0 0 -353.18783122489913 448.21248155320416 0 448.21248155320416 -35.03749491526105 0 0 0 0 -4.044960036736498 3.0251612281017373 0 3.0251612281017373 -1.7205033313225613 0 0 0 0 -265.43913108364677 47.379226528755424 0 47.379226528755424 193.5845374399737 0 0 0 0 -1.9523036211139697 -191.6289141508538 0 -191.6289141508538 150.27608117794443 0 0 0 0 333.16936143323255 319.86020213221309 0 319.86020213221309 1166.6673083651503 0 0 0 0 8.8148680498852627 634.78780762738643 0 634.78780762738643 2248.8777078311005 0 0 0 0 380.88542722124839 928.44565924577842 0 928.44565924577842 1459.1599510029237 0 0 0 0 617.70986738033753 480.82315472214032 0 480.82315472214032 499.89551695566797 0 0 0 0 488.60433908197228 466.98951519432865 0 466.98951519432865 7.2581184099853999 0 0 0 0 7.5767030884888129 3.6168425785762226 0 3.6168425785762226 0.016684319491353516 0 0 0 0 407.51898049042939 46.261644982233065 0 46.261644982233065 -874.91326483296109 0 0 0 0 -7.4693201239161198 6.5705306223057391 0 6.5705306223057391 -4.0169439948556542 0 0 0 0 156.65643345897479 343.98098150352462 0 343.98098150352462 112.28405709693111 0 0 0 0 184.20310217468068 223.18574660715899 0 223.18574660715899 266.90734294367235 0 0 0 0 -130.81954984764525 175.85777443329039 0 175.85777443329039 290.93732205841889 0 0 0 0 357.44685668547481 237.60126334813026 0 237.60126334813026 -281.43639910282064 0 0 0 0 -3.6440762499431258 3.4301915237385359 0 3.4301915237385359 -2.2948695708567985 0 0 0 0 124.20418883026286 -314.07366685105217 0 -314.07366685105217 345.49515137128878 0 0 0 0 -208.98305019550025 226.05502873537168 0 226.05502873537168 -32.611981593180445 0 0 0 0 -283.00684266625467 108.60890416336933 0 108.60890416336933 -31.314941440428015 0 0 0 0 6.4344256187177962 37.216773051533977 0 37.216773051533977 -219.56732791136352 0 0 0 0 53.862829345842329 16.828362275513285 0 16.828362275513285 16.431248949369262 0 0 0 0 -34.323136438448273 9.8850969510694568 0 9.8850969510694568 16.818597693612389 0 0 0 0 -4.0945411931461422 -21.808854607332819 0 -21.808854607332819 210.4349350279316 0 0 0 0 204.23589770542821 67.261496019860999 0 67.261496019860999 206.34361744523017 0 0 0 0 -252.24288005117705 564.05337832773944 0 564.05337832773944 214.76215921498101 0 0 0 0 -3.8537008816692406 1.4056200078022805 0 1.4056200078022805 -0.33944391463643786 0 0 0 0 -31.441105291227359 31.574931438756266 0 31.574931438756266 -33.16941478935405 0 0 0 0 8.5057077407618635 28.366196890558967 0 28.366196890558967 -3.8083321714220801 0 0 0 0 6.6168885510960536 45.663136845804274 0 45.663136845804274 -38.771893764111155 0 0 0 0 -19.491516312862295 25.902333045679235 0 25.902333045679235 -30.337049763807723 0 0 0 0 -32.711293368160113 21.753665699109661 0 21.753665699109661 -8.0998981362554332 0 0 0 0 542.8160247358179 655.61569442767177 0 655.61569442767177 398.89155129900837 0 0 0 0 543.44059488465427 629.88812389902864 0 629.88812389902864 364.7394787167259 0 0 0 0 -17.212967055763727 34.257177486398554 0 34.257177486398554 -30.448732273164609 0 0 0 0 409.28155392574809 521.78816810203443 0 521.78816810203443 407.43173605636593 0 0 0 0 156.49564616839416 583.49774712268322 0 583.49774712268322 464.93699256491163 0 0 0 0 153.0648973745956 276.05478821568386 0 276.05478821568386 330.437477931991 0 0 0 0 196.04972946186172 323.66325249014039 0 323.66325249014039 337.86624222213447 0 0 0 0 159.09257580695885 250.85825920877937 0 250.85825920877937 737.21108836878329 0 0 0 0 142.18332888864279 662.00702266866608 0 662.00702266866608 726.73429795747779 0 0 0 0 163.45217691171274 562.19153780971897 0 562.19153780971897 405.8467643521617 0 0 0 0 126.16613636399416 470.58471512297956 0 470.58471512297956 390.98938475692557 0 0 0 0 -145.3529520694683 688.85162340268414 0 688.85162340268414 219.06446319103111 0 0 0 0 549.85212921663697 493.78570897834066 0 493.78570897834066 156.83776393748332 0 0 0 0 128.14995550757411 630.3166452611631 0 630.3166452611631 421.18368776514922 0 0 0 0 414.89343377543992 615.61198584256647 0 615.61198584256647 397.83753574168691 0 0 0 0 476.23234247367509 561.25745662985332 0 561.25745662985332 386.01670196681323 0 0 0 0 481.68407914407271 597.885018780476 0 597.885018780476 457.30760837949538 0 0 0 0 597.4908828318878 733.19902799161207 0 733.19902799161207 485.88895852841063 0 0 0 0 1148.874029907558 715.60429905329443 0 715.60429905329443 293.16452471062792 0 0 0 0 -12.149417364593241 1.5148405982488029 0 1.5148405982488029 33.654373604837609 0 0 0 0 987.62865375834008 445.13136702657289 0 445.13136702657289 140.30077912289318 0 0 0 0 554.55056130576031 382.38329991633725 0 382.38329991633725 406.07302836946576 0 0 0 0 554.85519339717484 433.79341217949036 0 433.79341217949036 9.2285251181879175 0 0 0 0 141.27485078699101 276.16324657555322 0 276.16324657555322 206.11577098240178 0 0 0 0 169.34152509331761 219.0638481009214 0 219.0638481009214 -150.82075661193204 0 0 0 0 183.05183649357059 473.21830047163678 0 473.21830047163678 256.07014387306918 0 0 0 0 227.05125763875276 401.86193617329269 0 401.86193617329269 -267.65127839726767 0 0 0 0 -243.94861858669174 168.648077488821 0 168.648077488821 3.3103541567795105 0 0 0 0 -65.805943911927898 100.53843037988054 0 100.53843037988054 -36.876588862766198 0 0 0 0 -139.23359088200959 261.44360319374681 0 261.44360319374681 -346.47031086236473 0 0 0 0 -32.796868044679286 -65.672662470496562 0 -65.672662470496562 -264.60124556613619 0 0 0 0 0.080622168049494292 1.750954462814363 0 1.750954462814363 -1.7566252280171204 0 0 0 0 3.5083076814539425 2.5222338645765525 0 2.5222338645765525 -3.5382822736525616 0 0 0 0 -46.512939534288307 -44.859133870514427 0 -44.859133870514427 -51.461836038186448 0 0 0 0 13.734961417030718 36.552243109139454 0 36.552243109139454 27.85340079075857 0 0 0 0 24.844351501393248 -35.415204655642128 0 -35.415204655642128 -55.600276171426344 0 0 0 0 160.01294173104634 178.95116817335906 0 178.95116817335906 40.798592008782407 0 0 0 0 97.10955155838019 21.620360217602808 0 21.620360217602808 -168.21779022878417 0 0 0 0 358.68563563485077 156.7102691005216 0 156.7102691005216 -17.599911757284531 0 0 0 0 6.3942327951229245 -1.4283057556493617 0 -1.4283057556493617 -0.83581710268198428 0 0 0 0 17.874691920820624 10.458516061185378 0 10.458516061185378 -12.465788251122603 0 0 0 0 231.00112298816748 233.92190330148651 0 233.92190330148651 239.47204020881099 0 0 0 0 522.87773975725213 156.32989999100448 0 156.32989999100448 -17.945915400915197 0 0 0 0 646.59114072990906 511.37261409830467 0 511.37261409830467 300.72524231374564 0 0 0 0 322.32058880053501 389.84757227629768 0 389.84757227629768 433.66692833416522 0 0 0 0 -133.41013889592432 179.88846477412079 0 179.88846477412079 -214.38377900175624 0 0 0 0 -71.323176701414923 158.65317272081043 0 158.65317272081043 -220.13480195797206 0 0 0 0 -73.31450275338284 111.38955141703488 0 111.38955141703488 -242.89224028462658 0 0 0 0 -96.434669026042684 165.50246008212466 0 165.50246008212466 -133.56765428367049 0 0 0 0 -111.97342786558875 205.57372391812561 0 205.57372391812561 -220.68281872462012 0 0 0 0 -104.02428866805349 233.95361632504677 0 233.95361632504677 -414.65907170060103 0 0 0 0 -0.73493145471637433 1.22076490817786 0 1.22076490817786 0.21982462935286901 0 0 0 0 -156.62242993707332 50.534710438811061 0 50.534710438811061 333.31170406093111 0 0 0 0 -163.52755789753792 155.98242452908718 0 155.98242452908718 -214.37746879700461 0 0 0 0 62.184583655202459 325.69771675836716 0 325.69771675836716 -307.69960115082267 0 0 0 0 38.686912845194456 10.12026698326946 0 10.12026698326946 -109.91581091453415 0 0 0 0 -239.18563928156073 347.20427903037944 0 347.20427903037944 -247.18194233975549 0 0 0 0 -310.78027736896183 311.34607464078931 0 311.34607464078931 -130.10461897688219 0 0 0 0 -292.14212085893087 237.94309047085051 0 237.94309047085051 -210.21101372845624 0 0 0 0 -292.10220005010342 241.47006865736574 0 241.47006865736574 -72.791268736331006 0 0 0 0 -99.308531591988867 276.98107744094085 0 276.98107744094085 -212.79676450262008 0 0 0 0 -26.07644128298125 207.67900119979774 0 207.67900119979774 -267.94348369360222 0 0 0 0 -99.479129570689111 215.68211346632415 0 215.68211346632415 -247.91380325958519 0 0 0 0 -109.60011796605613 214.49706305130908 0 214.49706305130908 -256.88471618333267 0 0 0 0 -109.6892542614587 215.04570764810478 0 215.04570764810478 -244.38453072389066 0 0 0 0 -100.02014595695778 263.46377529310075 0 263.46377529310075 -199.29159391440515 0 0 0 0 -98.68975905057323 245.30715375693958 0 245.30715375693958 -308.13682182088303 0 0 0 0 -398.84019202319905 128.05728232404601 0 128.05728232404601 -136.34303308384619 0 0 0 0 -144.37035344819014 209.61200943111209 0 209.61200943111209 -252.71516398069667 0 0 0 0 -184.69997114268881 91.169615885902772 0 91.169615885902772 -449.56106568358007 0 0 0 0 -139.07783596579247 336.15376436649956 0 336.15376436649956 -143.45106848610138 0 0 0 0 -80.175238376192283 331.0964563547189 0 331.0964563547189 -410.91459640359426 0 0 0 0 -81.610524767915194 125.93959829692164 0 125.93959829692164 100.17716242146507 0 0 0 0 -78.186004466435406 260.18724891199304 0 260.18724891199304 -103.45333243078014 0 0 0 0 -324.74893773002987 194.84920112860314 0 194.84920112860314 -114.40925104569436 0 0 0 0 1.2671742141662179 0.49517869411812754 0 0.49517869411812754 -0.51497229091703278 0 0 0 0 -122.83883466952102 238.24340730968353 0 238.24340730968353 -108.03177517188465 0 0 0 0 -142.50073806582441 216.82506381064562 0 216.82506381064562 -123.69634734549805 0 0 0 0 -151.98399743777554 223.25612337689904 0 223.25612337689904 -95.573687595331251 0 0 0 0 -116.43280540190608 242.02279886941193 0 242.02279886941193 -173.81713153157023 0 0 0 0 -130.39836468493741 276.73594059031672 0 276.73594059031672 -131.22991801433233 0 0 0 0 -116.28959960806969 231.50748205681896 0 231.50748205681896 -144.03548345312606 0 0 0 0 -130.73055022950575 230.90958184283957 0 230.90958184283957 -143.74522209357195 0 0 0 0 -140.88239890219666 213.96980785123554 0 213.96980785123554 -159.28504168418891 0 0 0 0 -116.28146958328034 242.41316506820266 0 242.41316506820266 -176.87093785113953 0 0 0 0 -101.37472350469761 213.64422766320223 0 213.64422766320223 -178.81723000874814 0 0 0 0 -127.91007900760451 207.66175884931494 0 207.66175884931494 -157.08710271576916 0 0 0 0 -120.3119254289868 223.6164984279668 0 223.6164984279668 -124.21533390967124 0 0 0 0 -119.15802093676757 240.22291981300734 0 240.22291981300734 -145.20995199992211 0 0 0 0 -125.55776024627994 244.16223139682609 0 244.16223139682609 -145.60327208002235 0 0 0 0 -135.35083282076812 239.65560243377737 0 239.65560243377737 -115.64302858449931 0 0 0 0 -127.93204414231514 226.51603900130942 0 226.51603900130942 -102.62073619775231 0 0 0 0 -204.0459125236448 198.76492618832071 0 198.76492618832071 -79.282406717163326 0 0 0 0 -131.38180395268137 160.30134980960398 0 160.30134980960398 -60.939514918762882 0 0 0 0 -143.1607228564535 218.38622669842027 0 218.38622669842027 -103.66024598328778 0 0 0 0 -136.74582655557606 145.37573680346401 0 145.37573680346401 -84.652995975004387 0 0 0 0 -61.894833463418763 203.11286417468676 0 203.11286417468676 -90.888010580020705 0 0 0 0 -59.132628670157146 130.51518145840998 0 130.51518145840998 -82.634892446007598 0 0 0 0 -100.10615711038554 215.4880332014049 0 215.4880332014049 -130.53320385247957 0 0 0 0 -111.95737408433342 189.97664012495508 0 189.97664012495508 -84.561339755170238 0 0 0 0 -71.509988124071242 92.164064759608209 0 92.164064759608209 -133.2894345259611 0 0 0 0 -94.668331268410839 154.77114833311128 0 154.77114833311128 -163.90861387680266 0 0 0 0 -87.61133444339066 120.98539028113214 0 120.98539028113214 -5.431832922266608 0 0 0 0 -43.807249385215982 46.900615118656425 0 46.900615118656425 99.801059064515542 0 0 0 0 -4.8841349662616267 47.608372013293632 0 47.608372013293632 -137.03055224435676 0 0 0 0 -4.3960465943963811 101.35441481262393 0 101.35441481262393 22.411887973190687 0 0 0 0 5.1892797395630623 33.895192040846723 0 33.895192040846723 34.376656718732534 0 0 0 0 -32.767153449829493 90.632668114776834 0 90.632668114776834 -190.48327296068132 0 0 0 0 -1.0160810328656709 1.6162837622608643 0 1.6162837622608643 0.10542066102101166 0 0 0 0 -2.9963177212630399 52.817200713736469 0 52.817200713736469 132.76089083461846 0 0 0 0 1.6699551011476252 6.7396001090164361 0 6.7396001090164361 0.35816472772765806 0 0 0 0 28.317983599459694 46.571342323795761 0 46.571342323795761 -19.610773098836944 0 0 0 0 65.310446590658103 23.602277470892204 0 23.602277470892204 -0.60710322426507446 0 0 0 0 151.43037915599416 26.194831627608437 0 26.194831627608437 12.516445718077648 0 0 0 0 -3.4111541506572394 43.609078281869188 0 43.609078281869188 17.339384117893132 0 0 0 0 121.2451261265669 80.611451090086121 0 80.611451090086121 41.993819576184251 0 0 0 0 -1.3119858303830085 5.669465234264969 0 5.669465234264969 2.0372138748152495 0 0 0 0 -0.24934604941518046 32.939304121858186 0 32.939304121858186 62.980028557769401 0 0 0 0 -26.947169684022811 105.71553592900841 0 105.71553592900841 14.839940783740531 0 0 0 0 6.5235441666609404 75.906733264336651 0 75.906733264336651 -11.875590332041611 0 0 0 0 13.957770989873097 60.244843064099456 0 60.244843064099456 -61.938690661064257 0 0 0 0 -15.00000342426938 30.786883017208311 0 30.786883017208311 44.962446820363425 0 0 0 0 11.391281693644935 23.170427168993356 0 23.170427168993356 16.534988835633975 0 0 0 0 -18.630935958881309 28.101047113462414 0 28.101047113462414 43.182542944397539 0 0 0 0 -1.9169166633216861 6.457875727856667 0 6.457875727856667 4.1998086408989099 0 0 0 0 12.434242059114013 23.879648638698388 0 23.879648638698388 9.1982632580466017 0 0 0 0 6.7178320126040489 12.928443749243797 0 12.928443749243797 3.6234273955264484 0 0 0 0 1.0963148256271467 13.028041728107262 0 13.028041728107262 9.8100637258279733 0 0 0 0 -30.656458075656701 28.726491757753664 0 28.726491757753664 20.897036581152491 0 0 0 0 -34.513906484462495 -7.740276461733373 0 -7.740276461733373 95.645406147052981 0 0 0 0 8.3676359866683647 15.947003028884936 0 15.947003028884936 5.6478814328952502 0 0 0 0 -28.199526188785967 26.052388817916935 0 26.052388817916935 14.532508225140532 0 0 0 0 -27.140063948900206 31.956885544435593 0 31.956885544435593 17.31399013163157 0 0 0 0 -29.666705933035701 34.077759845077701 0 34.077759845077701 29.471689024808768 0 0 0 0 -34.168328985804692 -10.793776605181009 0 -10.793776605181009 40.683104828316544 0 0 0 0 6.3941548086462312 2.5515204046251867 0 2.5515204046251867 0.63589162476347405 0 0 0 0 71.187985680495331 25.057563962781614 0 25.057563962781614 -7.1459907784792449 0 0 0 0 73.764439081933233 35.35628299002019 0 35.35628299002019 18.645843079027145 0 0 0 0 76.786282830900745 46.196362141490226 0 46.196362141490226 18.88152861771232 0 0 0 0 74.46738908102634 40.687461755788036 0 40.687461755788036 7.7711329826743167 0 0 0 0 85.551185249423725 40.359421318256864 0 40.359421318256864 -0.75001058276939148 0 0 0 0 95.704785348458245 10.379657420160584 0 10.379657420160584 14.436239982571351 0 0 0 0 13.450940009948681 47.127184590763591 0 47.127184590763591 17.575155910565627 0 0 0 0 53.899325603415491 15.587519902388522 0 15.587519902388522 14.405036962263239 0 0 0 0 35.510403164014861 46.946796501474182 0 46.946796501474182 -12.281033568044222 0 0 0 0 42.14924063446233 22.138876016492759 0 22.138876016492759 0.41702623329865673 0 0 0 0 29.309538147717831 38.3683173652812 0 38.3683173652812 -6.5183645349607104 0 0 0 0 59.570956007286441 33.208289576521111 0 33.208289576521111 -0.47319973487174138 0 0 0 0 51.965586820850149 19.839015019653743 0 19.839015019653743 5.2210890212977574 0 0 0 0 45.52151021228201 28.495559581532689 0 28.495559581532689 0.88253547050953784 0 0 0 0 33.67200618237257 13.992230136474063 0 13.992230136474063 6.3936165654317847 0 0 0 0 61.273645540677535 21.640978918004521 0 21.640978918004521 -7.9944632297759881 0 0 0 0 35.206051172717707 11.916468538862773 0 11.916468538862773 11.76850244596335 0 0 0 0 39.316399579532387 15.357197374098654 0 15.357197374098654 2.1188607386099081 0 0 0 0 51.58584036405955 23.737012882878844 0 23.737012882878844 11.683927074464009 0 0 0 0 74.430462923628511 27.361524964080672 0 27.361524964080672 3.5058242609234185 0 0 0 0 83.680246902396902 18.499061624752812 0 18.499061624752812 2.6257892648136476 0 0 0 0 -1.1717324440164987 2.9972208585306035 0 2.9972208585306035 2.5012901725930048 0 0 0 0 -94.276228666385578 109.15575896724033 0 109.15575896724033 -78.172718140930783 0 0 0 0 28.284406262930133 -10.496011165866491 0 -10.496011165866491 26.774768064569798 0 0 0 0 15.416988847382282 23.705765621943819 0 23.705765621943819 10.302143546292317 0 0 0 0 53.209643502868857 17.228542932072941 0 17.228542932072941 18.15909609804271 0 0 0 0 -100.78693294234836 102.78397191890633 0 102.78397191890633 -72.982164604054191 0 0 0 0 -124.9191920347821 104.52398454063461 0 104.52398454063461 -44.249583346296731 0 0 0 0 -143.58726717483933 61.21301417046152 0 61.21301417046152 0.46848020424806691 0 0 0 0 -188.0662531812095 127.01293809721534 0 127.01293809721534 -5.3882153728052344 0 0 0 0 -155.48299581931497 122.42935461191945 0 122.42935461191945 -50.088787776392735 0 0 0 0 5.3659207460565028 1.2930223105792749 0 1.2930223105792749 -0.58154972834412144 0 0 0 0 -73.206260805460261 67.994027827296691 0 67.994027827296691 -59.623110451608113 0 0 0 0 51.448704817874386 18.161947977381203 0 18.161947977381203 -3.7688188776640459 0 0 0 0 61.830613732447091 7.4356815592966967 0 7.4356815592966967 -5.0065071365977474 0 0 0 0 68.351038658373 7.8102694678713078 0 7.8102694678713078 -8.9939757978772832 0 0 0 0 38.757411277134452 58.288382423003213 0 58.288382423003213 44.914221729498422 0 0 0 0 66.189536836922343 23.345402720983014 0 23.345402720983014 -8.4411425368908226 0 0 0 0 80.923443308398419 20.828905349426975 0 20.828905349426975 -11.595384568635495 0 0 0 0 1.1264932735647761 15.066670724852344 0 15.066670724852344 -11.907577363081039 0 0 0 0 32.234199724116479 27.6498240161377 0 27.6498240161377 4.1908018495869328 0 0 0 0 0.17802830002619885 11.693089282209883 0 11.693089282209883 47.392716299918732 0 0 0 0 20.453456540459172 18.99075339625481 0 18.99075339625481 8.2137692518497918 0 0 0 0 45.449882470376906 16.856883267323383 0 16.856883267323383 12.602379132872784 0 0 0 0 6.6083946691762208 4.5056037357451544 0 4.5056037357451544 3.3619145670521746 0 0 0 0 2.4952708767571359 3.6877062686972977 0 3.6877062686972977 -0.96447215586019208 0 0 0 0 53.097111813738593 32.421757171699483 0 32.421757171699483 -31.714760165767984 0 0 0 0 -150.85204519077161 112.81083317663774 0 112.81083317663774 -57.169460357793469 0 0 0 0 34.360805300373613 6.6870700366246183 0 6.6870700366246183 2.0237849143750282 0 0 0 0 45.748082975595025 32.015261042658494 0 32.015261042658494 -25.258956322296399 0 0 0 0 35.166410919919144 16.592949616308033 0 16.592949616308033 -14.298117240089823 0 0 0 0 -0.070904619155044202 152.24895320454777 0 152.24895320454777 -143.33666234692055 0 0 0 0 -16.197569725431094 145.90019402558346 0 145.90019402558346 -120.36233692250084 0 0 0 0 12.306576720438898 123.29845296186798 0 123.29845296186798 -149.80259579281659 0 0 0 0 -3.4243229638814228 -80.684680075112368 0 -80.684680075112368 -54.187353604942494 0 0 0 0 0.26538195980344881 0.14836581124524173 0 0.14836581124524173 0.41015919281502244 0 0 0 0 -16.894983276259154 43.432787615219809 0 43.432787615219809 111.008924550301 0 0 0 0 -3.4377457381924614 -15.471874221217831 0 -15.471874221217831 13.099320163246148 0 0 0 0 0.042063952004383509 1.2913489517225116 0 1.2913489517225116 2.7894470264551909 0 0 0 0 46.938250380873797 77.759418189017651 0 77.759418189017651 -89.924234735840372 0 0 0 0 -60.658366975039826 82.008510228751447 0 82.008510228751447 -47.59542366948483 0 0 0 0 56.198962989205029 12.121616484735895 0 12.121616484735895 -46.632776916059356 0 0 0 0 -35.048757368698716 30.980998052845507 0 30.980998052845507 -1.6894112455104278 0 0 0 0 -46.234648897901934 147.86730171818135 0 147.86730171818135 -129.13562644441458 0 0 0 0 -17.60165923362365 143.70814108602758 0 143.70814108602758 -121.71581744634182 0 0 0 0 -14.761330049026583 140.96603778103827 0 140.96603778103827 -127.67747996893013 0 0 0 0 -54.651678833608457 158.13969258926136 0 158.13969258926136 -144.90168995082968 0 0 0 0 -14.274855401235982 166.69202309622324 0 166.69202309622324 -152.90786539901637 0 0 0 0 -78.823807184970065 124.07894919514638 0 124.07894919514638 -153.74232672542075 0 0 0 0 -46.036417730063476 151.27285012642676 0 151.27285012642676 -152.69937879041618 0 0 0 0 -37.35662966282689 111.36169695738226 0 111.36169695738226 -54.847221162540791 0 0 0 0 -1.7323246982559795 78.532277934571539 0 78.532277934571539 -27.043890153298094 0 0 0 0 1.7756604520618566 79.336587219139801 0 79.336587219139801 -35.079575640653275 0 0 0 0 26.184059943800094 30.765540273757324 0 30.765540273757324 -23.294529841740029 0 0 0 0 14.181924686505226 35.139845603303343 0 35.139845603303343 -8.6545677973390411 0 0 0 0 25.054314152017469 35.01086052914161 0 35.01086052914161 -15.653170540638541 0 0 0 0 34.546049628261244 21.156892051526484 0 21.156892051526484 -2.8013136124791345 0 0 0 0 9.3188506617152598 40.842618706581561 0 40.842618706581561 -22.613712985890288 0 0 0 0 21.76025547480458 52.197688746389872 0 52.197688746389872 -71.831514155481273 0 0 0 0 74.257251772920426 83.385255253158221 0 83.385255253158221 -186.60505261381695 0 0 0 0 -12.695451652609336 129.87175386721538 0 129.87175386721538 -68.74831693705255 0 0 0 0 -96.53299875742232 207.41059006578826 0 207.41059006578826 -133.82536466129318 0 0 0 0 -66.862007221207023 176.09840629137216 0 176.09840629137216 -75.170486672232983 0 0 0 0 -106.73403899805271 164.26620652531938 0 164.26620652531938 -64.361829034619404 0 0 0 0 -147.66226842725155 170.20639950009127 0 170.20639950009127 -57.966642645669708 0 0 0 0 -22.699422114674235 100.82057358053862 0 100.82057358053862 -15.16740097529464 0 0 0 0 -68.636559465207938 120.73197944412573 0 120.73197944412573 -13.952794457323762 0 0 0 0 -0.093974683644773904 190.41547538907935 0 190.41547538907935 69.204324108590299 0 0 0 0 -107.06451937077509 132.88287472992124 0 132.88287472992124 -7.2635974632855778 0 0 0 0 -117.18568758027504 213.00684259302727 0 213.00684259302727 -55.157960117630864 0 0 0 0 -170.95988093018241 116.77164700327808 0 116.77164700327808 12.753789648901147 0 0 0 0 -174.78021749842446 150.21362194210815 0 150.21362194210815 -25.783100411987107 0 0 0 0 -96.25284420375101 200.5412213924883 0 200.5412213924883 -58.389320892517446 0 0 0 0 -110.27287007620544 303.73571787513333 0 303.73571787513333 -166.67956468388729 0 0 0 0 -143.80701614746067 254.78894423050815 0 254.78894423050815 -106.07876635840603 0 0 0 0 -250.76465045656369 260.07572625281318 0 260.07572625281318 -64.29544531802685 0 0 0 0 -245.37952102807526 130.53021015593944 0 130.53021015593944 -27.8551886841542 0 0 0 0 -13.322073153227393 197.30638507471122 0 197.30638507471122 -98.524957898882803 0 0 0 0 -62.446747496604075 219.60384082156531 0 219.60384082156531 -108.46867758098779 0 0 0 0 -0.065949639187238063 184.62291448357041 0 184.62291448357041 -132.25241009845558 0 0 0 0 77.946635802807577 113.06658367866657 0 113.06658367866657 -125.76108016406283 0 0 0 0 -103.84566696544789 247.08930531002807 0 247.08930531002807 -277.1370085530898 0 0 0 0 -479.90668289872337 101.52957234616815 0 101.52957234616815 -34.535372232239752 0 0 0 0 -362.61233904044457 400.69793193299233 0 400.69793193299233 -191.91084750188929 0 0 0 0 -85.687769172131084 285.01839629780807 0 285.01839629780807 -204.03196413153728 0 0 0 0 75.738734445135833 213.1553840158299 0 213.1553840158299 -211.10905809061296 0 0 0 0 181.46173503690079 82.101357832439589 0 82.101357832439589 -215.86592768098035 0 0 0 0 -475.37895082230898 552.1000184425543 0 552.1000184425543 -382.77241598359069 0 0 0 0 -147.77212750563194 220.84806221944655 0 220.84806221944655 -370.35767879647392 0 0 0 0 -581.96264126125607 692.23930752681372 0 692.23930752681372 -825.50217311304095 0 0 0 0 -999.76890155969886 541.63677551559158 0 541.63677551559158 17.53371645767038 0 0 0 0 -415.7196444819856 872.53526805121146 0 872.53526805121146 -577.84701080267041 0 0 0 0 -47.019671312969876 402.57273529171835 0 402.57273529171835 -23.895255841645849 0 0 0 0 -1075.4807105494401 298.81533272935394 0 298.81533272935394 -6.5907041250920884 0 0 0 0 164.68665024718211 -86.666861518089718 0 -86.666861518089718 35.913493709458635 0 0 0 0 415.01440395594545 213.73953102110136 0 213.73953102110136 -234.02354722944074 0 0 0 0 -1.2100341950021942 2.8868389804386112 0 2.8868389804386112 -0.55505580929394682 0 0 0 0 83.973581782753172 84.357162596989383 0 84.357162596989383 10.680569072639628 0 0 0 0 235.32630855446041 352.18316166725344 0 352.18316166725344 -49.07922476090971 0 0 0 0 26.581300787162036 56.580465739416468 0 56.580465739416468 -2.7593732952063874 0 0 0 0 4.8159388998743964 10.078319050008016 0 10.078319050008016 6.089849160730612 0 0 0 0 -14.594459193045623 53.531853530354056 0 53.531853530354056 32.97554040603427 0 0 0 0 12.235317501520647 36.877547958967106 0 36.877547958967106 19.331242094614645 0 0 0 0 49.478688579354639 -3.0641323073009517 0 -3.0641323073009517 22.315080710968687 0 0 0 0 3.9980570617044577 97.429701294455299 0 97.429701294455299 74.838863445613242 0 0 0 0 40.175855629247962 350.09414091808867 0 350.09414091808867 -874.85069783833023 0 0 0 0 -7.6778002402926973 9.235053385284786 0 9.235053385284786 3.6094113393405465 0 0 0 0 -168.16547940269083 113.25880564898671 0 113.25880564898671 91.543954596590993 0 0 0 0 -53.198428442978184 3.9099549789998491 0 3.9099549789998491 55.97872626860044 0 0 0 0 -261.08246207496268 72.553429333323948 0 72.553429333323948 83.300334138548351 0 0 0 0 1.2874341819988331 -45.308537471799355 0 -45.308537471799355 -402.3723147798728 0 0 0 0 158.42765676847193 272.81589030730902 0 272.81589030730902 516.00233934728385 0 0 0 0 301.446709997992 358.53859336539335 0 358.53859336539335 489.5052506646789 0 0 0 0 6.7322590239112934 4.9653179510597738 0 4.9653179510597738 -0.48512705877156748 0 0 0 0 -146.03585398651194 -86.377556806073699 0 -86.377556806073699 53.886705472827089 0 0 0 0 72.29229027616384 35.93015063999519 0 35.93015063999519 -43.128822591814242 0 0 0 0 36.998515638532496 12.678541530662608 0 12.678541530662608 -2.693826203985441 0 0 0 0 199.30053261457942 341.93676782234797 0 341.93676782234797 544.98789814431802 0 0 0 0 127.8807152363006 21.698471925156809 0 21.698471925156809 -44.014104224369476 0 0 0 0 95.671826893507387 133.72464719192249 0 133.72464719192249 932.71141231231172 0 0 0 0 90.001285981572437 287.41665481653172 0 287.41665481653172 642.73355978123436 0 0 0 0 87.646067819572636 288.91804638143003 0 288.91804638143003 856.52423707461639 0 0 0 0 109.14731030106486 146.27498826751616 0 146.27498826751616 741.13234240156089 0 0 0 0 104.33691007948073 302.45701640808875 0 302.45701640808875 587.38021412608941 0 0 0 0 113.50524846266489 176.89802144330315 0 176.89802144330315 642.26816174045416 0 0 0 0 79.794860836060252 342.45179906258818 0 342.45179906258818 618.88633830655453 0 0 0 0 386.37416902680502 9.573786179741802 0 9.573786179741802 -151.19878900503136 0 0 0 0 352.41311672214943 569.76507764641246 0 569.76507764641246 -840.51601840098374 0 0 0 0 -12.297618224336475 67.611763926614231 0 67.611763926614231 180.63223674470964 0 0 0 0 75.250198414272745 214.32780281410851 0 214.32780281410851 -207.71334622443828 0 0 0 0 -104.0658162145337 206.71996790064668 0 206.71996790064668 92.066526254699966 0 0 0 0 143.38645304913371 93.712179182919044 0 93.712179182919044 2.2872224156299126 0 0 0 0 66.77711736994388 116.57529032928687 0 116.57529032928687 -2.8101423965159142 0 0 0 0 5.4843992528594754 52.78433582368109 0 52.78433582368109 35.178985336787264 0 0 0 0 52.879318757037254 115.36541872464568 0 115.36541872464568 82.720934612272686 0 0 0 0 0.84786480750335613 40.879670368230336 0 40.879670368230336 18.004529118281482 0 0 0 0 3.2082940816835617 38.904478101646099 0 38.904478101646099 15.646062762473392 0 0 0 0 -14.6152851605775 14.861324059285742 0 14.861324059285742 3.64844073283124 0 0 0 0 -12.310122106328706 3.1977604194871443 0 3.1977604194871443 -1.38860062315121 0 0 0 0 27.163964948893408 11.618782433136175 0 11.618782433136175 -30.231448218265626 0 0 0 0 -120.41760910344783 132.6633726981301 0 132.6633726981301 276.0451517214874 0 0 0 0 -7.4386174444298376 37.463075006279254 0 37.463075006279254 35.6892052199712 0 0 0 0 1.2887202944330056 39.339365899381988 0 39.339365899381988 22.169110637940946 0 0 0 0 6.6851892618724378 17.629475726815627 0 17.629475726815627 40.95305191464945 0 0 0 0 -8.0923312842205632 21.150710459862552 0 21.150710459862552 22.522429992335788 0 0 0 0 36.496424598633894 57.554883375833128 0 57.554883375833128 8.212540115986485 0 0 0 0 93.071873412554851 -12.348783552936766 0 -12.348783552936766 -12.000450128194871 0 0 0 0 -37.942685637954128 4.6197846513439345 0 4.6197846513439345 4.467252345115412 0 0 0 0 -167.30943619765458 40.706390460184593 0 40.706390460184593 16.429788222747447 0 0 0 0 -2.0337801794299395 5.2478644749586039 0 5.2478644749586039 -1.1295131962516827 0 0 0 0 163.93082626299292 70.256770373799782 0 70.256770373799782 1.9263192388680181 0 0 0 0 -257.8476962969944 93.675708986320842 0 93.675708986320842 -10.358032322042163 0 0 0 0 -216.75908302333119 125.89612161688592 0 125.89612161688592 -45.750196408021111 0 0 0 0 4.5149344489493402 26.147412972914488 0 26.147412972914488 26.269021580903289 0 0 0 0 40.445671651948942 98.293515964303879 0 98.293515964303879 90.317789097488003 0 0 0 0 -50.994711761533836 48.820059475205881 0 48.820059475205881 89.734005541713486 0 0 0 0 3.3345136135794746 37.973725716795457 0 37.973725716795457 18.521497574228306 0 0 0 0 9.790930086546199 12.712768180107012 0 12.712768180107012 10.677023567989679 0 0 0 0 -106.92281218355447 184.70775584052717 0 184.70775584052717 -198.60441248439747 0 0 0 0 -154.96607500758273 231.87575665717304 0 231.87575665717304 -199.31225057483687 0 0 0 0 -153.71572005490998 169.41599415407472 0 169.41599415407472 -127.04609380031616 0 0 0 0 -6.964362926883112 2.269714488436982 0 2.269714488436982 5.0517441348513259 0 0 0 0 -142.71155682647895 165.048598491132 0 165.048598491132 -150.20497103506932 0 0 0 0 -0.40299156614546661 -0.071777757755587146 0 -0.071777757755587146 -0.16818047516517254 0 0 0 0 -106.57083758143926 -52.813801475891523 0 -52.813801475891523 665.55607872979454 0 0 0 0 -156.27066939262536 137.10165750212491 0 137.10165750212491 294.67272049278108 0 0 0 0 144.90876531111371 46.979644541406742 0 46.979644541406742 287.64731384697416 0 0 0 0 11.538258706743818 -76.819116126810513 0 -76.819116126810513 74.87694839370306 0 0 0 0 -94.969472656375274 111.92736742790839 0 111.92736742790839 559.01230644347743 0 0 0 0 72.356247144528425 97.275736708797922 0 97.275736708797922 130.42306601543532 0 0 0 0 -64.0548335899839 -54.240901105178636 0 -54.240901105178636 266.18251318728289 0 0 0 0 3.4554711740957949 4.9357875817232681 0 4.9357875817232681 4.6762057102709065 0 0 0 0 -32.936179121437704 -213.07804908400408 0 -213.07804908400408 1023.0591047195085 0 0 0 0 352.81327633373439 209.3082598333749 0 209.3082598333749 -329.64551404875237 0 0 0 0 -7.5779700217772188 48.652539239548787 0 48.652539239548787 -295.2919081024711 0 0 0 0 -242.636072205255 476.30243607505508 0 476.30243607505508 69.930449318962928 0 0 0 0 353.47612287730408 1134.9700161159672 0 1134.9700161159672 433.80584480157995 0 0 0 0 628.17925286186801 488.26612158098214 0 488.26612158098214 -205.2300605915043 0 0 0 0 156.6323762826687 285.99189117691276 0 285.99189117691276 -262.51146360030543 0 0 0 0 109.31968237463161 207.79094212770815 0 207.79094212770815 -70.574318508108263 0 0 0 0 184.83579310188406 374.76706447026208 0 374.76706447026208 16.211599412854412 0 0 0 0 119.06835286862952 218.68035261251862 0 218.68035261251862 -95.274008895185034 0 0 0 0 -236.61871094043181 123.08127476154732 0 123.08127476154732 -145.92721532401629 0 0 0 0 233.40686639938667 203.34448204254477 0 203.34448204254477 -217.9771930153729 0 0 0 0 20.714253011134133 118.07803382815473 0 118.07803382815473 -156.99770901501324 0 0 0 0 34.297347618845379 158.23273019355111 0 158.23273019355111 -141.91350006227731 0 0 0 0 63.084053025510002 123.78688962828528 0 123.78688962828528 -163.48866116727004 0 0 0 0 -31.410521487332517 155.84059401755803 0 155.84059401755803 -139.84920678478375 0 0 0 0 -49.632780193502185 130.9304375375068 0 130.9304375375068 -157.08099270739694 0 0 0 0 -59.737137478649856 148.47371729333099 0 148.47371729333099 -98.464995680857101 0 0 0 0 -7.1356824987242362 116.38002721700832 0 116.38002721700832 -109.85870608292316 0 0 0 0 53.847033214545263 146.51641212323602 0 146.51641212323602 -118.58323888659652 0 0 0 0 149.17920089111158 128.10565845262317 0 128.10565845262317 -106.6256641149248 0 0 0 0 52.766976754884581 151.41807504438316 0 151.41807504438316 -83.600260837214591 0 0 0 0 119.29304257377589 116.27936494267124 0 116.27936494267124 -100.3995735661756 0 0 0 0 35.95967799506252 171.59461955878396 0 171.59461955878396 -78.921128276713716 0 0 0 0 244.44143349910973 207.08901595166117 0 207.08901595166117 -140.44729408989951 0 0 0 0 -23.905415516197536 132.8809332074743 0 132.8809332074743 -81.405690645588038 0 0 0 0 1.3545712854811427 118.90144494748893 0 118.90144494748893 -96.21855767838133 0 0 0 0 -10.733274419182635 132.26999423049347 0 132.26999423049347 -109.21249714196165 0 0 0 0 -27.093163063581869 144.83051627542318 0 144.83051627542318 -97.063584451316274 0 0 0 0 -70.445302243662809 119.68863826504821 0 119.68863826504821 -108.40138882611245 0 0 0 0 -80.466701574138369 150.58260678658553 0 150.58260678658553 -121.88820378683158 0 0 0 0 -51.000669507138809 120.30092334639266 0 120.30092334639266 -110.86212928593886 0 0 0 0 -71.920258023186761 155.18837557179359 0 155.18837557179359 -97.655650364433313 0 0 0 0 -84.560241578284604 138.61486160742061 0 138.61486160742061 -119.13717311536311 0 0 0 0 -109.83983356627073 171.12533728956441 0 171.12533728956441 -132.19168272650859 0 0 0 0 -125.29668674729191 166.28795782195084 0 166.28795782195084 -114.45331476733554 0 0 0 0 -112.87397407815479 180.31191886673696 0 180.31191886673696 -142.4180928739006 0 0 0 0 -56.110110002677175 147.21390647992303 0 147.21390647992303 -136.82315316500717 0 0 0 0 -132.09504928615283 177.2012098473806 0 177.2012098473806 -155.77424487750977 0 0 0 0 13.438236728462812 15.248517216684533 0 15.248517216684533 15.340067312503592 0 0 0 0 -144.83195153147699 187.08369108179477 0 187.08369108179477 -145.58624965886338 0 0 0 0 -136.26222607094314 166.56454898935044 0 166.56454898935044 -127.90562998210225 0 0 0 0 -124.96090491028008 172.77188420379025 0 172.77188420379025 -139.6212371674701 0 0 0 0 -155.18141568374722 151.81120184508472 0 151.81120184508472 -148.28790647927599 0 0 0 0 -103.69297661382825 143.62930420288831 0 143.62930420288831 -117.81865365271551 0 0 0 0 -117.73117331888034 148.90249339349248 0 148.90249339349248 -126.21779859179333 0 0 0 0 -210.35709005970898 168.19625132915826 0 168.19625132915826 -117.65343234261309 0 0 0 0 -220.29864778196071 263.87790828230652 0 263.87790828230652 -104.77177384852985 0 0 0 0 -143.7368210896484 190.38311104450986 0 190.38311104450986 -125.98445043609172 0 0 0 0 -124.55065734316213 112.48361354806184 0 112.48361354806184 8.7430549358105054 0 0 0 0 12.033585563319553 15.250410197177629 0 15.250410197177629 17.747921168808858 0 0 0 0 -115.4192551332053 72.697855996926592 0 72.697855996926592 -13.360207796562463 0 0 0 0 -21.133334941077919 254.5929176530226 0 254.5929176530226 -294.41872501436228 0 0 0 0 -86.995078383585906 121.60358274969121 0 121.60358274969121 10.346868451237242 0 0 0 0 -1.811766069655576 0.75984406538561444 0 0.75984406538561444 1.0069253807110456 0 0 0 0 -91.973392794866186 105.67246578190588 0 105.67246578190588 -20.709272805459477 0 0 0 0 -54.321638563022134 -78.706231312113232 0 -78.706231312113232 104.94549300385916 0 0 0 0 -49.521671589385733 58.620832813736342 0 58.620832813736342 37.058052557040355 0 0 0 0 34.961917276452368 19.868214283176712 0 19.868214283176712 6.4896402363810921 0 0 0 0 -7.2367742047263164 43.217404579662798 0 43.217404579662798 30.885619041277096 0 0 0 0 -16.5068767242783 51.804647316273986 0 51.804647316273986 12.484309775652946 0 0 0 0 3.9608591018527477 52.857633160602745 0 52.857633160602745 -15.274682354807737 0 0 0 0 -43.951241408585702 77.410403820922511 0 77.410403820922511 -67.039245384967217 0 0 0 0 -29.321007471527992 37.296958285260189 0 37.296958285260189 21.564081069198437 0 0 0 0 -66.309094616612128 72.810104793679784 0 72.810104793679784 0.84836366055606049 0 0 0 0 -33.0206437109955 80.051278850987728 0 80.051278850987728 -16.287178322618274 0 0 0 0 -0.73524296752657392 6.6050589144906553 0 6.6050589144906553 -34.119245632350612 0 0 0 0 -15.439155210275203 -2.9199092794642638 0 -2.9199092794642638 101.44188562825002 0 0 0 0 2.8009195965551044 44.658846643778816 0 44.658846643778816 18.446927893113752 0 0 0 0 32.894864783313096 -19.546010517515242 0 -19.546010517515242 51.265737533960419 0 0 0 0 59.380624341174553 -26.72107307022452 0 -26.72107307022452 96.081472157609824 0 0 0 0 31.49527202394529 6.3953283720256877 0 6.3953283720256877 84.664078673391487 0 0 0 0 44.280409221729315 -4.1924363238740625 0 -4.1924363238740625 44.519860883177898 0 0 0 0 54.008717009266547 -45.438854001724394 0 -45.438854001724394 199.41581730400503 0 0 0 0 47.969031588050711 -47.476734773219505 0 -47.476734773219505 167.58572134095448 0 0 0 0 40.662291010055924 -38.143213822535472 0 -38.143213822535472 199.56394734275818 0 0 0 0 49.026149208148581 -19.961988113527468 0 -19.961988113527468 142.79906098057108 0 0 0 0 35.773284185706871 -32.268453735654475 0 -32.268453735654475 134.96161802028655 0 0 0 0 49.616675609577214 -47.725855626202247 0 -47.725855626202247 139.07753514947399 0 0 0 0 29.851613010225719 3.5548496311494091 0 3.5548496311494091 96.645050766521308 0 0 0 0 50.733807007189171 -48.382593216534588 0 -48.382593216534588 190.3034104611761 0 0 0 0 13.726932051016774 -41.557644062057079 0 -41.557644062057079 274.33668768764619 0 0 0 0 36.095740966996345 -27.766823903270051 0 -27.766823903270051 179.44591334511642 0 0 0 0 44.578997720060215 -64.216545757208223 0 -64.216545757208223 144.5383536299596 0 0 0 0 29.690050867071477 4.8626117088961109 0 4.8626117088961109 100.90774994478124 0 0 0 0 -14.888792703079162 -57.659391423206216 0 -57.659391423206216 263.41626647825615 0 0 0 0 -14.82332173528042 65.917169920869512 0 65.917169920869512 39.603529712138688 0 0 0 0 -7.5574224172214599 -54.833822778695321 0 -54.833822778695321 397.61033860860698 0 0 0 0 71.431031920006262 -64.682041086559366 0 -64.682041086559366 263.94709777052049 0 0 0 0 45.115570435784321 15.26923038973473 0 15.26923038973473 281.10480177496311 0 0 0 0 -386.95495029990707 353.11951214407782 0 353.11951214407782 -506.20944123072695 0 0 0 0 -26.134866765778327 6.2024067875598128 0 6.2024067875598128 55.665045285358218 0 0 0 0 70.707297897219178 -17.015000882591266 0 -17.015000882591266 231.05625164006779 0 0 0 0 35.467391145954025 -39.885289006197127 0 -39.885289006197127 228.97122113683145 0 0 0 0 -81.35692604804899 204.89796400491468 0 204.89796400491468 -86.052595774937799 0 0 0 0 -7.9894328564598709 -19.869050992913344 0 -19.869050992913344 -152.20916943065095 0 0 0 0 10.574227788463759 -67.920964705197548 0 -67.920964705197548 54.176425500612822 0 0 0 0 -178.14822815336356 112.70565637479922 0 112.70565637479922 0.79983875659672776 0 0 0 0 26.299290691037186 12.297424961983779 0 12.297424961983779 143.1710562465596 0 0 0 0 -122.96910833215588 50.569009519836982 0 50.569009519836982 172.9524122388757 0 0 0 0 -88.0234772133972 -64.342277658792227 0 -64.342277658792227 621.17693393686932 0 0 0 0 29.723211956608793 37.167816877594305 0 37.167816877594305 164.42903606665823 0 0 0 0 -24.885003195719037 -88.678630977225112 0 -88.678630977225112 286.35509413123145 0 0 0 0 49.962101025250377 47.413682600652464 0 47.413682600652464 380.98928682135738 0 0 0 0 21.149998060569487 149.33421125173118 0 149.33421125173118 350.16813346403433 0 0 0 0 44.74185690392278 -129.07100461169648 0 -129.07100461169648 348.33974178238714 0 0 0 0 3.7932301044193082 48.732927949585928 0 48.732927949585928 -294.98643408266071 0 0 0 0 -38.675549054469229 -41.889229023109692 0 -41.889229023109692 -82.338892645224405 0 0 0 0 3.8714648964655503 72.027572959144209 0 72.027572959144209 19.015442751720478 0 0 0 0 -54.210746157124959 24.641233763508353 0 24.641233763508353 -5.3570341986960557 0 0 0 0 28.178876863647019 61.117368227713087 0 61.117368227713087 -254.91632143113657 0 0 0 0 -32.710047091193701 -19.804292445320243 0 -19.804292445320243 -176.44571974759492 0 0 0 0 -199.06397092004772 33.652941156546149 0 33.652941156546149 -207.06761645144434 0 0 0 0 -57.797403317652424 -44.663555172233828 0 -44.663555172233828 -18.769565929001601 0 0 0 0 4.3664348980076753 0.56457199505562983 0 0.56457199505562983 -0.7441722926970975 0 0 0 0 -5.8286445490057304 -93.671471010179175 0 -93.671471010179175 14.886503263413033 0 0 0 0 -51.12934109609705 -31.862452081478295 0 -31.862452081478295 -69.160739631913202 0 0 0 0 111.58074835742082 70.520322136883806 0 70.520322136883806 168.16835399816046 0 0 0 0 -77.583527775563198 120.64982733746365 0 120.64982733746365 -92.862970630743348 0 0 0 0 -272.17901476562201 543.14453976755203 0 543.14453976755203 -543.79832763220838 0 0 0 0 18.30642237540642 16.664983163111945 0 16.664983163111945 5.0636384415520332 0 0 0 0 18.996238642383105 359.36460488664852 0 359.36460488664852 -492.53439784016882 0 0 0 0 -238.83847221060932 417.80658110810327 0 417.80658110810327 -413.28071145869035 0 0 0 0 -128.57094794466684 327.10278095234025 0 327.10278095234025 -437.57501502036757 0 0 0 0 -376.09615408158061 402.12658274758724 0 402.12658274758724 -416.48035970947967 0 0 0 0 -245.51979219572604 267.11104749588776 0 267.11104749588776 -557.69245189053163 0 0 0 0 -118.03929978248198 464.85482990925266 0 464.85482990925266 -624.55485421443518 0 0 0 0 -4.9409370550683889 107.27574501689287 0 107.27574501689287 -121.80618278567454 0 0 0 0 4.6069185627091152 7.3549928779555369 0 7.3549928779555369 -10.00933528580094 0 0 0 0 18.292667720917052 31.044618926466683 0 31.044618926466683 -99.278280110419928 0 0 0 0 -92.655949969972426 90.060394902666303 0 90.060394902666303 -144.26242243622255 0 0 0 0 -55.246052963673719 180.51114706328735 0 180.51114706328735 -60.669882557267556 0 0 0 0 16.991514588311279 13.377805668181313 0 13.377805668181313 8.8199064086721712 0 0 0 0 -405.45700439820575 601.13088814460389 0 601.13088814460389 -455.09807118900062 0 0 0 0 -211.87802920261311 316.77795600771424 0 316.77795600771424 -498.77485977564311 0 0 0 0 -326.84851824904217 406.63726668712115 0 406.63726668712115 -223.74528019148784 0 0 0 0 -193.27685943681718 257.59883819548486 0 257.59883819548486 -177.53998018217317 0 0 0 0 -476.7648016662688 350.77379769486697 0 350.77379769486697 -263.44401892554015 0 0 0 0 -128.44556014210411 229.63632792111821 0 229.63632792111821 -250.94533868323197 0 0 0 0 -150.72535775688266 431.63478443989152 0 431.63478443989152 -279.88374315781766 0 0 0 0 -251.15629601405089 430.56838241227706 0 430.56838241227706 -273.74170318596953 0 0 0 0 -6.0153176825606351 340.81869878742691 0 340.81869878742691 -159.90344939839633 0 0 0 0 60.860382617202049 140.46673678501611 0 140.46673678501611 116.34754015117505 0 0 0 0 65.890748245237774 136.14557953548228 0 136.14557953548228 15.333155360756791 0 0 0 0 -76.126590590858541 181.47766211606722 0 181.47766211606722 -9.3351018012872373 0 0 0 0 83.92787375239368 228.19301035213539 0 228.19301035213539 -19.334739982856263 0 0 0 0 -136.50081851340019 323.23243875648677 0 323.23243875648677 -102.11635224841302 0 0 0 0 -140.74343235153719 164.64152758201271 0 164.64152758201271 27.181644981545105 0 0 0 0 -82.960385757005497 228.68810176193438 0 228.68810176193438 92.64583370085893 0 0 0 0 -178.93215995712671 292.11261352992005 0 292.11261352992005 -51.501528455566586 0 0 0 0 -265.09081366621467 225.61455173697323 0 225.61455173697323 106.85391841538876 0 0 0 0 -235.6203058128558 206.32690306708355 0 206.32690306708355 -153.27556126626587 0 0 0 0 -373.22340923523734 260.85792207533268 0 260.85792207533268 -36.115834444797656 0 0 0 0 -240.60119829115865 257.21115804693545 0 257.21115804693545 -40.436640087780688 0 0 0 0 -327.62587155319125 269.75947063000785 0 269.75947063000785 103.60127386506792 0 0 0 0 -265.2770914980556 263.03759937851282 0 263.03759937851282 216.249708760457 0 0 0 0 -257.66094210134725 238.63814064910366 0 238.63814064910366 101.88914495861536 0 0 0 0 -187.8896911436459 232.06754789129081 0 232.06754789129081 213.5799982298031 0 0 0 0 -253.05255907402534 317.05664770150997 0 317.05664770150997 292.38112828656449 0 0 0 0 -87.191293703814154 185.74633875643485 0 185.74633875643485 192.6054032355778 0 0 0 0 -158.57638121005948 196.21494580653962 0 196.21494580653962 96.775111503314292 0 0 0 0 -125.23316060795696 248.16929071364393 0 248.16929071364393 177.66054970977711 0 0 0 0 -104.75153188621061 166.62714631855124 0 166.62714631855124 179.23233666000306 0 0 0 0 27.66456645481594 163.11383073796969 0 163.11383073796969 75.62890287566097 0 0 0 0 32.248066990687221 193.58820207390454 0 193.58820207390454 164.81066937305877 0 0 0 0 -77.011527608490724 210.52093511960265 0 210.52093511960265 245.77272799711864 0 0 0 0 28.386807068971393 177.22818867521346 0 177.22818867521346 202.48942020609684 0 0 0 0 25.66778785009592 178.12719683376963 0 178.12719683376963 163.99944703341316 0 0 0 0 165.75629691249924 165.97189364494625 0 165.97189364494625 130.95151338383948 0 0 0 0 233.55110699625584 125.49971115649896 0 125.49971115649896 76.246548552661807 0 0 0 0 -378.82156953210506 -113.25134038427132 0 -113.25134038427132 -282.11139257224568 0 0 0 0 3.0494864108273987 0.45123718799656132 0 0.45123718799656132 -2.4931037579186537 0 0 0 0 -228.69613663124255 60.233347797464376 0 60.233347797464376 -123.59445416423478 0 0 0 0 10.978467455091302 10.064659490979412 0 10.064659490979412 7.4797503429644649 0 0 0 0 -374.1456838011909 483.15969775526901 0 483.15969775526901 -267.00563593461629 0 0 0 0 146.3027940820175 329.9292442966107 0 329.9292442966107 38.406851502033533 0 0 0 0 -333.5223393922588 364.76204506278009 0 364.76204506278009 -128.47140268760995 0 0 0 0 -482.8304674672745 233.97437284153966 0 233.97437284153966 -233.44098296676566 0 0 0 0 -291.66713193180476 255.922743337469 0 255.922743337469 -86.996314856989557 0 0 0 0 -369.17480781885388 267.61324607959159 0 267.61324607959159 81.454612756315328 0 0 0 0 -156.64528901530502 272.96216531037498 0 272.96216531037498 -362.5424112798155 0 0 0 0 -308.12987002501177 340.6187665625439 0 340.6187665625439 -135.36038399312383 0 0 0 0 -325.66451345473342 322.26603424647146 0 322.26603424647146 314.3739389746188 0 0 0 0 -369.21101424632798 242.26137251248656 0 242.26137251248656 269.21932100773847 0 0 0 0 -322.08089932003531 276.99178996420051 0 276.99178996420051 233.52406469026027 0 0 0 0 -294.22488519689796 280.84616317994369 0 280.84616317994369 83.76672027506811 0 0 0 0 -296.65107966402866 267.14561732734001 0 267.14561732734001 235.24364092651558 0 0 0 0 -308.53752461656768 352.17324392195223 0 352.17324392195223 335.70327604758131 0 0 0 0 -364.32046604759671 288.64288930337352 0 288.64288930337352 399.01849867008787 0 0 0 0 -222.07169294629784 -20.769001668695864 0 -20.769001668695864 654.06631327841569 0 0 0 0 -358.39501332758027 390.22163287333251 0 390.22163287333251 907.15870470857044 0 0 0 0 -344.88774187132003 136.36865387448415 0 136.36865387448415 218.6611550219277 0 0 0 0 626.88721634037211 625.77551868386217 0 625.77551868386217 255.78114991425537 0 0 0 0 885.98720327549927 2.3127795103046083 0 2.3127795103046083 293.60238442609261 0 0 0 0 4.1862580373492939 3.651586983665652 0 3.651586983665652 3.0494145834953486 0 0 0 0 310.28946527637163 587.45631426422824 0 587.45631426422824 498.17494047649961 0 0 0 0 300.2581198136395 452.12726258883959 0 452.12726258883959 290.63076212300257 0 0 0 0 423.13943819346969 507.49788987087049 0 507.49788987087049 248.89159091135662 0 0 0 0 165.603258243141 121.55276443723403 0 121.55276443723403 -28.492080444068051 0 0 0 0 247.91327988667035 497.90889225891078 0 497.90889225891078 384.17540567393735 0 0 0 0 529.23832706311805 544.56453283310066 0 544.56453283310066 65.057083175754087 0 0 0 0 209.12054313304543 698.72568053321356 0 698.72568053321356 964.01989298412082 0 0 0 0 368.31872260905766 370.39021713094826 0 370.39021713094826 279.78693722991011 0 0 0 0 345.34667183026249 509.74579155175161 0 509.74579155175161 319.29237880097571 0 0 0 0 145.65280091913792 490.20422972115102 0 490.20422972115102 319.31481160600015 0 0 0 0 184.81459675747465 369.26359727323234 0 369.26359727323234 563.2120237503259 0 0 0 0 82.007695384716499 123.67651628389467 0 123.67651628389467 87.37178317665348 0 0 0 0 69.894095543033472 -134.72177840031054 0 -134.72177840031054 -50.778897697795401 0 0 0 0 119.4251411800833 -5.9634491597416854 0 -5.9634491597416854 -156.98905694799032 0 0 0 0 35.058734034053487 -165.80731871525677 0 -165.80731871525677 306.79845140065572 0 0 0 0 298.68659701178694 -494.73535701283254 0 -494.73535701283254 1325.9543348562479 0 0 0 0 126.77104716353642 55.196103385706465 0 55.196103385706465 72.393841764369427 0 0 0 0 1082.3689982856795 117.55380816764682 0 117.55380816764682 -168.51690994013552 0 0 0 0 -273.95285868128212 461.93860430651239 0 461.93860430651239 -255.93882578460034 0 0 0 0 212.22437713670297 -516.28116839066024 0 -516.28116839066024 -162.78341095614087 0 0 0 0 -68.392333007150228 122.73769596248167 0 122.73769596248167 548.92082816191032 0 0 0 0 203.48029102948749 110.29407109967997 0 110.29407109967997 -948.83148334914677 0 0 0 0 45.133373294058636 84.975434281746317 0 84.975434281746317 15.508959432920474 0 0 0 0 -80.661936225747922 430.28633869148507 0 430.28633869148507 -601.57114563001051 0 0 0 0 3.5433222465698009 16.040107357135877 0 16.040107357135877 36.522786896678632 0 0 0 0 144.00993795789691 38.458632181476787 0 38.458632181476787 -2118.1768004728492 0 0 0 0 168.02952676314453 -20.988621561231412 0 -20.988621561231412 -572.18436262464047 0 0 0 0 23.872932115787837 77.930344377781068 0 77.930344377781068 22.557396174515262 0 0 0 0 105.39216881401899 -138.73310750671953 0 -138.73310750671953 -259.55335156093497 0 0 0 0 31.464505692311789 100.85400366572253 0 100.85400366572253 70.098440764844781 0 0 0 0 279.64559947861562 -69.409980691621968 0 -69.409980691621968 -1277.4056736751181 0 0 0 0 1082.552775613387 160.27651626641455 0 160.27651626641455 839.8266116773957 0 0 0 0 36.608919738720815 52.75064171833607 0 52.75064171833607 2.3656379280658095 0 0 0 0 19.262424063340408 43.112937817997292 0 43.112937817997292 -4.1179940287407391 0 0 0 0 -175.5588754377095 195.84907462076808 0 195.84907462076808 1059.4188357844528 0 0 0 0 -330.55969751393059 285.12534124676313 0 285.12534124676313 1393.7458580751399 0 0 0 0 95.780537423966962 569.52953873737988 0 569.52953873737988 -391.75519911285301 0 0 0 0 -179.86338394490849 390.09745632569047 0 390.09745632569047 -72.429068126952188 0 0 0 0 215.28618758167067 1147.8240821607978 0 1147.8240821607978 465.26500483585551 0 0 0 0 -241.43453732395574 507.77892340106155 0 507.77892340106155 711.2788262849117 0 0 0 0 -417.23092218331294 162.82274382884316 0 162.82274382884316 386.03515525994408 0 0 0 0 -0.45521575128517755 -2.6256213321805877 0 -2.6256213321805877 17.306572880422461 0 0 0 0 774.33637925540643 568.71808580237894 0 568.71808580237894 343.28170570342081 0 0 0 0 -78.995092089852278 847.96895321406146 0 847.96895321406146 1072.4755424100331 0 0 0 0 -1517.3710084874474 -877.82665093315882 0 -877.82665093315882 1050.7810709550795 0 0 0 0 107.02643884210772 121.53989247809676 0 121.53989247809676 77.185332682867738 0 0 0 0 104.11909179177152 344.35793999137093 0 344.35793999137093 786.98747819347409 0 0 0 0 146.58180670164984 40.409737883677735 0 40.409737883677735 -37.978690897079105 0 0 0 0 7.3965537768317517 -60.91697273251566 0 -60.91697273251566 118.7330788463114 0 0 0 0 6.8793192347229564 7.4365351335547416 0 7.4365351335547416 9.3236211625233132 0 0 0 0 13.484284217196546 -214.08189281094292 0 -214.08189281094292 1141.4249662929237 0 0 0 0 10.156638572469092 -96.513094393877509 0 -96.513094393877509 209.39814263341032 0 0 0 0 -134.01467314697311 14.172044251303305 0 14.172044251303305 41.605582931450044 0 0 0 0 -131.57162261767189 -36.546314426674144 0 -36.546314426674144 309.06454803077213 0 0 0 0 15.837365210056305 63.982338772860658 0 63.982338772860658 -18.759680905027608 0 0 0 0 15.331613542137465 23.084014314464799 0 23.084014314464799 23.53862111689665 0 0 0 0 -4.7994335777548258 10.902230888951635 0 10.902230888951635 8.1513860914674297 0 0 0 0 -47.401089696785675 6.0121043848475892 0 6.0121043848475892 47.742671619247631 0 0 0 0 -9.1721056910377037 7.0881102266245151 0 7.0881102266245151 42.820650588697163 0 0 0 0 -633.61354652209639 329.34455081227304 0 329.34455081227304 156.80561736943901 0 0 0 0 0.1228337177406349 39.77523540612539 0 39.77523540612539 42.909575510531312 0 0 0 0 83.089623975391987 686.78555642606318 0 686.78555642606318 322.90609373782326 0 0 0 0 -443.28693907230672 -332.4158278913801 0 -332.4158278913801 353.57762461487079 0 0 0 0 -149.52481727718168 490.16244858108985 0 490.16244858108985 662.95986870190654 0 0 0 0 819.85931847646361 17.284529796692027 0 17.284529796692027 -432.12243894203039 0 0 0 0 251.3033264132946 -103.27782003524703 0 -103.27782003524703 -451.99767710510287 0 0 0 0 -25.459115951848137 22.815912537278358 0 22.815912537278358 -1.9888995591925698 0 0 0 0 -85.542407894041389 -21.167903927357429 0 -21.167903927357429 12.76562702645856 0 0 0 0 -72.552729221369191 -46.612248339905477 0 -46.612248339905477 60.287915028553471 0 0 0 0 -11.860613878459844 44.528260294055599 0 44.528260294055599 27.4752255356766 0 0 0 0 21.735909158405775 -87.287328867426481 0 -87.287328867426481 -99.10813484318146 0 0 0 0 220.31211185227949 222.01451290124578 0 222.01451290124578 132.20373270018536 0 0 0 0 -173.68635441332754 106.82534951506352 0 106.82534951506352 111.23496338203313 0 0 0 0 -6.1847845793594374 5.5690802541647519 0 5.5690802541647519 -6.4265259864212609 0 0 0 0 215.58503316604401 -187.15906185108543 0 -187.15906185108543 -629.4157162954898 0 0 0 0 -292.43419917704068 79.829327307792937 0 79.829327307792937 398.54433334496389 0 0 0 0 4.835829457625465 4.7105582009430957 0 4.7105582009430957 1.4665135824755415 0 0 0 0 -175.26848031047939 282.16734352320077 0 282.16734352320077 1281.8371148503975 0 0 0 0 3.1316490061408331 334.37323773440812 0 334.37323773440812 429.04776204658174 0 0 0 0 -192.18439590760681 296.9281397320201 0 296.9281397320201 615.43506409363977 0 0 0 0 395.47107059554401 676.01544016818389 0 676.01544016818389 31.743922487090458 0 0 0 0 -358.95112704291932 -225.12387785866838 0 -225.12387785866838 398.5287340981622 0 0 0 0 339.49071668871744 478.97643461833212 0 478.97643461833212 140.66447408550266 0 0 0 0 231.25519368388086 212.10129755902426 0 212.10129755902426 29.027520064790224 0 0 0 0 34.229248512976483 258.73446439782401 0 258.73446439782401 121.23303115896579 0 0 0 0 5.0984357210581948 49.804230454923527 0 49.804230454923527 -49.384484448328294 0 0 0 0 328.52212721997785 148.97892573104127 0 148.97892573104127 -285.81139140694859 0 0 0 0 -24.441758519202267 92.051702014603961 0 92.051702014603961 -77.657613179949976 0 0 0 0 -5.6108216405102223 28.117397519594476 0 28.117397519594476 61.86167037952157 0 0 0 0 8.843868864669048 84.915395541177531 0 84.915395541177531 51.451932696384574 0 0 0 0 35.375899583683349 34.932753229641094 0 34.932753229641094 -123.05535698227868 0 0 0 0 -97.358545585004322 146.42361926174817 0 146.42361926174817 280.70447261451773 0 0 0 0 0.11176127599271268 59.342322723583706 0 59.342322723583706 -63.44568095717328 0 0 0 0 37.85884059666715 95.015831727097463 0 95.015831727097463 -53.184504262074356 0 0 0 0 129.8549257252871 89.523129508714192 0 89.523129508714192 -163.31094358982955 0 0 0 0 8.6163220675965899 5.28752132074003 0 5.28752132074003 -7.9670606800107144 0 0 0 0 10.766394770033056 56.684356192521356 0 56.684356192521356 12.398211384937033 0 0 0 0 -18.573018858205614 63.457397280086298 0 63.457397280086298 -31.995932353531316 0 0 0 0 34.906459000677387 78.993614789396815 0 78.993614789396815 -30.192574101783521 0 0 0 0 956.21682053048971 1249.5730692616239 0 1249.5730692616239 -274.70961981174878 0 0 0 0 47.424862080728076 13.715511421851033 0 13.715511421851033 27.16651168307726 0 0 0 0 -95.851495378326945 38.727224423739244 0 38.727224423739244 41.101689796534629 0 0 0 0 -261.69552825089113 -261.51996418492081 0 -261.51996418492081 195.8065717103691 0 0 0 0 -381.7698551620033 -184.5503519427848 0 -184.5503519427848 193.94028697426052 0 0 0 0 -587.65616848261106 -212.83706361536952 0 -212.83706361536952 318.71081992555628 0 0 0 0 502.49878835447498 446.53598120583308 0 446.53598120583308 230.32737237073889 0 0 0 0 14.359915182955596 12.995848481275246 0 12.995848481275246 -6.4612248236327643 0 0 0 0 203.18128297824296 218.52621086472436 0 218.52621086472436 293.21969141325803 0 0 0 0 2.267769893661419 2.0065393383751067 0 2.0065393383751067 11.161645140956786 0 0 0 0 932.29635659821724 321.61317942708951 0 321.61317942708951 180.06331351685773 0 0 0 0 798.32695898558813 397.26084262374707 0 397.26084262374707 122.24881390699443 0 0 0 0 3.398018677074802 2.8004591384921511 0 2.8004591384921511 -3.1329726097432342 0 0 0 0 379.83176670687681 240.74003812121146 0 240.74003812121146 223.11682498911182 0 0 0 0 -0.3717506514515776 0.98928316788629189 0 0.98928316788629189 3.1302989836556927 0 0 0 0 1437.8467014295129 1075.7576028034607 0 1075.7576028034607 155.20801359284749 0 0 0 0 -571.66077377026522 -75.83993685797202 0 -75.83993685797202 25.992509220820921 0 0 0 0 -155.51587015762379 317.68255119820753 0 317.68255119820753 54.07417997492464 0 0 0 0 367.91680131101384 319.81935389146111 0 319.81935389146111 295.10230251611665 0 0 0 0 108.94863962537784 504.88133290813744 0 504.88133290813744 163.00585432206321 0 0 0 0 57.963640917823795 291.64530399175226 0 291.64530399175226 -135.83376304804995 0 0 0 0 20.941193197853863 176.87303022854758 0 176.87303022854758 186.81314627067968 0 0 0 0 -4.2271777982095955 54.315005385019305 0 54.315005385019305 -350.23084695356033 0 0 0 0 -186.06685742157424 72.125126619515868 0 72.125126619515868 118.60208881706285 0 0 0 0 -182.91224967209496 62.827682263214122 0 62.827682263214122 126.25341361108531 0 0 0 0 -92.474653863548156 -200.82698739415264 0 -200.82698739415264 -230.81969844659056 0 0 0 0 -24.626197110268549 165.78203444531209 0 165.78203444531209 117.51424433456532 0 0 0 0 -49.968931037761649 199.15482858649602 0 199.15482858649602 104.28140660661302 0 0 0 0 -194.61528553169046 102.75307973452436 0 102.75307973452436 168.83340295682342 0 0 0 0 -173.69133748119611 -14.770117372864007 0 -14.770117372864007 -7.6063490468195596 0 0 0 0 1121.5612126809556 884.21656450470005 0 884.21656450470005 584.42606093547374 0 0 0 0 -111.56628490735329 62.75246304021374 0 62.75246304021374 49.260197222622537 0 0 0 0 -219.90785459966901 -20.083974406039715 0 -20.083974406039715 53.652633452179543 0 0 0 0 -3.0648983404780594 1.6024489099950046 0 1.6024489099950046 13.422082573153871 0 0 0 0 -79.893874638697525 4.7582553903957887 0 4.7582553903957887 93.97406433226206 0 0 0 0 -17.898695761809194 46.556812648176127 0 46.556812648176127 6.6649865532421595 0 0 0 0 -35.020308476152422 70.556086379428734 0 70.556086379428734 76.897838677175969 0 0 0 0 -53.195791447094962 45.73260504666905 0 45.73260504666905 50.770150679613948 0 0 0 0 -50.743738792456497 70.046302553653732 0 70.046302553653732 93.353573862337726 0 0 0 0 -23.13006983246305 75.873059213252418 0 75.873059213252418 -108.69384566288772 0 0 0 0 -7.978100267246532 49.119952430620437 0 49.119952430620437 -12.009155440682294 0 0 0 0 -23.85335215649593 166.15507161115147 0 166.15507161115147 111.74962457406764 0 0 0 0 11.776120379412532 114.83397270488513 0 114.83397270488513 100.38336235452698 0 0 0 0 12.64743285770237 4.1727640458921087 0 4.1727640458921087 -7.4718586107001101 0 0 0 0 1.4249968421118382 2.0513878989422381 0 2.0513878989422381 2.3575869104951899 0 0 0 0 28.640126558693993 -8.0630300463477553 0 -8.0630300463477553 -60.192278753781594 0 0 0 0 13.402244552271441 -34.157065384693851 0 -34.157065384693851 -37.536086736471589 0 0 0 0 8.7050923156049329 -1.2122185596549642 0 -1.2122185596549642 -15.086441548778595 0 0 0 0 -57.208843896893086 162.43673426987789 0 162.43673426987789 119.40521016036109 0 0 0 0 -123.43586169257833 95.570782530426641 0 95.570782530426641 107.5912923573469 0 0 0 0 -5.7328655881792656 153.11867550632815 0 153.11867550632815 107.41837944026611 0 0 0 0 51.475596501992186 190.67104352022398 0 190.67104352022398 100.78432157709358 0 0 0 0 2.3585116370008521 3.2689217788144163 0 3.2689217788144163 -9.9317288323471438 0 0 0 0 219.90258734671079 104.3304487610676 0 104.3304487610676 -319.78393945542848 0 0 0 0 -106.11308850736532 132.73210321663646 0 132.73210321663646 -148.03922144122771 0 0 0 0 -14.385549926248132 80.955558987248878 0 80.955558987248878 -307.79036071796509 0 0 0 0 -21.216992289252488 73.768393827033833 0 73.768393827033833 -67.817093524901921 0 0 0 0 22.629388300412757 185.50131513403176 0 185.50131513403176 316.84175483281069 0 0 0 0 146.13394598720924 170.84567494104931 0 170.84567494104931 -28.36230475582488 0 0 0 0 132.59873657142634 175.70627968248573 0 175.70627968248573 103.61106897531863 0 0 0 0 76.361305285801791 137.74694617999194 0 137.74694617999194 80.930011038719385 0 0 0 0 78.084488084329678 143.24149044863952 0 143.24149044863952 57.84695664069659 0 0 0 0 -15.097124796015507 30.647140652245419 0 30.647140652245419 -38.382374726320009 0 0 0 0 48.185379870998531 71.332614011241503 0 71.332614011241503 57.660280814947328 0 0 0 0 42.580722156699267 109.38414724256654 0 109.38414724256654 155.72131327769239 0 0 0 0 30.522415433137212 79.759767507308425 0 79.759767507308425 -113.52107665321819 0 0 0 0 -5.6739107568537293 100.98233296394028 0 100.98233296394028 -58.069164334368907 0 0 0 0 50.750595005538344 47.84469830139642 0 47.84469830139642 -93.891993554160763 0 0 0 0 44.971638324752348 134.56071779345621 0 134.56071779345621 71.284490748636017 0 0 0 0 6.6163484210701426 81.508833471241815 0 81.508833471241815 11.049408008053206 0 0 0 0 49.72271253272811 91.720060813184318 0 91.720060813184318 41.253716546048963 0 0 0 0 -16.778355124590924 27.601586178960822 0 27.601586178960822 -35.084484673152431 0 0 0 0 -26.614853199442223 49.670476684605092 0 49.670476684605092 -38.630425112738521 0 0 0 0 6.8597084968450872 9.3467367181706322 0 9.3467367181706322 -7.8795619039392477 0 0 0 0 7.5674796372368291 39.998096303320381 0 39.998096303320381 -96.795488112288695 0 0 0 0 269.53271903626228 146.03903527900002 0 146.03903527900002 -6.6678151624728343 0 0 0 0 -166.73812145466582 158.46760308216471 0 158.46760308216471 -99.145406948386153 0 0 0 0 3.8594101231700231 7.4242815633754482 0 7.4242815633754482 -7.6265325875308889 0 0 0 0 216.05574553368024 114.83597994042975 0 114.83597994042975 47.514164065174555 0 0 0 0 110.97761811393048 181.59911262577225 0 181.59911262577225 19.225914757480496 0 0 0 0 -14.438804524126681 82.270863994901447 0 82.270863994901447 103.12968232960702 0 0 0 0 21.285184471532041 33.957958419358604 0 33.957958419358604 -23.654822415721753 0 0 0 0 -54.637997819314023 172.48518130208686 0 172.48518130208686 118.38383829732265 0 0 0 0 37.103544436839229 94.294386328661403 0 94.294386328661403 136.57061681628693 0 0 0 0 -79.717250284240436 -62.675967652827239 0 -62.675967652827239 -29.326477874037664 0 0 0 0 1.5906478405235589 6.7224193869868714 0 6.7224193869868714 4.786483924481665 0 0 0 0 93.79586295880199 356.38215517412027 0 356.38215517412027 -166.93917964155116 0 0 0 0 -225.72701466262333 -4.8144049476977671 0 -4.8144049476977671 222.8847311544705 0 0 0 0 79.129458493676793 337.76895684486954 0 337.76895684486954 42.768296416332305 0 0 0 0 -14.537093168070228 64.018214294611496 0 64.018214294611496 -70.214039335591721 0 0 0 0 76.353566890426009 177.10855189725589 0 177.10855189725589 27.347840046403689 0 0 0 0 136.89341132579466 145.56293895098861 0 145.56293895098861 -40.243006256423541 0 0 0 0 -19.025011269708557 278.49405576093886 0 278.49405576093886 141.12437727084762 0 0 0 0 -204.89227413294429 52.144228497578297 0 52.144228497578297 -54.476755767254872 0 0 0 0 -245.50382575889876 168.76346475937589 0 168.76346475937589 59.39319112940575 0 0 0 0 121.7624954802086 288.63679412246893 0 288.63679412246893 115.80021021381253 0 0 0 0 32.322787124094248 10.169375341100022 0 10.169375341100022 -12.177268870010266 0 0 0 0 -27.869638862706779 -2.9664864097539976 0 -2.9664864097539976 -218.16519167255592 0 0 0 0 -237.01607460491232 247.5158445453726 0 247.5158445453726 -94.264549967716448 0 0 0 0 485.02232524356737 19.055497208648831 0 19.055497208648831 -129.41009502692032 0 0 0 0 -0.45945461661856735 -0.34945549916119134 0 -0.34945549916119134 -3.3224155167635985 0 0 0 0 -565.30630846816894 42.517503035503978 0 42.517503035503978 73.487238991678169 0 0 0 0 148.69417147190143 137.81568467047327 0 137.81568467047327 -27.698194392050937 0 0 0 0 235.36494873421543 128.58903140168331 0 128.58903140168331 -60.323094221119391 0 0 0 0 236.19106923613072 102.04022436956075 0 102.04022436956075 59.743079620209755 0 0 0 0 257.31710884174572 185.80357421536246 0 185.80357421536246 -230.55341881433014 0 0 0 0 373.30371147835467 115.87901149603749 0 115.87901149603749 -197.09038474945191 0 0 0 0 183.92289562602855 237.35582328365854 0 237.35582328365854 -186.82771750369648 0 0 0 0 251.68143072328166 226.09233241673428 0 226.09233241673428 -22.031480424066103 0 0 0 0 367.9194977422012 117.54722625796057 0 117.54722625796057 -109.06121825302398 0 0 0 0 285.40105819497376 352.65975496479678 0 352.65975496479678 -84.388239742875157 0 0 0 0 701.73669272138068 366.33332829934443 0 366.33332829934443 -83.942244750731334 0 0 0 0 464.65868022870472 63.393474951399185 0 63.393474951399185 102.18307045863912 0 0 0 0 713.86152411272997 384.57185013194976 0 384.57185013194976 -59.309466330290888 0 0 0 0 593.63360596531857 504.13917550350379 0 504.13917550350379 470.86331441276707 0 0 0 0 -0.64944693145998045 0.48468327739797701 0 0.48468327739797701 0.37933334489670756 0 0 0 0 445.00781762548286 311.71969271725902 0 311.71969271725902 196.74094516695368 0 0 0 0 272.37183043746882 90.586089620534949 0 90.586089620534949 78.458819107763702 0 0 0 0 863.59049809381395 193.52701799187344 0 193.52701799187344 74.954782603410422 0 0 0 0 120.08282690195483 7.6863033105364593 0 7.6863033105364593 8.6361877025155991 0 0 0 0 190.88799114044195 161.52003358385628 0 161.52003358385628 50.101444098284901 0 0 0 0 211.7746506746571 14.514680962832472 0 14.514680962832472 19.955488412932027 0 0 0 0 -79.572845141105063 128.91949640397797 0 128.91949640397797 11.839571795575466 0 0 0 0 -66.364458823975781 -61.061120922801479 0 -61.061120922801479 -74.183133939834079 0 0 0 0 -68.308455222621888 88.12689278707694 0 88.12689278707694 6.199814192615122 0 0 0 0 -42.615616875548767 26.897916308627828 0 26.897916308627828 -88.262636119150557 0 0 0 0 0.94681526465421939 1.6509005051438237 0 1.6509005051438237 2.0351373577919674 0 0 0 0 -32.574481161169388 40.674682701719576 0 40.674682701719576 -59.527727614942705 0 0 0 0 -99.407191427997532 2.2863550005458819 0 2.2863550005458819 -47.568912502516469 0 0 0 0 -164.57273923823413 104.24759049858767 0 104.24759049858767 24.365090432089346 0 0 0 0 -98.442398312994555 14.052122450153547 0 14.052122450153547 58.206306384017807 0 0 0 0 -133.95246388316491 -24.948918291614063 0 -24.948918291614063 76.57408075548301 0 0 0 0 -24.389741597216926 38.420332106630667 0 38.420332106630667 -61.963161741981821 0 0 0 0 -29.055717696801366 40.736594995612904 0 40.736594995612904 -35.172152357146842 0 0 0 0 -1.4931603133572438 1.6296613821422881 0 1.6296613821422881 -0.43405588019085428 0 0 0 0 -6.1224443482024071 9.2708847587655328 0 9.2708847587655328 -39.177852681647437 0 0 0 0 -16.557078480751443 33.566916392310304 0 33.566916392310304 -53.959183578754164 0 0 0 0 -82.513691688427116 122.99751733244761 0 122.99751733244761 -65.774715131938137 0 0 0 0 -50.666865013619827 28.89645169258074 0 28.89645169258074 -44.259500070329523 0 0 0 0 488.02315339928373 308.34844553287439 0 308.34844553287439 24.837174161137227 0 0 0 0 443.76607374306695 183.79405160123497 0 183.79405160123497 -25.423139767481189 0 0 0 0 0.75384685655574657 1.0543604174356958 0 1.0543604174356958 1.1996617576700146 0 0 0 0 519.97065302793271 288.75889197632205 0 288.75889197632205 -129.69010309656733 0 0 0 0 518.93438082037392 294.27628493019438 0 294.27628493019438 -47.585645830331487 0 0 0 0 -1.0842122855229164 1.6122519696442321 0 1.6122519696442321 1.4511707698061258 0 0 0 0 497.22615613960261 320.48716559203967 0 320.48716559203967 -12.059003958976973 0 0 0 0 5.0506196058058777 4.7563771161312616 0 4.7563771161312616 1.5216800856724149 0 0 0 0 4.7472597129053611 3.8585441839877603 0 3.8585441839877603 5.1833508505078498 0 0 0 0 -0.21874830042919591 2.566909563415253 0 2.566909563415253 -2.5685529455792846 0 0 0 0 605.33290769452105 305.3981977699259 0 305.3981977699259 27.850389466242632 0 0 0 0 -2.6174729671965906 8.0642091787649406 0 8.0642091787649406 -0.963792402362742 0 0 0 0 -0.98116313476202777 1.5773052011318214 0 1.5773052011318214 1.3615760683242115 0 0 0 0 576.47843871277064 180.15470445912842 0 180.15470445912842 -11.398753081128234 0 0 0 0 308.54637292383268 196.4339697643245 0 196.4339697643245 144.67645695507781 0 0 0 0 370.00586350245067 66.29923392919045 0 66.29923392919045 -155.7363458536056 0 0 0 0 47.512809101204766 94.866901432726081 0 94.866901432726081 65.716614920854227 0 0 0 0 151.16901217318627 56.785900603366827 0 56.785900603366827 79.004869083906669 0 0 0 0 89.34434099743703 117.41489757153795 0 117.41489757153795 46.083365209313342 0 0 0 0 95.036911072103976 134.30043088581442 0 134.30043088581442 53.850086771439237 0 0 0 0 76.24294838356218 135.21903579073842 0 135.21903579073842 63.230725516121311 0 0 0 0 134.47182570625773 130.10873786998673 0 130.10873786998673 57.65976569153645 0 0 0 0 -111.65822051970099 152.84800337623165 0 152.84800337623165 11.952939456234162 0 0 0 0 192.8455302392631 60.731103952377453 0 60.731103952377453 -1.8249523520826187 0 0 0 0 -0.19392989117629611 0.12424114856322888 0 0.12424114856322888 0.55607076827591584 0 0 0 0 122.41688361167689 177.98012251357795 0 177.98012251357795 14.542758148425492 0 0 0 0 98.255713683092836 165.71312260621562 0 165.71312260621562 74.488179459567164 0 0 0 0 115.7471186229177 14.042554889059829 0 14.042554889059829 -20.54894041413354 0 0 0 0 -0.068277477637387562 0.46830686816381473 0 0.46830686816381473 1.1653632839485226 0 0 0 0 -0.49489320002612658 26.606804571872999 0 26.606804571872999 -79.84909982089539 0 0 0 0 -27.455011749128971 25.119629403066028 0 25.119629403066028 -12.293124039468239 0 0 0 0 -42.343867531484648 62.432508796719048 0 62.432508796719048 -67.061570328703056 0 0 0 0 0.059140445954955823 0.23405974732558832 0 0.23405974732558832 0.37506463149586011 0 0 0 0 1.3070293342752848 -6.7756363775815771 0 -6.7756363775815771 6.503083134884946 0 0 0 0 -0.18373586205220249 0.46903140242496022 0 0.46903140242496022 -0.93575724392498216 0 0 0 0 -6.757376041070529 3.0575928932339593 0 3.0575928932339593 -2.7001762793224771 0 0 0 0 28.24427260473567 18.090841727871521 0 18.090841727871521 -13.40331853279713 0 0 0 0 22.873885104225337 -5.8399330388710951 0 -5.8399330388710951 -6.6958832505733881 0 0 0 0 9.7821633029270743 2.9317078740923534 0 2.9317078740923534 14.16393950067868 0 0 0 0 3.7597340628526581 11.412520300715187 0 11.412520300715187 4.0241853334046027 0 0 0 0 255.90111224550128 -78.282085751612613 0 -78.282085751612613 -125.5066789334669 0 0 0 0 127.4483596711525 112.2266567935294 0 112.2266567935294 30.708938042695081 0 0 0 0 88.536563002418006 95.125720619128515 0 95.125720619128515 68.218588401468878 0 0 0 0 -28.445307280815541 17.634531943836919 0 17.634531943836919 41.872493598637448 0 0 0 0 0.44969166340457178 0.60111789442646568 0 0.60111789442646568 1.7009430971034476 0 0 0 0 -21.299827185133836 209.76994286349054 0 209.76994286349054 -176.61632455413201 0 0 0 0 -214.80925840595773 106.62954024708051 0 106.62954024708051 158.47009531653748 0 0 0 0 92.881102400428063 105.12798268846745 0 105.12798268846745 -44.862881322387693 0 0 0 0 142.39942722244086 52.407448076217406 0 52.407448076217406 -26.217690328252502 0 0 0 0 1.4452216109756257 3.4984493752491517 0 3.4984493752491517 3.5878171097958784 0 0 0 0 153.9323473164477 16.079165759351781 0 16.079165759351781 -3.0076154285779921 0 0 0 0 -3.6458253817727382 21.522688768927765 0 21.522688768927765 -12.441293331987254 0 0 0 0 -0.99854217425019698 2.4762925691863487 0 2.4762925691863487 -0.11043083220600636 0 0 0 0 113.15599747381475 52.532004190296448 0 52.532004190296448 21.631623625748034 0 0 0 0 8.522159286421811 -7.9938100506296905 0 -7.9938100506296905 3.2401529924245551 0 0 0 0 1.4487236952058353 4.6415635546446694 0 4.6415635546446694 0.69826920005033344 0 0 0 0 -0.44716429003892699 7.1051265543355839 0 7.1051265543355839 -0.08160928609140683 0 0 0 0 0.52168159152643057 6.6186168026833911 0 6.6186168026833911 -0.43651766862967634 0 0 0 0 -0.21422801213843456 4.6332392580985449 0 4.6332392580985449 -2.7916216355059333 0 0 0 0 5.6091187433739833 4.6946387391526514 0 4.6946387391526514 -9.6111651785904542 0 0 0 0 0.96492706854405697 2.7083571863295219 0 2.7083571863295219 -10.010175427665672 0 0 0 0 0.60338651291885981 -2.4728272851577344 0 -2.4728272851577344 -6.2371199340377643 0 0 0 0 0.61167571011500144 3.4235256545926092 0 3.4235256545926092 -3.3229368956287431 0 0 0 0 0.67165797069537803 6.0246920564241009 0 6.0246920564241009 0.92392802194081014 0 0 0 0 -0.72719406977194012 5.6490319644508418 0 5.6490319644508418 0.29102525255802902 0 0 0 0 1.0165723761183472 5.1797121236072599 0 5.1797121236072599 0.33607508546629106 0 0 0 0 0.084829033199639525 6.2999714511497586 0 6.2999714511497586 0.67456373441928008 0 0 0 0 278.27762351941055 101.85270429468437 0 101.85270429468437 12.686250504393684 0 0 0 0 162.6166080599138 169.07592731530644 0 169.07592731530644 68.639712540607434 0 0 0 0 -1.1346652545201508 4.4104122214289418 0 4.4104122214289418 -2.3547816833392048 0 0 0 0 175.26684902145939 155.57631887817388 0 155.57631887817388 -11.219375939050224 0 0 0 0 269.32337709525018 128.94280522038753 0 128.94280522038753 -200.04270433312558 0 0 0 0 1.1193373304522538 97.694597573463398 0 97.694597573463398 -30.841786540775502 0 0 0 0 14.296888295508779 69.508234539305704 0 69.508234539305704 -98.8883204748563 0 0 0 0 20.946400490989618 12.33969140336194 0 12.33969140336194 -0.42222612499790557 0 0 0 0 5.5625107106980067 18.712830240408948 0 18.712830240408948 -126.43798874622735 0 0 0 0 -3.432963832616224 16.591967325810401 0 16.591967325810401 5.1375239545814111 0 0 0 0 -3.9393196260822947 4.0964332750982138 0 4.0964332750982138 -1.6858289948114873 0 0 0 0 -0.87477571491218242 1.3603256836488669 0 1.3603256836488669 -0.17178635283907795 0 0 0 0 -22.247873347205314 36.863074824748765 0 36.863074824748765 -46.80018062313593 0 0 0 0 40.166530891874572 -12.406781865091034 0 -12.406781865091034 -1.0433809611076867 0 0 0 0 19.922835309278526 -41.107765713530171 0 -41.107765713530171 -40.998438651484321 0 0 0 0 17.825301304348613 52.185374072673312 0 52.185374072673312 -520.06949437955336 0 0 0 0 -1.5352500284553372 1.3024075074807655 0 1.3024075074807655 -1.0984377635934663 0 0 0 0 13.024857008296749 25.194321063201642 0 25.194321063201642 -217.73742479895009 0 0 0 0 -163.26315198567681 85.831187174244405 0 85.831187174244405 42.417872975835053 0 0 0 0 -130.45956845545516 238.74094169352611 0 238.74094169352611 -294.86084229064727 0 0 0 0 -252.41780883780666 154.83036145607457 0 154.83036145607457 -319.64929432456847 0 0 0 0 -68.126874279139884 99.902498790761456 0 99.902498790761456 -153.51010121246873 0 0 0 0 -245.87865174683975 235.80769099860299 0 235.80769099860299 -93.23362245226599 0 0 0 0 -1.0550012180710553 0.53544118279589981 0 0.53544118279589981 -0.25670496937195253 0 0 0 0 -42.639646390009148 -5.0047912763293425 0 -5.0047912763293425 117.50439154277046 0 0 0 0 0.61083090746357271 4.3533391127876087 0 4.3533391127876087 -0.87243379941976684 0 0 0 0 4.2386591333652177 24.865730364893352 0 24.865730364893352 60.207830545023171 0 0 0 0 4.3829541231935849 10.154720486722276 0 10.154720486722276 20.162301901327481 0 0 0 0 1.9009725175601488 6.6953618794941576 0 6.6953618794941576 18.353118971295771 0 0 0 0 0.99877525434385461 9.5179454914286907 0 9.5179454914286907 21.462174593627424 0 0 0 0 0.88595915790756408 10.45199959229285 0 10.45199959229285 25.838601090747034 0 0 0 0 1.3136374441019143 6.6921874205581844 0 6.6921874205581844 23.673712600053477 0 0 0 0 2.2685598294838201 5.7453352761767746 0 5.7453352761767746 18.197969431930687 0 0 0 0 1.910904492687223 4.1611072742543911 0 4.1611072742543911 12.988706541218562 0 0 0 0 2.8434360571736761 6.8289975071929803 0 6.8289975071929803 18.287805929443493 0 0 0 0 1.1283279474089341 6.1576041639750656 0 6.1576041639750656 18.093066872901545 0 0 0 0 5.8731024959524802 6.0892207967281138 0 6.0892207967281138 6.0468272826910834 0 0 0 0 60.865698127698124 -4.6523719528668153 0 -4.6523719528668153 336.61098675646645 0 0 0 0 0.24333961409447546 2.5639859440238695 0 2.5639859440238695 6.683739875619807 0 0 0 0 5.6529551021972111 158.39390932663582 0 158.39390932663582 323.41930927331123 0 0 0 0 6.3637246273046912 7.9896826065505593 0 7.9896826065505593 13.292415185918799 0 0 0 0 656.3068690070013 215.23898860522786 0 215.23898860522786 14.814089007610164 0 0 0 0 0.42564930899906983 1.9546584152380788 0 1.9546584152380788 3.4866452564542385 0 0 0 0 639.99257836240577 529.4023865318959 0 529.4023865318959 136.07295112638167 0 0 0 0 -303.32868542577307 183.49176295242614 0 183.49176295242614 581.80785984804243 0 0 0 0 166.15527841547737 403.85229413095658 0 403.85229413095658 204.4121041456383 0 0 0 0 376.16014578117756 525.07891591824227 0 525.07891591824227 268.05713848283631 0 0 0 0 1.071477199153378 4.886825180357846 0 4.886825180357846 -0.23690174888179172 0 0 0 0 2.0546449339816171 2.7870052534480863 0 2.7870052534480863 -0.85007735869501744 0 0 0 0 145.38092987687196 193.90515373025482 0 193.90515373025482 142.51865898075266 0 0 0 0 -46.190140279652496 -179.0142837273379 0 -179.0142837273379 -178.27870088189229 0 0 0 0 -2.3942618314603408 3.2975841786768285 0 3.2975841786768285 -1.4514745648849754 0 0 0 0 0.57570146447505977 4.0394653657594972 0 4.0394653657594972 -0.88802239724464016 0 0 0 0 200.22165332455188 524.70834433078198 0 524.70834433078198 479.06341654426069 0 0 0 0 606.13053172229047 237.10117348056156 0 237.10117348056156 87.558333561748441 0 0 0 0 272.78808093283078 66.795432457216521 0 66.795432457216521 -34.556439085588863 0 0 0 0 327.17978711389878 330.38028405129808 0 330.38028405129808 184.90484256767377 0 0 0 0 237.72657906073437 388.48753176011087 0 388.48753176011087 207.58149498419516 0 0 0 0 119.19947220751965 358.36709026010067 0 358.36709026010067 254.16431323319557 0 0 0 0 171.669314562816 314.44799438586051 0 314.44799438586051 268.62276567411027 0 0 0 0 259.45660450855212 177.93873461292242 0 177.93873461292242 365.01903561943618 0 0 0 0 399.95239908354688 322.15180906657952 0 322.15180906657952 110.10177248316904 0 0 0 0 251.30028751362988 255.63268130032884 0 255.63268130032884 113.74396338696533 0 0 0 0 178.00147796513193 71.377920813567471 0 71.377920813567471 198.90853802771744 0 0 0 0 139.66482300928874 153.32572546401752 0 153.32572546401752 42.202405686060956 0 0 0 0 -163.60467526039156 60.359498062582134 0 60.359498062582134 -29.825874149275478 0 0 0 0 -0.1679034110161659 0.3969130796917657 0 0.3969130796917657 -1.2011963080457519 0 0 0 0 177.61003515533957 -11.891002897938961 0 -11.891002897938961 -43.220760429459915 0 0 0 0 56.694753392675921 237.22452412876828 0 237.22452412876828 158.95764078802313 0 0 0 0 165.97146072208773 133.9427431040599 0 133.9427431040599 258.12953882194415 0 0 0 0 195.69351139697756 98.40291689415244 0 98.40291689415244 -117.96603427592345 0 0 0 0 209.79885908102551 285.84027670625437 0 285.84027670625437 0.40775647874033893 0 0 0 0 183.74304883016794 51.241576343346765 0 51.241576343346765 -183.13879538900073 0 0 0 0 157.22095464341146 88.958832633630664 0 88.958832633630664 -228.73607184313005 0 0 0 0 -123.38451661520958 -45.343206360181284 0 -45.343206360181284 -322.76160004635676 0 0 0 0 143.94341200864073 233.28092598148942 0 233.28092598148942 -337.30449516304361 0 0 0 0 45.366576180636912 -109.61441533743709 0 -109.61441533743709 -401.7339790869346 0 0 0 0 166.34452564880394 937.02134149926133 0 937.02134149926133 275.36932627401984 0 0 0 0 -1.7827541031672531 3.7138105720594794 0 3.7138105720594794 -4.5444105348022532 0 0 0 0 -216.96155415352041 -167.96009316174241 0 -167.96009316174241 -426.22141374887633 0 0 0 0 47.599641232925933 -449.08797447438519 0 -449.08797447438519 -1067.0393011656647 0 0 0 0 120.33754428311477 38.11513514336184 0 38.11513514336184 -528.55583287471654 0 0 0 0 -85.156505688825746 6.2469465380909242 0 6.2469465380909242 56.46197886738446 0 0 0 0 10.333403627059852 24.841216927552523 0 24.841216927552523 27.492499419711294 0 0 0 0 3.2314891261321463 10.714426885326247 0 10.714426885326247 23.65454019437675 0 0 0 0 271.65531951445701 404.44350197070526 0 404.44350197070526 -876.74218727816333 0 0 0 0 -210.88750753678323 -289.97960583956046 0 -289.97960583956046 -351.31065970913914 0 0 0 0 8.3918954303176783 18.930868847194759 0 18.930868847194759 23.755388044922611 0 0 0 0 1103.3107436258288 1788.8436078563391 0 1788.8436078563391 -230.86187761646579 0 0 0 0 333.93198642669267 626.25966114575203 0 626.25966114575203 838.07022661222436 0 0 0 0 278.48271338195627 371.44444804837985 0 371.44444804837985 -1048.1603736928118 0 0 0 0 -2.9910274268834698 6.4016249013423163 0 6.4016249013423163 5.2264398056483152 0 0 0 0 11.420336177025774 32.623877384948628 0 32.623877384948628 42.191561620449647 0 0 0 0 10.338487324562838 23.821666360252429 0 23.821666360252429 -6.1807289915196684 0 0 0 0 2.7762220370914292 33.506000842378853 0 33.506000842378853 54.679959035245702 0 0 0 0 31.60174749948419 31.533005539349688 0 31.533005539349688 -9.5231155962301273 0 0 0 0 7.6714976345983814 35.947600438241352 0 35.947600438241352 47.443103362973488 0 0 0 0 -67.169586144898858 145.81101856870009 0 145.81101856870009 141.013571307245 0 0 0 0 -49.91687640584496 50.641051059672463 0 50.641051059672463 24.326033495271986 0 0 0 0 4.3743356612285424 31.04217601331402 0 31.04217601331402 46.805878597802803 0 0 0 0 5.816365010402933 27.926902865993725 0 27.926902865993725 50.608543337853916 0 0 0 0 14.175820639523863 40.362403621406884 0 40.362403621406884 52.576545801017346 0 0 0 0 -4.4468876854461996 21.087646072333882 0 21.087646072333882 45.853179457396891 0 0 0 0 2.8227573764727367 17.175984961647146 0 17.175984961647146 33.675583016782184 0 0 0 0 9.3801039521576968 27.456604337541648 0 27.456604337541648 31.897278565993474 0 0 0 0 2.0309791401004986 28.393797806242219 0 28.393797806242219 48.113231916577206 0 0 0 0 -43.730862515360059 59.41656742503983 0 59.41656742503983 98.836524970287428 0 0 0 0 -28.129850853407333 7.3326475470371406 0 7.3326475470371406 46.786213159452018 0 0 0 0 -30.986278960250729 7.6115999675021158 0 7.6115999675021158 47.036304547884356 0 0 0 0 156.06410434868576 54.399481994183589 0 54.399481994183589 58.991933779505416 0 0 0 0 8.2065174732358095 23.433440225265855 0 23.433440225265855 -10.380183158592185 0 0 0 0 10.407038528955127 50.34756730596564 0 50.34756730596564 32.015434970544447 0 0 0 0 -0.45708329218268773 69.585108413200942 0 69.585108413200942 48.957642038158156 0 0 0 0 -13.975427441106149 36.825153112407861 0 36.825153112407861 52.852250391651069 0 0 0 0 -10.134231979074684 51.118772728681506 0 51.118772728681506 103.13670298178113 0 0 0 0 -11.462544461124253 93.682172334744791 0 93.682172334744791 170.18192475274191 0 0 0 0 -1.1619548748980257 0.47452493143880758 0 0.47452493143880758 2.25428999097862 0 0 0 0 -9.1833314790601435 163.49261408288839 0 163.49261408288839 -93.103494785242219 0 0 0 0 -11.036922671530192 -31.888690658664927 0 -31.888690658664927 157.5331297089092 0 0 0 0 -0.16049861185729242 3.0847464850758115 0 3.0847464850758115 19.821610375340242 0 0 0 0 -9.6161388981440723 -18.195459598104208 0 -18.195459598104208 87.145381456929499 0 0 0 0 -12.139398331461052 12.198561896853789 0 12.198561896853789 19.050817952706211 0 0 0 0 -123.56028897758529 119.53744586497123 0 119.53744586497123 -70.523836919590394 0 0 0 0 -1.3964428197863628 1.179447879250084 0 1.179447879250084 3.8381932571678448 0 0 0 0 -72.749580668946692 29.542783801054611 0 29.542783801054611 -70.291293710050468 0 0 0 0 -16.737362499576534 102.92953730603949 0 102.92953730603949 -11.186987325076188 0 0 0 0 3.9629818591974981 16.962881291703525 0 16.962881291703525 32.168651974396198 0 0 0 0 -3.7808376859084092 7.2339841404354956 0 7.2339841404354956 33.891312389323957 0 0 0 0 0.18035681748460775 6.2485179175564554 0 6.2485179175564554 22.652681344214216 0 0 0 0 -0.13287307455084374 27.44332815841517 0 27.44332815841517 54.937211691994889 0 0 0 0 -10.208053442742312 4.6353019713096728 0 4.6353019713096728 53.037723312369053 0 0 0 0 -3.8275857998974061 -0.84081315635739884 0 -0.84081315635739884 4.2204276030133769 0 0 0 0 -6.1741566254640929 3.8417117056342249 0 3.8417117056342249 22.63615497457431 0 0 0 0 0.66532341562924557 4.8119578775385889 0 4.8119578775385889 3.5959078590203717 0 0 0 0 -0.69326419985281973 1.4283266488873778 0 1.4283266488873778 11.105635072723089 0 0 0 0 -7.8866682708112421 4.4204060576194024 0 4.4204060576194024 5.9974734086481476 0 0 0 0 -1.9942302094050319 9.4221483672981776 0 9.4221483672981776 -4.8631062377826311 0 0 0 0 -0.55385033871255018 3.0834516355766937 0 3.0834516355766937 -4.8945837841383764 0 0 0 0 -2.4460335277315224 1.4112738445462796 0 1.4112738445462796 4.4797525363270694 0 0 0 0 -78.594820528997843 85.090678274274978 0 85.090678274274978 -81.802201567703833 0 0 0 0 -116.00797446846491 98.945534630025577 0 98.945534630025577 -82.93496893388874 0 0 0 0 -1.6942489954294473 1.2411697799828687 0 1.2411697799828687 4.4472356930593975 0 0 0 0 -6.6723888831643308 13.956909837433386 0 13.956909837433386 -5.5387348691510851 0 0 0 0 -89.578869086245504 58.538365287242414 0 58.538365287242414 -56.361811410675728 0 0 0 0 20.037860891566879 34.788838965379909 0 34.788838965379909 -63.690393306922488 0 0 0 0 43.65175102521971 29.71931339486764 0 29.71931339486764 -133.56944580775234 0 0 0 0 -49.480067895852983 43.184714527884807 0 43.184714527884807 -40.290984909173858 0 0 0 0 -53.490838266360356 62.996522588683774 0 62.996522588683774 -89.627369429072132 0 0 0 0 -58.377578069535048 61.461557214868662 0 61.461557214868662 -88.526811219038791 0 0 0 0 -45.947503540789967 88.458031326248602 0 88.458031326248602 -128.49359558965079 0 0 0 0 -75.588459929251258 82.195457694817378 0 82.195457694817378 -102.92145792117662 0 0 0 0 -57.291092772607044 87.895746436968693 0 87.895746436968693 -103.23420582229301 0 0 0 0 -7.3278716006205968 126.74788381402414 0 126.74788381402414 -193.70858556143503 0 0 0 0 -17.878435198932152 83.944232572738656 0 83.944232572738656 -167.87613776752551 0 0 0 0 -11.731005163022019 68.197171856791101 0 68.197171856791101 -130.19587400526507 0 0 0 0 -48.920816867228496 92.984349296490109 0 92.984349296490109 -135.37161263046346 0 0 0 0 -87.091477535768149 181.75063456497082 0 181.75063456497082 -189.62768798303296 0 0 0 0 -95.563316720519651 153.11256759513344 0 153.11256759513344 -139.39113499860105 0 0 0 0 -47.945825342239914 128.53997226850515 0 128.53997226850515 -132.29118293686042 0 0 0 0 -51.392952893314941 115.46557955590151 0 115.46557955590151 -98.87286496195884 0 0 0 0 -51.617317988088757 112.71743093973009 0 112.71743093973009 -127.02856286351016 0 0 0 0 -63.642130473172983 120.95284969557179 0 120.95284969557179 -130.31910477984161 0 0 0 0 -46.051108997585288 108.67999609674007 0 108.67999609674007 -90.810688829122228 0 0 0 0 -15.945314984815013 135.35906818338299 0 135.35906818338299 -89.521244546318485 0 0 0 0 -22.16746756205066 140.13618979070088 0 140.13618979070088 -84.189916514431388 0 0 0 0 103.53531313590429 204.67397158396852 0 204.67397158396852 -137.90696547756124 0 0 0 0 78.342853675987044 226.26478489134934 0 226.26478489134934 -78.497820750853862 0 0 0 0 -60.683429672572856 126.56100165180214 0 126.56100165180214 -86.766604503784038 0 0 0 0 -135.41750528308694 89.206253188145638 0 89.206253188145638 -35.761575328499021 0 0 0 0 -156.61644611114389 211.39204642904951 0 211.39204642904951 -74.367222897300053 0 0 0 0 -108.55008432081149 128.65683855933821 0 128.65683855933821 -86.651155038336583 0 0 0 0 566.45434193547317 337.50668668774415 0 337.50668668774415 63.801415223628283 0 0 0 0 -317.77137806482278 103.18104803259121 0 103.18104803259121 -35.630090972495964 0 0 0 0 -0.062086597643013164 0.25713108268383067 0 0.25713108268383067 -0.32502201677296227 0 0 0 0 -97.94520857282896 99.773662498715566 0 99.773662498715566 -91.497716974139621 0 0 0 0 -53.326213332412863 104.32699946942648 0 104.32699946942648 -92.907582149848167 0 0 0 0 -60.377392296880316 90.813203186622559 0 90.813203186622559 -104.5474134185697 0 0 0 0 -69.218321141868728 113.89714203798576 0 113.89714203798576 -89.515024283118294 0 0 0 0 -1538.9251175011955 1018.5173510092172 0 1018.5173510092172 568.94870599272872 0 0 0 0 -876.05561153030339 -223.68466850455661 0 -223.68466850455661 -1142.2954583405517 0 0 0 0 -131.46611317319912 86.188271537566834 0 86.188271537566834 -23.688780048421904 0 0 0 0 -50.473135118199934 59.91269809939331 0 59.91269809939331 -40.592527999520826 0 0 0 0 -54.363279486505235 75.701967273484115 0 75.701967273484115 -11.340418318079173 0 0 0 0 -7.2704555991622328 65.237602816021536 0 65.237602816021536 -50.459756550018938 0 0 0 0 -7.5415157355755582 51.146950200143692 0 51.146950200143692 -23.642408803818398 0 0 0 0 -96.615686933802863 129.8323438543357 0 129.8323438543357 -58.726135086202703 0 0 0 0 11.46003083569736 15.436436552954394 0 15.436436552954394 18.170533525040554 0 0 0 0 -124.48166098410536 140.29086769619232 0 140.29086769619232 -38.634900097047648 0 0 0 0 -42.271641934392392 76.333238137071021 0 76.333238137071021 -39.206160293186258 0 0 0 0 -115.48842040762361 411.04085041876169 0 411.04085041876169 -255.91380821440907 0 0 0 0 -171.4775081320002 587.48321188716727 0 587.48321188716727 -487.93254726733721 0 0 0 0 -109.00837925250198 197.14250911149793 0 197.14250911149793 -137.0177176309262 0 0 0 0 -114.81434879298718 286.29474360598942 0 286.29474360598942 -100.30985374724696 0 0 0 0 28.931615976396472 164.47730791644744 0 164.47730791644744 -288.96314007596084 0 0 0 0 115.85695123029575 201.36353555333699 0 201.36353555333699 -347.3159107342326 0 0 0 0 44.026634865768301 94.957340378139634 0 94.957340378139634 -176.0243757583994 0 0 0 0 59.506739251971339 322.95355382879279 0 322.95355382879279 -619.81298482827333 0 0 0 0 273.94645507919438 170.04622641373498 0 170.04622641373498 -416.08524324445938 0 0 0 0 -12.349540248706035 323.32637631232319 0 323.32637631232319 -418.19401517402002 0 0 0 0 -81.52800325206897 -246.7336735103604 0 -246.7336735103604 501.0391058048117 0 0 0 0 392.74245018581263 25.383033120011532 0 25.383033120011532 -247.9194415772472 0 0 0 0 0.34142368677828522 -0.42012662705996906 0 -0.42012662705996906 -1.8755261651057538 0 0 0 0 151.45797974772967 41.362726904753799 0 41.362726904753799 -187.85143332772714 0 0 0 0 237.87956180862307 13.637889311019535 0 13.637889311019535 -183.69334984083525 0 0 0 0 267.86578676223951 -79.303852950179134 0 -79.303852950179134 19.127834929182427 0 0 0 0 39.460948263017372 40.372408805811574 0 40.372408805811574 -98.951053575270635 0 0 0 0 153.59810371851938 43.066637620100664 0 43.066637620100664 -231.18029832481625 0 0 0 0 113.29799765871473 4.7522880054129928 0 4.7522880054129928 -83.358977293777571 0 0 0 0 113.49964733428308 -0.23598360393430085 0 -0.23598360393430085 33.358772264211439 0 0 0 0 26.6032613380155 67.109780915627198 0 67.109780915627198 44.267423741515813 0 0 0 0 125.27982037803349 51.403304876481343 0 51.403304876481343 -26.956403513882833 0 0 0 0 113.75397171123143 222.6710788599903 0 222.6710788599903 -368.6668817806858 0 0 0 0 -1.5231808674977694 6.9582049619432063 0 6.9582049619432063 -21.257326482600746 0 0 0 0 163.78944984640361 -5.6058362993353512 0 -5.6058362993353512 -1.9385948680646834 0 0 0 0 163.94576517057362 0.54809204581397353 0 0.54809204581397353 185.62970325066999 0 0 0 0 171.57468733943961 124.95246271914584 0 124.95246271914584 114.52253644758275 0 0 0 0 171.98489645817733 124.72143314613277 0 124.72143314613277 60.991083808838084 0 0 0 0 6.4727710762517745 128.57522561580481 0 128.57522561580481 -226.27079008176224 0 0 0 0 -348.64738309256745 279.94453189344858 0 279.94453189344858 -218.69548069877783 0 0 0 0 -211.23555974530245 81.884318680749857 0 81.884318680749857 -175.40605918796791 0 0 0 0 -464.23323097470529 102.51878526233122 0 102.51878526233122 -110.61983555921324 0 0 0 0 -63.674463972491139 37.134096460664296 0 37.134096460664296 -217.6271001581772 0 0 0 0 -1.2113288301575917 2.8809403600266279 0 2.8809403600266279 -8.5709113212458732 0 0 0 0 -747.79610482466092 286.86780945996725 0 286.86780945996725 -222.97632081473421 0 0 0 0 159.90907935262271 304.65251773611089 0 304.65251773611089 -687.38968981354628 0 0 0 0 -686.57024225027158 507.8074082177136 0 507.8074082177136 -327.28815161214152 0 0 0 0 13.242527904565922 18.762768326901536 0 18.762768326901536 23.042753819197927 0 0 0 0 -71.206378821680119 121.35984099852976 0 121.35984099852976 -45.306773139611323 0 0 0 0 -470.48179957997451 435.03216196456617 0 435.03216196456617 -394.75097162005841 0 0 0 0 -377.53351704135821 245.9627315450889 0 245.9627315450889 -255.61658051816266 0 0 0 0 -529.68703637770568 379.65527729812493 0 379.65527729812493 -185.21065788382111 0 0 0 0 -201.69869060787369 345.19594752110061 0 345.19594752110061 -277.46320976660354 0 0 0 0 -301.72240987512487 340.78169744031038 0 340.78169744031038 -160.99590525271196 0 0 0 0 -105.52124316208756 206.32707129877599 0 206.32707129877599 -208.81100364003214 0 0 0 0 -248.09994486708592 223.08918168481978 0 223.08918168481978 -128.30568174518703 0 0 0 0 -136.09003168302479 181.8662172599652 0 181.8662172599652 -208.26054583344376 0 0 0 0 -122.54609158613493 210.70778712624451 0 210.70778712624451 -154.29036836474552 0 0 0 0 -83.257284765459872 96.095830306798234 0 96.095830306798234 28.57036455765774 0 0 0 0 -40.20125137931791 163.27808945153629 0 163.27808945153629 -163.82141855775626 0 0 0 0 -5.7268848040671401 -57.394990195052742 0 -57.394990195052742 97.6047742581286 0 0 0 0 -58.276664363087548 36.863614593698003 0 36.863614593698003 -30.854186070195283 0 0 0 0 -32.94858330038187 52.186329935277172 0 52.186329935277172 -29.418353605244192 0 0 0 0 -16.314958172153638 -17.983478582604221 0 -17.983478582604221 -6.9348786911796196 0 0 0 0 17.783032258470485 -53.802534107911924 0 -53.802534107911924 3.9986585204715084 0 0 0 0 106.11945035953067 -92.47115155125357 0 -92.47115155125357 1.2880941571929725 0 0 0 0 34.926110759168296 -38.708931483561173 0 -38.708931483561173 -20.404785620674375 0 0 0 0 66.353816780275338 -48.025393110943696 0 -48.025393110943696 -22.55787338828668 0 0 0 0 23.757463650910154 -13.333928834428662 0 -13.333928834428662 -29.093127612883109 0 0 0 0 22.681669731371244 -31.440037734878047 0 -31.440037734878047 -12.030680630203278 0 0 0 0 -45.681570402880197 308.96495775273979 0 308.96495775273979 -295.24849927700416 0 0 0 0 503.09689718176787 74.645280177066525 0 74.645280177066525 -197.24294862626266 0 0 0 0 18.356546411287127 -51.776498456540139 0 -51.776498456540139 8.2585896824130032 0 0 0 0 96.43716672399205 31.630444896076369 0 31.630444896076369 -116.10716384395346 0 0 0 0 34.643033014234334 144.10241171971211 0 144.10241171971211 -33.806567578178147 0 0 0 0 49.618676561672828 56.540289634818691 0 56.540289634818691 -60.295622824203747 0 0 0 0 73.629714247626964 102.23797993015705 0 102.23797993015705 6.5431266758168931 0 0 0 0 264.48946680254403 98.936955930253589 0 98.936955930253589 -36.485099822268239 0 0 0 0 -0.080976991277811827 0.69843289231145178 0 0.69843289231145178 -6.3110022594303103 0 0 0 0 2.6023324676248194 -122.41767731818527 0 -122.41767731818527 156.75572725944221 0 0 0 0 198.57740195595363 29.398069900358678 0 29.398069900358678 -19.447424208703524 0 0 0 0 107.38740757682808 8.9278171988407848 0 8.9278171988407848 -43.816176429572806 0 0 0 0 25.313094090398721 70.892155802828711 0 70.892155802828711 31.020115104831348 0 0 0 0 132.29250505788173 -32.589746172174273 0 -32.589746172174273 -49.448762406187598 0 0 0 0 62.581286076049196 120.69353929706631 0 120.69353929706631 -115.94325240579565 0 0 0 0 1.4464547553645017 7.9662237815454198 0 7.9662237815454198 -26.269031102549079 0 0 0 0 1.2871827958419921 6.6150587964709384 0 6.6150587964709384 -11.967234416699796 0 0 0 0 -12.783057435016644 140.20217770523459 0 140.20217770523459 23.994658465402608 0 0 0 0 71.123117982605777 105.64090800803751 0 105.64090800803751 2.8500024155800929 0 0 0 0 53.947702410581769 72.602041744514281 0 72.602041744514281 -5.8470965376491222 0 0 0 0 11.026748060723094 114.48121263926078 0 114.48121263926078 46.390937976450004 0 0 0 0 4.7477615525182131 23.987299751781499 0 23.987299751781499 -10.095386042877294 0 0 0 0 18.579633160789399 74.464270333377499 0 74.464270333377499 64.913555426081984 0 0 0 0 64.92040403904484 -2.2625898498240531 0 -2.2625898498240531 -18.552316824585432 0 0 0 0 35.166049349912555 6.4686775198761097 0 6.4686775198761097 7.2217086887685582 0 0 0 0 22.304970768816673 8.0097069213834402 0 8.0097069213834402 -0.86980204814608442 0 0 0 0 -3.6045753845514525 5.0879586850460328 0 5.0879586850460328 6.348943750829676 0 0 0 0 14.840388938354149 -4.1923485425909917 0 -4.1923485425909917 -7.6001676282548907 0 0 0 0 6.1305226303795761 12.313242180471498 0 12.313242180471498 -16.46412545492344 0 0 0 0 51.568124953038819 5.4333438320336427 0 5.4333438320336427 -71.066098801336921 0 0 0 0 1.8353903804347569 1.1954179294040364 0 1.1954179294040364 -0.28972056492237641 0 0 0 0 -0.66557936728680922 5.4926460575751008 0 5.4926460575751008 10.555657471071243 0 0 0 0 3.9969673136018651 0.48167834680034716 0 0.48167834680034716 -5.8711895727120123 0 0 0 0 6.5876575817803129 20.248880911920423 0 20.248880911920423 -57.159421498785377 0 0 0 0 -76.960598164196185 -24.070215674179053 0 -24.070215674179053 61.598938846873352 0 0 0 0 -25.27604332559622 -10.762816709357139 0 -10.762816709357139 16.954168367219609 0 0 0 0 6.3688008819680135 22.3290952698203 0 22.3290952698203 34.549635731156741 0 0 0 0 -26.889853168616355 20.612812687762926 0 20.612812687762926 66.308166687304038 0 0 0 0 221.90649279176705 254.76465214244763 0 254.76465214244763 202.57834182211081 0 0 0 0 396.32054521367127 145.67506717887773 0 145.67506717887773 -64.88721912670735 0 0 0 0 13.735413746779159 -9.8226912157479092 0 -9.8226912157479092 22.042714979710581 0 0 0 0 6.1809995283507604 -0.42849261100757019 0 -0.42849261100757019 -1.5806298700831327 0 0 0 0 171.92994983482231 130.73899345248356 0 130.73899345248356 106.04307385774518 0 0 0 0 45.02774827291978 22.969208063332189 0 22.969208063332189 6.9430835572129581 0 0 0 0 4.231267587330521 -1.2242366604389048 0 -1.2242366604389048 -1.9866662818465812 0 0 0 0 15.395435371297935 -43.73129186998267 0 -43.73129186998267 -20.836472870052603 0 0 0 0 120.8094049355351 62.607241917978172 0 62.607241917978172 24.957435548800277 0 0 0 0 189.17420742834975 78.210466083819483 0 78.210466083819483 13.224663101960687 0 0 0 0 160.34446357211891 40.25798027415658 0 40.25798027415658 -40.344969016072355 0 0 0 0 191.65895466302413 72.282229966498562 0 72.282229966498562 -9.3715838003226963 0 0 0 0 302.82716739444504 114.56183653024709 0 114.56183653024709 -61.096057504335477 0 0 0 0 195.27485753989231 10.408865981713461 0 10.408865981713461 -94.727261558364262 0 0 0 0 162.4992675022678 45.500678322658587 0 45.500678322658587 -72.125004520414222 0 0 0 0 144.2898487736793 19.602921396948659 0 19.602921396948659 25.001179513217721 0 0 0 0 114.52583426114074 67.915495754605217 0 67.915495754605217 123.58297699862305 0 0 0 0 169.19818773156749 60.756369660422934 0 60.756369660422934 75.210692760090751 0 0 0 0 169.38695251440259 80.017266698734289 0 80.017266698734289 110.68426199526584 0 0 0 0 150.24626722309864 78.09587546214243 0 78.09587546214243 30.81587559782929 0 0 0 0 170.00263565481012 88.282574448148807 0 88.282574448148807 78.595439753589744 0 0 0 0 182.20362391186009 66.573848471442034 0 66.573848471442034 34.896165158235817 0 0 0 0 155.98973380947371 70.924784155875386 0 70.924784155875386 118.50024700819631 0 0 0 0 150.62892932759587 136.39349805698839 0 136.39349805698839 245.17882918784017 0 0 0 0 177.62401553105803 127.39979513123399 0 127.39979513123399 133.81236527070723 0 0 0 0 168.258308963574 111.11708935391653 0 111.11708935391653 162.32110926885798 0 0 0 0 84.768009026384789 21.615815760524129 0 21.615815760524129 139.79886273057764 0 0 0 0 136.30434682042551 56.064086123205925 0 56.064086123205925 144.51164278378201 0 0 0 0 104.1088367058062 91.576725903220904 0 91.576725903220904 264.43844173153047 0 0 0 0 52.32441390685608 110.00601819888107 0 110.00601819888107 420.00463578565177 0 0 0 0 139.36257518012326 128.87166710658494 0 128.87166710658494 255.87860659448052 0 0 0 0 129.26212827497739 234.8528306298067 0 234.8528306298067 445.30235299420019 0 0 0 0 117.87491881800528 101.68573910165924 0 101.68573910165924 309.84105442414148 0 0 0 0 160.19308771985936 110.09476201925281 0 110.09476201925281 191.69055753519206 0 0 0 0 132.63204281869798 198.45737725568961 0 198.45737725568961 385.73264847327664 0 0 0 0 175.44461542392344 199.04663763507051 0 199.04663763507051 244.46891815705021 0 0 0 0 142.08683260739235 213.04988355665046 0 213.04988355665046 343.10308760858243 0 0 0 0 126.99497981181476 279.2713616192168 0 279.2713616192168 492.7573733708341 0 0 0 0 145.48669123512201 280.08689661283643 0 280.08689661283643 393.95371433288915 0 0 0 0 97.938231811664991 307.05559734067538 0 307.05559734067538 656.60218117551267 0 0 0 0 141.16487399704374 301.42280026365188 0 301.42280026365188 486.20006504109301 0 0 0 0 98.018070563276069 174.83124756667894 0 174.83124756667894 480.92222387639049 0 0 0 0 172.32812079910764 279.1556661821287 0 279.1556661821287 354.25595587637872 0 0 0 0 243.55960958348714 265.32964727832768 0 265.32964727832768 8.0847160317138105 0 0 0 0 233.40635270039593 287.12977536130529 0 287.12977536130529 260.84443368510802 0 0 0 0 137.89974228411393 288.63998261955385 0 288.63998261955385 460.26486338266113 0 0 0 0 162.8810817512524 207.70037589218919 0 207.70037589218919 312.0733313886094 0 0 0 0 187.81195122691975 288.64409606899426 0 288.64409606899426 325.35784035675533 0 0 0 0 207.02548166966972 221.97084146785346 0 221.97084146785346 228.29384043619939 0 0 0 0 164.10246761895223 185.49158413744954 0 185.49158413744954 255.80778927322535 0 0 0 0 177.92758748592041 148.04491051125115 0 148.04491051125115 154.48927460376581 0 0 0 0 -67.578055556155732 -135.52434293872193 0 -135.52434293872193 45.539395374995365 0 0 0 0 176.24763730495783 130.96049981996111 0 130.96049981996111 145.38106204737232 0 0 0 0 209.16548042445663 188.22953235343732 0 188.22953235343732 109.82548333686282 0 0 0 0 1.938686577560564 -1.1239976454285241 0 -1.1239976454285241 0.23080283203277929 0 0 0 0 41.621615287170755 13.607408421827131 0 13.607408421827131 -35.70011893742776 0 0 0 0 207.9402346124798 125.44077129418292 0 125.44077129418292 81.874497699507629 0 0 0 0 182.81173389882156 100.43348187270021 0 100.43348187270021 76.137889080946479 0 0 0 0 167.44545923727685 135.18565935813967 0 135.18565935813967 169.19222899739179 0 0 0 0 180.71723762332363 152.7504589976088 0 152.7504589976088 146.95482488879497 0 0 0 0 1.0896308098687806 -1.5800262380723953 0 -1.5800262380723953 -0.42167929544665128 0 0 0 0 164.24347229769992 107.72717759725674 0 107.72717759725674 73.365804564695281 0 0 0 0 2.4144632424786909 -2.0408792497103079 0 -2.0408792497103079 -0.74188760542304522 0 0 0 0 134.35256143230259 43.817354837865423 0 43.817354837865423 45.974249075581611 0 0 0 0 16.354879494882539 6.8403163345647044 0 6.8403163345647044 44.916396925601475 0 0 0 0 0.54375984577618008 -0.32958719440700168 0 -0.32958719440700168 2.7924828066174996 0 0 0 0 176.19531925026638 54.175445309421775 0 54.175445309421775 25.319913441129756 0 0 0 0 -35.650049196653981 -21.434007191888668 0 -21.434007191888668 15.119232333709078 0 0 0 0 5.9759238011916977 -12.367128487798709 0 -12.367128487798709 8.0813714278847328 0 0 0 0 -42.84587509188998 9.790419714822292 0 9.790419714822292 -30.41811061817134 0 0 0 0 -61.478899191221444 -26.161430429016036 0 -26.161430429016036 15.229701138621749 0 0 0 0 -0.91245500792419953 -0.59933113798260962 0 -0.59933113798260962 2.4530277578129471 0 0 0 0 123.44649853543979 97.507518879822783 0 97.507518879822783 -12.156008112964628 0 0 0 0 -102.05451659319442 17.410770620279436 0 17.410770620279436 75.865614473868845 0 0 0 0 30.26946814668463 54.791592119869165 0 54.791592119869165 -29.997503210644936 0 0 0 0 -46.232467239936341 67.483910701372224 0 67.483910701372224 -32.064983797864443 0 0 0 0 -0.66238470392008431 0.4400774133402372 0 0.4400774133402372 4.5133345357825476 0 0 0 0 -209.48429292194032 41.970626853228168 0 41.970626853228168 27.59393189063303 0 0 0 0 86.177253656464018 37.170127725770726 0 37.170127725770726 -11.344014319156486 0 0 0 0 1.4978110893879411 3.0305438078467759 0 3.0305438078467759 -3.4245631873205156 0 0 0 0 -267.53848759328503 125.13434816223889 0 125.13434816223889 -107.76190012331062 0 0 0 0 -217.06780230955337 244.93561306799529 0 244.93561306799529 -30.904937469975266 0 0 0 0 -12.672080767239095 118.23445039382932 0 118.23445039382932 2.8324032504315255 0 0 0 0 33.22115759112603 74.849881693036878 0 74.849881693036878 28.655832063916023 0 0 0 0 -16.297448084101234 88.67712059303085 0 88.67712059303085 -30.926143665084965 0 0 0 0 -2.412883259510636 101.12056084649157 0 101.12056084649157 -40.296945822534326 0 0 0 0 -108.00423136289464 134.32616835628869 0 134.32616835628869 -36.372044306858925 0 0 0 0 -103.51238090392872 69.275260320178859 0 69.275260320178859 22.987666082612122 0 0 0 0 -61.658418035363866 91.522953401586165 0 91.522953401586165 -30.419428361270548 0 0 0 0 -45.81035671054633 65.235872982251749 0 65.235872982251749 7.1679602008516667 0 0 0 0 -42.798736168379037 82.317193084887549 0 82.317193084887549 1.7140253773159202 0 0 0 0 -64.720275267862235 65.541840804833555 0 65.541840804833555 21.484857524681047 0 0 0 0 -43.343502503312266 43.711454239375598 0 43.711454239375598 -68.224184069529656 0 0 0 0 -67.761408294778903 89.352564693753266 0 89.352564693753266 -50.700133028301934 0 0 0 0 -46.698457826194499 70.334228377487307 0 70.334228377487307 -4.5062279130943352 0 0 0 0 -82.546401902967091 71.556849599034649 0 71.556849599034649 109.50265856051556 0 0 0 0 -57.382523798525654 83.236456649419779 0 83.236456649419779 55.389463728446572 0 0 0 0 -73.452474341027482 47.431646438541065 0 47.431646438541065 7.8795579774123325 0 0 0 0 -102.08644485668265 110.0828483905243 0 110.0828483905243 88.236369960633965 0 0 0 0 -0.58336173461132201 0.022629184415585257 0 0.022629184415585257 2.9683177449868197 0 0 0 0 -176.70820760950278 72.53742260915169 0 72.53742260915169 192.40342144608076 0 0 0 0 -114.13823039671752 -3.3879922226988128 0 -3.3879922226988128 2.2581940981981461 0 0 0 0 -128.4117835211847 198.24134553690919 0 198.24134553690919 342.1888259123516 0 0 0 0 42.29077726387959 409.18181325919704 0 409.18181325919704 302.99714645131462 0 0 0 0 -28.542150178204338 107.75486220139283 0 107.75486220139283 27.157752461465861 0 0 0 0 -60.403878300699944 146.03547304270796 0 146.03547304270796 119.24593349158749 0 0 0 0 7.0553580508803861 274.41529937564701 0 274.41529937564701 -82.549807465264166 0 0 0 0 54.300386780412055 70.202861988718723 0 70.202861988718723 -147.24605058208181 0 0 0 0 1.8997747364017954 1.1527498221489729 0 1.1527498221489729 -3.1606347957813199 0 0 0 0 28.122312759502165 47.013921646912422 0 47.013921646912422 34.251313917746302 0 0 0 0 342.03433884107642 688.86751729823459 0 688.86751729823459 348.48099668108262 0 0 0 0 292.82491520806343 490.36430985928564 0 490.36430985928564 332.87875950981834 0 0 0 0 -10.957531046174154 55.019979804883405 0 55.019979804883405 28.158097867566539 0 0 0 0 -35.783262416356592 54.861218035759521 0 54.861218035759521 44.349689750843936 0 0 0 0 -65.170566400711323 61.775933811050891 0 61.775933811050891 28.105399801406747 0 0 0 0 -42.069960124057616 89.680495909042293 0 89.680495909042293 8.6203684214560781 0 0 0 0 23.202501411218691 55.903012990260322 0 55.903012990260322 19.950070694179885 0 0 0 0 -22.317225049240733 48.962578014698011 0 48.962578014698011 57.481125291720673 0 0 0 0 -3.7235659139678319 43.980593605590911 0 43.980593605590911 46.369984789776026 0 0 0 0 -0.69573367197881453 8.2865344148631266 0 8.2865344148631266 74.7131382215739 0 0 0 0 -4.0850817408809235 12.735124385593735 0 12.735124385593735 85.889796417224716 0 0 0 0 2.122141611324146 28.522876088797005 0 28.522876088797005 10.430978852083282 0 0 0 0 -4.8480072815855237 34.976443385830862 0 34.976443385830862 105.23916470382392 0 0 0 0 4.2526892681007666 33.374951026360577 0 33.374951026360577 64.933415337178303 0 0 0 0 -9.7414705337813388 -12.220986315128993 0 -12.220986315128993 34.919029412985878 0 0 0 0 15.319661361447288 55.630082740197395 0 55.630082740197395 35.490911384179071 0 0 0 0 -28.253452091132203 1736.731809064484 0 1736.731809064484 2907.4039533138603 0 0 0 0 5.5220007449100912 1.3339593516326786 0 1.3339593516326786 9.883812544371871 0 0 0 0 2172.5925411069111 827.14406333453553 0 827.14406333453553 831.0687738836823 0 0 0 0 -15.724129807668024 2.8455495018007682 0 2.8455495018007682 9.6850904162146705 0 0 0 0 -7.9879522039082076 5.4632668964441109 0 5.4632668964441109 73.923348539843573 0 0 0 0 -71.811623628029338 568.1389436996451 0 568.1389436996451 1230.190431635714 0 0 0 0 -99.637296076301936 4.0198425836424576 0 4.0198425836424576 161.10228816829476 0 0 0 0 9.0280833591009237 -15.094478861485605 0 -15.094478861485605 22.702210830250337 0 0 0 0 195.14347756105718 612.28153422245168 0 612.28153422245168 751.17265775740816 0 0 0 0 194.40451246174689 598.82752323359455 0 598.82752323359455 1136.8531443978281 0 0 0 0 662.04028187964923 871.21191628145971 0 871.21191628145971 564.08422956190589 0 0 0 0 1.0378405050810287 8.6455609223617742 0 8.6455609223617742 3.787486666658495 0 0 0 0 636.83360052089938 -27.252066912025839 0 -27.252066912025839 43.019038546844968 0 0 0 0 361.07367072936688 665.19175900290725 0 665.19175900290725 1156.9850684585181 0 0 0 0 324.33649227850947 1348.165373963333 0 1348.165373963333 1806.9101886535645 0 0 0 0 -16.682886759175744 142.21049699075229 0 142.21049699075229 928.76352048802437 0 0 0 0 -187.38754464427893 362.42553997604045 0 362.42553997604045 1624.0853497287208 0 0 0 0 180.41237395002645 375.37260839309965 0 375.37260839309965 739.18477040893049 0 0 0 0 184.07416976189234 317.54849130406365 0 317.54849130406365 1060.4598140738635 0 0 0 0 232.30961998215571 497.15684403797241 0 497.15684403797241 617.37505276075353 0 0 0 0 207.52628534490668 608.61607449161784 0 608.61607449161784 579.59815372651519 0 0 0 0 310.47395330123982 445.01954338218638 0 445.01954338218638 652.20244011112754 0 0 0 0 84.362659044483223 686.88654377405146 0 686.88654377405146 549.2195378567194 0 0 0 0 196.9468067388998 548.07505153441707 0 548.07505153441707 531.62374237096765 0 0 0 0 376.21115785156917 495.19756407007753 0 495.19756407007753 444.15670216940998 0 0 0 0 293.3879546806902 600.35151118626345 0 600.35151118626345 538.4003458996649 0 0 0 0 237.46088290070657 397.15665658881903 0 397.15665658881903 375.99062041184516 0 0 0 0 -1.1903379832185603 3.3905508489294647 0 3.3905508489294647 -2.2053946547499876 0 0 0 0 -210.92421533425784 361.40751677937533 0 361.40751677937533 649.1007003435916 0 0 0 0 141.45007218678552 405.84500186173318 0 405.84500186173318 652.76630399667192 0 0 0 0 76.098433865469815 445.58452086387115 0 445.58452086387115 632.21515495037238 0 0 0 0 141.47869437839847 370.3514542269786 0 370.3514542269786 573.99296531798609 0 0 0 0 127.86543480738658 410.49255214451318 0 410.49255214451318 684.83065492986861 0 0 0 0 236.81981357135919 455.40932463918762 0 455.40932463918762 621.21892158504852 0 0 0 0 200.25376604485791 353.13065448932684 0 353.13065448932684 603.0283432309061 0 0 0 0 104.01226180066971 360.03197078509947 0 360.03197078509947 601.75264997038721 0 0 0 0 140.84575692510049 388.20811259226866 0 388.20811259226866 475.25623051189177 0 0 0 0 119.02136454557791 359.79705856897999 0 359.79705856897999 470.96094323741659 0 0 0 0 245.26781222937575 339.50429434254056 0 339.50429434254056 334.78630319884905 0 0 0 0 299.09018166807346 401.61820936363802 0 401.61820936363802 390.29900068708594 0 0 0 0 301.53927910726406 361.43831561941806 0 361.43831561941806 126.62311684875385 0 0 0 0 199.17094466364313 452.02451537430989 0 452.02451537430989 526.42483465191253 0 0 0 0 68.31709665039665 508.33755025913524 0 508.33755025913524 507.39891401641216 0 0 0 0 9.8432478732829622 -5.146510194241273 0 -5.146510194241273 15.773366902425551 0 0 0 0 6.3988821422153705 7.3790111044927471 0 7.3790111044927471 18.914904547433252 0 0 0 0 46.97660215686119 37.177602078299969 0 37.177602078299969 24.940908925202166 0 0 0 0 26.946891971187142 21.012690354924416 0 21.012690354924416 27.499868138455895 0 0 0 0 5.1181662028930006 24.323647981584443 0 24.323647981584443 22.218279065492162 0 0 0 0 -0.14500625464825134 38.323623507174489 0 38.323623507174489 8.9919362968339556 0 0 0 0 -40.471469487643844 83.586441950220433 0 83.586441950220433 -6.8150605190712668 0 0 0 0 -95.089940339088571 65.355755959435555 0 65.355755959435555 -12.537632712810591 0 0 0 0 5.6580274326574909 55.945566875695022 0 55.945566875695022 -22.487722738311277 0 0 0 0 -226.01661793992935 100.04062607716878 0 100.04062607716878 -67.824318689978099 0 0 0 0 -29.253051603644963 42.705569101116453 0 42.705569101116453 -78.540839359731763 0 0 0 0 -65.607513215294603 121.2261311055463 0 121.2261311055463 -103.71818048226851 0 0 0 0 27.429520258612683 179.82140664937469 0 179.82140664937469 -211.22830378604306 0 0 0 0 -52.142826690371294 131.80992150105521 0 131.80992150105521 -98.699393816099473 0 0 0 0 -3.0505872867270227 74.426749852615103 0 74.426749852615103 -37.093509497317427 0 0 0 0 46.872089132952169 78.554152250633706 0 78.554152250633706 -153.38006572187078 0 0 0 0 -0.31651665611389035 90.051960834009151 0 90.051960834009151 -82.393775126292894 0 0 0 0 75.7530504035376 104.26295219999702 0 104.26295219999702 -155.94276324471139 0 0 0 0 85.059060848045192 84.993287977948057 0 84.993287977948057 -203.54797090510579 0 0 0 0 129.41615554345663 38.035491956567057 0 38.035491956567057 -168.8025012833823 0 0 0 0 -5.0965471160353957 15.09164657723813 0 15.09164657723813 -20.426732898271595 0 0 0 0 48.286786467061916 6.5964103267173186 0 6.5964103267173186 -180.88458072183857 0 0 0 0 50.752140289403542 52.129403489261676 0 52.129403489261676 -94.203270754707773 0 0 0 0 255.70894521066839 286.89529327867854 0 286.89529327867854 300.30102442850693 0 0 0 0 -6.5505441487395828 21.184634633235376 0 21.184634633235376 -19.321596983126085 0 0 0 0 -6.4482593126376742 67.95488702070179 0 67.95488702070179 -15.610768157061102 0 0 0 0 8.4751815615891246 56.262587051469382 0 56.262587051469382 -19.283719653569278 0 0 0 0 603.8321273444235 512.00585472759485 0 512.00585472759485 248.88474444506573 0 0 0 0 260.61377808041107 308.08801696898445 0 308.08801696898445 269.80651388025944 0 0 0 0 59.382031754390482 423.60422068485059 0 423.60422068485059 1181.3338850465443 0 0 0 0 -1.2799898730061443 5.0268007711112261 0 5.0268007711112261 -3.0099218693534482 0 0 0 0 70.889583965381462 220.48656715886682 0 220.48656715886682 704.30340461057494 0 0 0 0 184.72098917051517 104.04268710165161 0 104.04268710165161 98.972310664910765 0 0 0 0 90.485817431395844 237.0684315791259 0 237.0684315791259 373.73467224090928 0 0 0 0 24.692207735389275 -15.870136564733912 0 -15.870136564733912 83.943936801355449 0 0 0 0 257.86691546255224 242.2598387823582 0 242.2598387823582 137.23735936533194 0 0 0 0 254.83467418221881 395.05510160442827 0 395.05510160442827 353.92394355293436 0 0 0 0 -19.635738519254119 -100.13853782997103 0 -100.13853782997103 -243.1785132622972 0 0 0 0 2.4824041912315806 -140.89391948712046 0 -140.89391948712046 -373.24459021527218 0 0 0 0 -3.2125586047074215 10.605569820901781 0 10.605569820901781 -13.545200409008643 0 0 0 0 210.61778322555915 188.3889489552264 0 188.3889489552264 355.3737546901757 0 0 0 0 372.3152606298645 526.89467291025721 0 526.89467291025721 411.76587240005392 0 0 0 0 390.84167534067819 393.37157982351346 0 393.37157982351346 207.19931290754903 0 0 0 0 57.766022371091822 401.19559621303051 0 401.19559621303051 699.56599986473884 0 0 0 0 478.68007042791032 169.49916403615225 0 169.49916403615225 651.93301573349891 0 0 0 0 413.64937875124815 494.40165386323497 0 494.40165386323497 652.01076945475324 0 0 0 0 -0.15193345312501805 -0.268277782159414 0 -0.268277782159414 8.7239995057391013 0 0 0 0 -548.38716302611556 135.54470063688132 0 135.54470063688132 29.363310818032915 0 0 0 0 -354.17866704499102 175.45231361500191 0 175.45231361500191 4.279522781187552 0 0 0 0 -271.50526519796313 150.697498379639 0 150.697498379639 -235.71827444757218 0 0 0 0 -707.86469750792457 885.08169592661579 0 885.08169592661579 545.59656507456384 0 0 0 0 -355.41502323607619 30.170771519752634 0 30.170771519752634 12.956457451931783 0 0 0 0 -146.8062245170654 47.872952819029706 0 47.872952819029706 -0.23725045672108536 0 0 0 0 -86.291483925870807 28.526198543120699 0 28.526198543120699 18.290077891735564 0 0 0 0 -185.26645124578135 53.496268059658178 0 53.496268059658178 15.880856437332113 0 0 0 0 -15.970013693566216 -8.3739497286296682 0 -8.3739497286296682 155.08533712459712 0 0 0 0 -0.30118563583939828 -1.8217620015042861 0 -1.8217620015042861 23.520752323625544 0 0 0 0 -103.1878510878305 3.0647645044482488 0 3.0647645044482488 125.02417995347787 0 0 0 0 0.50248434038054768 -4.8028776142029521 0 -4.8028776142029521 34.159808929394998 0 0 0 0 -46.961078876411193 26.322052153140248 0 26.322052153140248 15.980573694685518 0 0 0 0 -80.069609854014743 19.058118102719163 0 19.058118102719163 37.139098370247666 0 0 0 0 -18.136261370902503 9.5750290259384201 0 9.5750290259384201 38.528526532938486 0 0 0 0 -42.398115382776496 22.795314117200633 0 22.795314117200633 54.091967031497916 0 0 0 0 -1.3072323062001558 -3.1110141076136877 0 -3.1110141076136877 44.760812424555439 0 0 0 0 -53.012887067386146 -50.128695930196045 0 -50.128695930196045 30.307815837921225 0 0 0 0 -22.351090755291807 21.361445192998872 0 21.361445192998872 62.156229139141942 0 0 0 0 -21.298125190337487 1.6993541268511763 0 1.6993541268511763 85.690556933408516 0 0 0 0 3.0060915182002645 12.325135810953725 0 12.325135810953725 54.478141190272027 0 0 0 0 -4.9794294960647676 31.022087018269303 0 31.022087018269303 73.833714049444097 0 0 0 0 -3.4911089205385366 26.629026814469732 0 26.629026814469732 13.506230723215523 0 0 0 0 -3.4238890378564975 23.18707167825778 0 23.18707167825778 84.272015349008143 0 0 0 0 -23.195341692842703 17.449538345834299 0 17.449538345834299 82.9188525327354 0 0 0 0 -10.078574238696092 23.661912420626322 0 23.661912420626322 60.474106205452699 0 0 0 0 1.5994467156433529 -1.39202110655242 0 -1.39202110655242 43.909742485026072 0 0 0 0 -8.7060909600149898 -3.6194878340975265 0 -3.6194878340975265 101.60445842800254 0 0 0 0 14.846549592210067 60.423453659892402 0 60.423453659892402 114.20218494919482 0 0 0 0 -0.85434358547097844 7.0054840305750261 0 7.0054840305750261 3.2565751353002099 0 0 0 0 -41.973640561687716 68.70798308657686 0 68.70798308657686 -8.4645857795258053 0 0 0 0 -24.821392143580397 -14.407811035396662 0 -14.407811035396662 84.037793630945089 0 0 0 0 -103.08657137647242 76.228815268739709 0 76.228815268739709 128.52191495693296 0 0 0 0 -57.818685199650645 3.2367716500775714 0 3.2367716500775714 37.485509976140747 0 0 0 0 43.034601034110892 24.771440938347951 0 24.771440938347951 61.593905117159011 0 0 0 0 -97.074763276530575 89.195510331874175 0 89.195510331874175 156.18150311431964 0 0 0 0 -33.814347997655204 31.457796396993217 0 31.457796396993217 62.220700236235871 0 0 0 0 3.057450022562989 224.61475050785521 0 224.61475050785521 127.36467015635208 0 0 0 0 -187.34832941397417 196.97661319722101 0 196.97661319722101 296.55107074543048 0 0 0 0 -292.9794141600978 38.227482327878533 0 38.227482327878533 147.76507107607904 0 0 0 0 -100.38830887443783 130.37173914042251 0 130.37173914042251 44.301476288914273 0 0 0 0 -51.542485942264648 82.865419860263501 0 82.865419860263501 47.505076838540845 0 0 0 0 0.93071195949158891 3.3600935056385879 0 3.3600935056385879 6.982241691084127 0 0 0 0 11.082295575864919 -27.242782435485424 0 -27.242782435485424 -40.972218858033557 0 0 0 0 5.0581565188567765 -33.094477740036382 0 -33.094477740036382 13.522838464221422 0 0 0 0 -15.772389244851638 5.8586822587940333 0 5.8586822587940333 161.59525632271107 0 0 0 0 1.945810735478517 -69.118107154130485 0 -69.118107154130485 35.614493489578308 0 0 0 0 -16.788806457954593 75.798067379219674 0 75.798067379219674 226.24792814931425 0 0 0 0 71.420534748467617 95.401455039613211 0 95.401455039613211 194.35515236890933 0 0 0 0 -121.11675662376729 -133.10713171776297 0 -133.10713171776297 357.03481529426699 0 0 0 0 478.37793014477938 179.965932564799 0 179.965932564799 395.20860796284251 0 0 0 0 112.31655467790551 394.55924806181065 0 394.55924806181065 596.8836666363859 0 0 0 0 252.29866119301187 515.99709303165582 0 515.99709303165582 616.85370545869955 0 0 0 0 288.73380978892237 644.74148207793041 0 644.74148207793041 915.69585117931274 0 0 0 0 169.79982697602281 -1.2713046930202836 0 -1.2713046930202836 -177.55272760368462 0 0 0 0 16.017766233222574 123.77088390691279 0 123.77088390691279 -237.99600662734065 0 0 0 0 6.2499479226315131 4.5028066830940787 0 4.5028066830940787 0.16975318617824087 0 0 0 0 87.122247442304797 149.8620422510503 0 149.8620422510503 -46.317694551289605 0 0 0 0 -13.062211893235144 119.73636771500605 0 119.73636771500605 70.590652068687632 0 0 0 0 48.866002062753978 225.61595980304992 0 225.61595980304992 209.26223658463277 0 0 0 0 117.08724386285394 65.941078547097277 0 65.941078547097277 55.385788715655508 0 0 0 0 -26.793671760132383 87.933574201711963 0 87.933574201711963 52.262476463016355 0 0 0 0 -95.556575060629257 144.61562582965053 0 144.61562582965053 -44.795900097415142 0 0 0 0 -97.972387577162209 -12.144343643331638 0 -12.144343643331638 -80.466687981075665 0 0 0 0 62.638734033433138 72.818859128488839 0 72.818859128488839 -47.923422833129734 0 0 0 0 55.604858082077499 15.589080926055203 0 15.589080926055203 -11.648293473626836 0 0 0 0 157.50905483663155 99.568879885100614 0 99.568879885100614 -116.4246932120659 0 0 0 0 65.660556189577619 20.645971016485419 0 20.645971016485419 -10.126579539374688 0 0 0 0 88.58414700468893 166.19728965350077 0 166.19728965350077 -55.355678516382795 0 0 0 0 18.212463531675894 76.3049124725203 0 76.3049124725203 51.176371209723584 0 0 0 0 95.872057620901614 124.25251110795216 0 124.25251110795216 -74.254883061625151 0 0 0 0 123.99025155156778 218.22139551497094 0 218.22139551497094 146.27756522966411 0 0 0 0 127.3191954691938 121.94945788718906 0 121.94945788718906 26.342215770915573 0 0 0 0 121.74647850241308 158.77008533166372 0 158.77008533166372 85.532501093563042 0 0 0 0 64.221593174246664 535.83603289081657 0 535.83603289081657 337.73623529472388 0 0 0 0 150.02235279266097 387.86142340885999 0 387.86142340885999 336.01390332527808 0 0 0 0 49.682099938287138 458.32936891041027 0 458.32936891041027 292.23695923155174 0 0 0 0 100.72332359388383 610.58950180380634 0 610.58950180380634 546.00393482283107 0 0 0 0 438.83741321750131 528.24730994769197 0 528.24730994769197 118.12730865000776 0 0 0 0 250.92157663918988 322.38310128275225 0 322.38310128275225 -49.739679374892148 0 0 0 0 65.388085784992654 -31.973487496692542 0 -31.973487496692542 -255.8499684633498 0 0 0 0 3.828628304659027 2.7948253663525264 0 2.7948253663525264 0.88760588516388594 0 0 0 0 294.93090811322327 232.30724563587137 0 232.30724563587137 -461.55257303805593 0 0 0 0 196.08503744859263 459.39175359840738 0 459.39175359840738 645.16205382328735 0 0 0 0 -9.7588750140385088 7.2112723840612247 0 7.2112723840612247 3.3331301385464513 0 0 0 0 157.05545499502114 266.10502076176908 0 266.10502076176908 562.97832896342152 0 0 0 0 52.442532533359554 370.66958037782388 0 370.66958037782388 926.64574915023695 0 0 0 0 542.3985190221938 386.47806537212455 0 386.47806537212455 548.07634610645619 0 0 0 0 66.97986096776367 -3.9894156788468536 0 -3.9894156788468536 8.3304512755930773 0 0 0 0 -12.061576857639011 33.802019058963197 0 33.802019058963197 83.129858199747105 0 0 0 0 451.50358486497498 211.2563843619937 0 211.2563843619937 258.96180194192857 0 0 0 0 -0.4232797545797311 -0.82846055236352356 0 -0.82846055236352356 -3.9625826100250947 0 0 0 0 -257.62669748434928 527.60484377098328 0 527.60484377098328 -264.75824787925376 0 0 0 0 496.28461644268282 20.634636876897275 0 20.634636876897275 -295.97894742581411 0 0 0 0 -202.99808903521807 -45.996956884202518 0 -45.996956884202518 24.406035078325658 0 0 0 0 -48.6129033956895 340.2947887360715 0 340.2947887360715 -518.07814553750359 0 0 0 0 323.64046180581136 225.13119482906041 0 225.13119482906041 -439.6818976279028 0 0 0 0 296.07854641872109 3.0347649255563738 0 3.0347649255563738 -150.54947501332936 0 0 0 0 315.86212846968192 -112.82473806613643 0 -112.82473806613643 -53.480182292973041 0 0 0 0 -0.14953510058158415 0.37090860800818604 0 0.37090860800818604 -0.51681105646304104 0 0 0 0 -544.64987706530519 597.38860125180145 0 597.38860125180145 -414.03245240544857 0 0 0 0 -297.21347811379928 216.48949356838784 0 216.48949356838784 -251.55256685431232 0 0 0 0 -231.58457940552944 296.93853310536724 0 296.93853310536724 -291.94037096101965 0 0 0 0 37.094187513081124 257.01892307585877 0 257.01892307585877 -423.58914600401476 0 0 0 0 -125.1748730349907 228.46696783926814 0 228.46696783926814 -337.74429414109909 0 0 0 0 -62.901963623153279 397.20693605407723 0 397.20693605407723 -551.58954066471051 0 0 0 0 -141.97480525809806 389.96469143220747 0 389.96469143220747 -459.36132073945191 0 0 0 0 -95.276712660226622 310.8269253814542 0 310.8269253814542 -393.8507487836323 0 0 0 0 -122.25349581048067 225.91459828086226 0 225.91459828086226 -196.15257981235482 0 0 0 0 17.99111016441384 304.54780893558927 0 304.54780893558927 -416.22220075099904 0 0 0 0 52.41431694431958 216.48498464805743 0 216.48498464805743 -229.49776019825208 0 0 0 0 41.056932114171786 149.94023805423376 0 149.94023805423376 -374.63250149480882 0 0 0 0 117.95571855156595 145.9786695026196 0 145.9786695026196 -227.03480344505078 0 0 0 0 70.571542741468875 148.43883280737646 0 148.43883280737646 -206.53560205323356 0 0 0 0 -50.958549242113804 485.83220412871742 0 485.83220412871742 -33.674666994393192 0 0 0 0 -172.60011607169872 471.04727276337144 0 471.04727276337144 -636.93479989359912 0 0 0 0 -39.819974025620468 154.00452077388763 0 154.00452077388763 -566.14271364730666 0 0 0 0 36.320953812045445 450.73605292517004 0 450.73605292517004 -418.43897801209823 0 0 0 0 -318.33462192246589 302.91943060158519 0 302.91943060158519 -104.55891915823304 0 0 0 0 -123.32528277234633 504.81574499905037 0 504.81574499905037 781.80348573824449 0 0 0 0 -54.727862990953327 177.42188282073585 0 177.42188282073585 318.86461300023075 0 0 0 0 146.07544867861725 43.822775672892021 0 43.822775672892021 -560.78484555904652 0 0 0 0 -2.8572086030408173 -32.087399034271584 0 -32.087399034271584 -125.38707274838816 0 0 0 0 3.1170830230298634 2.4301588362135362 0 2.4301588362135362 -0.31658877151688358 0 0 0 0 33.482943293205608 159.24484603950259 0 159.24484603950259 262.77615372942819 0 0 0 0 -33.638079416869004 229.61946043625721 0 229.61946043625721 70.871760901616653 0 0 0 0 39.797845181272351 168.97489217886141 0 168.97489217886141 267.01230215820397 0 0 0 0 259.04202921780688 298.05230783229126 0 298.05230783229126 71.410040187889535 0 0 0 0 70.510918172782112 252.29143194052813 0 252.29143194052813 -16.228900678066566 0 0 0 0 5.6837913099243451 302.84085863537439 0 302.84085863537439 386.56573764593486 0 0 0 0 40.103236188913797 160.03994663766935 0 160.03994663766935 209.10921895926003 0 0 0 0 144.15249906507415 35.926520693370549 0 35.926520693370549 339.65817714822333 0 0 0 0 365.08790068532471 253.69214094018753 0 253.69214094018753 185.66053718814146 0 0 0 0 -86.394678248710079 504.8958977160346 0 504.8958977160346 919.03923647012562 0 0 0 0 29.385670909453438 442.08887299321941 0 442.08887299321941 -298.92490554740652 0 0 0 0 102.75865832690033 147.22832265090983 0 147.22832265090983 -307.58754038742723 0 0 0 0 -14.827213055799803 204.01814067163468 0 204.01814067163468 -232.42782947983505 0 0 0 0 125.22448008239257 260.62475930146911 0 260.62475930146911 -211.78932447337866 0 0 0 0 113.01242576734512 179.32942010130864 0 179.32942010130864 -286.91828770053689 0 0 0 0 139.31293425316107 176.11651708215504 0 176.11651708215504 -287.8856189590806 0 0 0 0 60.291488804879918 136.43483470463252 0 136.43483470463252 -73.217774785138317 0 0 0 0 133.99198386359058 211.26907651692818 0 211.26907651692818 -205.37366952344019 0 0 0 0 94.660267688544991 132.03269351753625 0 132.03269351753625 -309.89403774962557 0 0 0 0 137.49729789014964 200.353576439069 0 200.353576439069 -352.42410840631055 0 0 0 0 31.934549493126383 190.0296431486006 0 190.0296431486006 -310.06236426605028 0 0 0 0 160.38026290096968 225.2893674142033 0 225.2893674142033 -342.79213005134443 0 0 0 0 206.42083297072168 240.06915307802774 0 240.06915307802774 -302.08147452744743 0 0 0 0 181.0927307133752 346.32095759191361 0 346.32095759191361 -160.62202126902412 0 0 0 0 137.65569135437056 196.76497689812072 0 196.76497689812072 -274.58394328338909 0 0 0 0 100.47874141255124 275.06543569624409 0 275.06543569624409 -219.97287174302983 0 0 0 0 108.08248613415162 446.52975470976162 0 446.52975470976162 -31.628572584992071 0 0 0 0 191.98342651105122 679.10696136584738 0 679.10696136584738 46.789834125544076 0 0 0 0 18.806155517891966 493.28874802645078 0 493.28874802645078 105.14674619762991 0 0 0 0 -85.496839802801333 338.49809387378264 0 338.49809387378264 -62.402334977014107 0 0 0 0 32.438078878140004 407.77451340933112 0 407.77451340933112 -78.636042945938243 0 0 0 0 -164.94117093958084 147.63136658466465 0 147.63136658466465 -282.09552958543645 0 0 0 0 52.771395363655756 359.83162903715765 0 359.83162903715765 -138.45086916470609 0 0 0 0 -93.190048432117692 302.99922963609788 0 302.99922963609788 -85.721352055676107 0 0 0 0 29.063364148209075 220.31407569738803 0 220.31407569738803 -393.6752932520285 0 0 0 0 -569.36861538613084 -299.18531119581166 0 -299.18531119581166 1262.7271941602812 0 0 0 0 -49.830472226090933 60.13767617402118 0 60.13767617402118 -468.34002748505554 0 0 0 0 3.4478951610445492 4.6776461320791327 0 4.6776461320791327 2.1876053958570907 0 0 0 0 144.22313682682579 328.7797960035623 0 328.7797960035623 -794.28541707633121 0 0 0 0 -463.60793078633469 18.830111091199797 0 18.830111091199797 294.6588681058887 0 0 0 0 -230.44043548825903 -157.11793203045727 0 -157.11793203045727 -45.345213140572014 0 0 0 0 -276.44870304476535 529.79762509452848 0 529.79762509452848 898.78868502674959 0 0 0 0 -3.6966974911623254 1.0837446374798461 0 1.0837446374798461 0.58117092505704449 0 0 0 0 60.339314491589903 375.71646348415743 0 375.71646348415743 -133.6203195520211 0 0 0 0 73.251726338941808 651.20901900289391 0 651.20901900289391 152.67728927241842 0 0 0 0 10.876087297846226 10.20344782687107 0 10.20344782687107 3.76403150736299 0 0 0 0 115.38943652637408 -50.056235496291265 0 -50.056235496291265 619.05219695594133 0 0 0 0 -1021.5284170852001 567.21150685032262 0 567.21150685032262 978.362916558086 0 0 0 0 -10.45426352783543 1.1828331077444005 0 1.1828331077444005 -0.033309324537533769 0 0 0 0 -75.644127515551418 19.75786397502543 0 19.75786397502543 1039.0678648956928 0 0 0 0 47.303176048298155 -231.83875087232445 0 -231.83875087232445 706.8403786129129 0 0 0 0 42.885329432159324 -139.72398238861206 0 -139.72398238861206 -52.89531311069004 0 0 0 0 3.0723178669526359 -4.6016961733947213 0 -4.6016961733947213 8.7797025703387561 0 0 0 0 1532.1611252493176 216.51894622775399 0 216.51894622775399 -1274.9912702787515 0 0 0 0 7.6840594538305638 4.9478892740130078 0 4.9478892740130078 1.7045401113105605 0 0 0 0 140.4047696567095 782.94115530523595 0 782.94115530523595 1521.2971588124965 0 0 0 0 1173.9927594688315 1093.5497041488998 0 1093.5497041488998 188.93977573472876 0 0 0 0 -9.6575700254688854 312.9159582134198 0 312.9159582134198 74.468141798886791 0 0 0 0 43.319105559072284 549.47559217976459 0 549.47559217976459 356.05550321596093 0 0 0 0 298.56103605973658 881.00503042463606 0 881.00503042463606 260.30961699124782 0 0 0 0 329.91965304484711 614.15235367532841 0 614.15235367532841 -3.3385880016430747 0 0 0 0 145.92378220787759 656.84713605481011 0 656.84713605481011 -38.336730331718172 0 0 0 0 501.8246898226389 714.66330221151111 0 714.66330221151111 -61.26373844214686 0 0 0 0 189.37518466347865 692.71161871283039 0 692.71161871283039 -16.806341228482779 0 0 0 0 302.47110978922683 779.21853179348636 0 779.21853179348636 -38.915658175355929 0 0 0 0 277.84243292239262 694.71115627667677 0 694.71115627667677 -56.505109787722176 0 0 0 0 53.565264923751783 786.52261809902848 0 786.52261809902848 -26.840627118956036 0 0 0 0 119.73167237502321 637.06618253048873 0 637.06618253048873 -118.43760921304056 0 0 0 0 347.10028956315909 789.95156576697445 0 789.95156576697445 -0.11435782232729252 0 0 0 0 154.51649617007934 743.61319532923881 0 743.61319532923881 51.127786825367366 0 0 0 0 414.90802455117228 725.30392665211184 0 725.30392665211184 -88.207402034367988 0 0 0 0 464.16630754254038 804.37226493235357 0 804.37226493235357 31.754980497605857 0 0 0 0 523.1074128356895 643.38205160404686 0 643.38205160404686 36.820695557395084 0 0 0 0 770.89210891396942 758.17846456514781 0 758.17846456514781 0.34929734918114264 0 0 0 0 870.8082062065514 599.02302561490615 0 599.02302561490615 -151.66741578797883 0 0 0 0 385.29988521989071 567.63411891152282 0 567.63411891152282 -149.57899991573868 0 0 0 0 366.08882052530453 574.90928161263582 0 574.90928161263582 -122.4906219957702 0 0 0 0 398.02407451134422 742.79233017767547 0 742.79233017767547 -50.75682858464279 0 0 0 0 220.92409653221694 678.6900653986886 0 678.6900653986886 -49.116114571523894 0 0 0 0 224.03000616879342 655.6653030751894 0 655.6653030751894 -18.273748667968903 0 0 0 0 225.1055894283636 495.69318789937097 0 495.69318789937097 -131.34218201351177 0 0 0 0 251.76703844940857 531.44904091077478 0 531.44904091077478 -88.688247846686863 0 0 0 0 268.33479557904502 396.99073952397885 0 396.99073952397885 -185.28526446421711 0 0 0 0 306.46430508235881 406.70143882267257 0 406.70143882267257 -201.47473523258668 0 0 0 0 345.07786772022428 298.23775081361782 0 298.23775081361782 -273.66498112871341 0 0 0 0 153.84511008819391 244.43489836790468 0 244.43489836790468 -256.95391930972983 0 0 0 0 186.41956970450701 244.67211199415033 0 244.67211199415033 -277.07809887745316 0 0 0 0 7.6533670378194074 217.67282943439932 0 217.67282943439932 -258.02666818564467 0 0 0 0 -5.4258631076545498 182.53827796825681 0 182.53827796825681 -246.13977683607663 0 0 0 0 -173.74718366925663 320.43925752972427 0 320.43925752972427 -145.31648048329225 0 0 0 0 16.885333523037843 91.260091038064274 0 91.260091038064274 -196.57889454055112 0 0 0 0 185.29095757229152 230.43333220806744 0 230.43333220806744 -220.49966680388025 0 0 0 0 92.204599405815316 121.07918846625944 0 121.07918846625944 -41.293378560541896 0 0 0 0 387.07404152709569 310.06912568356347 0 310.06912568356347 -206.03394042701439 0 0 0 0 495.89628726023602 131.23023770976761 0 131.23023770976761 -89.613220743733109 0 0 0 0 370.22445063693885 314.39162783627762 0 314.39162783627762 -58.577978033496038 0 0 0 0 7.8025525604581389 9.9127902249556143 0 9.9127902249556143 9.6813881279106511 0 0 0 0 357.66386369702013 287.27933365081481 0 287.27933365081481 -76.536370566740516 0 0 0 0 536.4464511070255 426.78888091519912 0 426.78888091519912 -187.2459100193937 0 0 0 0 552.49507945009282 255.35940128035963 0 255.35940128035963 -53.544812715459557 0 0 0 0 1923.1285713518546 260.55989150880123 0 260.55989150880123 -159.12816578905404 0 0 0 0 3.3777562154670342 2.8760337405031038 0 2.8760337405031038 3.8810556764222497 0 0 0 0 -24.363130992463994 6.0290946113764221 0 6.0290946113764221 23.041625400888734 0 0 0 0 -46.609698980062603 71.488433959584654 0 71.488433959584654 -0.048401532318424499 0 0 0 0 76.63145266189531 16.63214393567614 0 16.63214393567614 -28.675149154056271 0 0 0 0 43.061741175122734 20.556305754413188 0 20.556305754413188 9.5468127274216386 0 0 0 0 43.280209774078685 16.871664304107981 0 16.871664304107981 -39.905916286526917 0 0 0 0 -0.36810760019877442 -1.7817306985029262 0 -1.7817306985029262 0.60395086827350042 0 0 0 0 146.26525283645242 -6.363938828715618 0 -6.363938828715618 -18.986823558341712 0 0 0 0 52.077858633299911 62.467954015774012 0 62.467954015774012 0.050930929725177786 0 0 0 0 18.918282264618028 40.615130066777056 0 40.615130066777056 -0.030549804611518117 0 0 0 0 -52.246417296424625 24.781731904964545 0 24.781731904964545 11.176277506558108 0 0 0 0 9.6052826904924586 37.303856055419601 0 37.303856055419601 8.8519367211374629 0 0 0 0 49.390423082771576 47.790088695641316 0 47.790088695641316 -3.6949610833762563 0 0 0 0 5.206518855436876 3.1859851630570191 0 3.1859851630570191 -0.54977993708757822 0 0 0 0 34.096953929567917 16.656861405921518 0 16.656861405921518 -9.1028750442274031 0 0 0 0 13.898934524652056 4.1307547403614215 0 4.1307547403614215 -23.464466060377319 0 0 0 0 4.5445470930017171 2.616291125153964 0 2.616291125153964 -12.391197853638374 0 0 0 0 192.8137697111124 64.482612271033759 0 64.482612271033759 -27.659135409048758 0 0 0 0 128.28894961216793 24.473292900947854 0 24.473292900947854 -22.614501884992933 0 0 0 0 22.322755486202368 4.91867878773337 0 4.91867878773337 -0.57555849092022981 0 0 0 0 16.657718543354349 15.053619468315446 0 15.053619468315446 -5.0136283952597296 0 0 0 0 9.0300398188373947 52.058408844626683 0 52.058408844626683 -21.132804679116816 0 0 0 0 13.780741632093367 0.46918513053283917 0 0.46918513053283917 -13.168847150456884 0 0 0 0 46.527407697314629 -11.204162358124449 0 -11.204162358124449 -24.833985174853296 0 0 0 0 4.5939908550014366 2.0705587346071752 0 2.0705587346071752 -3.9345918353346576 0 0 0 0 -165.91220530792998 233.01447301137523 0 233.01447301137523 -306.08794985478744 0 0 0 0 3.200544838041445 2.1213375182227168 0 2.1213375182227168 0.4608518299174591 0 0 0 0 -195.40688321498055 200.74990537691338 0 200.74990537691338 -261.35930300185282 0 0 0 0 -121.60816556669306 293.07035090601858 0 293.07035090601858 -297.50060300488622 0 0 0 0 -167.86747262096969 235.28587014675486 0 235.28587014675486 -242.47313670031144 0 0 0 0 -168.66979699934382 246.90672809433454 0 246.90672809433454 -228.04243298493384 0 0 0 0 19.769580237218179 11.995043168439224 0 11.995043168439224 -15.401607930354658 0 0 0 0 44.66366989395874 -0.54450797476238222 0 -0.54450797476238222 -53.736274758004583 0 0 0 0 173.71780156427303 -77.203504623776098 0 -77.203504623776098 93.576335399899108 0 0 0 0 96.105175548491388 85.598427779234044 0 85.598427779234044 104.73073581609287 0 0 0 0 192.53097360108222 43.982330652768724 0 43.982330652768724 -704.43276889440676 0 0 0 0 -85.951235698981691 591.24555147202591 0 591.24555147202591 2065.8613725885807 0 0 0 0 3.1993700021303084 4.1894701561439049 0 4.1894701561439049 0.047183608844122205 0 0 0 0 655.68524477527353 826.14446873586712 0 826.14446873586712 843.31975414146291 0 0 0 0 505.64046454752042 -127.51907827970717 0 -127.51907827970717 -1125.3185832607123 0 0 0 0 17.704849024198353 20.211777697127189 0 20.211777697127189 -13.559888058616202 0 0 0 0 77.14475146715813 334.79388606280918 0 334.79388606280918 713.25963422154018 0 0 0 0 232.51187730659331 476.81038837576671 0 476.81038837576671 239.18041754621663 0 0 0 0 213.80247135141144 371.73932102043545 0 371.73932102043545 -350.13080123625696 0 0 0 0 -43.595904444968255 108.51103333655919 0 108.51103333655919 48.746738090889266 0 0 0 0 -96.765112515427973 -3.4159440266921592 0 -3.4159440266921592 -206.25860845669013 0 0 0 0 7.1041642588770628 171.93402009247438 0 171.93402009247438 -163.82203255237437 0 0 0 0 -50.879361039906144 119.30771946406458 0 119.30771946406458 -156.33542409983056 0 0 0 0 -10.908640869723058 117.99580553110718 0 117.99580553110718 -58.530822450076812 0 0 0 0 -19.251514920881164 74.87040167199666 0 74.87040167199666 -114.96259523346453 0 0 0 0 -31.709799099029624 159.01280198305903 0 159.01280198305903 -53.409969495580299 0 0 0 0 26.145984765253161 60.560869019293023 0 60.560869019293023 -242.66611916473266 0 0 0 0 4.6309112273676192 7.9944437453195363 0 7.9944437453195363 -2.6886914066980907 0 0 0 0 460.94493646209139 301.79653123773915 0 301.79653123773915 1235.7816362966842 0 0 0 0 -57.243782145491423 515.44031394192643 0 515.44031394192643 2020.457627571961 0 0 0 0 221.84312525200676 -177.29593046757873 0 -177.29593046757873 -1498.4308512279576 0 0 0 0 14.08379630473706 12.336715794720185 0 12.336715794720185 -7.4810274747941108 0 0 0 0 -379.67907661139907 -468.35954673092419 0 -468.35954673092419 -1521.0735616582497 0 0 0 0 33.32538304526414 10.813616448144728 0 10.813616448144728 0.039924496040090407 0 0 0 0 58.445285547703861 214.20558566765794 0 214.20558566765794 494.48914878805681 0 0 0 0 46.572433155657563 351.26500650180697 0 351.26500650180697 756.31669486885221 0 0 0 0 -36.212885091392778 479.70983251684174 0 479.70983251684174 605.62121701111937 0 0 0 0 -29.993448976078142 80.189756130871501 0 80.189756130871501 859.73904622505233 0 0 0 0 113.84865765241148 514.98638755509 0 514.98638755509 1611.5943908037207 0 0 0 0 9.6158319670280772 4.0500538759533455 0 4.0500538759533455 0.80125624670104889 0 0 0 0 -152.76239193901097 -212.32404957270137 0 -212.32404957270137 -692.54006005058363 0 0 0 0 281.25405582093799 633.93445454590801 0 633.93445454590801 183.67776151055659 0 0 0 0 574.09683679683894 377.37518871617249 0 377.37518871617249 -772.84796808639476 0 0 0 0 544.52952197197465 252.88437550983599 0 252.88437550983599 779.97375064601147 0 0 0 0 129.32831118218337 -5.3645661236087108 0 -5.3645661236087108 876.98520670806101 0 0 0 0 -43.17692565130983 219.31555572294565 0 219.31555572294565 882.88373320902974 0 0 0 0 -803.08706075357532 264.68982789885649 0 264.68982789885649 1794.1826461771725 0 0 0 0 -290.86108604197398 -104.01359786646572 0 -104.01359786646572 677.31813423079802 0 0 0 0 43.339640503668761 153.47772201543012 0 153.47772201543012 3.4660885615085135 0 0 0 0 -155.49158571230873 310.53036726378923 0 310.53036726378923 1.4782325507255507 0 0 0 0 757.57264596104142 1267.6895742314446 0 1267.6895742314446 1486.5191367896696 0 0 0 0 838.66812065898375 1291.8584108255145 0 1291.8584108255145 1216.1879447052415 0 0 0 0 1.4262632305659877 5.3469574695661777 0 5.3469574695661777 22.623968801032547 0 0 0 0 1936.2880204402181 1733.911193361424 0 1733.911193361424 891.57570886045141 0 0 0 0 1217.8676617006367 1068.7241183220449 0 1068.7241183220449 479.20010309042118 0 0 0 0 -61.607776087133971 -72.608878364622797 0 -72.608878364622797 64.474704272650342 0 0 0 0 789.04946222306353 733.60265224149043 0 733.60265224149043 1078.5688637174408 0 0 0 0 792.01060628772029 808.94173800303361 0 808.94173800303361 736.48120758251753 0 0 0 0 185.12142731313179 -14.150359180966916 0 -14.150359180966916 538.07832705507462 0 0 0 0 1010.8242814990026 81.528110003189795 0 81.528110003189795 -139.40141183919332 0 0 0 0 -595.75706517646086 275.11390443562414 0 275.11390443562414 625.04151655558962 0 0 0 0 -1.2603969182301074 13.364979662566462 0 13.364979662566462 56.237056732757438 0 0 0 0 -290.37194800832003 428.53778240547399 0 428.53778240547399 159.06067136973434 0 0 0 0 -320.64763546721588 206.03768166172085 0 206.03768166172085 -184.25552784730098 0 0 0 0 -905.04140942255981 154.52040733251852 0 154.52040733251852 79.02246718078095 0 0 0 0 3.4652501111617786 11.580528390854294 0 11.580528390854294 6.2119192448679428 0 0 0 0 -1590.0888827485469 -349.18403370372835 0 -349.18403370372835 -409.07017654944502 0 0 0 0 -1023.8843934053002 289.02966710456531 0 289.02966710456531 -22.533459810318163 0 0 0 0 1.0473919932458813 3.9768713786443115 0 3.9768713786443115 5.9467611867528305 0 0 0 0 -36.70392690873814 140.34371567796188 0 140.34371567796188 -162.40968275872729 0 0 0 0 -747.96052253621383 -167.4119355197945 0 -167.4119355197945 -157.82154387178889 0 0 0 0 4.8544432333619625 -31.100833093623805 0 -31.100833093623805 -96.173785200018756 0 0 0 0 -74.681861061970267 142.1535690806777 0 142.1535690806777 -430.49120612058323 0 0 0 0 353.70880282063627 415.23075904014513 0 415.23075904014513 -112.26407776979613 0 0 0 0 -24.37514149100025 107.67830984265674 0 107.67830984265674 -76.02550220310377 0 0 0 0 59.748260587991354 322.13524806800024 0 322.13524806800024 -195.16661033109995 0 0 0 0 -19.011267160791249 -33.872149353153873 0 -33.872149353153873 -368.41577019970282 0 0 0 0 -76.981319141597851 199.6292941854299 0 199.6292941854299 -270.84266384771945 0 0 0 0 -215.36043250300327 230.14767967675675 0 230.14767967675675 -100.60900374616904 0 0 0 0 10.747773257843718 27.501780544042738 0 27.501780544042738 -10.318273576381799 0 0 0 0 195.28828499900737 144.60368862862742 0 144.60368862862742 106.4032357516171 0 0 0 0 102.43220402350926 144.92965549891233 0 144.92965549891233 131.4380452008445 0 0 0 0 65.080536242134258 217.61402602025737 0 217.61402602025737 260.64130443088652 0 0 0 0 253.01663138397453 357.79964066099637 0 357.79964066099637 271.26738694156666 0 0 0 0 223.13253835407886 314.26070904682274 0 314.26070904682274 216.11549331303286 0 0 0 0 159.9519445919359 262.77928543330563 0 262.77928543330563 286.33726222085443 0 0 0 0 338.11319227315607 186.27514812788559 0 186.27514812788559 30.87090952800645 0 0 0 0 790.07032336695011 441.74952695217144 0 441.74952695217144 161.02358828451543 0 0 0 0 -0.17014710609952033 0.9405086068941273 0 0.9405086068941273 3.3756181615843559 0 0 0 0 50.41041960001894 225.61368760019104 0 225.61368760019104 581.40567140138273 0 0 0 0 269.68137189148911 465.95125779440787 0 465.95125779440787 608.15589059795457 0 0 0 0 118.69932656739911 234.47080440647187 0 234.47080440647187 430.27300096985709 0 0 0 0 66.516483541559523 121.85170704092843 0 121.85170704092843 403.29701478505012 0 0 0 0 -136.12742420394716 214.1294100295454 0 214.1294100295454 11.718796453140385 0 0 0 0 -152.02424885606706 334.15501939358364 0 334.15501939358364 -48.017107524101448 0 0 0 0 499.83441917085202 469.39624680129964 0 469.39624680129964 -86.508059060615778 0 0 0 0 -994.92674193005769 -4.2982272995977837 0 -4.2982272995977837 282.90943236058229 0 0 0 0 -494.62116871667968 68.597996455293469 0 68.597996455293469 23.630925761499384 0 0 0 0 -548.56929629365186 213.35267202089744 0 213.35267202089744 -163.36742470777244 0 0 0 0 -552.147696822939 725.06767778825815 0 725.06767778825815 525.38851977358695 0 0 0 0 -663.60445658179924 268.70243107713759 0 268.70243107713759 494.56946335919929 0 0 0 0 185.02149382292191 573.41898385901186 0 573.41898385901186 40.444701690670627 0 0 0 0 -135.52659177312307 570.38328062604705 0 570.38328062604705 40.447664761848159 0 0 0 0 -316.09911445549005 771.43398250956579 0 771.43398250956579 -64.818207166197681 0 0 0 0 -687.99429243899613 681.18072502695304 0 681.18072502695304 -0.14588233824906638 0 0 0 0 -449.69135562294832 472.69789145967661 0 472.69789145967661 -137.78992510510579 0 0 0 0 -140.54021346026911 758.21105347066805 0 758.21105347066805 -0.049996588579233503 0 0 0 0 -15.697608774369467 5.7569514354594702 0 5.7569514354594702 -0.55643004218704917 0 0 0 0 -136.72194142389026 171.28440760563353 0 171.28440760563353 700.48633357143262 0 0 0 0 -5.7776370239496728 2.9511024063262283 0 2.9511024063262283 -0.41018008249502458 0 0 0 0 -156.02025922485882 517.0967945962002 0 517.0967945962002 -691.28833329328063 0 0 0 0 -66.230400761673764 217.84372018609429 0 217.84372018609429 -1.1978393499666709 0 0 0 0 -246.78123165545344 110.88270034403831 0 110.88270034403831 126.18712455202694 0 0 0 0 -10.604823509203925 -74.212980075451924 0 -74.212980075451924 -74.023634459932509 0 0 0 0 -1.4176699665752182 1.3883402596623142 0 1.3883402596623142 -0.68120521872005213 0 0 0 0 -2.3977646821213057 1.995587191573577 0 1.995587191573577 0.0041551699805727951 0 0 0 0 -2.4707282747924637 2.0171981937201053 0 2.0171981937201053 0.0017250002929358743 0 0 0 0 -55.476255790604228 -7.3038565482820559 0 -7.3038565482820559 117.72388023855819 0 0 0 0 -37.279738312012341 52.538278704436379 0 52.538278704436379 344.08872715908001 0 0 0 0 -22.366836975825294 7.2635488329744362 0 7.2635488329744362 -0.82385822110458662 0 0 0 0 38.686118982155676 123.49872491998758 0 123.49872491998758 429.42802789166672 0 0 0 0 102.13718868614478 171.40853536818304 0 171.40853536818304 224.85787272344896 0 0 0 0 3.8396832299877133 80.458277231662578 0 80.458277231662578 376.92682280951703 0 0 0 0 6.8448057248770056 85.612653494699771 0 85.612653494699771 250.58248679457756 0 0 0 0 -17.430738063107128 53.886988141119218 0 53.886988141119218 224.17698791666771 0 0 0 0 71.894331606219453 159.32760499640523 0 159.32760499640523 70.045568546556751 0 0 0 0 240.05913150082461 276.12296886363265 0 276.12296886363265 51.719952666702738 0 0 0 0 72.024624196492368 163.856040157385 0 163.856040157385 224.05954161215777 0 0 0 0 -41.166574919961931 138.47197483431592 0 138.47197483431592 89.594652747757209 0 0 0 0 -25.167893438455962 97.579756585419318 0 97.579756585419318 30.703998998578754 0 0 0 0 -66.007154939349675 113.78458543287343 0 113.78458543287343 49.707647050207015 0 0 0 0 -17.031980594287234 90.530910689885786 0 90.530910689885786 49.70523924007891 0 0 0 0 -55.510239847976209 127.25063294614392 0 127.25063294614392 171.93849484284874 0 0 0 0 4.7074408834669157 42.098994236010185 0 42.098994236010185 208.54169581817587 0 0 0 0 -60.46397152110967 88.425521069433671 0 88.425521069433671 251.61895649459257 0 0 0 0 -19.820441582243802 51.093291054898145 0 51.093291054898145 158.30731806428048 0 0 0 0 -16.074328024130864 2.457281644714385 0 2.457281644714385 49.401975422442774 0 0 0 0 -27.5626673969339 6.9681430907879189 0 6.9681430907879189 -1.400043280742608 0 0 0 0 -12.165026560514207 -23.083852937691518 0 -23.083852937691518 11.763961782093247 0 0 0 0 -6.115155276871902 1.9129282477147882 0 1.9129282477147882 -0.96315066595077781 0 0 0 0 -2.7024109669440577 6.5703635547251906 0 6.5703635547251906 4.5903408481790393 0 0 0 0 -2.7465537624341891 8.4937649877974764 0 8.4937649877974764 0.015951100322126877 0 0 0 0 -16.036643348546932 11.329078766570092 0 11.329078766570092 12.990104379699915 0 0 0 0 1.3177497097010531 0.44161523600728003 0 0.44161523600728003 0.19449273617127005 0 0 0 0 39.322089102942755 42.726906361669535 0 42.726906361669535 34.912436809456267 0 0 0 0 49.74610961462804 64.548657632676623 0 64.548657632676623 -0.43536668244599291 0 0 0 0 27.562251205938537 24.457228411363758 0 24.457228411363758 11.779011705701123 0 0 0 0 18.717360686102399 13.357731543893721 0 13.357731543893721 -3.2187032275592138 0 0 0 0 120.30018832427595 57.36445242886839 0 57.36445242886839 -30.421111292191199 0 0 0 0 -33.826257926324615 14.052846693542961 0 14.052846693542961 138.11049788519449 0 0 0 0 -18.002226408786438 12.847126071207562 0 12.847126071207562 20.13836756434327 0 0 0 0 -8.1722856867804694 19.600067518851574 0 19.600067518851574 36.060277870274149 0 0 0 0 -28.875625571928254 18.288201726094485 0 18.288201726094485 38.676745771517744 0 0 0 0 -9.8518394303629666 5.2721798322819069 0 5.2721798322819069 0.97919803904419922 0 0 0 0 -29.988332841714676 14.781004235807686 0 14.781004235807686 1.8833410540495379 0 0 0 0 5.2226866002520183 344.25297273822252 0 344.25297273822252 685.07372768882487 0 0 0 0 16.339522830783608 118.23363435860665 0 118.23363435860665 306.28024527357411 0 0 0 0 253.40540896263519 342.48761855005432 0 342.48761855005432 252.44857124024566 0 0 0 0 31.605577453508886 96.512076775463356 0 96.512076775463356 122.21298595181725 0 0 0 0 140.31474711697501 133.1128901489501 0 133.1128901489501 1.5797305024384358 0 0 0 0 58.675350816529317 44.378971430509409 0 44.378971430509409 93.92574839934241 0 0 0 0 53.845614860871251 85.87717734529906 0 85.87717734529906 61.803739415045129 0 0 0 0 21.535744598131888 12.946473950320069 0 12.946473950320069 -3.6878812701767885 0 0 0 0 62.511818411750937 -1.8834917108069931 0 -1.8834917108069931 -0.16613947399309836 0 0 0 0 -13.859998955303126 -21.874948832566588 0 -21.874948832566588 -29.224910784949316 0 0 0 0 0.51249606458495123 1.5142404612553264 0 1.5142404612553264 -3.3591815079439655 0 0 0 0 10.179047132622827 67.205660006287872 0 67.205660006287872 85.868102054024348 0 0 0 0 -0.34020342699932371 28.048998688471329 0 28.048998688471329 88.269083710356426 0 0 0 0 29.469399091112123 8.9279673864686089 0 8.9279673864686089 -2.477457549266127 0 0 0 0 130.61398352151809 73.483344289135857 0 73.483344289135857 132.354659695593 0 0 0 0 -37.521517613531614 -0.62258409221976763 0 -0.62258409221976763 165.776042514403 0 0 0 0 92.176177917347104 147.10644256960131 0 147.10644256960131 168.03046127292328 0 0 0 0 13.446977063058512 102.535014027535 0 102.535014027535 222.27009514604288 0 0 0 0 119.41031027920144 112.81840548048058 0 112.81840548048058 214.25211317860521 0 0 0 0 319.13959840089501 -316.18140883959859 0 -316.18140883959859 -58.989193517096282 0 0 0 0 -6.7856484403365158 7.2575624795988603 0 7.2575624795988603 -0.32186219616981049 0 0 0 0 -86.619227014947683 -49.763217424975664 0 -49.763217424975664 -117.88983036803984 0 0 0 0 -131.35139811081353 13.046736192420212 0 13.046736192420212 -28.591363355066278 0 0 0 0 -7.5400051014948986 102.05263368571468 0 102.05263368571468 191.99570665173087 0 0 0 0 -158.24309710672969 296.63958411510976 0 296.63958411510976 108.72935666766261 0 0 0 0 3.371091651109964 62.388192321042879 0 62.388192321042879 -31.644078965826338 0 0 0 0 38.9507560302618 64.464126253649738 0 64.464126253649738 -50.569599108202965 0 0 0 0 -2.199053645770686 9.1187466690717827 0 9.1187466690717827 0.22694283430432627 0 0 0 0 -53.521767464761069 69.454003517552337 0 69.454003517552337 -34.131588845684746 0 0 0 0 -87.6183501340156 51.912015574438556 0 51.912015574438556 -25.922658506489825 0 0 0 0 24.583862805655144 19.739436937282335 0 19.739436937282335 -11.980460066253727 0 0 0 0 -50.419484855336123 62.978406418093073 0 62.978406418093073 32.366999546029547 0 0 0 0 -47.397020268053211 16.22962500389167 0 16.22962500389167 -48.443472427228699 0 0 0 0 -77.001632545794564 44.460322925871878 0 44.460322925871878 5.1914903749420773 0 0 0 0 -56.088445992400011 41.568216266830859 0 41.568216266830859 -5.3690474230825203 0 0 0 0 -56.973491894150357 41.531059590990481 0 41.531059590990481 1.991517564150854 0 0 0 0 -74.154291072125716 24.654127676672942 0 24.654127676672942 -15.210191283520544 0 0 0 0 -22.563062395871384 81.585233459969459 0 81.585233459969459 109.62177786059328 0 0 0 0 -11.459904972793311 92.973760400750507 0 92.973760400750507 76.903208654810442 0 0 0 0 -22.000953259124799 94.967203991243878 0 94.967203991243878 93.307409240631387 0 0 0 0 -29.256835557266058 28.431881605499779 0 28.431881605499779 -1.9393385581155087 0 0 0 0 -1.9139442903597228 81.286699209631479 0 81.286699209631479 37.647185281952261 0 0 0 0 -3.5023933673001011 73.863403610284877 0 73.863403610284877 76.38009602684906 0 0 0 0 -0.87167616282567906 77.81060148457982 0 77.81060148457982 58.407116827729624 0 0 0 0 6.9424274750945187 93.603268786075205 0 93.603268786075205 16.791007575244294 0 0 0 0 6.0365930274583661 93.135211595083092 0 93.135211595083092 20.504474400069739 0 0 0 0 -13.784668862674152 107.9227262078457 0 107.9227262078457 38.474447363398212 0 0 0 0 -17.702741701094055 91.427069919584028 0 91.427069919584028 76.575568826370727 0 0 0 0 -22.370382897886088 133.95112937442127 0 133.95112937442127 23.919267643090279 0 0 0 0 -3.5708262136467965 95.155741856895474 0 95.155741856895474 -34.341057142901263 0 0 0 0 -2.849352870521102 51.705031042930614 0 51.705031042930614 -36.587304743705317 0 0 0 0 -2.9728333508192009 113.98066986456979 0 113.98066986456979 -3.7190773774054833 0 0 0 0 26.219995028481208 91.917439313670911 0 91.917439313670911 -60.145638456117013 0 0 0 0 0.29000605622240982 24.89299386064522 0 24.89299386064522 -148.29113828089612 0 0 0 0 45.060991846503384 52.485811623377231 0 52.485811623377231 -40.124301674328308 0 0 0 0 0.13732700144853993 20.73463049037769 0 20.73463049037769 1.3323334381073693 0 0 0 0 21.039831932001107 72.644074715641182 0 72.644074715641182 -21.949363834632095 0 0 0 0 33.652966101781203 69.997231201385148 0 69.997231201385148 4.4945175608754653 0 0 0 0 61.975855620527 67.971666667086538 0 67.971666667086538 -35.113410760844999 0 0 0 0 -20.972024900842925 37.596924283663441 0 37.596924283663441 -11.589883851211496 0 0 0 0 67.020667271071943 86.607696862431112 0 86.607696862431112 -8.9228331279809936 0 0 0 0 -13.472250430076201 79.446639466816123 0 79.446639466816123 1.6536634249459894 0 0 0 0 -14.210340548199383 52.927196783723048 0 52.927196783723048 -11.209831311090966 0 0 0 0 -61.444561645257636 53.282300434184435 0 53.282300434184435 3.8628041292831767 0 0 0 0 -63.050188067590625 43.865849405272456 0 43.865849405272456 -5.4952186412410811 0 0 0 0 2.8503568110267743 11.125320834740606 0 11.125320834740606 6.599923890576477 0 0 0 0 -62.272784338365454 51.961837276132428 0 51.961837276132428 13.698014763482206 0 0 0 0 -16.76623511873321 13.012678634861608 0 13.012678634861608 29.980646418103532 0 0 0 0 -8.7769848613347676 41.979533216194341 0 41.979533216194341 18.848737189407984 0 0 0 0 5.2990795549041732 6.5634429341207934 0 6.5634429341207934 4.5520384966493737 0 0 0 0 -90.541906767693945 52.679652549697494 0 52.679652549697494 18.402899695276574 0 0 0 0 -0.033582176454729051 73.545813992994226 0 73.545813992994226 -8.8703728253531153 0 0 0 0 29.641972674403405 28.678496205711781 0 28.678496205711781 1.5496341229882091 0 0 0 0 27.06693587598873 41.537569589809834 0 41.537569589809834 -0.85914704236273565 0 0 0 0 44.785402463840001 39.665347942926019 0 39.665347942926019 10.794912844434293 0 0 0 0 50.052983004770795 127.91451654068806 0 127.91451654068806 -294.91042821748124 0 0 0 0 44.27679279947597 145.05255269468307 0 145.05255269468307 -177.9355433582823 0 0 0 0 50.206346691261878 49.233221685391051 0 49.233221685391051 21.924113985957632 0 0 0 0 36.070372002230215 103.81834106818133 0 103.81834106818133 -126.73322148701845 0 0 0 0 20.301708430566194 38.693994301678416 0 38.693994301678416 -3.403772380238923 0 0 0 0 -43.431079627236613 59.938559420261299 0 59.938559420261299 8.2706216062870226 0 0 0 0 76.574913347263646 66.678418331476678 0 66.678418331476678 -118.58812339433098 0 0 0 0 91.985441827376235 69.41453787080809 0 69.41453787080809 -119.97959072028971 0 0 0 0 115.14978615245309 31.512888853230834 0 31.512888853230834 -44.881156988366001 0 0 0 0 170.99752105938751 71.171314227132825 0 71.171314227132825 -40.950369190692527 0 0 0 0 71.839285646325152 46.413502305014845 0 46.413502305014845 -42.440483096615935 0 0 0 0 109.82947116140713 92.235845930430514 0 92.235845930430514 -124.01996083207268 0 0 0 0 -11.509722552851599 72.279106250942277 0 72.279106250942277 14.129319563253375 0 0 0 0 47.781173618561297 -7.925351842022792 0 -7.925351842022792 -248.96260285969765 0 0 0 0 53.550174437410533 30.231333969304615 0 30.231333969304615 -159.40830399937113 0 0 0 0 111.95816193952123 26.600284953332448 0 26.600284953332448 -145.85224204743918 0 0 0 0 69.847440746041684 81.692853268315957 0 81.692853268315957 4.6865164479022496 0 0 0 0 118.30958907910281 164.88465492452087 0 164.88465492452087 98.094037150818622 0 0 0 0 146.22506204100864 203.57772488200135 0 203.57772488200135 -115.56922166715231 0 0 0 0 102.96303524014002 139.21306790988092 0 139.21306790988092 129.30333141571646 0 0 0 0 46.641878880021977 149.0867483214206 0 149.0867483214206 30.172564029955538 0 0 0 0 19.043870025481738 163.69753340948228 0 163.69753340948228 122.45638849625902 0 0 0 0 -11.921490829372487 128.43440213517897 0 128.43440213517897 -7.5986943082971266 0 0 0 0 9.7425614343883353 54.761814521814813 0 54.761814521814813 -54.795946466227178 0 0 0 0 -51.42306852665206 134.96144946791173 0 134.96144946791173 36.512980953168153 0 0 0 0 -6.8897321572439978 143.35339796807966 0 143.35339796807966 -16.103323267569067 0 0 0 0 -80.282929440189037 204.40340997291059 0 204.40340997291059 -34.140760424845212 0 0 0 0 -88.315197949341382 176.03021787334001 0 176.03021787334001 -19.778491544027929 0 0 0 0 -182.82645952215535 133.12165784976969 0 133.12165784976969 -38.831025771054556 0 0 0 0 -36.412297198694432 -28.937157793145161 0 -28.937157793145161 -187.84072319950792 0 0 0 0 -220.10751892871485 -8.0025300914712716 0 -8.0025300914712716 -90.147544591191036 0 0 0 0 -37.059833000486833 55.484702620713506 0 55.484702620713506 -77.992691759565787 0 0 0 0 -46.338695134756563 60.165063493892376 0 60.165063493892376 -52.313976836740039 0 0 0 0 -135.85596462125977 66.830190439501166 0 66.830190439501166 -36.716438836941961 0 0 0 0 100.77608794515618 224.5983992325414 0 224.5983992325414 67.697854629746871 0 0 0 0 8.8409635653174519 232.39372605960671 0 232.39372605960671 -26.943020509905182 0 0 0 0 95.3267484447897 174.20985398130506 0 174.20985398130506 11.998200020920194 0 0 0 0 130.10862441696008 221.77749631298866 0 221.77749631298866 119.84114256553312 0 0 0 0 20.686670093442444 194.57560445540275 0 194.57560445540275 128.78683432185062 0 0 0 0 209.94279124779951 138.45690352798556 0 138.45690352798556 -94.702917897599036 0 0 0 0 88.999885563891439 240.73173054407016 0 240.73173054407016 346.99153830957221 0 0 0 0 159.10132547012472 186.42538369244357 0 186.42538369244357 82.848664225221 0 0 0 0 80.950225620376841 66.599561676970552 0 66.599561676970552 118.22808671832718 0 0 0 0 62.385005020136859 14.696663438956662 0 14.696663438956662 -0.5598747313419068 0 0 0 0 121.84867532898352 1303.8994584923057 0 1303.8994584923057 -1258.209930028439 0 0 0 0 -62.788141447806993 817.6617157802084 0 817.6617157802084 1722.1587914004249 0 0 0 0 4.0559170854968087 3.2255609358188337 0 3.2255609358188337 -2.205105947264979 0 0 0 0 420.57133831335341 -426.11139676785388 0 -426.11139676785388 -2115.1833794365448 0 0 0 0 648.66834868767182 154.50417065485726 0 154.50417065485726 -834.43981208197511 0 0 0 0 -60.920710876884186 76.970885345906936 0 76.970885345906936 74.874259264802276 0 0 0 0 2.4412344753399644 4.5618495235232324 0 4.5618495235232324 -9.5976748992610368 0 0 0 0 18.125670558838465 135.32931731090503 0 135.32931731090503 23.677420076870476 0 0 0 0 -45.458470653702534 25.906853800115641 0 25.906853800115641 -82.807399739453103 0 0 0 0 -45.584960153181726 21.94099558545048 0 21.94099558545048 -69.944694525933301 0 0 0 0 11.14283917853491 25.794402131281913 0 25.794402131281913 -37.15863708255246 0 0 0 0 0.27009798456362688 0.58520719896596063 0 0.58520719896596063 -10.658668154275031 0 0 0 0 2.5996923000748211 0.16609664521274681 0 0.16609664521274681 -105.31046514089394 0 0 0 0 -61.317584740574603 53.834416578651144 0 53.834416578651144 48.974266404839 0 0 0 0 86.498623136545575 182.68678485193595 0 182.68678485193595 42.154543451928475 0 0 0 0 81.074647069272032 240.94062504682006 0 240.94062504682006 141.93553810557205 0 0 0 0 -23.078018699390668 -144.46678782712843 0 -144.46678782712843 -139.44752060029714 0 0 0 0 17.187637328763863 19.587769357158784 0 19.587769357158784 -49.005979061148857 0 0 0 0 -75.704602682109908 41.174094961770606 0 41.174094961770606 304.51483124370134 0 0 0 0 6.1897110717579693 10.034369010973386 0 10.034369010973386 -4.8929450013964413 0 0 0 0 20.169433795223085 68.332641370873716 0 68.332641370873716 -68.926671893761522 0 0 0 0 -15.729254635733014 13.606072395106821 0 13.606072395106821 -15.90317651807527 0 0 0 0 -9.0851187582065904 8.9502162811058952 0 8.9502162811058952 -53.740950955811968 0 0 0 0 43.464567738548794 -27.940991445349027 0 -27.940991445349027 -84.358444890298415 0 0 0 0 20.991767049936243 9.4090494515439786 0 9.4090494515439786 -37.34462865770729 0 0 0 0 14.388542346861868 23.5088033879656 0 23.5088033879656 30.352731884751847 0 0 0 0 13.824138200279343 27.276625434027693 0 27.276625434027693 -18.794535058872619 0 0 0 0 28.495626737858402 6.5938348486597533 0 6.5938348486597533 -128.95235970076828 0 0 0 0 -22.0217125087147 0.83252472903041053 0 0.83252472903041053 -54.070786599320968 0 0 0 0 -5.031557819649592 9.0512336411170651 0 9.0512336411170651 -3.9785267086266742 0 0 0 0 -23.000336833136316 45.896262782251142 0 45.896262782251142 17.21155672542227 0 0 0 0 10.53920323772536 -46.431297734103282 0 -46.431297734103282 -15.772223494423088 0 0 0 0 87.851302156872407 43.271220472466666 0 43.271220472466666 -34.626972382101485 0 0 0 0 70.366805881751588 123.09656358186521 0 123.09656358186521 117.57838572542823 0 0 0 0 -10.466773537974632 50.422369025427997 0 50.422369025427997 4.7421236880836659 0 0 0 0 -10.473976870936301 14.827535652784888 0 14.827535652784888 -10.689091614861582 0 0 0 0 40.855121553604477 30.108021496838774 0 30.108021496838774 5.2583678273367696 0 0 0 0 -28.552008629721968 69.191674057139608 0 69.191674057139608 18.384190210190354 0 0 0 0 -20.963046235699721 46.549326235759452 0 46.549326235759452 84.060010188564775 0 0 0 0 -18.569962008561561 -17.127608038223116 0 -17.127608038223116 -0.95253241431782953 0 0 0 0 151.42169290478159 145.98928333557524 0 145.98928333557524 178.64516391116194 0 0 0 0 189.53032201674796 116.44085693028683 0 116.44085693028683 14.997586521025369 0 0 0 0 126.37120104082169 303.82840723840491 0 303.82840723840491 373.28655049584631 0 0 0 0 257.04472957661164 264.70439397485461 0 264.70439397485461 158.01819014076614 0 0 0 0 70.131380803395587 105.35989147641158 0 105.35989147641158 149.32922962814791 0 0 0 0 113.31791622076344 188.6699733707901 0 188.6699733707901 343.84232720383443 0 0 0 0 154.9628952645071 197.07669516853093 0 197.07669516853093 154.32036484441778 0 0 0 0 91.688732251852343 74.154877728436986 0 74.154877728436986 141.8810072813576 0 0 0 0 46.526257349774824 134.73533769979258 0 134.73533769979258 63.643017114984104 0 0 0 0 32.252128399395588 12.913381179841963 0 12.913381179841963 36.357421973552846 0 0 0 0 226.40176270734082 217.62834607052355 0 217.62834607052355 5.6651218951810733 0 0 0 0 131.66516832258003 222.49579218519648 0 222.49579218519648 83.468500360351754 0 0 0 0 301.32003211473057 113.0162260658326 0 113.0162260658326 152.23524778072897 0 0 0 0 245.89072771751808 365.51569811350919 0 365.51569811350919 173.19175861825352 0 0 0 0 159.88626971948906 264.20919582062561 0 264.20919582062561 282.28335680281634 0 0 0 0 156.07874073388186 34.484398570782162 0 34.484398570782162 -6.7488226450586808 0 0 0 0 48.95954795052694 58.271255916593873 0 58.271255916593873 -163.19208393689769 0 0 0 0 139.97514225873601 39.046676156642206 0 39.046676156642206 -181.64991834792818 0 0 0 0 -26.790037390390353 -53.800924366772961 0 -53.800924366772961 -210.12622936370462 0 0 0 0 38.026696233229814 -74.48315292881307 0 -74.48315292881307 -273.06218880997767 0 0 0 0 2.7837316309607516 0.11407033655673615 0 0.11407033655673615 -0.020157483244059193 0 0 0 0 -48.337803742595497 -53.406911483751173 0 -53.406911483751173 -242.81628317649665 0 0 0 0 50.399256501681521 -84.174312266990455 0 -84.174312266990455 -246.73481492458814 0 0 0 0 64.445899153937717 -43.387239371615578 0 -43.387239371615578 -227.70208932243258 0 0 0 0 -0.11139254704903578 -166.65024783268018 0 -166.65024783268018 -410.80587283305067 0 0 0 0 -27.93363929143743 3.3702569895758643 0 3.3702569895758643 -265.26599849726699 0 0 0 0 172.31851973891753 -81.819024873642775 0 -81.819024873642775 -286.634959265818 0 0 0 0 289.90936864366813 184.90364896279789 0 184.90364896279789 -122.01841471310399 0 0 0 0 579.66473902373764 353.12590336507856 0 353.12590336507856 -194.27709729834714 0 0 0 0 95.838697245912499 64.924153472336002 0 64.924153472336002 -196.19236351884319 0 0 0 0 -34.100392009331699 36.434347482016165 0 36.434347482016165 -67.638363350313739 0 0 0 0 33.916964019852458 -1.6018705369951931 0 -1.6018705369951931 -13.889090778924583 0 0 0 0 570.19472991507791 84.306747577666101 0 84.306747577666101 -38.7197478225753 0 0 0 0 -34.246614068717463 44.565597399643593 0 44.565597399643593 -117.02472681583458 0 0 0 0 1.8982204619653764 2.5808664595669306 0 2.5808664595669306 3.8473608756788451 0 0 0 0 459.85437502202331 613.92072606045258 0 613.92072606045258 -49.504871540331806 0 0 0 0 34.26936433006631 355.36957800674281 0 355.36957800674281 210.3051599617429 0 0 0 0 212.35514704393427 223.05269655781376 0 223.05269655781376 -53.596224884371622 0 0 0 0 1344.4570588782663 241.21534879373212 0 241.21534879373212 -675.30358733268508 0 0 0 0 -98.937971369356092 166.63132629888423 0 166.63132629888423 239.45579871800874 0 0 0 0 -3.134725137624315 1.0294568756074369 0 1.0294568756074369 -0.64397762248638912 0 0 0 0 20.381196271597219 385.72618114510624 0 385.72618114510624 -678.41929420159431 0 0 0 0 -612.48446467785834 -25.036565063484886 0 -25.036565063484886 -95.057924055528929 0 0 0 0 47.119523000708796 296.91100906523934 0 296.91100906523934 -40.037003216952144 0 0 0 0 -167.82096412174724 158.8731636732191 0 158.8731636732191 514.04073778408929 0 0 0 0 226.69947365558255 73.452692773476883 0 73.452692773476883 -360.94148737035903 0 0 0 0 -2.1998374548414645 0.86017679950816728 0 0.86017679950816728 -0.75864008226240998 0 0 0 0 -565.41613853038871 -63.920266587694641 0 -63.920266587694641 -5.2036614861135604 0 0 0 0 1057.5247164985321 687.46274176257793 0 687.46274176257793 -43.048274798013153 0 0 0 0 51.045164011055022 152.7193680920318 0 152.7193680920318 -28.026235911307595 0 0 0 0 6.0272118575267086 -44.894786052565905 0 -44.894786052565905 286.01563537820766 0 0 0 0 82.853511855878878 185.52912216961431 0 185.52912216961431 434.28925849669031 0 0 0 0 -59.87671383479028 -251.2596282937011 0 -251.2596282937011 81.909693004898145 0 0 0 0 -35.620795417328509 76.136944070440222 0 76.136944070440222 561.94754585555347 0 0 0 0 121.39761705106866 107.02200759457628 0 107.02200759457628 -261.1026872852417 0 0 0 0 78.073381970025366 178.30606959777651 0 178.30606959777651 651.92952405927645 0 0 0 0 18.434534657961819 7.218392107634827 0 7.218392107634827 1.6129128694865251 0 0 0 0 354.04110429724096 191.24157657180331 0 191.24157657180331 546.72523946985348 0 0 0 0 173.14453695613338 173.48627821155787 0 173.48627821155787 545.67157012347889 0 0 0 0 5.8861728121366923 4.7825674972327761 0 4.7825674972327761 2.8623996121132222 0 0 0 0 6.5695486726909671 3.0923642263327622 0 3.0923642263327622 -1.7716141019840848 0 0 0 0 16.920491801140088 103.66216157861345 0 103.66216157861345 510.75130045019978 0 0 0 0 2.7324273279757918 2.3071829955733563 0 2.3071829955733563 -0.77672728539255331 0 0 0 0 5.236173954226615 3.1527799300602055 0 3.1527799300602055 0.0016096434951068884 0 0 0 0 120.38795641309298 219.095275878557 0 219.095275878557 538.44158092649377 0 0 0 0 1002.4321891881918 291.9446955892563 0 291.9446955892563 580.03232391018537 0 0 0 0 5.4123457725854678 9.0218992767113377 0 9.0218992767113377 7.026998296218153 0 0 0 0 5.449175927938029 4.4796731653193831 0 4.4796731653193831 -2.3923912945547272 0 0 0 0 72.083448835306626 575.68070425084443 0 575.68070425084443 584.90079940229043 0 0 0 0 471.40845488402192 117.04692641644942 0 117.04692641644942 -296.01810614219676 0 0 0 0 5.823982198244444 2.2669423771227031 0 2.2669423771227031 1.0312108984823496 0 0 0 0 178.41581646373015 -37.988879030825046 0 -37.988879030825046 -352.84036022038345 0 0 0 0 -684.38577418660134 16.047753733146237 0 16.047753733146237 1538.7359098472916 0 0 0 0 9.7109340866445564 5.6903517009632196 0 5.6903517009632196 0.003655661093944218 0 0 0 0 9.3652450756394501 5.6031281141777072 0 5.6031281141777072 4.5323729963056394 0 0 0 0 7.9807671429298352 8.6306142293869925 0 8.6306142293869925 0.0031646184215787798 0 0 0 0 4.9622083753420156 10.57662897145201 0 10.57662897145201 3.9129910775918688 0 0 0 0 4.1895216375760356 9.2456820447141581 0 9.2456820447141581 5.2190815195353935 0 0 0 0 -95.164589467174665 75.207824020852058 0 75.207824020852058 105.17743142322433 0 0 0 0 -3.4197678547758485 7.3207278330484087 0 7.3207278330484087 -4.3408255590775298 0 0 0 0 -3.3454314045775391 13.677779105601076 0 13.677779105601076 11.034188754038041 0 0 0 0 0.2458327442591326 13.802948902879507 0 13.802948902879507 0.0056089867575792596 0 0 0 0 -7.7335017275163409 12.630427808891909 0 12.630427808891909 4.9434606950453599 0 0 0 0 -30.941107250180721 10.117008075008926 0 10.117008075008926 4.2190487192710862 0 0 0 0 -11.408389922886272 17.586851494197617 0 17.586851494197617 -0.0035628332443593536 0 0 0 0 -10.352115032802431 17.041235167496779 0 17.041235167496779 3.6357317067304393 0 0 0 0 -12.541949573018428 17.809237978700367 0 17.809237978700367 12.516056692940765 0 0 0 0 -3.5523763036853779 15.574956094213121 0 15.574956094213121 4.0762955126974703 0 0 0 0 28.08332526198501 45.917088976897503 0 45.917088976897503 10.842625971254165 0 0 0 0 -13.085417905298648 12.868424938157162 0 12.868424938157162 -3.2345250831859644 0 0 0 0 -36.355249891406856 4.1875473864347441 0 4.1875473864347441 -4.2031926641138853 0 0 0 0 10.295110850143828 38.794192271190695 0 38.794192271190695 -27.800664863971178 0 0 0 0 7.7253846352468685 17.096122788679878 0 17.096122788679878 4.3830227272744864 0 0 0 0 -0.96066998264723225 16.969136643318052 0 16.969136643318052 -9.2874844760808628 0 0 0 0 7.8099129157774598 13.770150375629903 0 13.770150375629903 -4.8642109272983589 0 0 0 0 -0.88675892392694067 16.424152418793092 0 16.424152418793092 6.3102307730527727 0 0 0 0 3.4426340049813007 28.637062227191564 0 28.637062227191564 58.101751689777302 0 0 0 0 7.7561345204012468 29.881987478944211 0 29.881987478944211 0.12562630549655296 0 0 0 0 17.537954973995511 41.815155375094037 0 41.815155375094037 -4.5150352470373036 0 0 0 0 18.510841771952983 32.912090988349519 0 32.912090988349519 -24.888805631620926 0 0 0 0 1.4929017271133489 43.475850415517925 0 43.475850415517925 60.650656798352429 0 0 0 0 7.0453196705420851 30.32367896901269 0 30.32367896901269 29.279269966456923 0 0 0 0 -40.495158025643832 38.238114553929336 0 38.238114553929336 59.837580480783799 0 0 0 0 52.235106160833311 49.376939870158822 0 49.376939870158822 -24.124003853372415 0 0 0 0 16.683600627879166 16.206078965804647 0 16.206078965804647 10.641482834965586 0 0 0 0 -1.1253821124382171 2.9594707233053725 0 2.9594707233053725 1.9712294851169929 0 0 0 0 57.942093797893904 60.522510076600156 0 60.522510076600156 -5.7841588717274135 0 0 0 0 26.397705564173521 101.59588684478513 0 101.59588684478513 -16.26873363264167 0 0 0 0 -40.005073524582258 51.07044112424046 0 51.07044112424046 20.631316633964161 0 0 0 0 30.145429790993148 -17.087668301366648 0 -17.087668301366648 -229.24111547779103 0 0 0 0 -55.092413029573436 -21.404904539216659 0 -21.404904539216659 -85.123953088969756 0 0 0 0 -2.9810123144852696 49.019033388885873 0 49.019033388885873 -129.59872333984094 0 0 0 0 -15.196471157330961 81.494101766809763 0 81.494101766809763 21.024974068088341 0 0 0 0 19.231522713409504 96.126538294833153 0 96.126538294833153 -59.345612040006017 0 0 0 0 -78.608318969272659 108.35140889277682 0 108.35140889277682 26.154229125764687 0 0 0 0 -31.725145808499292 177.98712264159622 0 177.98712264159622 113.92145903817436 0 0 0 0 136.07450096468847 185.74269914454908 0 185.74269914454908 -64.51479163611657 0 0 0 0 -223.32803260170749 169.85542143974999 0 169.85542143974999 114.69971620605793 0 0 0 0 42.770088666295123 39.247721357709452 0 39.247721357709452 -6.9263471879457938 0 0 0 0 -2.5382270314657944 42.214005336332775 0 42.214005336332775 83.497491887330398 0 0 0 0 13.494410487888715 3.9828562371261071 0 3.9828562371261071 2.2023334843097686 0 0 0 0 852.07120310473147 -474.73971396672641 0 -474.73971396672641 220.71397414865351 0 0 0 0 637.71972725861633 671.12840464188776 0 671.12840464188776 440.38900350377662 0 0 0 0 78.151061178576128 -36.097427582384626 0 -36.097427582384626 -20.483143840028788 0 0 0 0 46.412364639545558 -29.161765199522051 0 -29.161765199522051 1.1845689092115208 0 0 0 0 51.908968631780226 6.0101627253043262 0 6.0101627253043262 -68.341824011127756 0 0 0 0 45.954563178432636 -26.238091212409017 0 -26.238091212409017 -16.242102983218501 0 0 0 0 0.98840656171070407 -1.2720646259453119 0 -1.2720646259453119 -0.52375216461749119 0 0 0 0 -0.97001289603134211 -0.65058972387293679 0 -0.65058972387293679 1.2355586398186915 0 0 0 0 2.4789346449742879 2.4933198963553878 0 2.4933198963553878 -0.0012815894798482118 0 0 0 0 0.5307286506284683 7.6962774199966653 0 7.6962774199966653 5.5800267530780445 0 0 0 0 8.4935732459098716 2.5675960808569656 0 2.5675960808569656 -8.4234543793962473 0 0 0 0 25.602715715707745 6.1458928734136862 0 6.1458928734136862 -3.3352248361470629 0 0 0 0 4.9410512078829925 16.109678077318677 0 16.109678077318677 -4.4033556234207936 0 0 0 0 4.8796934721349317 16.259391554062859 0 16.259391554062859 -2.7236299215001054 0 0 0 0 -24.497304943812196 24.810416098067435 0 24.810416098067435 -4.6252825642877724 0 0 0 0 6.8082971228304814 14.312592029395091 0 14.312592029395091 -4.526307815380278 0 0 0 0 7.4451463482282172 20.606332646100654 0 20.606332646100654 -3.3118681457823129 0 0 0 0 6.7797710158793052 10.248606601498224 0 10.248606601498224 -6.843864359701719 0 0 0 0 0.96763283535355527 17.432402657152295 0 17.432402657152295 -4.7204974214988624 0 0 0 0 10.89329997018649 22.436904085669084 0 22.436904085669084 -35.37475736307897 0 0 0 0 7.6547537857452213 11.931865354993278 0 11.931865354993278 -3.7282243497956529 0 0 0 0 5.4991362428609136 24.580478128738832 0 24.580478128738832 -22.920999658890651 0 0 0 0 8.6722307999734767 23.026371644322353 0 23.026371644322353 -10.445777905726572 0 0 0 0 16.457930023389054 33.384139285160927 0 33.384139285160927 -21.865516043423668 0 0 0 0 27.158135832985863 57.529345471455599 0 57.529345471455599 17.979954279253434 0 0 0 0 15.368307341837863 30.193910620230781 0 30.193910620230781 -7.3703203615150414 0 0 0 0 25.240878286583211 38.283050480581096 0 38.283050480581096 -19.053371947462438 0 0 0 0 -20.910489753492584 41.502342371924897 0 41.502342371924897 -24.563785971840844 0 0 0 0 -11.429484306261656 12.250069496214564 0 12.250069496214564 -0.59170133719453588 0 0 0 0 4.9954936923022615 30.297957686554582 0 30.297957686554582 -23.532319061756425 0 0 0 0 -2.9355890384139443 19.788128905405777 0 19.788128905405777 -17.043293560303439 0 0 0 0 29.732934378778737 -2.4618829197861487 0 -2.4618829197861487 -18.099574856038089 0 0 0 0 -25.398376761804684 31.663575683887757 0 31.663575683887757 19.395472481381148 0 0 0 0 22.152660853382258 46.880023147175962 0 46.880023147175962 4.6781826166115934 0 0 0 0 89.302277824346675 46.571511648566229 0 46.571511648566229 -17.571784611282055 0 0 0 0 115.14859100207832 74.64170024987834 0 74.64170024987834 -40.072206179753266 0 0 0 0 46.108800917536428 18.540061609324766 0 18.540061609324766 -24.558494224191236 0 0 0 0 32.954132337312736 14.101458217172585 0 14.101458217172585 1.8223361789186967 0 0 0 0 -40.901017263095127 42.401632093973603 0 42.401632093973603 -20.839909602073021 0 0 0 0 19.497095690073365 -49.090542194842783 0 -49.090542194842783 54.630342448108422 0 0 0 0 326.81094183403729 -126.66419303586736 0 -126.66419303586736 32.898689412875683 0 0 0 0 137.0936269008198 53.375808116637927 0 53.375808116637927 -26.36886385694379 0 0 0 0 109.53565271774278 8.7212279614941508 0 8.7212279614941508 12.0312832300624 0 0 0 0 320.41075291389279 49.690888959121366 0 49.690888959121366 -109.72319460675863 0 0 0 0 323.78454626092571 -5.0487641115032602 0 -5.0487641115032602 -61.653065189890185 0 0 0 0 668.96555289611433 259.89212959897077 0 259.89212959897077 -246.26700682066439 0 0 0 0 727.19418816069083 4.1731503227856592 0 4.1731503227856592 -127.04970300826426 0 0 0 0 454.10763731350744 118.06144046781264 0 118.06144046781264 -48.195279197042964 0 0 0 0 320.7500236207452 95.867191089346306 0 95.867191089346306 -51.199438858257054 0 0 0 0 478.70170909959415 82.374668410191589 0 82.374668410191589 -112.93962977439514 0 0 0 0 322.19981863558587 78.921833962429673 0 78.921833962429673 -67.982276016184187 0 0 0 0 119.15982321844058 32.455570982139761 0 32.455570982139761 -35.84170319147961 0 0 0 0 125.12977398901421 128.47105558081239 0 128.47105558081239 -3.7854120569782026 0 0 0 0 199.84012180885475 90.399701336660655 0 90.399701336660655 -6.9782927111009485 0 0 0 0 311.92733033032346 208.02935900919874 0 208.02935900919874 112.85835082017365 0 0 0 0 -223.84859561957273 74.826527686949703 0 74.826527686949703 97.228941336965363 0 0 0 0 3.006602089386007 0.63855080294300137 0 0.63855080294300137 -0.97957613502828167 0 0 0 0 49.826882511850272 11.565475022725877 0 11.565475022725877 104.03582669215211 0 0 0 0 93.750055093274568 150.41474051441037 0 150.41474051441037 58.559481130398126 0 0 0 0 -72.881977227163588 3.1273839624900575 0 3.1273839624900575 12.004592593308189 0 0 0 0 108.95710272618635 86.867415090279337 0 86.867415090279337 -35.559966776410874 0 0 0 0 -18.213208439847222 11.867271126513515 0 11.867271126513515 -3.9661837187950368 0 0 0 0 -2.0759475000522585 1.8204655348986343 0 1.8204655348986343 -1.7375749374396037 0 0 0 0 121.80346294101037 27.912485901676064 0 27.912485901676064 -65.48716964648338 0 0 0 0 0.3362929505770289 16.197877684584846 0 16.197877684584846 -11.932572112475185 0 0 0 0 1.7518163642489526 51.877002004614042 0 51.877002004614042 -3.3026124325988349 0 0 0 0 58.12543671381718 38.215261511293647 0 38.215261511293647 -50.941444857609895 0 0 0 0 7.8959741102844418 25.80474502513789 0 25.80474502513789 38.851696633108077 0 0 0 0 11.880062406846264 79.95605050282029 0 79.95605050282029 73.268007486185525 0 0 0 0 46.889904263793142 76.718496245779534 0 76.718496245779534 29.30530100591568 0 0 0 0 13.852817006985788 61.45340036296875 0 61.45340036296875 -83.229020994614984 0 0 0 0 21.533922764716408 4.8116197520994319 0 4.8116197520994319 5.1321274669317063 0 0 0 0 13.7290656461008 13.279678362786274 0 13.279678362786274 -4.9689416007874456 0 0 0 0 31.00126037514201 -0.75020749122631969 0 -0.75020749122631969 -50.072815438859834 0 0 0 0 37.19556535943866 11.003142830546494 0 11.003142830546494 -81.154653729492566 0 0 0 0 18.648912100663438 228.36465797355959 0 228.36465797355959 -472.61864862235598 0 0 0 0 -11.040160040336687 7.9075389696256764 0 7.9075389696256764 0.064774902335184237 0 0 0 0 -155.04150255892534 168.91100105048758 0 168.91100105048758 -19.070039484635345 0 0 0 0 -154.22979693698528 151.18996545677874 0 151.18996545677874 18.774700550166017 0 0 0 0 -137.82850619237433 83.902786921519692 0 83.902786921519692 42.370762753482268 0 0 0 0 -154.06965421330824 6.2850429763202555 0 6.2850429763202555 223.90471975535002 0 0 0 0 -233.69306505542045 150.03457056046318 0 150.03457056046318 205.57867537360153 0 0 0 0 -28.998533627287543 -223.32172104799247 0 -223.32172104799247 414.27328105546621 0 0 0 0 4.9541429227946878 5.733883692975148 0 5.733883692975148 6.7567584904519578 0 0 0 0 -219.77141027474238 -39.751617671376835 0 -39.751617671376835 575.91823445752743 0 0 0 0 -215.29766295289664 561.38715549753215 0 561.38715549753215 361.67213525406623 0 0 0 0 -151.82096189403092 22.190172743081348 0 22.190172743081348 7.6620397461247194 0 0 0 0 44.826222826704907 118.38492734674219 0 118.38492734674219 -95.635424435022287 0 0 0 0 793.66457897034525 -293.10608478527502 0 -293.10608478527502 -960.46290537731329 0 0 0 0 -2.1191421510484076 0.90407489391212437 0 0.90407489391212437 -0.7790655525954655 0 0 0 0 131.83618342989212 135.37018138566236 0 135.37018138566236 260.47143842380683 0 0 0 0 353.68092877676099 361.64467911625979 0 361.64467911625979 211.82177658761429 0 0 0 0 448.95618018957612 355.18273277598018 0 355.18273277598018 -5.8135445699881529 0 0 0 0 182.40727257087929 186.64911666639455 0 186.64911666639455 315.06329160056339 0 0 0 0 346.05298410795149 -60.901843625005313 0 -60.901843625005313 -140.22492749936646 0 0 0 0 465.17618055018465 85.875371328360416 0 85.875371328360416 -190.35381564209092 0 0 0 0 -32.27702803527518 6.657885293920117 0 6.657885293920117 9.984282880781393 0 0 0 0 5.4739994362019146 4.3877594438834144 0 4.3877594438834144 5.7502023655790424 0 0 0 0 11.324279087511968 -57.162815022777067 0 -57.162815022777067 9.481225274677854 0 0 0 0 184.49084624070383 262.57669155076292 0 262.57669155076292 -156.1343693994786 0 0 0 0 -31.65505377568752 0.30422791496948776 0 0.30422791496948776 74.368415547418408 0 0 0 0 59.420457848369551 -16.233694514798117 0 -16.233694514798117 3.8796974202791716 0 0 0 0 91.435431368976424 227.97996033851086 0 227.97996033851086 346.66191797956708 0 0 0 0 194.57902686693592 89.571780683281304 0 89.571780683281304 65.083678398019401 0 0 0 0 203.51198047845173 202.61325899381336 0 202.61325899381336 159.66055356517609 0 0 0 0 231.61140045454522 243.44215454945152 0 243.44215454945152 52.331009971901949 0 0 0 0 80.423221422366623 82.81714424367965 0 82.81714424367965 173.77505538946662 0 0 0 0 -7.0852698059425165 -40.322621877588972 0 -40.322621877588972 89.662550170785835 0 0 0 0 73.525464908299909 22.902123638854391 0 22.902123638854391 58.457654459620244 0 0 0 0 2.6819042588749937 0.75224357055373048 0 0.75224357055373048 0.17143630942969246 0 0 0 0 -25.615741785288265 -37.13167117840203 0 -37.13167117840203 32.847780480071378 0 0 0 0 6.8280009103714647 -0.075994897615402124 0 -0.075994897615402124 -0.5976846205948334 0 0 0 0 113.66552257937292 -0.86138607447355753 0 -0.86138607447355753 -36.063954424082112 0 0 0 0 6.737720599499788 2.6497911178772213 0 2.6497911178772213 1.9156780854913755 0 0 0 0 0.36856369118322618 6.946401085704565 0 6.946401085704565 21.643199603036919 0 0 0 0 10.075933610203165 3.0065878165725053 0 3.0065878165725053 1.3247060495764948 0 0 0 0 2.4915843584967661 -20.433516512635833 0 -20.433516512635833 -33.901698483590735 0 0 0 0 -11.627893603065218 36.634250306542526 0 36.634250306542526 4.0075439409265528 0 0 0 0 130.42373090029469 -0.85125711955333827 0 -0.85125711955333827 -126.31093742252415 0 0 0 0 9.3727157339963014 29.091278366231563 0 29.091278366231563 10.087226854928304 0 0 0 0 -3.5245349282458349 8.6275106229293783 0 8.6275106229293783 4.4124775863391044 0 0 0 0 -22.533941880319617 61.609708845266141 0 61.609708845266141 -259.80357916983485 0 0 0 0 7.3900606086539966 8.0709648746801577 0 8.0709648746801577 2.0095605389460438 0 0 0 0 -38.92521662087529 0.53645350817532744 0 0.53645350817532744 -121.88420310011134 0 0 0 0 -54.509444541901757 32.023876160432337 0 32.023876160432337 -153.65511444420554 0 0 0 0 -64.165192831849708 75.080011995649329 0 75.080011995649329 -185.12488570399 0 0 0 0 -17.862599423693609 40.994066754326923 0 40.994066754326923 -192.57417656514008 0 0 0 0 -55.333661786957236 10.848479353975563 0 10.848479353975563 -202.13319060394133 0 0 0 0 5.2432104405306745 8.4877766787976725 0 8.4877766787976725 -6.1055274973841733 0 0 0 0 15.668453312785644 2.03940570092157 0 2.03940570092157 0.36629062452334438 0 0 0 0 53.824325740737549 16.891878898801224 0 16.891878898801224 -177.74559312488509 0 0 0 0 0.14465184699648148 1.6350504206049195 0 1.6350504206049195 1.2297723631535931 0 0 0 0 -12.826419032149715 52.757976488253917 0 52.757976488253917 101.33414485640606 0 0 0 0 -1.3569569659230183 -12.445984942300129 0 -12.445984942300129 -127.02358739102783 0 0 0 0 21.085484713137703 10.927803752263571 0 10.927803752263571 -8.1111708013195312 0 0 0 0 27.952272420239751 -33.905465455638478 0 -33.905465455638478 -118.23250428614847 0 0 0 0 31.293282958387863 -0.33304959061206318 0 -0.33304959061206318 -105.35962133643625 0 0 0 0 1.7333640607503185 4.6934800747185363 0 4.6934800747185363 -122.19889751501614 0 0 0 0 2.3604000591826662 9.2887996174704313 0 9.2887996174704313 -28.348886821448104 0 0 0 0 21.996762074406433 5.2985396269723424 0 5.2985396269723424 -27.657689408308215 0 0 0 0 27.328695944190258 -13.332511576765683 0 -13.332511576765683 -26.278617426987239 0 0 0 0 0.51097660055711458 -11.392673316948731 0 -11.392673316948731 -26.394880014282535 0 0 0 0 2.0718866106035421 -17.297432160372409 0 -17.297432160372409 44.370978208251472 0 0 0 0 -141.34132913459689 222.50501250468005 0 222.50501250468005 -96.51219243502419 0 0 0 0 -74.912343403520936 25.816666487917246 0 25.816666487917246 -64.792317173836636 0 0 0 0 -62.761060254117183 32.534738205678877 0 32.534738205678877 -130.0067449456692 0 0 0 0 -3.1468914571742062 -35.971921848518832 0 -35.971921848518832 -82.298052323290904 0 0 0 0 9.308995033170504 37.994905286584981 0 37.994905286584981 -133.63438146678891 0 0 0 0 0.73034203554925625 -34.441304005220445 0 -34.441304005220445 104.25546677323291 0 0 0 0 91.980537884082878 287.86765657491196 0 287.86765657491196 -133.2703653442295 0 0 0 0 257.76139019236871 16.626290740787226 0 16.626290740787226 -93.994249251856672 0 0 0 0 145.77971007005726 90.691506456085335 0 90.691506456085335 41.664078316709492 0 0 0 0 1.8417535714602451 0.39891533682600766 0 0.39891533682600766 0.016537806172456371 0 0 0 0 178.01243010943654 54.008158136732163 0 54.008158136732163 58.871714642700681 0 0 0 0 -14.457946221384191 70.706566041204496 0 70.706566041204496 61.424040026780858 0 0 0 0 6.1456375322959502 1.6406518732837867 0 1.6406518732837867 40.710296451710747 0 0 0 0 2.8624636508757249 12.68858969341818 0 12.68858969341818 3.6532312105468918 0 0 0 0 5.8589043243807879 4.6019024062038909 0 4.6019024062038909 -0.59224779001108629 0 0 0 0 -0.67585272947488306 4.5429315467532909 0 4.5429315467532909 5.6306189931509749 0 0 0 0 284.06484630044361 54.227402668311697 0 54.227402668311697 -15.568000572093297 0 0 0 0 -152.26992704415352 -10.928934151874273 0 -10.928934151874273 214.91356349179114 0 0 0 0 -129.17609141316279 96.088649977163186 0 96.088649977163186 -56.852621222613379 0 0 0 0 -0.87357360289441033 0.70717419398353698 0 0.70717419398353698 3.9271344217282831 0 0 0 0 20.771310930856089 230.00845207040584 0 230.00845207040584 239.2737002116337 0 0 0 0 210.64260269219085 225.0943916427168 0 225.0943916427168 165.97082973914803 0 0 0 0 -36.272675770003616 220.22555525627217 0 220.22555525627217 282.93286226708005 0 0 0 0 36.668605275404843 253.28099220256627 0 253.28099220256627 262.31992235414145 0 0 0 0 0.39126927760885266 1.7685784006963594 0 1.7685784006963594 3.8249688729430602 0 0 0 0 -280.10225385887315 117.14098933049809 0 117.14098933049809 239.66587463298492 0 0 0 0 -53.495509588829009 -105.66554996628111 0 -105.66554996628111 8.8012523941270047 0 0 0 0 410.19677256860996 277.7641659976216 0 277.7641659976216 38.585172889372188 0 0 0 0 434.19660063352967 48.970505484536261 0 48.970505484536261 -0.053841869659891017 0 0 0 0 222.1832770316214 347.32241175716808 0 347.32241175716808 151.63956480270281 0 0 0 0 305.0627347147456 154.18796506298895 0 154.18796506298895 -88.904635964707268 0 0 0 0 18.272595244122542 18.222141992095203 0 18.222141992095203 -50.579428748489093 0 0 0 0 -7.5102921401271487 -92.766677561846336 0 -92.766677561846336 -111.00279016048444 0 0 0 0 42.779147162165827 40.811328071032221 0 40.811328071032221 11.807595205502366 0 0 0 0 109.16336601526291 100.48467630573577 0 100.48467630573577 -66.385400305240182 0 0 0 0 57.024614415684482 -11.754449334319361 0 -11.754449334319361 -114.48771148814103 0 0 0 0 73.027176878102182 -3.6690598388413491 0 -3.6690598388413491 168.35981990217078 0 0 0 0 -162.2305410219742 154.72270771261901 0 154.72270771261901 311.89127767467653 0 0 0 0 272.1332141185303 228.88071309176667 0 228.88071309176667 65.299920219113119 0 0 0 0 -82.420641035585732 40.341657805485511 0 40.341657805485511 -34.625739238661481 0 0 0 0 78.508103265037789 147.00206530127616 0 147.00206530127616 -128.74532493083643 0 0 0 0 -47.204690603713971 136.44107973355858 0 136.44107973355858 -68.383296136453282 0 0 0 0 26.134755487753736 28.69525854529752 0 28.69525854529752 -44.609465333916759 0 0 0 0 28.569243504663518 34.651938300851313 0 34.651938300851313 24.563335104348823 0 0 0 0 -191.37042443444807 147.44758684040789 0 147.44758684040789 45.560311278102745 0 0 0 0 -10.99460508561404 19.166970306634198 0 19.166970306634198 -5.7466091757282243 0 0 0 0 -212.6171737059085 -6.0516180336617253 0 -6.0516180336617253 35.025720958226884 0 0 0 0 68.670505437752581 84.41857177710699 0 84.41857177710699 -20.223340018674207 0 0 0 0 64.101949069467082 92.392067292177671 0 92.392067292177671 61.718863100759336 0 0 0 0 81.399175211576221 71.809354928072935 0 71.809354928072935 -16.314805854286533 0 0 0 0 59.769846527007758 81.957882462196721 0 81.957882462196721 -20.484846356412163 0 0 0 0 36.630048855977748 47.948806846740808 0 47.948806846740808 5.9391155671837623 0 0 0 0 31.263927725703979 68.810159253804159 0 68.810159253804159 -0.14802869179402478 0 0 0 0 61.931647257770237 55.240670908102402 0 55.240670908102402 5.6297624607468606 0 0 0 0 6.9029839420236385 79.529218334173493 0 79.529218334173493 -26.214982186709676 0 0 0 0 -8.4202036810997924 35.492838143294648 0 35.492838143294648 -10.147940627684875 0 0 0 0 30.129082818561983 50.504245585993658 0 50.504245585993658 14.5012799351789 0 0 0 0 47.76776537222031 84.530846819486214 0 84.530846819486214 -3.0356553145393264 0 0 0 0 19.537349079492195 20.951497908885372 0 20.951497908885372 -50.407771120233477 0 0 0 0 42.010663576875231 84.736148534650056 0 84.736148534650056 40.417547292152449 0 0 0 0 529.82817051784514 10.522968406410655 0 10.522968406410655 -128.77668169234676 0 0 0 0 620.19804924794516 95.96871472703242 0 95.96871472703242 -117.0590338167458 0 0 0 0 447.55547747996025 140.0868671839271 0 140.0868671839271 -28.058965003143385 0 0 0 0 481.34440600909693 199.81890739117989 0 199.81890739117989 -96.057533121638699 0 0 0 0 430.50644065858069 214.84685817037825 0 214.84685817037825 84.212777008360717 0 0 0 0 445.99675710243901 238.99988151427897 0 238.99988151427897 -185.10204561360297 0 0 0 0 359.08000061395069 188.32746836857768 0 188.32746836857768 -82.014882330680848 0 0 0 0 295.13328681357962 238.97118111194141 0 238.97118111194141 -118.706152319377 0 0 0 0 380.75647853877308 289.3149976701061 0 289.3149976701061 -219.8025661181382 0 0 0 0 166.53627568768206 5.2433244622116035 0 5.2433244622116035 -75.13653965249614 0 0 0 0 439.74236874374765 80.401695092703449 0 80.401695092703449 -341.7813285448683 0 0 0 0 -3.0251614444133565 3.7956333996376515 0 3.7956333996376515 -4.1175687009179995 0 0 0 0 200.09640623928135 -132.83034777127614 0 -132.83034777127614 -495.94438247800269 0 0 0 0 -52.400507409948659 268.38898216632015 0 268.38898216632015 174.21506265514108 0 0 0 0 332.84247069915727 213.99981471775754 0 213.99981471775754 -349.88740693201544 0 0 0 0 39.834526941289369 445.91936300842644 0 445.91936300842644 -525.343953890173 0 0 0 0 256.80446075972031 63.715269755610279 0 63.715269755610279 61.702128521785198 0 0 0 0 -241.68129169604072 112.75135453851544 0 112.75135453851544 126.7339308610608 0 0 0 0 -525.32847476537427 290.63107276193841 0 290.63107276193841 58.447786145021382 0 0 0 0 -62.1212798561819 249.80625533512796 0 249.80625533512796 64.07532268842624 0 0 0 0 -94.157251807817374 37.793713996448787 0 37.793713996448787 35.165613409765683 0 0 0 0 -41.306851149393651 -31.222242139127502 0 -31.222242139127502 105.03220973376301 0 0 0 0 -197.29766931150516 72.876840082124545 0 72.876840082124545 125.76264754154545 0 0 0 0 17.552303218501862 18.094347341220658 0 18.094347341220658 19.653014957405361 0 0 0 0 47.054457170896058 367.7104604836386 0 367.7104604836386 -159.49848506499802 0 0 0 0 -27.100007309534703 59.100502747249266 0 59.100502747249266 -422.73530334417956 0 0 0 0 -176.87935717376968 119.60318592456315 0 119.60318592456315 76.201269434801361 0 0 0 0 -159.00349268139917 212.72699597062547 0 212.72699597062547 217.51486799870327 0 0 0 0 -190.45998932084876 46.287513365429731 0 46.287513365429731 157.37499290517735 0 0 0 0 -106.4412573988011 -10.928140129235544 0 -10.928140129235544 187.3201325446671 0 0 0 0 -134.2899535952165 391.44170423272408 0 391.44170423272408 364.99856180967981 0 0 0 0 0.48054942223891395 1.4398508588975361 0 1.4398508588975361 3.6229948409387163 0 0 0 0 -121.95865316994059 -24.15192750330425 0 -24.15192750330425 434.12336897167552 0 0 0 0 220.73993039554625 -71.657328737575881 0 -71.657328737575881 72.277301547477691 0 0 0 0 495.10312447346223 190.27892601849089 0 190.27892601849089 185.35853824071819 0 0 0 0 -154.65780873270887 167.00634553559075 0 167.00634553559075 477.84789739514963 0 0 0 0 582.20076351640455 262.71374705022208 0 262.71374705022208 -5.2484259863995248 0 0 0 0 127.68243801068093 194.83952377759306 0 194.83952377759306 314.07436639624393 0 0 0 0 369.95245721510219 169.67762931867401 0 169.67762931867401 -13.724113361939089 0 0 0 0 127.16868752034712 503.12513653494818 0 503.12513653494818 321.03854526505165 0 0 0 0 -6.9189621709966715 11.144810480127731 0 11.144810480127731 -13.927721076475947 0 0 0 0 596.6358190720307 161.25755164251541 0 161.25755164251541 -130.90176509971207 0 0 0 0 209.46514515107083 316.39169612745081 0 316.39169612745081 329.00418059896401 0 0 0 0 597.56162863832651 198.34267013280987 0 198.34267013280987 67.289766742886059 0 0 0 0 276.70899642847507 159.95815225466504 0 159.95815225466504 -37.813097483198362 0 0 0 0 -9.4472041270430367 16.124754602388464 0 16.124754602388464 -20.663459823706347 0 0 0 0 603.01209221525551 653.36967501436311 0 653.36967501436311 152.21245967682989 0 0 0 0 -469.76943094814851 -23.025071630940147 0 -23.025071630940147 104.8787235937798 0 0 0 0 107.61575880880264 333.42488860376307 0 333.42488860376307 -127.9465242036058 0 0 0 0 160.47016758705649 143.92804422664267 0 143.92804422664267 414.98964082283146 0 0 0 0 -521.81208464315569 191.17644587259565 0 191.17644587259565 125.74184555585089 0 0 0 0 245.40189465012008 367.48901167694203 0 367.48901167694203 14.900867935706628 0 0 0 0 -28.407660367411154 41.804102431302454 0 41.804102431302454 62.321149489285744 0 0 0 0 -86.718462373479269 221.77065838126146 0 221.77065838126146 110.11673465577769 0 0 0 0 -138.20517938390549 308.91658856614413 0 308.91658856614413 -22.973720891233825 0 0 0 0 -429.54577951040847 108.73954298317221 0 108.73954298317221 90.508141994039761 0 0 0 0 -804.01282866429392 335.17428474161898 0 335.17428474161898 20.407338948920369 0 0 0 0 -687.4168360671556 68.721404273715052 0 68.721404273715052 149.68528307656379 0 0 0 0 403.71783855405738 -67.320741811250628 0 -67.320741811250628 -744.59527875088315 0 0 0 0 -2.4056006449393745 -0.32822238674435056 0 -0.32822238674435056 11.428799477284812 0 0 0 0 -684.68874488776419 50.235773379406055 0 50.235773379406055 241.50804758982849 0 0 0 0 -319.25858332920325 48.567040705998807 0 48.567040705998807 457.76916434954546 0 0 0 0 -6.0468003588945862 3.7000712157374807 0 3.7000712157374807 -4.5644605047828293 0 0 0 0 -242.09773925580157 -302.15214299270156 0 -302.15214299270156 -103.16358334333199 0 0 0 0 112.90319443465341 -91.987975544932851 0 -91.987975544932851 -82.52085535475635 0 0 0 0 -12.090808018956466 8.2772681232179934 0 8.2772681232179934 -1.2808959314434425 0 0 0 0 -376.54888851909163 371.07870866753638 0 371.07870866753638 417.21726412619682 0 0 0 0 52.564492580277147 2.0816191245176014 0 2.0816191245176014 0.81284686212711676 0 0 0 0 -8.7965168285481923 62.401325972841732 0 62.401325972841732 61.410842746963681 0 0 0 0 109.0777067455283 167.23155335700176 0 167.23155335700176 190.26598973677756 0 0 0 0 30.149986244257889 28.345490448919008 0 28.345490448919008 54.384969787977752 0 0 0 0 92.161745960565895 56.547058627727893 0 56.547058627727893 39.254871132110566 0 0 0 0 -770.67916886542298 -140.92503963449235 0 -140.92503963449235 296.43676611547198 0 0 0 0 -0.43794935134338342 0.48681056972802139 0 0.48681056972802139 2.2050085752480726 0 0 0 0 201.15388132894441 246.69391548493877 0 246.69391548493877 168.32668460993591 0 0 0 0 -685.78549149557693 -96.3863889246486 0 -96.3863889246486 196.80944752231153 0 0 0 0 -760.79574085114291 117.1662627269834 0 117.1662627269834 -70.125655585226923 0 0 0 0 -3.2409748012945272 3.4120411553137373 0 3.4120411553137373 4.5584150110989867 0 0 0 0 -718.54856204954194 208.94963888356324 0 208.94963888356324 67.821592145388422 0 0 0 0 -60.269681955091073 38.30330293519728 0 38.30330293519728 80.596486072397965 0 0 0 0 -857.51178062848339 415.92679518595469 0 415.92679518595469 -199.94020243796695 0 0 0 0 -1028.4538513274019 -257.51607335790322 0 -257.51607335790322 -134.29401574760413 0 0 0 0 -2.0137587505359562 -0.20799252078654717 0 -0.20799252078654717 2.8808588690351336 0 0 0 0 -336.31990539533581 240.76385378767736 0 240.76385378767736 -326.78502193633904 0 0 0 0 -243.67228821959725 67.91829019396755 0 67.91829019396755 -53.292940387184899 0 0 0 0 -65.535859606497979 244.44148088129805 0 244.44148088129805 15.339238229877083 0 0 0 0 -367.04194697879575 91.59100690824107 0 91.59100690824107 149.69705328960117 0 0 0 0 -917.60061505566227 -141.52353091100713 0 -141.52353091100713 -85.285688896285137 0 0 0 0 -362.6448439094529 64.87206343026628 0 64.87206343026628 -17.580233508240781 0 0 0 0 -588.44952171395562 26.145666243470259 0 26.145666243470259 342.42467967513949 0 0 0 0 -544.38039324275451 -114.57073740483611 0 -114.57073740483611 249.82935579217155 0 0 0 0 -311.80370274346933 210.39780100824555 0 210.39780100824555 644.77964458165661 0 0 0 0 -95.158082132154959 74.030975422690972 0 74.030975422690972 139.42351923476963 0 0 0 0 35.223063281315262 163.53487380082515 0 163.53487380082515 188.4618874554908 0 0 0 0 -132.169569055377 -6.5638340805435291 0 -6.5638340805435291 333.84893195370387 0 0 0 0 161.37753262525075 177.89307778652437 0 177.89307778652437 426.86250365090746 0 0 0 0 116.61545704186756 164.07769930772236 0 164.07769930772236 465.30100727012905 0 0 0 0 117.72301292025077 139.37360611323675 0 139.37360611323675 507.26693364151288 0 0 0 0 223.68100017654069 146.70487197931652 0 146.70487197931652 297.48679330416053 0 0 0 0 240.13483063000967 166.36397191177002 0 166.36397191177002 310.21773885545554 0 0 0 0 190.20829866396343 56.06488994670417 0 56.06488994670417 136.18946097281878 0 0 0 0 312.23499230000016 123.41020358860078 0 123.41020358860078 123.75680073755939 0 0 0 0 88.465930173304514 76.688620613622334 0 76.688620613622334 -50.372441795941995 0 0 0 0 167.01726946830604 225.48707053939142 0 225.48707053939142 130.83919769008867 0 0 0 0 274.16460561189393 310.0287776735538 0 310.0287776735538 111.32362921645836 0 0 0 0 278.10014800336467 235.41645256312404 0 235.41645256312404 311.1569231136009 0 0 0 0 154.82933055921239 548.29272320522477 0 548.29272320522477 956.55927828074709 0 0 0 0 51.831114104763401 48.448348997519133 0 48.448348997519133 -81.947210494148749 0 0 0 0 0.1553362010188124 5.3843110580660678 0 5.3843110580660678 -2.6739924828883304 0 0 0 0 44.24882940066891 53.661593132868802 0 53.661593132868802 -30.537955491172397 0 0 0 0 53.554727876082325 70.137273134574571 0 70.137273134574571 -12.440952544739048 0 0 0 0 76.593342333834698 127.42473222203512 0 127.42473222203512 63.426502582384273 0 0 0 0 139.52072995417984 101.92972708060006 0 101.92972708060006 101.70191365616938 0 0 0 0 -5.5265269104033479 7.5038668647764126 0 7.5038668647764126 -3.8213369140033429 0 0 0 0 25.277917840609007 146.01934047818759 0 146.01934047818759 227.00886832992546 0 0 0 0 -13.977612381098879 11.114586122434048 0 11.114586122434048 112.25184728607201 0 0 0 0 81.893531217645432 133.1959099378455 0 133.1959099378455 269.55886580160404 0 0 0 0 149.16730806991882 291.20442298152238 0 291.20442298152238 319.48438696455923 0 0 0 0 187.90506993509553 176.08811219829477 0 176.08811219829477 192.34956921285902 0 0 0 0 409.12904405876179 427.24048196878175 0 427.24048196878175 300.28167276774457 0 0 0 0 341.80100086307357 297.99176966073719 0 297.99176966073719 268.51673986318565 0 0 0 0 41.750802240453595 174.56173675538639 0 174.56173675538639 375.84002144566693 0 0 0 0 294.1367961835731 362.9054493158892 0 362.9054493158892 342.19761581159582 0 0 0 0 306.57823906357589 463.42533434437564 0 463.42533434437564 244.20051989036438 0 0 0 0 276.62131853054598 396.15827873875423 0 396.15827873875423 293.24969105045602 0 0 0 0 227.87397760682506 580.22097257742098 0 580.22097257742098 538.14486763636887 0 0 0 0 209.71970700110978 421.08301214527091 0 421.08301214527091 344.64594458271677 0 0 0 0 424.08215081006711 657.01221831799558 0 657.01221831799558 343.10602481298702 0 0 0 0 425.48015979892079 634.4790340157233 0 634.4790340157233 419.82649138499983 0 0 0 0 192.87953429352729 650.60026688048265 0 650.60026688048265 777.87109288397187 0 0 0 0 22.791366599969479 324.5985561980342 0 324.5985561980342 613.82906921143331 0 0 0 0 266.87978269647738 488.06102116393004 0 488.06102116393004 411.75262132837452 0 0 0 0 2.8626089781620863 1.8223061435409491 0 1.8223061435409491 -0.76361513495529465 0 0 0 0 187.77244810600678 137.65109912157095 0 137.65109912157095 11.280034064866413 0 0 0 0 5.522074211619298 3.4827521449380754 0 3.4827521449380754 -1.9405786493429531 0 0 0 0 129.0604093477541 445.80948582297424 0 445.80948582297424 742.59583449766433 0 0 0 0 428.78858734975074 380.751050403519 0 380.751050403519 397.89644140956261 0 0 0 0 145.0836336005159 217.40494150509949 0 217.40494150509949 287.18997034740642 0 0 0 0 282.96453902847406 466.41775090180454 0 466.41775090180454 479.96838843372825 0 0 0 0 284.5594349352159 434.44236139383975 0 434.44236139383975 716.74836457626589 0 0 0 0 82.945709284078475 48.860933660138471 0 48.860933660138471 -286.06601787893214 0 0 0 0 1.5976728777051505 2.8606447945047151 0 2.8606447945047151 -1.2473651448330791 0 0 0 0 320.54990329301654 281.81602300106897 0 281.81602300106897 94.725828759284923 0 0 0 0 3.7115157432505583 2.8718851727129646 0 2.8718851727129646 -1.2420139186502865 0 0 0 0 622.80996887474976 863.21788387270499 0 863.21788387270499 677.72323229951871 0 0 0 0 0.10055537128815928 6.1332768734189074 0 6.1332768734189074 -4.3970843636977079 0 0 0 0 565.31387245068072 851.54247098626911 0 851.54247098626911 1197.5749912983119 0 0 0 0 709.69223210849304 865.00765647429216 0 865.00765647429216 1045.1139242890058 0 0 0 0 464.52084197731165 390.00837605587003 0 390.00837605587003 85.824672031880255 0 0 0 0 291.46421045594252 354.60861026000566 0 354.60861026000566 274.61105735640012 0 0 0 0 239.54420911277884 273.57434615460807 0 273.57434615460807 148.40976224530823 0 0 0 0 150.45439333676404 273.30971012899499 0 273.30971012899499 291.1480310865702 0 0 0 0 150.4523158643824 272.40753585246784 0 272.40753585246784 439.20811590395533 0 0 0 0 122.53249280107411 474.01617106615049 0 474.01617106615049 875.72748502834293 0 0 0 0 1.7946013753670442 2.1799571661984061 0 2.1799571661984061 -1.8026440340867182 0 0 0 0 684.60473538562655 915.91565235867893 0 915.91565235867893 630.29981820008561 0 0 0 0 369.09592213872747 818.32433274533287 0 818.32433274533287 652.47315010718012 0 0 0 0 631.24711905450386 917.56387175975397 0 917.56387175975397 630.51491974024066 0 0 0 0 537.43637376186234 957.46332615626307 0 957.46332615626307 657.08076007901218 0 0 0 0 660.99090338262613 979.85490416824086 0 979.85490416824086 661.11475011627772 0 0 0 0 262.18824828327342 1003.7936933594974 0 1003.7936933594974 748.40198835366027 0 0 0 0 162.53935271093724 1216.6796603895964 0 1216.6796603895964 1065.7418996574197 0 0 0 0 821.87816616283999 1328.3309410497059 0 1328.3309410497059 788.47560963206342 0 0 0 0 1692.0105625614178 416.79892499743983 0 416.79892499743983 702.48666893923655 0 0 0 0 634.31696435177946 707.67839206334975 0 707.67839206334975 509.18867877713546 0 0 0 0 777.32472093766773 -24.220060312112764 0 -24.220060312112764 639.84577875715695 0 0 0 0 652.30526406430727 431.0971311700705 0 431.0971311700705 1706.6355854717476 0 0 0 0 837.26993290445716 695.17417599685541 0 695.17417599685541 190.89789304016813 0 0 0 0 1366.1938322864116 1228.4241712002749 0 1228.4241712002749 693.38660763713597 0 0 0 0 725.05202070324958 893.53310519215484 0 893.53310519215484 521.53159718889401 0 0 0 0 1627.0612625356057 248.23301861655568 0 248.23301861655568 -63.173158543177124 0 0 0 0 -626.32541083016804 662.40132157378139 0 662.40132157378139 885.20509717406821 0 0 0 0 6.3791768927140495 7.7349511609960739 0 7.7349511609960739 9.6630094398785644 0 0 0 0 -344.67456719147776 88.421084335921478 0 88.421084335921478 -83.53488223524073 0 0 0 0 -386.2585886026294 452.54893866253474 0 452.54893866253474 534.34951994836592 0 0 0 0 -442.58100690845276 570.14437311708753 0 570.14437311708753 -475.67038706821404 0 0 0 0 -490.51360973786359 211.73993734319083 0 211.73993734319083 20.138243090979813 0 0 0 0 -211.78640763156363 232.37461428250754 0 232.37461428250754 19.138094005190396 0 0 0 0 -410.88902488665036 129.07608196199612 0 129.07608196199612 393.77344111049024 0 0 0 0 -83.648821600305382 328.36324410339512 0 328.36324410339512 433.16112387025987 0 0 0 0 -215.02052334929431 283.14530459882189 0 283.14530459882189 578.62404976703692 0 0 0 0 102.78228029584352 529.48376950042075 0 529.48376950042075 670.00046005871764 0 0 0 0 -294.40383017031854 413.93637770052374 0 413.93637770052374 683.14133796271199 0 0 0 0 289.43668761387744 948.07440050646255 0 948.07440050646255 862.18300283488588 0 0 0 0 -417.6002448727595 675.16486387681289 0 675.16486387681289 883.28957573438038 0 0 0 0 -117.65555064545879 453.86196476207624 0 453.86196476207624 519.86391851272492 0 0 0 0 104.60041297508496 31.246688862434894 0 31.246688862434894 20.151656212670787 0 0 0 0 -2.0289052840280419 -4.3063305324976682 0 -4.3063305324976682 9.910285044421471 0 0 0 0 22.770480925526499 44.019153896872012 0 44.019153896872012 -77.973045244580135 0 0 0 0 -36.905163666127919 10.252204982269177 0 10.252204982269177 173.26028417636553 0 0 0 0 -4.0200657029336071 81.477494323549763 0 81.477494323549763 127.26299055800337 0 0 0 0 -164.57917401515806 9.8785083035290882 0 9.8785083035290882 95.716915014647384 0 0 0 0 -117.56007544598106 137.39889537999989 0 137.39889537999989 -42.431253218146594 0 0 0 0 -293.82147334435103 100.23153750420897 0 100.23153750420897 -42.125788215631474 0 0 0 0 -267.89404877807033 30.408233141713026 0 30.408233141713026 199.69180147189036 0 0 0 0 -109.2614786882059 185.97318483183335 0 185.97318483183335 313.33709193409595 0 0 0 0 -64.19405133989676 119.43894807525976 0 119.43894807525976 367.18095964934037 0 0 0 0 -126.05188857226585 159.02401630166787 0 159.02401630166787 496.36151649603562 0 0 0 0 34.121626998277861 151.41856328755966 0 151.41856328755966 342.27952488005394 0 0 0 0 -130.49733029028278 27.905676069987521 0 27.905676069987521 268.19658034525492 0 0 0 0 -23.683528638872758 57.522376285505743 0 57.522376285505743 338.38049922584469 0 0 0 0 75.875123974720736 97.753292748569947 0 97.753292748569947 230.90785257417519 0 0 0 0 95.648019666232358 175.48385552695254 0 175.48385552695254 390.57591622253858 0 0 0 0 -19.838753533424097 158.94734666340446 0 158.94734666340446 549.01547239891079 0 0 0 0 162.55786836301922 294.78494425899044 0 294.78494425899044 562.04505157813401 0 0 0 0 75.419454750899604 239.28205638271538 0 239.28205638271538 487.69532132802942 0 0 0 0 -66.18418408380785 275.49733299782565 0 275.49733299782565 687.39681959506561 0 0 0 0 185.62187106093916 350.73576735541064 0 350.73576735541064 645.62007110126433 0 0 0 0 240.10425239469441 475.57693095245304 0 475.57693095245304 757.3930478448342 0 0 0 0 44.244712833533868 299.22776762546164 0 299.22776762546164 751.45185135854626 0 0 0 0 174.98486343480636 337.47041400692979 0 337.47041400692979 590.7200569398301 0 0 0 0 63.172611382043215 202.11654638151958 0 202.11654638151958 578.9631955277946 0 0 0 0 148.4447568695623 309.25152462245023 0 309.25152462245023 696.22463622865325 0 0 0 0 107.44160743590146 592.36943073368639 0 592.36943073368639 851.95970444643172 0 0 0 0 535.54590391451347 836.03442511213507 0 836.03442511213507 726.42079132684012 0 0 0 0 324.11512784319348 877.30205792074048 0 877.30205792074048 753.25058682908275 0 0 0 0 525.67536109012872 1014.4278982945762 0 1014.4278982945762 739.83590756238846 0 0 0 0 407.39625063554649 767.66516330280137 0 767.66516330280137 774.37904018299741 0 0 0 0 -88.810807009760538 687.77047166020566 0 687.77047166020566 782.08048275597685 0 0 0 0 -109.12574115288317 447.0401840141385 0 447.0401840141385 750.07399255742348 0 0 0 0 57.453286739812029 344.67609345640449 0 344.67609345640449 548.02265782515133 0 0 0 0 82.623835921598584 521.79119277648624 0 521.79119277648624 845.41895754723373 0 0 0 0 224.0821458155624 496.95392855727914 0 496.95392855727914 712.20465053226872 0 0 0 0 479.62277101922973 714.89374797497294 0 714.89374797497294 891.28945962477451 0 0 0 0 205.37984348363352 471.9711922241695 0 471.9711922241695 859.782759020909 0 0 0 0 326.18710734241449 791.26165007537566 0 791.26165007537566 1139.822360251992 0 0 0 0 370.17055833181075 693.637217675383 0 693.637217675383 852.03131656679022 0 0 0 0 450.00435141744674 573.87283032470441 0 573.87283032470441 1014.7893571660388 0 0 0 0 531.33713984129281 508.86902115297562 0 508.86902115297562 1049.4786401607489 0 0 0 0 436.68917290605077 731.98377970192951 0 731.98377970192951 857.9732814009476 0 0 0 0 604.23245112109726 831.69532833431731 0 831.69532833431731 720.41453196348084 0 0 0 0 727.32515445393074 739.26047473263316 0 739.26047473263316 782.94939383694873 0 0 0 0 698.48243078662199 576.72594062682037 0 576.72594062682037 945.54144257205917 0 0 0 0 409.6719969602309 479.24928641604492 0 479.24928641604492 444.78645282078651 0 0 0 0 460.25153006903565 661.64956011201139 0 661.64956011201139 884.60163165783888 0 0 0 0 548.20589788061261 524.0821503983243 0 524.0821503983243 285.49853194208117 0 0 0 0 373.2257052237519 483.64009533475473 0 483.64009533475473 561.59659358319186 0 0 0 0 424.470644943156 288.52057887478441 0 288.52057887478441 420.87452409260459 0 0 0 0 378.52427302108845 363.87056602429584 0 363.87056602429584 326.49283394658505 0 0 0 0 443.40908203258368 458.12624750468603 0 458.12624750468603 457.99499006699989 0 0 0 0 -4.7732890012016256 8.3952418048538959 0 8.3952418048538959 -5.7470116182023361 0 0 0 0 302.74841588655545 386.29075918936542 0 386.29075918936542 599.76220904340789 0 0 0 0 286.83359409122932 390.5598053347212 0 390.5598053347212 430.86459019520771 0 0 0 0 257.95908152739685 337.67641040372109 0 337.67641040372109 547.11515007037815 0 0 0 0 342.26797454660209 278.85655558122608 0 278.85655558122608 556.78199989992208 0 0 0 0 229.50547336380714 335.46403245696183 0 335.46403245696183 573.94714443996418 0 0 0 0 343.36697558766252 435.85991502585898 0 435.85991502585898 675.10279086383525 0 0 0 0 170.93214319505751 434.03767792407234 0 434.03767792407234 763.45551636549317 0 0 0 0 327.83447526325835 627.94669091774813 0 627.94669091774813 896.06798127192133 0 0 0 0 282.87182163176931 421.78217671658876 0 421.78217671658876 823.41980127183342 0 0 0 0 -7.1382630563642699 8.3552995405098258 0 8.3552995405098258 -4.9836055882623 0 0 0 0 249.61301643484694 459.25346877378252 0 459.25346877378252 633.55776338002033 0 0 0 0 215.26053940365409 483.47101977304374 0 483.47101977304374 756.05272542036982 0 0 0 0 352.19591853530164 539.77615935978247 0 539.77615935978247 610.6248046048604 0 0 0 0 -5.9064323191711434 6.94117055374155 0 6.94117055374155 -3.8126598667768477 0 0 0 0 151.81249568601379 363.49531000614115 0 363.49531000614115 610.41483181356352 0 0 0 0 225.03161329309069 325.78011972898366 0 325.78011972898366 525.94599072501296 0 0 0 0 185.22626517477511 354.99388302861917 0 354.99388302861917 507.46463586503705 0 0 0 0 169.03748054715516 227.59810347521125 0 227.59810347521125 347.27931476054073 0 0 0 0 221.1323837168602 356.55187445020965 0 356.55187445020965 361.91965046130645 0 0 0 0 206.49997027899371 245.42338366228068 0 245.42338366228068 221.40020865639235 0 0 0 0 52.883542647632567 151.49361133540697 0 151.49361133540697 217.07857163299559 0 0 0 0 161.67222947085429 215.65911534658881 0 215.65911534658881 263.98881320472356 0 0 0 0 84.434722843808231 243.27013812610858 0 243.27013812610858 254.93694768216665 0 0 0 0 257.96738539992293 285.56729095940591 0 285.56729095940591 422.77466497953355 0 0 0 0 191.57582727340377 368.79766336523244 0 368.79766336523244 329.953303920287 0 0 0 0 375.04435680530696 214.17372463912398 0 214.17372463912398 124.73091691573063 0 0 0 0 179.25268964800307 243.35814757225489 0 243.35814757225489 358.26341847747062 0 0 0 0 236.78132143626135 274.54531600028531 0 274.54531600028531 298.79922958006864 0 0 0 0 136.30844078186055 181.71751661458256 0 181.71751661458256 284.73215617612823 0 0 0 0 244.73428689771026 174.8839757042042 0 174.8839757042042 105.90279535819718 0 0 0 0 109.9752079910711 42.1982132488464 0 42.1982132488464 66.84600479609071 0 0 0 0 176.32044077166574 44.659703176057519 0 44.659703176057519 45.782843340457475 0 0 0 0 86.127854598080376 48.948462743854179 0 48.948462743854179 64.383019298125873 0 0 0 0 45.813721093942149 -26.42012462927687 0 -26.42012462927687 9.4386783754343924 0 0 0 0 -7.0569766309345141 44.779251611071231 0 44.779251611071231 45.200670178342989 0 0 0 0 153.19053684884875 -8.7524531359731554 0 -8.7524531359731554 14.954520398994646 0 0 0 0 0.25983582204381861 1.3602807388198741 0 1.3602807388198741 3.2063984975255266 0 0 0 0 533.07246504148679 286.92079501585067 0 286.92079501585067 108.61014487935881 0 0 0 0 -69.119071201270344 127.18451052256387 0 127.18451052256387 -54.354692657725536 0 0 0 0 67.53662477924081 7.4596960445196601 0 7.4596960445196601 -42.521095365031897 0 0 0 0 -0.18558561107234084 2.4504191563164444 0 2.4504191563164444 8.0794219503171405 0 0 0 0 15.466516370735917 16.832054167445676 0 16.832054167445676 -41.006114023517512 0 0 0 0 24.425309263281633 52.644916558590921 0 52.644916558590921 -20.901393297870527 0 0 0 0 40.435704129216901 30.855128326840713 0 30.855128326840713 -29.623790994824958 0 0 0 0 46.600238775336038 9.7549778772699938 0 9.7549778772699938 13.421682175481692 0 0 0 0 22.05049749211139 36.263208521906563 0 36.263208521906563 2.0725735498635913 0 0 0 0 50.777820775912915 55.508296875676024 0 55.508296875676024 63.009097972968448 0 0 0 0 18.875607203406616 64.876027881411574 0 64.876027881411574 -3.1184974275638524 0 0 0 0 18.906675898955655 57.158669152779112 0 57.158669152779112 87.800306126260693 0 0 0 0 173.7608346242796 262.14159821913563 0 262.14159821913563 129.31725358839685 0 0 0 0 -7.0579189584786945 196.77804484138505 0 196.77804484138505 326.0391100046686 0 0 0 0 151.02482314211375 347.56910602626704 0 347.56910602626704 317.99035787369576 0 0 0 0 177.06564501195135 348.23492283004271 0 348.23492283004271 295.65561677572987 0 0 0 0 191.74766922713025 337.53525962571803 0 337.53525962571803 296.93517328167923 0 0 0 0 226.12433755938036 398.04681903578785 0 398.04681903578785 354.20838459369406 0 0 0 0 414.01137525803642 358.95707377506551 0 358.95707377506551 324.19059552326507 0 0 0 0 378.8190673771096 373.18748675295137 0 373.18748675295137 268.96215174598092 0 0 0 0 157.17708689086794 399.26363020224744 0 399.26363020224744 459.73871136588787 0 0 0 0 -176.75497142225868 82.419948529653993 0 82.419948529653993 395.31986706886892 0 0 0 0 119.8903310971773 150.62683391756673 0 150.62683391756673 144.16030986069018 0 0 0 0 -7.0066074380029022 29.718611525133383 0 29.718611525133383 145.56162507452609 0 0 0 0 145.82753768926341 260.82085958763491 0 260.82085958763491 294.79881003371065 0 0 0 0 -1.9364027822097114 3.7207484125124921 0 3.7207484125124921 -5.581626089944649 0 0 0 0 201.5083594436237 328.24028727623045 0 328.24028727623045 282.09749073378771 0 0 0 0 53.052498199729598 -6.8716713434187113 0 -6.8716713434187113 -55.982029943395901 0 0 0 0 190.30958417990041 229.93799190408572 0 229.93799190408572 260.80678504174284 0 0 0 0 0.14260242174350424 252.0358185121313 0 252.0358185121313 291.71599647759467 0 0 0 0 0.27990522855907329 148.07256002179747 0 148.07256002179747 228.73376422190267 0 0 0 0 -144.47441804060509 206.61591995789422 0 206.61591995789422 17.032514670160253 0 0 0 0 97.792869997778325 -52.794213165438123 0 -52.794213165438123 -77.149123365481501 0 0 0 0 -67.667263385024853 157.97339911837116 0 157.97339911837116 80.937118649817421 0 0 0 0 69.509331933557405 149.95487253051397 0 149.95487253051397 -124.28158140726737 0 0 0 0 215.03177148246323 -117.14241405169741 0 -117.14241405169741 -42.888746242168054 0 0 0 0 131.87904180877376 4.1096432002013898 0 4.1096432002013898 -161.54029167714179 0 0 0 0 145.11360512935789 -22.445315997283615 0 -22.445315997283615 -60.371084559534211 0 0 0 0 127.08942141245643 -7.3631495559311588 0 -7.3631495559311588 -13.072286884198547 0 0 0 0 160.09315851895371 4.5523615262936801 0 4.5523615262936801 -47.908180250422447 0 0 0 0 133.85776364612684 20.966674621944549 0 20.966674621944549 8.9657436640263768 0 0 0 0 128.11723707584315 31.294835139917268 0 31.294835139917268 136.90346841156133 0 0 0 0 199.2948466023372 185.90414928335304 0 185.90414928335304 122.77078805311021 0 0 0 0 93.122220328761614 76.760382900873083 0 76.760382900873083 69.409015896992059 0 0 0 0 136.44372012259555 72.408597512461711 0 72.408597512461711 -51.893307570309844 0 0 0 0 113.5776480154891 157.0630262449049 0 157.0630262449049 49.500736455516744 0 0 0 0 140.42948281939607 81.095280242196168 0 81.095280242196168 158.52610724431725 0 0 0 0 189.94697632358293 19.514368377174833 0 19.514368377174833 6.3511569748952752 0 0 0 0 168.52447264062357 244.00771712405549 0 244.00771712405549 385.55969298627315 0 0 0 0 208.60393365436175 110.35952779058425 0 110.35952779058425 132.66030903849241 0 0 0 0 10.686618377803825 -30.844829569366993 0 -30.844829569366993 299.06176121200406 0 0 0 0 -331.12490893958602 107.63216813109466 0 107.63216813109466 132.64611930616229 0 0 0 0 -39.505215962359216 215.88705006612327 0 215.88705006612327 163.65321377597866 0 0 0 0 67.179326824931195 -1.5997140550607583 0 -1.5997140550607583 133.1859354145854 0 0 0 0 104.90847746112559 107.86834614745749 0 107.86834614745749 17.02600686034566 0 0 0 0 -20.779982674944222 31.760150431635338 0 31.760150431635338 -25.561287408010685 0 0 0 0 -29.825390713511297 122.03164780682619 0 122.03164780682619 -46.508449994580587 0 0 0 0 -252.4937961367832 6.8270314829715062 0 6.8270314829715062 -96.42099457999575 0 0 0 0 57.873328265981399 112.6219727746211 0 112.6219727746211 -105.65555725801096 0 0 0 0 68.266405009824666 40.227561510007945 0 40.227561510007945 -55.144608220740338 0 0 0 0 137.28935032046502 59.688488034458715 0 59.688488034458715 -60.76511181848764 0 0 0 0 115.07354262279114 -8.913916955323657 0 -8.913916955323657 -19.996303813604754 0 0 0 0 125.18492618582968 -0.14252592009870568 0 -0.14252592009870568 14.777929812582443 0 0 0 0 -152.14784490947204 124.08644915877812 0 124.08644915877812 261.64243339277164 0 0 0 0 -437.93188708994421 219.50952291303292 0 219.50952291303292 180.34013352633337 0 0 0 0 0.82100491485017812 5.783972779641779 0 5.783972779641779 7.9179243598090352 0 0 0 0 268.52668999498565 275.03877496239147 0 275.03877496239147 181.61263293277443 0 0 0 0 30.899526386056095 78.312965230481495 0 78.312965230481495 102.61878530106333 0 0 0 0 -204.09290351781237 267.92076941238338 0 267.92076941238338 -31.61224922061956 0 0 0 0 -348.01856159832823 56.723251263325437 0 56.723251263325437 -5.0993934125435771 0 0 0 0 -322.45232489622867 175.19852478043686 0 175.19852478043686 -312.66859162549372 0 0 0 0 0.14179009591811109 1.6153277131301707 0 1.6153277131301707 3.8676296291613639 0 0 0 0 -2.2688327381765703 221.29982489888062 0 221.29982489888062 246.92528629930894 0 0 0 0 -25.305424972568289 48.606595200761149 0 48.606595200761149 14.86772889396525 0 0 0 0 -1.6507468774353047 3.3649783005061096 0 3.3649783005061096 32.550893921670394 0 0 0 0 -85.565633097394311 100.02297292251933 0 100.02297292251933 -27.979874367592856 0 0 0 0 -57.872363245114684 -2.1194437793747056 0 -2.1194437793747056 14.140274872945156 0 0 0 0 -136.66401936247712 -68.009568584937369 0 -68.009568584937369 50.04570070480986 0 0 0 0 -349.5373022093554 -55.262344619462965 0 -55.262344619462965 163.05186724990199 0 0 0 0 -315.63609151274795 148.87483643471023 0 148.87483643471023 36.223713157727616 0 0 0 0 14.921593822014984 47.663582598901485 0 47.663582598901485 4.1254921416475554 0 0 0 0 59.273721937017399 48.552981511962571 0 48.552981511962571 -61.549770848261687 0 0 0 0 -50.244400327792391 82.266066646712716 0 82.266066646712716 -50.739231554849539 0 0 0 0 -73.697236448701005 153.45852560108324 0 153.45852560108324 -195.18997351395228 0 0 0 0 -131.09116898079947 91.522929605474928 0 91.522929605474928 -1.9441021881939378 0 0 0 0 -100.47314503489179 67.688870773330564 0 67.688870773330564 15.027958566002781 0 0 0 0 -37.717402640904766 106.08400028167671 0 106.08400028167671 -54.17411584810543 0 0 0 0 -42.625808464392321 72.100498117186362 0 72.100498117186362 27.055983308855502 0 0 0 0 -36.325632087187842 71.976009469872224 0 71.976009469872224 14.895452050885069 0 0 0 0 -31.245066480114474 74.550731323539367 0 74.550731323539367 25.262567760149977 0 0 0 0 -2.4569783157647436 8.3172887074137236 0 8.3172887074137236 -7.1892646340713782 0 0 0 0 371.54976358694012 349.30389908841823 0 349.30389908841823 174.80218132167647 0 0 0 0 -52.625219475055928 50.006927958438609 0 50.006927958438609 -23.296041195790167 0 0 0 0 -331.82477164396551 95.91307306814997 0 95.91307306814997 119.90061977332516 0 0 0 0 -123.01849955967919 167.93440312490202 0 167.93440312490202 -66.459500573881087 0 0 0 0 0.069114211521718261 3.0736840523140359 0 3.0736840523140359 5.2285425488959163 0 0 0 0 -373.19814115788176 137.24789583505117 0 137.24789583505117 -28.645350730112114 0 0 0 0 -234.3975306913344 154.88377552149905 0 154.88377552149905 -59.003651658102171 0 0 0 0 -1.2362055598018173 2.401536979749082 0 2.401536979749082 4.5724524805093125 0 0 0 0 -377.60595649338211 179.11069036783556 0 179.11069036783556 238.47467132243037 0 0 0 0 459.026373571367 297.54274059455565 0 297.54274059455565 184.36646575145915 0 0 0 0 1004.094115400163 423.61122955108294 0 423.61122955108294 63.784296314966923 0 0 0 0 -0.69080518704140559 200.59193736501402 0 200.59193736501402 238.35462405672479 0 0 0 0 338.10775991862465 455.5375213149382 0 455.5375213149382 202.41684902197449 0 0 0 0 72.643172632968344 356.77049058174453 0 356.77049058174453 236.0857626087236 0 0 0 0 370.18084442628151 327.46976211673712 0 327.46976211673712 209.3670887548069 0 0 0 0 82.105135236043225 210.96859392112287 0 210.96859392112287 167.93098520293279 0 0 0 0 124.1786278944146 304.89112716150248 0 304.89112716150248 220.32302018709015 0 0 0 0 -0.48982811590394704 344.33739837161556 0 344.33739837161556 66.138805754870191 0 0 0 0 207.69948681478127 278.32054106817941 0 278.32054106817941 1.171219954996559 0 0 0 0 156.14297926594736 153.11319044370794 0 153.11319044370794 -417.52482211855386 0 0 0 0 -130.13721209155847 -58.208049424443743 0 -58.208049424443743 -425.19295100888939 0 0 0 0 0.64073127664636775 353.88800271828546 0 353.88800271828546 -1273.1928538877837 0 0 0 0 5.4977696505595191 5.3619696237090579 0 5.3619696237090579 1.4969794811217874 0 0 0 0 -3.9528787524941436 1378.8597689236594 0 1378.8597689236594 2129.263182376485 0 0 0 0 233.26805538575354 703.58997373641614 0 703.58997373641614 482.58781492305934 0 0 0 0 12.713686948692725 13.863879402653005 0 13.863879402653005 2.0535243282924451 0 0 0 0 -166.47195746579382 205.48158940679059 0 205.48158940679059 -570.43757740507135 0 0 0 0 -92.677100536250236 473.78510413169306 0 473.78510413169306 -669.98267085135012 0 0 0 0 331.8871482694085 303.84400485915467 0 303.84400485915467 -1565.2363668573989 0 0 0 0 283.71708511548786 532.72933525739973 0 532.72933525739973 326.75338896542962 0 0 0 0 160.45769777465466 -50.139858035370708 0 -50.139858035370708 -198.43229782003982 0 0 0 0 479.93657046680528 626.66122408380943 0 626.66122408380943 -383.25970223204786 0 0 0 0 -232.89747794045979 525.30411320012718 0 525.30411320012718 412.29066111072098 0 0 0 0 -219.91519538454986 447.58722157771626 0 447.58722157771626 -42.486240404869022 0 0 0 0 -106.04968381545041 300.98766452974633 0 300.98766452974633 -353.48858338979699 0 0 0 0 -115.25521651557938 276.55403878013203 0 276.55403878013203 -111.09667287494631 0 0 0 0 -99.118051092831593 322.37705385760273 0 322.37705385760273 -155.43003780006984 0 0 0 0 10.730836734009245 518.75092864886938 0 518.75092864886938 -715.9757220359279 0 0 0 0 13.066341333698261 18.797741249150825 0 18.797741249150825 3.6583781258081522 0 0 0 0 -36.417202052485663 189.27626198421967 0 189.27626198421967 278.95459710004889 0 0 0 0 -11.926110203646203 185.86130573080027 0 185.86130573080027 -226.25360804220691 0 0 0 0 -12.71203589126344 220.42831689049581 0 220.42831689049581 -23.326888113999303 0 0 0 0 7.9510324465062467 18.683148479432852 0 18.683148479432852 4.3193929352744309 0 0 0 0 -119.31939969928681 295.32216089075882 0 295.32216089075882 -41.110717783747532 0 0 0 0 10.097315372581775 19.952494518537549 0 19.952494518537549 4.4373102068992267 0 0 0 0 -87.640361007492174 317.58388087385174 0 317.58388087385174 -107.3443833893507 0 0 0 0 -121.15385755528041 130.67457311543114 0 130.67457311543114 344.42547042199294 0 0 0 0 84.493140012902586 308.17651047194931 0 308.17651047194931 -1220.8212807355339 0 0 0 0 27.686478336545406 362.90293641274729 0 362.90293641274729 -267.71132821376887 0 0 0 0 -87.555306604797806 303.27148314077385 0 303.27148314077385 -130.44168609129702 0 0 0 0 -84.228517320225365 339.00747408315874 0 339.00747408315874 -135.87728713920933 0 0 0 0 -136.82724635809427 320.4101126471287 0 320.4101126471287 -143.23264134915735 0 0 0 0 -144.45745252344204 243.17560011703426 0 243.17560011703426 -48.436275909065444 0 0 0 0 -191.55434840412636 229.05813733240939 0 229.05813733240939 69.325649786798749 0 0 0 0 -41.452593713962415 83.987115341849858 0 83.987115341849858 -48.274014748392801 0 0 0 0 -137.11893710133882 196.74234034148321 0 196.74234034148321 -118.92951072452706 0 0 0 0 -56.891615347747575 103.98090682091424 0 103.98090682091424 -73.668473817640916 0 0 0 0 -97.046674941280799 313.73003810852788 0 313.73003810852788 -173.83023178908479 0 0 0 0 -8.3728659615699144 152.7782337114113 0 152.7782337114113 -241.96369549119663 0 0 0 0 39.933723962767544 222.2635108185641 0 222.2635108185641 -537.6530047022643 0 0 0 0 2.0506994524114646 13.674015111438692 0 13.674015111438692 -5.5166099539135374 0 0 0 0 -78.072025081397442 92.066073965179385 0 92.066073965179385 -19.536796638980377 0 0 0 0 -0.18457860858481467 16.019638123845937 0 16.019638123845937 -2.3734873337584474 0 0 0 0 324.24443777483248 138.02572468349535 0 138.02572468349535 119.51142974869072 0 0 0 0 424.53553502741124 236.67845988439149 0 236.67845988439149 38.374929347664875 0 0 0 0 415.26785438158549 588.15783454761549 0 588.15783454761549 876.84769852202589 0 0 0 0 191.74060013325288 111.35776822407752 0 111.35776822407752 317.37964725245547 0 0 0 0 306.8925344045856 616.06412136936888 0 616.06412136936888 823.96150316785497 0 0 0 0 421.55821584813384 771.53507560259823 0 771.53507560259823 940.28258167057538 0 0 0 0 103.56881651311778 604.73713640133792 0 604.73713640133792 1294.6996184489763 0 0 0 0 133.59860209245016 1381.7811527409067 0 1381.7811527409067 2043.2088311939478 0 0 0 0 1.0260415376566954 6.5339889012516323 0 6.5339889012516323 -1.5142529468882699 0 0 0 0 466.49097928246556 657.15797443347037 0 657.15797443347037 791.69614802108845 0 0 0 0 124.03115943295779 963.21881288960049 0 963.21881288960049 354.11580128494825 0 0 0 0 171.63492495885293 1118.010942504854 0 1118.010942504854 589.28921651459052 0 0 0 0 342.45508644028814 834.51243230350701 0 834.51243230350701 641.92644506892975 0 0 0 0 56.967438463390863 619.5388521383029 0 619.5388521383029 572.44894043452246 0 0 0 0 113.55575429927558 659.01367050789486 0 659.01367050789486 56.236804556308925 0 0 0 0 -97.99617517675506 607.41013875864155 0 607.41013875864155 225.67130583955986 0 0 0 0 76.410419131949311 472.90693881410334 0 472.90693881410334 -25.773562136044347 0 0 0 0 -416.08030840285937 268.07872916301858 0 268.07872916301858 90.129559931410313 0 0 0 0 401.59106010226969 379.7608294242018 0 379.7608294242018 77.669631517841481 0 0 0 0 64.323022523069085 617.65717365290766 0 617.65717365290766 225.68668237644306 0 0 0 0 297.67112542880204 834.48093816918117 0 834.48093816918117 262.86145027685507 0 0 0 0 172.38809885952651 746.89447725365426 0 746.89447725365426 940.21284446494064 0 0 0 0 746.59376541450911 1052.8293532901407 0 1052.8293532901407 429.23758242562508 0 0 0 0 805.42329527393667 626.90720650772982 0 626.90720650772982 655.96047397416987 0 0 0 0 772.91701712086979 604.90661529922545 0 604.90661529922545 757.73396582744317 0 0 0 0 2.3836751751550764 583.03233086077125 0 583.03233086077125 761.54153925184073 0 0 0 0 244.69531257446306 737.05678727626446 0 737.05678727626446 337.92093417420983 0 0 0 0 -38.278878230661576 756.22965467412541 0 756.22965467412541 26.310694829022395 0 0 0 0 -259.15540867076561 337.17678270881333 0 337.17678270881333 -0.61055309800212854 0 0 0 0 -58.812622345289128 243.71688358132815 0 243.71688358132815 -264.8221782680921 0 0 0 0 8.980460304828739 127.4892076461856 0 127.4892076461856 207.2923235349981 0 0 0 0 6.3096380214474266 156.45588129760836 0 156.45588129760836 848.19243842062497 0 0 0 0 120.05307503178301 359.75946385405041 0 359.75946385405041 467.69788930866162 0 0 0 0 7.2929044092733051 15.17488159429071 0 15.17488159429071 3.4468379222161651 0 0 0 0 -26.021216928630565 318.57140808630356 0 318.57140808630356 -875.2683320287033 0 0 0 0 -34.139840658433968 409.17027709281138 0 409.17027709281138 -368.7350297425146 0 0 0 0 -321.27306664875141 442.41518496942444 0 442.41518496942444 -369.90048179227301 0 0 0 0 3.4607714894940216 6.6462025789491292 0 6.6462025789491292 1.6853786246923725 0 0 0 0 427.00860202020704 704.87200767465038 0 704.87200767465038 -1637.304388044864 0 0 0 0 97.183518647831079 303.61334313874067 0 303.61334313874067 1225.5669472563568 0 0 0 0 241.58446816990181 725.9150311894191 0 725.9150311894191 2199.332149113663 0 0 0 0 732.23323402177812 1101.3640671494122 0 1101.3640671494122 920.71356654383271 0 0 0 0 477.63692098511456 689.40008676561956 0 689.40008676561956 298.78618849903046 0 0 0 0 617.45163412010152 593.66602063477512 0 593.66602063477512 284.23300794469469 0 0 0 0 653.81888788324795 883.813614506671 0 883.813614506671 310.92973293342357 0 0 0 0 544.34732316599275 1135.2993316330817 0 1135.2993316330817 -58.436281249938475 0 0 0 0 125.25600603122166 652.66622186758286 0 652.66622186758286 0.49471726788033266 0 0 0 0 843.927745155499 631.94504171717199 0 631.94504171717199 -278.34446200841194 0 0 0 0 1827.2602974118163 274.79793512611832 0 274.79793512611832 -0.21465600186638767 0 0 0 0 804.92413685244173 603.72539701362257 0 603.72539701362257 796.88583178549015 0 0 0 0 854.63592444393726 543.97364242645199 0 543.97364242645199 151.78494765867799 0 0 0 0 1906.8048646949246 487.49943195633932 0 487.49943195633932 -137.54216544317751 0 0 0 0 579.29830601217691 179.12342847303444 0 179.12342847303444 -183.37069906778197 0 0 0 0 696.3100301947552 922.99828259586957 0 922.99828259586957 157.59908107043884 0 0 0 0 1194.1863377385507 733.36700236294564 0 733.36700236294564 -189.89012080696557 0 0 0 0 474.86333571414798 376.24041693727122 0 376.24041693727122 -38.177928134856302 0 0 0 0 -0.070382982851960207 1.8127697271210934 0 1.8127697271210934 -1.8618436933797966 0 0 0 0 520.80257453461854 283.48306247285836 0 283.48306247285836 -61.872760557609581 0 0 0 0 440.07353967807921 148.57734125898014 0 148.57734125898014 27.983392576421465 0 0 0 0 448.27001142007794 86.556228249632113 0 86.556228249632113 -46.38281211022877 0 0 0 0 470.75229090967332 105.97683473242432 0 105.97683473242432 -57.088213765466207 0 0 0 0 -1.0299091934734008 3.3267561373090473 0 3.3267561373090473 -6.9668393669120121 0 0 0 0 106.79087249040094 222.65700670941624 0 222.65700670941624 415.29786471715124 0 0 0 0 19.848102543848654 523.49480744304492 0 523.49480744304492 1121.7354148271879 0 0 0 0 805.16916604005064 271.27158967676655 0 271.27158967676655 -129.41024931779248 0 0 0 0 3.4220010415823481 3.3613677556869135 0 3.3613677556869135 3.6697414219193831 0 0 0 0 204.71159375254138 70.115699719932309 0 70.115699719932309 78.667061821815878 0 0 0 0 1.0289941756048933 7.2175008624234351 0 7.2175008624234351 -11.797142623074336 0 0 0 0 31.452769382585757 68.827923376465151 0 68.827923376465151 101.15576257296925 0 0 0 0 7.5583390131157699 10.241416983392671 0 10.241416983392671 4.7587235289184093 0 0 0 0 -142.92256269679274 91.740528685917525 0 91.740528685917525 -3.1806045784505841 0 0 0 0 -127.22958118737733 57.479196165648318 0 57.479196165648318 19.789508568786914 0 0 0 0 -126.75816951250454 13.80322521197013 0 13.80322521197013 37.395385037227243 0 0 0 0 0.69250636935512944 6.141571044335862 0 6.141571044335862 -7.4830251451686678 0 0 0 0 8.7364051440017647 6.3658658416898106 0 6.3658658416898106 -56.396824345763889 0 0 0 0 -146.14311401489249 -4.9448235656636825 0 -4.9448235656636825 27.701177308736078 0 0 0 0 219.27053882917244 -12.52432340741143 0 -12.52432340741143 -3.2874480610698811 0 0 0 0 7.5084269458180586 7.496013146143099 0 7.496013146143099 0.25335020128939334 0 0 0 0 240.76458718036884 -157.53439126046214 0 -157.53439126046214 70.09666190351345 0 0 0 0 864.27959178855599 97.974120137605496 0 97.974120137605496 -14.767346437136439 0 0 0 0 563.19452732965874 -92.276769344910463 0 -92.276769344910463 -63.576895597128896 0 0 0 0 503.2173205345498 90.992274307976913 0 90.992274307976913 -14.128275668333117 0 0 0 0 302.46610421403966 -0.32748389574771863 0 -0.32748389574771863 -96.003970107769419 0 0 0 0 275.51718422990416 -34.175065912042555 0 -34.175065912042555 -0.073067010205704719 0 0 0 0 661.46278135848206 332.74261826893417 0 332.74261826893417 -139.78753017987037 0 0 0 0 253.71664904969293 104.54028173323604 0 104.54028173323604 -193.07327398906818 0 0 0 0 245.40192012881016 151.25743159353169 0 151.25743159353169 -383.28664036501141 0 0 0 0 615.40710864779976 123.22782192341765 0 123.22782192341765 -272.13094629986153 0 0 0 0 803.98747068335433 -24.272187571852555 0 -24.272187571852555 -177.64208646122279 0 0 0 0 492.02817110152773 132.72608440149543 0 132.72608440149543 262.17185991977749 0 0 0 0 837.54855607828722 -304.93040379687591 0 -304.93040379687591 105.91890086454805 0 0 0 0 3.5978636924760963 1.7962536230673258 0 1.7962536230673258 1.1577195175696318 0 0 0 0 2.2891012676118407 129.93032067259628 0 129.93032067259628 -2.5057803166164376 0 0 0 0 -53.938133306168311 -79.382711609243415 0 -79.382711609243415 -84.159345823500189 0 0 0 0 41.811808161208774 -16.282298270281672 0 -16.282298270281672 -45.679747519981902 0 0 0 0 -632.76656978570099 174.12402654974358 0 174.12402654974358 -169.74423095197926 0 0 0 0 -1.3604454730033524 1.4130486706040273 0 1.4130486706040273 -3.4596935520651897 0 0 0 0 -663.48070729441679 17.347202141732851 0 17.347202141732851 54.503784360484133 0 0 0 0 -560.29861128411721 242.92866724661872 0 242.92866724661872 -484.41647341266798 0 0 0 0 -548.81081495492981 280.73603086348703 0 280.73603086348703 -743.51422099370393 0 0 0 0 -721.15344477946201 101.75633149218265 0 101.75633149218265 -449.12804445657821 0 0 0 0 -656.70473969807063 115.63891061347385 0 115.63891061347385 -722.98478105665845 0 0 0 0 -30.314139431931835 -126.25049937977928 0 -126.25049937977928 -461.77612224740733 0 0 0 0 14.459521963246516 74.760907360036072 0 74.760907360036072 -340.48184214614957 0 0 0 0 -162.38342848069442 354.71455946737115 0 354.71455946737115 -649.22741640308777 0 0 0 0 170.18710409873165 318.67081285888344 0 318.67081285888344 -459.59176714665773 0 0 0 0 -254.48470280218316 282.53593249226469 0 282.53593249226469 -239.37916331052838 0 0 0 0 -685.65560345045378 433.5603823097299 0 433.5603823097299 -432.10937247717106 0 0 0 0 -261.5333921894271 161.58254944951841 0 161.58254944951841 -286.68281957506406 0 0 0 0 -511.02046230862106 339.10093225619494 0 339.10093225619494 -127.80188158575947 0 0 0 0 -593.07579864732634 -71.508053835563942 0 -71.508053835563942 -105.92885859304079 0 0 0 0 -294.90638000763647 152.11849312225968 0 152.11849312225968 -29.448300033676787 0 0 0 0 190.46546588982892 224.88535191056508 0 224.88535191056508 -280.39448730484582 0 0 0 0 189.11808119429048 363.3413697789515 0 363.3413697789515 -169.36838646115939 0 0 0 0 489.9334253663983 267.46310525232184 0 267.46310525232184 -169.34573684740099 0 0 0 0 285.21565149778326 147.00972779086624 0 147.00972779086624 -259.49713661459828 0 0 0 0 521.36187990326653 297.34328214586822 0 297.34328214586822 -321.6326478601477 0 0 0 0 556.31870548952338 174.26459095209475 0 174.26459095209475 -126.73008313793252 0 0 0 0 574.44294172732407 148.34104521245172 0 148.34104521245172 -102.11824646455534 0 0 0 0 437.90955692747957 376.17322230510035 0 376.17322230510035 113.59828453031332 0 0 0 0 852.34871084594124 446.19617787544848 0 446.19617787544848 44.110446118838809 0 0 0 0 288.61049074998664 312.71547127152553 0 312.71547127152553 241.4748524060451 0 0 0 0 153.87730884762277 424.8146150694447 0 424.8146150694447 150.21084592366242 0 0 0 0 753.95725299115111 620.78843386665176 0 620.78843386665176 209.69017470211475 0 0 0 0 -9.4035297713411552 16.171107066923753 0 16.171107066923753 -20.548411465907023 0 0 0 0 667.68537492781388 495.26231482603771 0 495.26231482603771 189.50422134670589 0 0 0 0 435.97874122847134 275.86493054449966 0 275.86493054449966 248.93129783961467 0 0 0 0 457.9077780366606 241.3559393191972 0 241.3559393191972 121.91487243396114 0 0 0 0 496.70621997439594 385.0392567543413 0 385.0392567543413 328.95008417235294 0 0 0 0 -7.5571393908141289 12.368859004006453 0 12.368859004006453 -13.572851774931763 0 0 0 0 308.25641738469494 282.83367011566588 0 282.83367011566588 477.20998397001676 0 0 0 0 488.8723246055124 300.97019808604455 0 300.97019808604455 252.13573402949078 0 0 0 0 -83.160960069590146 139.86994887934588 0 139.86994887934588 2.5123073638278584 0 0 0 0 711.80703656916376 759.88020213029631 0 759.88020213029631 297.92997382196336 0 0 0 0 596.70472408939895 279.8524289875113 0 279.8524289875113 39.574622103844376 0 0 0 0 231.69381551573315 359.57540096071898 0 359.57540096071898 486.13265252465862 0 0 0 0 294.7704131845494 175.67239396352124 0 175.67239396352124 102.30479047301105 0 0 0 0 -1.9940872003098775 395.00566983856879 0 395.00566983856879 274.82632885594285 0 0 0 0 -128.0790590684619 323.70423960485232 0 323.70423960485232 148.98170191944519 0 0 0 0 178.67466274107278 229.59262123162353 0 229.59262123162353 -80.119578584370174 0 0 0 0 -379.91490250842617 75.113778957049362 0 75.113778957049362 147.30937121856903 0 0 0 0 -3.19189420946865 8.4351328165304409 0 8.4351328165304409 -16.483747653110797 0 0 0 0 -267.63579069445404 -43.242808657975729 0 -43.242808657975729 -69.661575050104148 0 0 0 0 -821.63768514193725 -5.7709707463673112 0 -5.7709707463673112 51.069267371192836 0 0 0 0 256.50898356952894 1.9439265538931068 0 1.9439265538931068 -74.314360627548012 0 0 0 0 203.67289315273956 -33.447371811620542 0 -33.447371811620542 -37.989399241898354 0 0 0 0 -4.4541436827135392 12.833505329626931 0 12.833505329626931 -30.856302861099223 0 0 0 0 250.59350864132739 151.40246981995915 0 151.40246981995915 -128.29484473729099 0 0 0 0 -643.40920628452659 84.6709399277388 0 84.6709399277388 63.192248544341055 0 0 0 0 -248.33982595885755 211.86113143566399 0 211.86113143566399 48.491894491117364 0 0 0 0 -312.62876580809461 -50.523308662372983 0 -50.523308662372983 55.127851875531633 0 0 0 0 24.566103452001698 128.69209418434912 0 128.69209418434912 15.850701197668968 0 0 0 0 -345.66049740234575 134.8510546553598 0 134.8510546553598 -2.987868629177683 0 0 0 0 -3.1528204650910361 23.100998897178286 0 23.100998897178286 -43.870521159841289 0 0 0 0 88.333291862025362 122.2247302746373 0 122.2247302746373 -30.042546816446702 0 0 0 0 -225.43556951348 252.99669778439966 0 252.99669778439966 -172.05434122906809 0 0 0 0 -228.44763606499328 239.80300535859169 0 239.80300535859169 53.076408522743804 0 0 0 0 -357.53834081650712 311.72385767121159 0 311.72385767121159 -213.38473149769561 0 0 0 0 -32.639955265472949 -1.8252894030465558 0 -1.8252894030465558 10.944157023979489 0 0 0 0 -2.0968390261343046 33.992901699302877 0 33.992901699302877 20.380191950341953 0 0 0 0 -30.720369092457986 76.176652834143169 0 76.176652834143169 3.1277915749342355 0 0 0 0 46.498669482862169 80.156139218875978 0 80.156139218875978 -30.407180390378926 0 0 0 0 -93.46637401415137 158.19691406692345 0 158.19691406692345 22.081828517686517 0 0 0 0 16.499370583342717 40.172989954318453 0 40.172989954318453 57.777199469450693 0 0 0 0 -108.93111442788722 83.034726354096165 0 83.034726354096165 188.25250820016663 0 0 0 0 -240.94340090779224 123.20138428256632 0 123.20138428256632 -279.3194192408555 0 0 0 0 17.138379820629503 28.133610659486813 0 28.133610659486813 42.1898383460194 0 0 0 0 -206.27063774901035 333.26810663553988 0 333.26810663553988 -160.84203226450336 0 0 0 0 29.052388955213246 143.67323991238663 0 143.67323991238663 -18.477399122119095 0 0 0 0 39.067989109793416 76.680701925699395 0 76.680701925699395 19.35470364731691 0 0 0 0 75.757446703923051 -31.01221597217409 0 -31.01221597217409 -316.29087701058052 0 0 0 0 94.671348454133295 51.970087122756468 0 51.970087122756468 -35.873273133547627 0 0 0 0 -200.75123101413374 224.35455660608204 0 224.35455660608204 -116.00105425996298 0 0 0 0 0.27956043220287086 1.264050158082128 0 1.264050158082128 -2.8342802341162496 0 0 0 0 -193.78353267433295 294.70064723207247 0 294.70064723207247 176.75891264681559 0 0 0 0 76.128084069478064 -6.7079855341662551 0 -6.7079855341662551 -18.840247824016842 0 0 0 0 187.8657349221503 102.56133034264349 0 102.56133034264349 -9.5935779233041103 0 0 0 0 167.81426500869202 166.56262593068641 0 166.56262593068641 104.1372742399908 0 0 0 0 318.32104562401219 -2.8190838595437526 0 -2.8190838595437526 -106.80601929413388 0 0 0 0 304.48818793146347 91.464844346855898 0 91.464844346855898 -31.22300258263931 0 0 0 0 -0.028498437438855717 3.0015376182243187 0 3.0015376182243187 -5.6251076585923272 0 0 0 0 -1.8532398254745601 2.8441620247991324 0 2.8441620247991324 -4.852735388286419 0 0 0 0 97.635735625513917 30.897962995641137 0 30.897962995641137 337.41157851701792 0 0 0 0 -1090.4505154721483 -49.573987648041111 0 -49.573987648041111 -50.436490986379795 0 0 0 0 -1579.7615885179512 323.47908714438745 0 323.47908714438745 -213.24615563959378 0 0 0 0 140.96248990616459 56.200697666165524 0 56.200697666165524 -6.0476092425815295 0 0 0 0 143.65719946639183 53.019047463095831 0 53.019047463095831 -577.7942835362046 0 0 0 0 -592.47011545348505 879.31441226302559 0 879.31441226302559 -489.0432489879604 0 0 0 0 0.14273238759429319 1.6211654442547854 0 1.6211654442547854 -3.3548245464266415 0 0 0 0 -578.10486273009883 306.78625170248051 0 306.78625170248051 -834.56846900153323 0 0 0 0 -318.48186609086406 222.67618553221109 0 222.67618553221109 -812.27182101771905 0 0 0 0 -707.73807742766621 500.69634740457877 0 500.69634740457877 -22.409464855634724 0 0 0 0 -484.03763794526458 70.891130973723193 0 70.891130973723193 -294.81261990889834 0 0 0 0 12.058921153700794 580.69073027185368 0 580.69073027185368 -645.53723002972947 0 0 0 0 63.985186259104012 382.0599845321417 0 382.0599845321417 113.64548445563923 0 0 0 0 96.239592501075094 352.13664736331884 0 352.13664736331884 377.87319754876444 0 0 0 0 1.1643674330298381 304.85979578787919 0 304.85979578787919 443.03566457093621 0 0 0 0 198.98086787310604 185.40379688723624 0 185.40379688723624 -285.12235262868853 0 0 0 0 182.08474561916591 175.37493862202973 0 175.37493862202973 -28.609162577587995 0 0 0 0 1474.5686824572585 119.62918965877361 0 119.62918965877361 -18.993295298936573 0 0 0 0 -687.57640871666445 407.12563089682226 0 407.12563089682226 741.55415983540934 0 0 0 0 4.2157266175312174 6.5382964265751582 0 6.5382964265751582 9.5194130428056525 0 0 0 0 -137.9705537768059 -37.553572448261548 0 -37.553572448261548 -46.027515363803104 0 0 0 0 49.66275782786397 751.55335980822201 0 751.55335980822201 939.41041006106616 0 0 0 0 509.42549773257633 1043.0097750473742 0 1043.0097750473742 949.85357129943441 0 0 0 0 342.26858805869779 758.74923549589403 0 758.74923549589403 1450.2055004681497 0 0 0 0 767.5228092780344 537.09924561096113 0 537.09924561096113 836.71646323171444 0 0 0 0 324.23973507841947 726.22617368939973 0 726.22617368939973 1182.4273357095153 0 0 0 0 451.33949622381624 666.68703653843841 0 666.68703653843841 807.07212056809112 0 0 0 0 2635.662486228648 1181.2700036150636 0 1181.2700036150636 248.4950067364698 0 0 0 0 1555.3148313979327 1382.7428542124035 0 1382.7428542124035 1341.6243326049371 0 0 0 0 281.6007119048445 1391.1582686778165 0 1391.1582686778165 1135.344983429708 0 0 0 0 -1087.9513940168908 656.05509054733557 0 656.05509054733557 811.68640813314414 0 0 0 0 8.6200781566440128 941.35390853999706 0 941.35390853999706 187.45207874763582 0 0 0 0 -836.92241592928622 968.67013524728827 0 968.67013524728827 -162.13112054635252 0 0 0 0 -592.59409539282933 476.47343397665099 0 476.47343397665099 -168.64088185891887 0 0 0 0 -1345.9111294749091 152.91136985108642 0 152.91136985108642 586.52690382263245 0 0 0 0 -1.106844016506912 5.888380825548353 0 5.888380825548353 4.6366808828767319 0 0 0 0 2282.6885901242276 582.22852673391026 0 582.22852673391026 184.30943316458433 0 0 0 0 -38.243196434763377 -40.979053604372893 0 -40.979053604372893 16.753781616920605 0 0 0 0 1730.951356844671 448.7365205820679 0 448.7365205820679 279.37844582912658 0 0 0 0 1610.344845055839 368.69932004336624 0 368.69932004336624 -189.26351428040653 0 0 0 0 1127.3670245565099 338.3649801600086 0 338.3649801600086 47.572061588871293 0 0 0 0 1.3983459680887904 7.332103336191004 0 7.332103336191004 1.5523090320176607 0 0 0 0 1027.5598435467546 513.92486169817312 0 513.92486169817312 225.81982353996864 0 0 0 0 -3.0786335924852466 12.359493729727333 0 12.359493729727333 6.9257825063032499 0 0 0 0 1060.6753561132355 471.94337842248206 0 471.94337842248206 279.03910876242298 0 0 0 0 1353.566910277128 938.51211256117676 0 938.51211256117676 -393.06683732322654 0 0 0 0 -1602.8237159367018 578.01635806491504 0 578.01635806491504 262.11616250182851 0 0 0 0 -245.57613689489153 266.9506038389336 0 266.9506038389336 -109.63934309234173 0 0 0 0 -1237.0354884160843 44.262900065801659 0 44.262900065801659 0.82006879259279231 0 0 0 0 -905.56893806534936 420.56573407638643 0 420.56573407638643 -70.688399255355762 0 0 0 0 -388.25754922633496 248.02838103243266 0 248.02838103243266 -295.35181484370696 0 0 0 0 139.33145062799304 228.71430550067453 0 228.71430550067453 -226.29969750982855 0 0 0 0 289.11778057840183 -46.293187661042793 0 -46.293187661042793 130.30585204001181 0 0 0 0 -248.46430927672736 293.41845217073478 0 293.41845217073478 37.424329526154906 0 0 0 0 -85.782002428035412 290.75571943867726 0 290.75571943867726 -237.0130355250767 0 0 0 0 -501.27434561307746 420.62325199733823 0 420.62325199733823 47.405316781158035 0 0 0 0 11.528588522938932 19.284718848668994 0 19.284718848668994 25.362167940590382 0 0 0 0 249.29172621743419 -98.481686005944539 0 -98.481686005944539 -73.132513742530136 0 0 0 0 -81.930268068550504 206.25683510533054 0 206.25683510533054 -5.7538150967448018 0 0 0 0 6.7211369641881902 195.0833118032424 0 195.0833118032424 -41.377351207840547 0 0 0 0 -163.46377898535138 153.98656153795127 0 153.98656153795127 13.738086589190061 0 0 0 0 -210.43782735275454 309.81161018334478 0 309.81161018334478 -174.0161412151574 0 0 0 0 -370.08707870571379 128.33196260483237 0 128.33196260483237 -18.216306166781578 0 0 0 0 -494.32971571975213 244.75320006829133 0 244.75320006829133 83.90384421284034 0 0 0 0 -539.86154647541844 324.92304387013064 0 324.92304387013064 65.660350510435819 0 0 0 0 -180.92818164960045 205.82400719214638 0 205.82400719214638 17.633673043216731 0 0 0 0 -302.04062363528647 88.398858913224103 0 88.398858913224103 235.09230623174517 0 0 0 0 36.748583145730663 129.41782086202147 0 129.41782086202147 -31.004328392693424 0 0 0 0 -62.804597997142992 139.26050830878739 0 139.26050830878739 -19.477189986559097 0 0 0 0 -42.002906831516157 75.880475645928982 0 75.880475645928982 133.06590060852614 0 0 0 0 -10.600664699799381 139.19187050099936 0 139.19187050099936 -4.7710776369458472 0 0 0 0 45.540298169209564 -26.159758137178869 0 -26.159758137178869 109.47519790662545 0 0 0 0 41.087745338758396 41.777875753972694 0 41.777875753972694 36.109822068136964 0 0 0 0 -9.1173538393364879 -2.4114399072279298 0 -2.4114399072279298 -2.7448543143356119 0 0 0 0 -267.00639312065323 1060.1323066267541 0 1060.1323066267541 -1149.7244588234234 0 0 0 0 -282.19409291398551 -121.60220759714775 0 -121.60220759714775 548.74431652040948 0 0 0 0 -667.32545953901717 193.58359451587239 0 193.58359451587239 311.31360612454955 0 0 0 0 -1077.2028202355286 687.86349406711452 0 687.86349406711452 -293.59257071753382 0 0 0 0 -550.48406434627395 493.65825225749904 0 493.65825225749904 147.25767548514705 0 0 0 0 -53.054652784645441 416.98279681046461 0 416.98279681046461 -978.73325446551826 0 0 0 0 7.8952478637365857 -40.129219073300192 0 -40.129219073300192 -66.126386737454595 0 0 0 0 -329.5463801776059 314.47220094572549 0 314.47220094572549 -502.3884551405099 0 0 0 0 314.9666094776876 193.68676346694474 0 193.68676346694474 324.6529070504148 0 0 0 0 341.72235548417484 117.222996235663 0 117.222996235663 -84.060526746539836 0 0 0 0 76.835525977177895 -0.64468771586234652 0 -0.64468771586234652 -482.38368562575852 0 0 0 0 -69.381929646049684 136.80299811472651 0 136.80299811472651 238.1612203956447 0 0 0 0 1.8053064530851213 12.750058755369317 0 12.750058755369317 -3.1929366951144971 0 0 0 0 -114.28610840994224 -22.330792884993571 0 -22.330792884993571 782.95022272393544 0 0 0 0 78.120010040875059 43.093000960081554 0 43.093000960081554 21.045909227566881 0 0 0 0 4.6889197007178467 1.1758272484803456 0 1.1758272484803456 -1.1985501960918512 0 0 0 0 -70.827761900916812 696.63559456954681 0 696.63559456954681 -352.63667798883034 0 0 0 0 -283.62299426906247 -396.54515121325585 0 -396.54515121325585 -755.76694967578442 0 0 0 0 -728.83192188142675 385.71692023953528 0 385.71692023953528 243.03137392032659 0 0 0 0 502.74245676737337 -127.03004188107298 0 -127.03004188107298 -60.120470964800916 0 0 0 0 636.57761026440858 371.6019772761174 0 371.6019772761174 58.925676769707934 0 0 0 0 317.06025544677323 227.07974889740035 0 227.07974889740035 221.05924888691516 0 0 0 0 1078.7815446054083 279.90439900329147 0 279.90439900329147 -75.146820721562108 0 0 0 0 -3.434674325471196 12.04199340600951 0 12.04199340600951 2.3049622031470847 0 0 0 0 -608.39579048420273 369.43656567895414 0 369.43656567895414 76.494444051895698 0 0 0 0 2.7021816868313451 13.337305789515931 0 13.337305789515931 1.0151706369814235 0 0 0 0 -607.99269145115977 314.03308780817315 0 314.03308780817315 282.42217595264083 0 0 0 0 -493.86364167798456 278.11103760989863 0 278.11103760989863 -257.32509234394092 0 0 0 0 -839.72622675180173 -23.62886057525975 0 -23.62886057525975 -219.98640487553348 0 0 0 0 681.61199658637634 -118.26502367195644 0 -118.26502367195644 25.970931658768677 0 0 0 0 1347.6197698057258 160.07303966537984 0 160.07303966537984 56.654178455013607 0 0 0 0 497.00819740880979 256.24056020376338 0 256.24056020376338 107.60480578805982 0 0 0 0 936.79017351240327 462.4829953794906 0 462.4829953794906 161.9993094259853 0 0 0 0 430.98767013566248 506.63798975772625 0 506.63798975772625 388.55649687857294 0 0 0 0 527.70137670110853 524.58735467585029 0 524.58735467585029 281.76936265167387 0 0 0 0 243.06869378508418 331.5275598092685 0 331.5275598092685 233.40872958153068 0 0 0 0 378.04561922302855 547.41989838636664 0 547.41989838636664 167.69416754203121 0 0 0 0 347.20684841253751 275.97403422484513 0 275.97403422484513 171.53208428988 0 0 0 0 406.96066679924115 243.40888633541726 0 243.40888633541726 13.646698438089516 0 0 0 0 -2.6969625043280026 9.376052234399765 0 9.376052234399765 -0.51756923880263628 0 0 0 0 -79.636944133053476 175.57711033674241 0 175.57711033674241 83.209850472551807 0 0 0 0 1082.5331659760013 364.81133728315217 0 364.81133728315217 -1.0713571370033605 0 0 0 0 60.989148774390742 462.4550332337335 0 462.4550332337335 118.70882131627877 0 0 0 0 -351.56410823179613 37.425441183622752 0 37.425441183622752 -63.226807999438734 0 0 0 0 134.67055673201685 264.30953071013346 0 264.30953071013346 -48.061639322037081 0 0 0 0 -0.3286840215077973 520.90953042054571 0 520.90953042054571 194.15552784730835 0 0 0 0 155.22030439594619 406.70777452204879 0 406.70777452204879 263.78819760454462 0 0 0 0 152.66051309653994 370.34978383527778 0 370.34978383527778 16.601640855338701 0 0 0 0 266.82668353107147 421.40578247556914 0 421.40578247556914 96.825271763464116 0 0 0 0 287.53416746563744 625.89106616932804 0 625.89106616932804 228.11415674353702 0 0 0 0 470.10907841274457 897.31083185801799 0 897.31083185801799 441.79358497267822 0 0 0 0 2.5692103098575241 653.06966508762252 0 653.06966508762252 323.02011616387972 0 0 0 0 448.77436810887593 430.61161137624731 0 430.61161137624731 319.13281137254671 0 0 0 0 674.88793687269936 524.29631872830942 0 524.29631872830942 503.12493305516546 0 0 0 0 495.42936245328747 653.59715712912111 0 653.59715712912111 455.15266345355667 0 0 0 0 0.082349463838909287 75.130449425865663 0 75.130449425865663 110.13206888282002 0 0 0 0 1172.5801579423569 964.6210308424761 0 964.6210308424761 360.87442479681886 0 0 0 0 -1.7762147228335152 2.8231473656011445 0 2.8231473656011445 2.8176879537502373 0 0 0 0 179.74768774534641 245.72995368357351 0 245.72995368357351 181.87488887160725 0 0 0 0 157.68944926991389 150.44972111968491 0 150.44972111968491 146.11392989335764 0 0 0 0 143.00762571043742 288.48145906831633 0 288.48145906831633 173.85846684826902 0 0 0 0 0.50966850255281315 218.55101453278985 0 218.55101453278985 245.20027188163294 0 0 0 0 216.01362044257257 174.49998729469007 0 174.49998729469007 196.59960044540048 0 0 0 0 586.2818928998895 679.29839351973897 0 679.29839351973897 525.04373444514567 0 0 0 0 -4.5501581139962468 3.9431790030274385 0 3.9431790030274385 5.6805390328470793 0 0 0 0 528.90414841893653 575.46859589728956 0 575.46859589728956 411.82903755051666 0 0 0 0 566.82616815496294 676.07081433777421 0 676.07081433777421 470.09064343782302 0 0 0 0 449.90713936901011 669.82704055525028 0 669.82704055525028 527.0968354569959 0 0 0 0 1038.5532913914976 552.80930234619427 0 552.80930234619427 181.31635816158087 0 0 0 0 550.4255809219103 611.3993033069396 0 611.3993033069396 362.76692950916186 0 0 0 0 990.64703927731171 757.94828842927745 0 757.94828842927745 400.49503388479206 0 0 0 0 1098.7957735891105 507.91974350262535 0 507.91974350262535 209.12351098413274 0 0 0 0 756.14004895408289 721.66829588054679 0 721.66829588054679 485.62370455463315 0 0 0 0 1076.9093219074275 1008.7257325079518 0 1008.7257325079518 574.50699120859645 0 0 0 0 1746.8435506219103 1073.1476643447841 0 1073.1476643447841 519.79925009598082 0 0 0 0 442.09785346299032 507.10586637311644 0 507.10586637311644 361.83307398814941 0 0 0 0 -203.64187824173132 280.8515592079566 0 280.8515592079566 481.77158555951519 0 0 0 0 587.30013200406756 870.27271245218617 0 870.27271245218617 568.74996071628266 0 0 0 0 325.77486102518014 597.57517929905953 0 597.57517929905953 497.12769716042385 0 0 0 0 339.6491563407908 531.69343670376475 0 531.69343670376475 661.04671919060456 0 0 0 0 124.45562155272273 773.49923844405748 0 773.49923844405748 439.46983824633207 0 0 0 0 540.36044738587952 658.61531581585223 0 658.61531581585223 174.05559162078134 0 0 0 0 722.49940621123096 716.68723175983723 0 716.68723175983723 919.73615109550337 0 0 0 0 725.66355627599842 497.91052885087265 0 497.91052885087265 284.80805630917166 0 0 0 0 918.99511105343117 875.62014774169438 0 875.62014774169438 625.40330629399614 0 0 0 0 -398.54549201236478 -145.12805922837606 0 -145.12805922837606 72.042288795681088 0 0 0 0 0.097005320798274397 0.34210869789887965 0 0.34210869789887965 4.3108882747852704 0 0 0 0 291.14999514748342 132.56474009817975 0 132.56474009817975 52.797341412391688 0 0 0 0 534.86645536736614 757.05667654870558 0 757.05667654870558 590.2227054307441 0 0 0 0 631.1954781195509 405.86550786184125 0 405.86550786184125 194.47965969901998 0 0 0 0 -1.3563882377873568 0.51321841182652861 0 0.51321841182652861 3.5530142939067986 0 0 0 0 -894.99298453308438 -392.62007396069748 0 -392.62007396069748 728.01225679892468 0 0 0 0 -92.467512587594683 179.76825602290774 0 179.76825602290774 797.84287418208987 0 0 0 0 135.44504981292266 169.75871815843857 0 169.75871815843857 438.15964295683079 0 0 0 0 177.59448411822814 74.86767696897914 0 74.86767696897914 107.99946936735068 0 0 0 0 91.786128490275587 43.636305600019114 0 43.636305600019114 182.24914256785996 0 0 0 0 -96.192470530113496 -19.932687171909492 0 -19.932687171909492 173.71192967761453 0 0 0 0 397.50442720902356 149.66825605883423 0 149.66825605883423 175.2212104391001 0 0 0 0 103.13302137675964 -8.126400945817295 0 -8.126400945817295 24.655000769664184 0 0 0 0 123.74803712197172 196.46494126976904 0 196.46494126976904 297.84135648754454 0 0 0 0 7.251092872931622 66.918912209192058 0 66.918912209192058 176.3240570276248 0 0 0 0 -0.54748347679472431 0.54495685107019654 0 0.54495685107019654 0.36050145902149211 0 0 0 0 145.16883923820569 -166.27403084809703 0 -166.27403084809703 -39.991813558954163 0 0 0 0 -1.4215558227269582 1.2472609757790565 0 1.2472609757790565 -0.4839959434103065 0 0 0 0 -0.78698865334389723 1.1113374309716306 0 1.1113374309716306 0.99994070836008575 0 0 0 0 0.22865147039556177 294.76417845565447 0 294.76417845565447 -82.181003287181738 0 0 0 0 161.96045349290944 198.04428820564135 0 198.04428820564135 218.55921581471921 0 0 0 0 214.58911206002813 246.70576476835777 0 246.70576476835777 112.07612803670963 0 0 0 0 402.36115799457912 355.67374343387928 0 355.67374343387928 238.59140955509429 0 0 0 0 -4.4152151724378683 2.5657467305379953 0 2.5657467305379953 7.60774147625213 0 0 0 0 201.29215386250144 222.52982411206904 0 222.52982411206904 311.89545154999723 0 0 0 0 21.79954842360894 46.543782564977846 0 46.543782564977846 -389.7271730791781 0 0 0 0 398.32990324229104 554.98769340553235 0 554.98769340553235 33.569290155970521 0 0 0 0 -300.63755292698625 236.29186780957752 0 236.29186780957752 75.441339891560347 0 0 0 0 -0.23206390255654696 52.488871710722378 0 52.488871710722378 43.886770824075938 0 0 0 0 1.5834877108025154 2.7726316777674427 0 2.7726316777674427 2.3325452598493044 0 0 0 0 -759.15778146805678 99.080116853907384 0 99.080116853907384 219.85429249016488 0 0 0 0 1.1527184097404302 0.32698609440465276 0 0.32698609440465276 -1.3418790797202504 0 0 0 0 -17.16477308460162 -34.370951653385418 0 -34.370951653385418 -40.78595219273484 0 0 0 0 -17.16477308451309 31.341829993660276 0 31.341829993660276 13.827966535154701 0 0 0 0 -0.14409399691794533 159.82982404197537 0 159.82982404197537 -224.91248896982506 0 0 0 0 -172.22892690614026 193.17092041628922 0 193.17092041628922 -31.903901085053803 0 0 0 0 -160.00473358543104 332.53450640494322 0 332.53450640494322 -193.95529152559175 0 0 0 0 -370.1102635089992 857.80602137026744 0 857.80602137026744 138.35329816171361 0 0 0 0 -1.1551944987568703 0.50102653793633323 0 0.50102653793633323 -0.13536824277887405 0 0 0 0 5.3777646195347728 6.1362468699065076 0 6.1362468699065076 2.6573586170439683 0 0 0 0 -258.99935848570749 536.98023970645136 0 536.98023970645136 -876.66866200886943 0 0 0 0 14.401682100971811 46.32399377785805 0 46.32399377785805 -417.18655867858433 0 0 0 0 480.10004662955544 153.56765887131769 0 153.56765887131769 -1438.0692359249388 0 0 0 0 4.408598346089974 4.307864963115124 0 4.307864963115124 0.67887212406994824 0 0 0 0 -182.40672059827921 68.786101462652368 0 68.786101462652368 -451.4208375357739 0 0 0 0 425.40059519011993 483.61192412450782 0 483.61192412450782 -1638.6333225120197 0 0 0 0 -79.259308559798228 390.97908558461586 0 390.97908558461586 31.441216391249327 0 0 0 0 11.186392512019665 657.74227247150338 0 657.74227247150338 -559.9638046585269 0 0 0 0 10.027530094263795 10.419179810642511 0 10.419179810642511 2.1761199320558138 0 0 0 0 -48.402417712110037 441.04878190585305 0 441.04878190585305 -44.878881932934746 0 0 0 0 -261.88010692274838 480.14971314055219 0 480.14971314055219 1208.7160616528822 0 0 0 0 27.949467425489274 253.41699678005534 0 253.41699678005534 239.9856493613097 0 0 0 0 -85.038037378719309 292.97113561773676 0 292.97113561773676 -312.22088801686732 0 0 0 0 -86.907406292509222 645.838439438519 0 645.838439438519 -57.332571877588634 0 0 0 0 -25.414147033869085 118.07266353275281 0 118.07266353275281 182.47813980953651 0 0 0 0 3.3231198936816213 7.6407142275552147 0 7.6407142275552147 -0.50276968831547231 0 0 0 0 15.794635325935815 377.61670166397607 0 377.61670166397607 -349.99157304653818 0 0 0 0 -109.38893924304284 153.6701114859934 0 153.6701114859934 660.40140977073816 0 0 0 0 165.62597835080123 345.15345786920125 0 345.15345786920125 -1533.3236084295586 0 0 0 0 1.243619227193534 3.8239997579994842 0 3.8239997579994842 -0.69523967268857456 0 0 0 0 -215.85400543281139 774.84843614326746 0 774.84843614326746 -582.05448020843687 0 0 0 0 17.157687158291992 204.62628218502209 0 204.62628218502209 -195.634257835467 0 0 0 0 -261.77218353715398 741.45281400589511 0 741.45281400589511 278.59832084543814 0 0 0 0 -343.99693634271898 256.23136903407431 0 256.23136903407431 264.91071321888921 0 0 0 0 -1.9584366431517992 960.20615069849737 0 960.20615069849737 -349.38674365986844 0 0 0 0 -4.1828997990264156 4.0868203522836666 0 4.0868203522836666 -5.5109386166187804 0 0 0 0 207.96356164952886 -34.093635821123371 0 -34.093635821123371 -1589.6905538182509 0 0 0 0 9.1432341061481566 335.76983259829922 0 335.76983259829922 224.14904956651299 0 0 0 0 79.672464882183704 -55.961711526737417 0 -55.961711526737417 -135.97777905580915 0 0 0 0 0.12629459749950911 179.7063454801746 0 179.7063454801746 339.11823791454663 0 0 0 0 32.907838311359228 116.55703575622647 0 116.55703575622647 40.151907206984106 0 0 0 0 0.29113969413083396 344.87373121635665 0 344.87373121635665 539.6947512224524 0 0 0 0 372.42031982322078 267.07301320716215 0 267.07301320716215 308.91544318592378 0 0 0 0 -2.0115763611938746 335.34356672297963 0 335.34356672297963 965.58645655213695 0 0 0 0 0.85737226822476487 -0.32996235896226267 0 -0.32996235896226267 1.0840701010085052 0 0 0 0 206.02625916822763 196.34193788581297 0 196.34193788581297 340.917617447456 0 0 0 0 175.45370459443075 86.64404226147235 0 86.64404226147235 531.59697792860607 0 0 0 0 88.155880122401868 251.11902204119178 0 251.11902204119178 494.90077382167692 0 0 0 0 84.992657876679573 371.25714794607183 0 371.25714794607183 327.39011253337958 0 0 0 0 211.32037370789112 289.63423906828302 0 289.63423906828302 270.19042124245789 0 0 0 0 1270.4438064039459 571.38637627006483 0 571.38637627006483 -61.664724151676637 0 0 0 0 -986.72198393096915 141.93353717985156 0 141.93353717985156 341.68451057467973 0 0 0 0 -1.0059871447039725 3.7425877647513772 0 3.7425877647513772 -0.56972055509893949 0 0 0 0 -20.656867308571236 425.30502635913763 0 425.30502635913763 123.80611951102765 0 0 0 0 -76.167397187979077 195.90271539730384 0 195.90271539730384 136.59112315391155 0 0 0 0 -442.64580597432132 625.66004455249231 0 625.66004455249231 278.06981403411919 0 0 0 0 -448.52504735275375 464.13330961805036 0 464.13330961805036 265.30195637225552 0 0 0 0 -220.51750149481813 172.13086864387697 0 172.13086864387697 489.0095145072537 0 0 0 0 25.138463840939949 83.851232418309337 0 83.851232418309337 -21.577319659219938 0 0 0 0 6.042483878259219 4.2414460863100345 0 4.2414460863100345 -4.9477663404664742 0 0 0 0 -117.43146784386045 291.07998949996454 0 291.07998949996454 587.445648365323 0 0 0 0 278.44243567405647 354.46497872661666 0 354.46497872661666 306.51777118396421 0 0 0 0 2.3662712262193963 65.918001872462355 0 65.918001872462355 -75.430750339942279 0 0 0 0 -4.9159458158038944 17.22806445087226 0 17.22806445087226 -10.665072322864962 0 0 0 0 3.4885146231827093 35.925110185777157 0 35.925110185777157 14.601935420941118 0 0 0 0 -8.7500540933974236 9.1728759133341953 0 9.1728759133341953 -2.840042432135121 0 0 0 0 287.23857849137858 399.96578168672204 0 399.96578168672204 -359.92817896242195 0 0 0 0 9.1462205462448765 136.11195499825681 0 136.11195499825681 -55.554946075548287 0 0 0 0 102.62939813958656 188.08557370987728 0 188.08557370987728 -190.96493400649956 0 0 0 0 -51.062488820840372 -5.0012430725792001 0 -5.0012430725792001 -164.81679586688915 0 0 0 0 -12.952400535063191 15.099963112400381 0 15.099963112400381 -11.069668892766217 0 0 0 0 23.53376043602475 -99.910402671823249 0 -99.910402671823249 -423.26480252561123 0 0 0 0 92.026155707389989 49.594343637007114 0 49.594343637007114 -480.01905532897672 0 0 0 0 155.65574535863198 343.89357008672187 0 343.89357008672187 -282.38965220766841 0 0 0 0 70.372084735692624 67.748038278223248 0 67.748038278223248 143.3994180370828 0 0 0 0 32.162665751424356 210.44871557347574 0 210.44871557347574 -24.098430417803684 0 0 0 0 -11.672219182677509 124.83049537654188 0 124.83049537654188 -76.195825012907335 0 0 0 0 0.85515921523782978 0.50170467608970171 0 0.50170467608970171 7.048657195107026 0 0 0 0 -132.47970711053495 32.145928717204697 0 32.145928717204697 3.943302488871268 0 0 0 0 -155.03133703795538 39.639220006136384 0 39.639220006136384 30.045859629015467 0 0 0 0 8.255791934210265 127.46150682616451 0 127.46150682616451 -86.03033804626466 0 0 0 0 -90.549856819110573 182.19166823376509 0 182.19166823376509 -61.32704024188115 0 0 0 0 -12.319305481434441 16.752667795882374 0 16.752667795882374 -0.26122285394051836 0 0 0 0 -56.087612672483374 38.136250373841449 0 38.136250373841449 32.545621469895195 0 0 0 0 -3.1163794996537035 5.4793283711169352 0 5.4793283711169352 2.9195179661874135 0 0 0 0 5.9280452517705271 58.211492580262529 0 58.211492580262529 -58.845536973657545 0 0 0 0 -45.186201160013297 41.28546456342292 0 41.28546456342292 -2.7959241447442764 0 0 0 0 -3.7674716304189744 6.2966599762627311 0 6.2966599762627311 20.861124642416392 0 0 0 0 47.168389788263084 -20.130029138751524 0 -20.130029138751524 -32.67791276875505 0 0 0 0 -5.7821093532084298 6.5652379742363252 0 6.5652379742363252 9.8915594548797401 0 0 0 0 -11.298883546937759 22.085443724497622 0 22.085443724497622 13.315034270792239 0 0 0 0 283.76078353153571 -72.796365145550226 0 -72.796365145550226 191.72007310034769 0 0 0 0 -8.5708180846292663 10.143505900169444 0 10.143505900169444 -5.810129823389282 0 0 0 0 321.1067396254366 -143.92509236298429 0 -143.92509236298429 -112.14363106665178 0 0 0 0 -118.02539612166584 394.86488092761374 0 394.86488092761374 -754.84024705673801 0 0 0 0 -6.7933262125463756 2.2593674815885549 0 2.2593674815885549 -1.1887366952139686 0 0 0 0 38.198597794118541 219.98687594170678 0 219.98687594170678 -559.16456537267368 0 0 0 0 -16.233903824604127 7.0752354828338753 0 7.0752354828338753 3.0942735008838405 0 0 0 0 -249.62135315597334 -52.371909526945274 0 -52.371909526945274 43.790253652659885 0 0 0 0 -62.218022577661031 27.480803602436936 0 27.480803602436936 74.175168913514426 0 0 0 0 99.697568851159303 161.57056067157828 0 161.57056067157828 137.07586793010933 0 0 0 0 160.1520874880207 114.27132650551539 0 114.27132650551539 49.418395369188147 0 0 0 0 -173.9405041722639 198.8372541417566 0 198.8372541417566 101.1113717633616 0 0 0 0 136.37854664468887 71.976855052269912 0 71.976855052269912 150.92347266356228 0 0 0 0 159.26659819577105 181.06673031318346 0 181.06673031318346 -13.210221695508153 0 0 0 0 162.87475156872461 122.23218740133598 0 122.23218740133598 39.357131954847318 0 0 0 0 273.75525921816279 391.44079598945177 0 391.44079598945177 -450.52961676336236 0 0 0 0 559.31617361921963 87.589869016524062 0 87.589869016524062 -131.50310643294597 0 0 0 0 248.78563803902216 424.9026882404778 0 424.9026882404778 272.72536909388145 0 0 0 0 -59.285792035818304 158.86059945758007 0 158.86059945758007 89.255612206912701 0 0 0 0 428.38693077722291 272.13055832972327 0 272.13055832972327 324.2702359046998 0 0 0 0 -108.14294957767561 329.34211227247397 0 329.34211227247397 558.13032412451685 0 0 0 0 381.02389715593154 212.4275855266938 0 212.4275855266938 -178.34119767153243 0 0 0 0 208.80935542862426 483.85134889666551 0 483.85134889666551 125.31857244503772 0 0 0 0 394.24371190664533 350.50786210706065 0 350.50786210706065 -76.777551845956623 0 0 0 0 521.761734424721 643.24897831342355 0 643.24897831342355 483.41569389992583 0 0 0 0 246.05220385388384 178.10946680896814 0 178.10946680896814 177.9039351139927 0 0 0 0 202.60977312656451 504.04601210522708 0 504.04601210522708 315.08931809553542 0 0 0 0 223.72876486211317 345.73277628333562 0 345.73277628333562 353.93386588571411 0 0 0 0 1136.7986880947428 -358.68646158529009 0 -358.68646158529009 -686.22544816465597 0 0 0 0 -104.71723251490039 367.08209176407217 0 367.08209176407217 1432.8875704587572 0 0 0 0 3.6776429953975622 2.9231059545101168 0 2.9231059545101168 0.38087584206991365 0 0 0 0 148.95182008290431 587.4890860937885 0 587.4890860937885 1168.9558950431056 0 0 0 0 -897.88027698596125 -180.87304906770805 0 -180.87304906770805 269.36045736477536 0 0 0 0 9.6763028617933742 292.13749175118028 0 292.13749175118028 328.62516747141819 0 0 0 0 -213.5953112690022 305.52085201332739 0 305.52085201332739 -237.27730601807343 0 0 0 0 49.928865296773438 56.157307865562871 0 56.157307865562871 886.48223755390973 0 0 0 0 5.7866114697388298 7.5620009134456794 0 7.5620009134456794 -0.088332142367273936 0 0 0 0 -17.062478351563186 295.5481794733123 0 295.5481794733123 5.407243277059024 0 0 0 0 -90.37510033226863 270.73913422176156 0 270.73913422176156 340.48000551840596 0 0 0 0 -63.353862609284988 460.89249667508375 0 460.89249667508375 1.7420087615226407 0 0 0 0 66.498672219895525 250.24715707354881 0 250.24715707354881 -7.0458081407814461 0 0 0 0 -18.402365019188437 523.59559274548701 0 523.59559274548701 77.940207857330279 0 0 0 0 37.461221580175334 440.39335443717391 0 440.39335443717391 -177.68319391574369 0 0 0 0 -130.69153506738076 265.29970985926047 0 265.29970985926047 -186.18455682871854 0 0 0 0 10.67564599255266 10.249559109819792 0 10.249559109819792 2.1626768574251827 0 0 0 0 -217.42329384687764 236.90540246390719 0 236.90540246390719 -376.64217257941709 0 0 0 0 72.991535393284721 445.78595059359304 0 445.78595059359304 -807.0153083900932 0 0 0 0 -43.916790326678893 359.43889201836919 0 359.43889201836919 189.17199826063802 0 0 0 0 446.64733138094016 124.88358214250911 0 124.88358214250911 -1375.4762734491601 0 0 0 0 4.8936642247642794 4.6255730691961556 0 4.6255730691961556 1.0227968092568123 0 0 0 0 589.43944138988581 621.07597470828114 0 621.07597470828114 -145.35889767562549 0 0 0 0 571.83562297699109 479.24406948262958 0 479.24406948262958 -753.32421793309913 0 0 0 0 379.14082597898232 376.86144495394819 0 376.86144495394819 -365.58152300449365 0 0 0 0 123.75423655822669 98.194700408865174 0 98.194700408865174 -283.97023204264769 0 0 0 0 189.50597407995519 470.23102622207261 0 470.23102622207261 -256.54044138497284 0 0 0 0 -25.802093104473897 521.86988463771377 0 521.86988463771377 -228.56023543790752 0 0 0 0 351.97343798872316 508.57178439476229 0 508.57178439476229 -135.72326013962993 0 0 0 0 53.391953842479779 311.38569211718573 0 311.38569211718573 -235.22921443392806 0 0 0 0 108.85990739071713 357.48074331551106 0 357.48074331551106 -50.88478507059699 0 0 0 0 221.19676795668784 584.69834855489626 0 584.69834855489626 402.21205887142241 0 0 0 0 -15.094440860204486 494.67219932772696 0 494.67219932772696 189.36351571263913 0 0 0 0 -197.62883906445859 278.91088568633131 0 278.91088568633131 -64.000429351128332 0 0 0 0 -301.16698036777962 471.8440216391491 0 471.8440216391491 42.139429080889386 0 0 0 0 -389.07869815802405 360.04815403346311 0 360.04815403346311 244.19768181370455 0 0 0 0 -419.13385605256553 392.68320365696081 0 392.68320365696081 351.68563912053105 0 0 0 0 -372.56023779461248 450.75763965207898 0 450.75763965207898 139.8186156710517 0 0 0 0 -412.2179448236493 330.45003125203584 0 330.45003125203584 82.729691951059976 0 0 0 0 -242.87876186218637 442.94678795048821 0 442.94678795048821 -726.84519893568722 0 0 0 0 -353.90171086104965 398.65311383358585 0 398.65311383358585 -24.92708357002266 0 0 0 0 -360.47832938422653 446.56923422491491 0 446.56923422491491 -129.6902483992053 0 0 0 0 -379.65954243916349 400.52231841303001 0 400.52231841303001 -198.12292848936892 0 0 0 0 -401.98033310442406 560.8296126434816 0 560.8296126434816 -559.19289305849088 0 0 0 0 -335.43277794703067 403.52154887341965 0 403.52154887341965 -375.85540942434454 0 0 0 0 -333.66991860372946 342.07306559409699 0 342.07306559409699 -256.59807328324496 0 0 0 0 -321.68788985642641 341.11464698787427 0 341.11464698787427 -200.0321483629923 0 0 0 0 -530.86901844749991 598.30905262215083 0 598.30905262215083 -390.78436105402579 0 0 0 0 -345.84207761328071 204.09000648819188 0 204.09000648819188 -539.79243922477872 0 0 0 0 -306.14477187380544 617.41375035034889 0 617.41375035034889 -664.48049540197462 0 0 0 0 87.921930173994042 91.636528503187947 0 91.636528503187947 -150.15548497853018 0 0 0 0 7.4528695215899887 15.666001298813748 0 15.666001298813748 11.451712021863131 0 0 0 0 190.80073321011878 -16.827359396755128 0 -16.827359396755128 -147.24593000410891 0 0 0 0 -102.39552893613654 -143.92935305856918 0 -143.92935305856918 632.33404401474399 0 0 0 0 149.08766946091419 843.4431369681588 0 843.4431369681588 2046.0676617794215 0 0 0 0 519.84046868188307 759.64736295121111 0 759.64736295121111 1757.9675981250402 0 0 0 0 -10.022597612703976 986.75750058987978 0 986.75750058987978 192.52179878923198 0 0 0 0 5.0837043451003723 7.4781793426614627 0 7.4781793426614627 5.945214844579354 0 0 0 0 -1275.0927814970055 1097.1697115991738 0 1097.1697115991738 1960.6331259705375 0 0 0 0 74.521856241037312 940.80634843387998 0 940.80634843387998 -1032.3934178846293 0 0 0 0 247.48970572711551 638.48813897791115 0 638.48813897791115 -493.30795381480948 0 0 0 0 224.71746868070841 521.39387021428593 0 521.39387021428593 179.41987637722559 0 0 0 0 -92.764183560711899 511.89066270622698 0 511.89066270622698 723.9072319738334 0 0 0 0 -175.70602639448043 748.4298701184016 0 748.4298701184016 303.70450632990469 0 0 0 0 -131.75676260459295 943.68597407718971 0 943.68597407718971 1058.5635153965122 0 0 0 0 -526.06568025139859 369.50614377837337 0 369.50614377837337 1247.3935086982192 0 0 0 0 -288.24872763057647 303.47404836602072 0 303.47404836602072 501.89294413883181 0 0 0 0 -83.961096252678544 308.84137642599399 0 308.84137642599399 60.912216261192953 0 0 0 0 -519.42299571851981 333.87536309276129 0 333.87536309276129 517.00679800919897 0 0 0 0 -423.93002928404894 101.82665467145125 0 101.82665467145125 459.0351339260751 0 0 0 0 -546.53689151125582 102.16028418887072 0 102.16028418887072 641.91395465449386 0 0 0 0 -1.8487837827591775 4.0842810358904913 0 4.0842810358904913 4.4001213420484007 0 0 0 0 1937.0863466092396 1478.7083514168257 0 1478.7083514168257 713.90202588346438 0 0 0 0 -2304.4624959150315 -6.8314044686594571 0 -6.8314044686594571 1150.4076505347475 0 0 0 0 -1094.827029516342 -261.10572489212882 0 -261.10572489212882 -25.709788839585599 0 0 0 0 -890.86215937788802 291.96329122219868 0 291.96329122219868 11.007026764802504 0 0 0 0 -2.1757418166206612 11.948402590433403 0 11.948402590433403 4.724471556221566 0 0 0 0 -468.23896363154199 216.49263788322423 0 216.49263788322423 -332.55758405983397 0 0 0 0 -425.14233506289747 375.49547612992137 0 375.49547612992137 -19.583270782050249 0 0 0 0 -447.1226837026461 119.52066906292885 0 119.52066906292885 17.73306184413741 0 0 0 0 -174.78131459076258 210.75643401340221 0 210.75643401340221 59.97991901482601 0 0 0 0 -526.34270202676998 300.69989566468576 0 300.69989566468576 273.90248451668231 0 0 0 0 -0.50046552255826526 11.699795791423014 0 11.699795791423014 11.596157512520989 0 0 0 0 -623.00438747767657 135.66433914992558 0 135.66433914992558 66.751258746835447 0 0 0 0 -136.91973517831866 329.35807000173827 0 329.35807000173827 -60.395903237960738 0 0 0 0 -495.62688130255628 307.40894893343147 0 307.40894893343147 15.574459216812102 0 0 0 0 1.3897032501938895 17.499103687869805 0 17.499103687869805 11.993698364490598 0 0 0 0 103.47968569674777 -170.73101030669932 0 -170.73101030669932 -415.89957552375199 0 0 0 0 -449.55147652563028 570.78538676408425 0 570.78538676408425 -225.57991552546082 0 0 0 0 -29.967737293867685 30.804502505076016 0 30.804502505076016 16.146316815651517 0 0 0 0 -421.49688471658737 199.7418686717283 0 199.7418686717283 513.18931280133074 0 0 0 0 -617.77518830592453 622.92884395627152 0 622.92884395627152 -397.86762534764785 0 0 0 0 -675.99842125614668 494.35713382031827 0 494.35713382031827 185.58137818224986 0 0 0 0 10.24217725229957 11.493842563027101 0 11.493842563027101 -5.3549056331783866 0 0 0 0 226.49991829131613 202.08363808575814 0 202.08363808575814 36.127344506970985 0 0 0 0 -42.225004341038584 305.6151470893019 0 305.6151470893019 330.21979064955667 0 0 0 0 -8.3118782970195753 31.63678647109009 0 31.63678647109009 -0.28433013132416818 0 0 0 0 33.806777320108267 40.061817767330012 0 40.061817767330012 117.04916795276586 0 0 0 0 -0.8944403655833213 18.546541694611207 0 18.546541694611207 -3.5707568469092763 0 0 0 0 654.95678944647079 127.2843762989105 0 127.2843762989105 -93.303580729783789 0 0 0 0 438.06895784218432 640.69610060769264 0 640.69610060769264 340.44570127876796 0 0 0 0 423.38200502949985 642.66795064105281 0 642.66795064105281 378.69832976424368 0 0 0 0 308.81495301836549 713.48722090346382 0 713.48722090346382 354.17006243817013 0 0 0 0 494.02580738737242 672.74326883218623 0 672.74326883218623 272.44989842586074 0 0 0 0 751.25142198980029 855.54272962512186 0 855.54272962512186 658.84375977869058 0 0 0 0 474.67613080908177 578.76891070633178 0 578.76891070633178 381.91523862879694 0 0 0 0 569.10342752828728 403.57082257888396 0 403.57082257888396 763.04339562236282 0 0 0 0 1172.1818578067687 410.42024788279741 0 410.42024788279741 60.148200049630759 0 0 0 0 43.299576861634705 223.85943729197697 0 223.85943729197697 667.19791910031199 0 0 0 0 -3.5599782489821976 3.8028680444718184 0 3.8028680444718184 5.1983943997913045 0 0 0 0 1180.4921695178718 667.90051230732661 0 667.90051230732661 621.69440993606258 0 0 0 0 1167.3112450212648 810.33447618382525 0 810.33447618382525 196.02062586098782 0 0 0 0 -35.109548415288373 109.24258277130411 0 109.24258277130411 644.07604369472756 0 0 0 0 367.952749159831 614.74820680805715 0 614.74820680805715 635.66054950466423 0 0 0 0 450.86944850633881 670.67915455705588 0 670.67915455705588 1076.01561835553 0 0 0 0 -20.79744979221141 117.56744897461431 0 117.56744897461431 -97.196285395392806 0 0 0 0 14.559268806558975 43.560405071053538 0 43.560405071053538 52.479599576752662 0 0 0 0 -0.41008450322479462 0.86754541353046832 0 0.86754541353046832 0.82879422424874249 0 0 0 0 -110.31488551495568 172.10781881480216 0 172.10781881480216 694.70285675149171 0 0 0 0 96.582981238589127 54.897812133860498 0 54.897812133860498 -893.12539445141192 0 0 0 0 27.127763793958366 627.65571427970781 0 627.65571427970781 -120.34086108848715 0 0 0 0 111.1663087387933 424.92735356831145 0 424.92735356831145 247.96741753028982 0 0 0 0 112.81549172718951 492.26050190720161 0 492.26050190720161 614.73927804591585 0 0 0 0 7.6474725351533834 432.36934302996542 0 432.36934302996542 321.55509378112038 0 0 0 0 216.91974209101318 578.16984961105845 0 578.16984961105845 331.40997310310195 0 0 0 0 -132.06542877925676 1549.4694865690326 0 1549.4694865690326 380.99054631762942 0 0 0 0 87.154793112451443 781.00155886592438 0 781.00155886592438 178.38361708986758 0 0 0 0 497.84327399755421 688.1777601446629 0 688.1777601446629 365.27901574971474 0 0 0 0 375.65150838654517 1166.2831749785237 0 1166.2831749785237 586.92331977476715 0 0 0 0 297.51018226831729 1057.4172396093709 0 1057.4172396093709 1188.0814954834641 0 0 0 0 0.78573257599296653 2.7740170499059147 0 2.7740170499059147 -1.5124868172515669 0 0 0 0 439.68766588230937 591.52360743443842 0 591.52360743443842 1056.089534163697 0 0 0 0 568.636691472846 525.90907980988777 0 525.90907980988777 478.57260943577421 0 0 0 0 477.06348202840309 334.69628984799783 0 334.69628984799783 899.58736938309448 0 0 0 0 -3.6502789178301285 5.3774047726222491 0 5.3774047726222491 -3.315005268169557 0 0 0 0 284.1344121352704 719.57249594814311 0 719.57249594814311 337.83987856547355 0 0 0 0 -99.795225036787087 516.97941332129176 0 516.97941332129176 1686.9334981145112 0 0 0 0 234.44370179612088 494.96226211150133 0 494.96226211150133 -650.83727267209179 0 0 0 0 5.631535092091724 1.6046792424424439 0 1.6046792424424439 1.0982923337433306 0 0 0 0 153.5182769089879 244.87827535898759 0 244.87827535898759 478.45014521115718 0 0 0 0 368.18088572524721 363.80477147092824 0 363.80477147092824 633.12533367652759 0 0 0 0 335.95315846580888 411.04370389145879 0 411.04370389145879 618.99641881936986 0 0 0 0 568.23039408123464 500.63571709593884 0 500.63571709593884 391.96195598274062 0 0 0 0 1.6893616339411182 6.3224594895715995 0 6.3224594895715995 -4.6031650065091299 0 0 0 0 17.353688884050825 54.78687799574891 0 54.78687799574891 -56.468685964569886 0 0 0 0 9.0720840460526233 92.465646648070106 0 92.465646648070106 -217.02438066088507 0 0 0 0 -0.20975594353512861 174.0594829169786 0 174.0594829169786 -178.59079399027542 0 0 0 0 23.512476907264499 129.30903559992112 0 129.30903559992112 -162.34899162628608 0 0 0 0 -55.719406984475427 209.92644373498888 0 209.92644373498888 -50.802067917891691 0 0 0 0 -62.079369487539225 105.73998767815101 0 105.73998767815101 47.792283357019187 0 0 0 0 -18.564670219493564 166.27419456667667 0 166.27419456667667 -102.58867431600811 0 0 0 0 -28.268207026458185 140.0582245855835 0 140.0582245855835 -134.55520763437016 0 0 0 0 -13.975936141890998 97.617057986926739 0 97.617057986926739 -126.80055550525049 0 0 0 0 -10.224517800046669 107.51132808922648 0 107.51132808922648 -211.95102688670522 0 0 0 0 -23.24649048117135 98.392195314454511 0 98.392195314454511 -204.0153634571634 0 0 0 0 0.62199771579767571 2.6917686896820072 0 2.6917686896820072 0.74724539386376421 0 0 0 0 -2.0204786953316898 15.165697289703871 0 15.165697289703871 2.0731242674501118 0 0 0 0 -6.5745525172977324 2.0602834314599292 0 2.0602834314599292 0.14272766180090102 0 0 0 0 196.40541238406877 296.40887509252934 0 296.40887509252934 264.08666839769649 0 0 0 0 91.102874565283855 -23.924097446137239 0 -23.924097446137239 58.014218524705939 0 0 0 0 50.61129279866509 -0.37435763402299926 0 -0.37435763402299926 62.486830917285261 0 0 0 0 -11.828283701088893 3.124426711553248 0 3.124426711553248 -1.284053046162569 0 0 0 0 -39.950057507401652 12.524827841516526 0 12.524827841516526 21.988485004892937 0 0 0 0 -0.24356632879045037 1.9553114573132966 0 1.9553114573132966 1.2739145333387398 0 0 0 0 -29.864987442946585 35.078282447688252 0 35.078282447688252 -32.425342619169896 0 0 0 0 -3.27254631544929 -2.3590417967353119 0 -2.3590417967353119 0.92617578190402128 0 0 0 0 -55.631527294997795 6.7041254329446929 0 6.7041254329446929 82.396106751810294 0 0 0 0 -59.847325382695999 23.504356409093816 0 23.504356409093816 15.929270549837383 0 0 0 0 -25.523574479477247 -51.858546344170463 0 -51.858546344170463 37.265759750680445 0 0 0 0 101.92711407426941 -138.82288789796439 0 -138.82288789796439 112.71230905884295 0 0 0 0 -15.191437636898627 193.239365983678 0 193.239365983678 446.02715720961351 0 0 0 0 -20.826482179167215 1.8146311834134394 0 1.8146311834134394 -24.054533744467335 0 0 0 0 -1.528281774788411 -37.567393406005067 0 -37.567393406005067 -13.728201996913413 0 0 0 0 -62.238794228920597 -20.505610530646663 0 -20.505610530646663 -13.861669499461485 0 0 0 0 -64.090067885277676 10.887072409417669 0 10.887072409417669 -14.549815830239822 0 0 0 0 -23.821707874405547 -39.245042283750081 0 -39.245042283750081 -35.537342046985941 0 0 0 0 -15.984102149362755 8.2593893025067473 0 8.2593893025067473 2.684914262595445 0 0 0 0 -24.15368561878131 -2.8834245942216512 0 -2.8834245942216512 26.373548871800267 0 0 0 0 -24.225472480233293 -13.960171119704682 0 -13.960171119704682 -19.399280609603011 0 0 0 0 17.811323607398663 13.983317750617331 0 13.983317750617331 6.6566097942725833 0 0 0 0 -194.59727969353844 330.39047788473545 0 330.39047788473545 65.075865975967645 0 0 0 0 -44.037134020393353 72.458337511887208 0 72.458337511887208 15.861997815161885 0 0 0 0 -122.87403611635091 172.04860853125138 0 172.04860853125138 9.7233071920963994 0 0 0 0 -11.371626682739588 263.0271507978714 0 263.0271507978714 -519.20241424736741 0 0 0 0 -284.1043768106174 229.38314963048833 0 229.38314963048833 -245.66631382800915 0 0 0 0 -471.55344492866425 306.32037237549957 0 306.32037237549957 -714.0541302071415 0 0 0 0 -494.05474484809383 374.0201315240447 0 374.0201315240447 -337.00353846525832 0 0 0 0 -297.9892380083038 259.72186063976915 0 259.72186063976915 -722.03780992213069 0 0 0 0 -151.07319955609273 510.07529348493699 0 510.07529348493699 -847.62046275735338 0 0 0 0 1.8882091742612772 3.9299741115486384 0 3.9299741115486384 2.4691917507561225 0 0 0 0 -321.16320182439813 407.62007461061148 0 407.62007461061148 -118.52842999414315 0 0 0 0 -198.92219932585431 305.14397337216542 0 305.14397337216542 -36.728409365998232 0 0 0 0 -406.07932506578072 271.18654592133862 0 271.18654592133862 -105.53364158021577 0 0 0 0 -374.20452259152808 367.53651523662575 0 367.53651523662575 173.54406492419002 0 0 0 0 -331.76329120095033 347.72376350762806 0 347.72376350762806 416.29386275326942 0 0 0 0 -342.61255250378599 409.94204640571661 0 409.94204640571661 158.20598339201388 0 0 0 0 -122.99124954803483 184.07707759098685 0 184.07707759098685 338.71625505307929 0 0 0 0 -154.39784763124044 299.20384068516614 0 299.20384068516614 81.709361618262847 0 0 0 0 -123.42345954217308 194.20316589480444 0 194.20316589480444 1239.4115239955681 0 0 0 0 6.8972303710234115 4.4674589840753267 0 4.4674589840753267 3.7132980165253038 0 0 0 0 416.52052824695647 647.53203091283524 0 647.53203091283524 388.30833740843991 0 0 0 0 13.328086126981361 -12.832732860643773 0 -12.832732860643773 101.14973618451768 0 0 0 0 518.03946096213258 191.41879060622523 0 191.41879060622523 -90.389197568892996 0 0 0 0 -46.390472223782126 29.306119055074305 0 29.306119055074305 86.190215547338084 0 0 0 0 -101.68641052267049 415.72684687962101 0 415.72684687962101 454.0157336505963 0 0 0 0 130.82949294467107 466.11671184782335 0 466.11671184782335 266.35937311003363 0 0 0 0 310.36477750423182 199.93046934013682 0 199.93046934013682 143.97379662699313 0 0 0 0 53.530049377721298 363.4184180569855 0 363.4184180569855 341.62133943949721 0 0 0 0 422.72883111845113 9.7320940684105608 0 9.7320940684105608 562.92265655269148 0 0 0 0 610.9247545463586 404.21458125209756 0 404.21458125209756 343.10320101256002 0 0 0 0 245.66398809663588 703.02322883711486 0 703.02322883711486 670.67444806435924 0 0 0 0 -186.81123304737048 593.89701990025424 0 593.89701990025424 493.77365998923688 0 0 0 0 -342.02530388987361 389.77507714493186 0 389.77507714493186 675.09348679203504 0 0 0 0 -337.00280734361149 535.76388307372326 0 535.76388307372326 427.43932592115016 0 0 0 0 -404.48229054200419 446.59232543348571 0 446.59232543348571 473.87825079965478 0 0 0 0 -337.25542839075206 416.84630929818741 0 416.84630929818741 366.85813960439282 0 0 0 0 -344.92180631987139 477.2437025321542 0 477.2437025321542 390.09208308222514 0 0 0 0 -362.2151250804709 541.63209067006051 0 541.63209067006051 351.65389816440074 0 0 0 0 -373.23460555259953 502.59424126212616 0 502.59424126212616 397.98127116591422 0 0 0 0 -275.61022227437206 481.13476519390497 0 481.13476519390497 382.85657368997636 0 0 0 0 -202.20454972015796 384.5066936088806 0 384.5066936088806 153.57665947906753 0 0 0 0 -354.3295899513796 541.76415021694811 0 541.76415021694811 334.88448278583746 0 0 0 0 -331.0131152167487 519.26966510508282 0 519.26966510508282 183.46989301451322 0 0 0 0 -377.55152932371493 508.70569286757745 0 508.70569286757745 331.23111519368467 0 0 0 0 -483.01033753501542 473.03917323287214 0 473.03917323287214 177.63275491131935 0 0 0 0 -382.29566515474471 446.31571860565737 0 446.31571860565737 -29.728566899379075 0 0 0 0 -498.67920985525416 362.777074096668 0 362.777074096668 152.53151362724475 0 0 0 0 -140.22753319995172 312.67558679843933 0 312.67558679843933 -0.90920403950030959 0 0 0 0 99.363354774175605 239.39560532796986 0 239.39560532796986 3.4777878292989044 0 0 0 0 -223.86750014330937 382.67353134711584 0 382.67353134711584 246.91151262048515 0 0 0 0 23.239046034577768 229.91425213503953 0 229.91425213503953 142.22691704011595 0 0 0 0 38.123118490206252 360.38389267150251 0 360.38389267150251 -296.06388294258613 0 0 0 0 34.151907003250017 176.10304252169863 0 176.10304252169863 -161.90009491201454 0 0 0 0 -135.69234811534989 274.41770891310898 0 274.41770891310898 -240.56964628385504 0 0 0 0 -85.276143481134568 363.76052633573863 0 363.76052633573863 -358.99336075300562 0 0 0 0 -167.33019552686346 534.96001147090738 0 534.96001147090738 -713.78710182107534 0 0 0 0 -60.791590244987674 422.54924250978638 0 422.54924250978638 -217.89492002896077 0 0 0 0 -190.58302352789178 500.58051897902169 0 500.58051897902169 -265.46773056743859 0 0 0 0 -318.30187097902126 412.59734373139372 0 412.59734373139372 -104.23467200548657 0 0 0 0 -89.411513165496217 382.10059175042852 0 382.10059175042852 -203.52703962508531 0 0 0 0 -545.67110974545358 262.34263763527451 0 262.34263763527451 80.24210316818062 0 0 0 0 -75.062471238707076 8.0894422282026426 0 8.0894422282026426 80.1007471759076 0 0 0 0 -116.58023815637716 143.99059204984769 0 143.99059204984769 0.38936648946310015 0 0 0 0 -313.02694004901241 407.25318949116263 0 407.25318949116263 -104.17326065631642 0 0 0 0 -709.50506025637151 703.22391539471755 0 703.22391539471755 -250.53502728864441 0 0 0 0 -146.80784738676084 4.1504280859217033 0 4.1504280859217033 73.340685637287606 0 0 0 0 -5.3586361982861774 5.2221023396940609 0 5.2221023396940609 -7.0435390255927501 0 0 0 0 -741.29071694375853 173.3980870040894 0 173.3980870040894 89.53344810125418 0 0 0 0 -470.13386936884308 779.48029630822975 0 779.48029630822975 -567.74536811017788 0 0 0 0 18.007360623614659 110.17507351378845 0 110.17507351378845 -822.92645844034314 0 0 0 0 -500.01357588636529 48.5242485904364 0 48.5242485904364 -374.76223326733998 0 0 0 0 -897.86586707888819 442.93369648453927 0 442.93369648453927 -27.730095707160217 0 0 0 0 -197.51427554761904 423.39735236884735 0 423.39735236884735 -106.16831192200016 0 0 0 0 -126.02350116928756 464.1636076079003 0 464.1636076079003 -296.16889529205582 0 0 0 0 -71.129873364829109 330.34395916751419 0 330.34395916751419 29.032099177031341 0 0 0 0 -83.382069515875628 367.33213836086725 0 367.33213836086725 160.17425582672877 0 0 0 0 -92.773495930894569 412.54902284652053 0 412.54902284652053 -55.733687010624635 0 0 0 0 2.0274416889260465 97.750945559261709 0 97.750945559261709 -41.842194139677304 0 0 0 0 -18.140431969524798 288.325362940579 0 288.325362940579 -152.61709656665334 0 0 0 0 -1.5894809497331153 113.25597444026334 0 113.25597444026334 -85.353882631974557 0 0 0 0 6.2260453661765496 73.729927693435457 0 73.729927693435457 -79.993886060477962 0 0 0 0 4.7744735282030888 -0.47404581866885565 0 -0.47404581866885565 -139.88039569697503 0 0 0 0 37.024403808311035 100.59197899492574 0 100.59197899492574 -387.13513815931947 0 0 0 0 -45.181891237552918 33.791170811144184 0 33.791170811144184 2.4471625168334867 0 0 0 0 -11.413099617486296 22.944006608620839 0 22.944006608620839 -114.74277826364687 0 0 0 0 -5.16470579075758 54.529790855300234 0 54.529790855300234 2.9563343560512294 0 0 0 0 -1.539265716826776 26.50922513642945 0 26.50922513642945 -20.822912222067316 0 0 0 0 -8.9871249052157509 20.842469768560477 0 20.842469768560477 1.5076804733726021 0 0 0 0 3.2419582661132154 30.516048595108714 0 30.516048595108714 -13.4319134084908 0 0 0 0 -12.786219542261904 17.966784394105034 0 17.966784394105034 -11.855767803142257 0 0 0 0 3.3162642971002043 6.6627843841987371 0 6.6627843841987371 -1.0471169546577528 0 0 0 0 149.00986401837145 101.76637563078657 0 101.76637563078657 11.000039807902795 0 0 0 0 58.044278303961619 137.11249463153217 0 137.11249463153217 173.85574593527281 0 0 0 0 -16.716167221478827 46.114339794788975 0 46.114339794788975 3.6658977684991214 0 0 0 0 134.15339413715265 129.81547705524372 0 129.81547705524372 6.2852395750705909 0 0 0 0 7.0731000059677172 64.469958678237163 0 64.469958678237163 -15.119417732334114 0 0 0 0 25.234696557115967 64.063748613987627 0 64.063748613987627 -39.279885797655879 0 0 0 0 70.030702650383319 33.947908264696707 0 33.947908264696707 -45.51724719545382 0 0 0 0 39.748870382201858 46.917954369567269 0 46.917954369567269 -19.91892214688778 0 0 0 0 20.667116130342038 20.880369882937885 0 20.880369882937885 -10.339753454329184 0 0 0 0 8.5878959574606455 29.294907984431507 0 29.294907984431507 -11.500751191740633 0 0 0 0 16.55126541548816 27.36641682413574 0 27.36641682413574 -6.8137728060592053 0 0 0 0 43.757600356966577 18.930282216187152 0 18.930282216187152 -4.3588858761540905 0 0 0 0 27.386217014383874 44.83893068269208 0 44.83893068269208 23.539455179292418 0 0 0 0 0.97588350170371996 34.83683391661998 0 34.83683391661998 4.2060614385045483 0 0 0 0 19.461351070771343 27.23179107066062 0 27.23179107066062 -5.264446142478846 0 0 0 0 26.151435919840878 33.059720740124249 0 33.059720740124249 66.760904638278589 0 0 0 0 35.465618718648329 24.064309896328268 0 24.064309896328268 24.2626834850671 0 0 0 0 47.382733509599348 26.575393161263491 0 26.575393161263491 22.888731744227698 0 0 0 0 74.125023427950509 -6.5078662835239811 0 -6.5078662835239811 7.8056513319752412 0 0 0 0 36.94600892568269 27.979158919890324 0 27.979158919890324 83.918724826331527 0 0 0 0 36.136565436219826 33.581879671702154 0 33.581879671702154 80.54473897554999 0 0 0 0 21.34392546422896 57.781882937104456 0 57.781882937104456 193.34988519942635 0 0 0 0 31.339966614221339 56.998120211239439 0 56.998120211239439 54.917007190892036 0 0 0 0 18.356598190428485 144.5214763470658 0 144.5214763470658 207.87532379373079 0 0 0 0 34.140507690906816 160.41335740785507 0 160.41335740785507 187.70094540753257 0 0 0 0 5.5705809073006094 149.54777487600677 0 149.54777487600677 372.73846836630401 0 0 0 0 6.5640581919869874 84.179019156179493 0 84.179019156179493 35.616607246643071 0 0 0 0 14.386748322944641 80.816716440630671 0 80.816716440630671 32.585049782246642 0 0 0 0 15.589295367833984 96.778081053744245 0 96.778081053744245 137.4708619958401 0 0 0 0 25.566504722097307 166.31598789188138 0 166.31598789188138 73.233669547695172 0 0 0 0 12.167662287232815 174.08929001068282 0 174.08929001068282 165.20721890812274 0 0 0 0 9.3716307407594286 211.87371135381363 0 211.87371135381363 29.730596813766681 0 0 0 0 -1.3549793986312579 212.38618577018406 0 212.38618577018406 83.119745171792601 0 0 0 0 25.150656095647719 259.68544396258585 0 259.68544396258585 98.830085658937605 0 0 0 0 -14.797487159230513 303.84758744116334 0 303.84758744116334 200.43608419643533 0 0 0 0 -21.218672788709227 340.67931507405592 0 340.67931507405592 6.4186778187076925 0 0 0 0 73.865591841606147 355.10745896358731 0 355.10745896358731 374.57614902510613 0 0 0 0 23.380410439643128 282.1400879474221 0 282.1400879474221 238.28598871672148 0 0 0 0 46.426563717970566 276.87703394833079 0 276.87703394833079 227.68653414607434 0 0 0 0 21.871993444379768 378.79127020419401 0 378.79127020419401 319.55382881841069 0 0 0 0 161.79415696552815 423.52443231877635 0 423.52443231877635 286.99459446686888 0 0 0 0 164.13885943650348 416.9249258616228 0 416.9249258616228 224.1965674113344 0 0 0 0 28.895121410641877 421.83350562362466 0 421.83350562362466 273.02671506587467 0 0 0 0 14.258129951922456 434.85522609744658 0 434.85522609744658 296.96356874231606 0 0 0 0 227.77192866520272 500.8950081014541 0 500.8950081014541 282.17356477802059 0 0 0 0 177.00671893644721 403.30879595113947 0 403.30879595113947 241.69757667149315 0 0 0 0 -142.82081249390831 447.84742231673226 0 447.84742231673226 297.75840495817647 0 0 0 0 -0.84258278793276986 394.92598721898503 0 394.92598721898503 295.16978726320849 0 0 0 0 31.12541099191003 413.00695408739921 0 413.00695408739921 195.27096388862628 0 0 0 0 24.824188660015352 345.75661267703435 0 345.75661267703435 140.58027114124343 0 0 0 0 -64.858637419109073 398.19825456486114 0 398.19825456486114 243.94955678390033 0 0 0 0 -68.170320742403419 420.30759276010122 0 420.30759276010122 96.446686962215608 0 0 0 0 -189.59041310399698 446.92682683095609 0 446.92682683095609 242.01803653420029 0 0 0 0 -230.54358923252221 507.76376620511019 0 507.76376620511019 152.75538938457612 0 0 0 0 -340.80776096631598 615.25168631523866 0 615.25168631523866 -52.617910113488961 0 0 0 0 -245.18974751161659 467.98770367248471 0 467.98770367248471 170.23262807891479 0 0 0 0 -336.65770935262481 561.63369983973826 0 561.63369983973826 221.27507860222431 0 0 0 0 -264.83907083973099 469.8602640096442 0 469.8602640096442 336.32839531076752 0 0 0 0 -157.81315504900704 489.10641104578281 0 489.10641104578281 217.8948572502527 0 0 0 0 -206.47468380252303 399.02335296008414 0 399.02335296008414 341.5875383163293 0 0 0 0 -320.35307360577281 502.58405578019847 0 502.58405578019847 336.00424312709106 0 0 0 0 -224.39289640319475 458.72138326658387 0 458.72138326658387 335.65595144621147 0 0 0 0 -361.61272170657321 486.3100970235464 0 486.3100970235464 378.86485385441301 0 0 0 0 -372.62844544751351 455.35217735949391 0 455.35217735949391 335.99322334871977 0 0 0 0 -387.40418419059279 475.4323375251297 0 475.4323375251297 389.97676224295355 0 0 0 0 -247.94364968965965 427.39562994784683 0 427.39562994784683 268.55081181426704 0 0 0 0 -370.3086325979275 432.11967576052598 0 432.11967576052598 338.38032302482679 0 0 0 0 -65.969722714420641 330.21808239888378 0 330.21808239888378 219.84401639071734 0 0 0 0 -233.61022378185044 458.3189266958575 0 458.3189266958575 326.35807445369937 0 0 0 0 248.76727002862754 265.5183548326695 0 265.5183548326695 340.70300470194752 0 0 0 0 112.04145472450182 475.1592613033522 0 475.1592613033522 285.86912954593026 0 0 0 0 224.63666124426163 432.48067429025787 0 432.48067429025787 265.14656328406636 0 0 0 0 18.50318905786844 349.39907241769379 0 349.39907241769379 320.44315622335125 0 0 0 0 -74.088184588545118 464.36760420086284 0 464.36760420086284 299.13274944664795 0 0 0 0 405.71070178200171 473.64181454734899 0 473.64181454734899 274.10890114060931 0 0 0 0 223.00289147706371 434.84359128963729 0 434.84359128963729 308.23987881747416 0 0 0 0 594.81871333431991 438.32098348020827 0 438.32098348020827 205.1129605392598 0 0 0 0 67.334831034451781 492.78652760008754 0 492.78652760008754 1234.5500742690535 0 0 0 0 567.46009508923453 684.97628262699618 0 684.97628262699618 436.28049559657575 0 0 0 0 17.046330668348673 236.80833135719661 0 236.80833135719661 396.91731659825382 0 0 0 0 -209.8080863489995 272.41443293224893 0 272.41443293224893 446.55027969657021 0 0 0 0 -21.79672986992955 244.7413813379726 0 244.7413813379726 448.703224684205 0 0 0 0 -358.29943080571684 70.262541950015475 0 70.262541950015475 472.39042479725322 0 0 0 0 -27.713461246825318 375.65505255787684 0 375.65505255787684 532.05226381619377 0 0 0 0 357.88264383606656 333.26628831347261 0 333.26628831347261 228.24348396430833 0 0 0 0 616.68501649784957 340.11794623414607 0 340.11794623414607 224.14658918795976 0 0 0 0 -59.552585178691515 95.129877895182744 0 95.129877895182744 472.65010342532332 0 0 0 0 188.8990409101807 -74.635251115169012 0 -74.635251115169012 145.76388497807602 0 0 0 0 507.90596939679017 492.84714120901981 0 492.84714120901981 208.80149870192508 0 0 0 0 544.99061059358064 507.36829863922139 0 507.36829863922139 196.33475719931084 0 0 0 0 420.73321202426087 481.17663141131288 0 481.17663141131288 256.96213852684104 0 0 0 0 424.03395517002718 432.33870656896215 0 432.33870656896215 222.44761225907587 0 0 0 0 317.3014582309479 514.00230842029669 0 514.00230842029669 334.05852371465517 0 0 0 0 371.42735884825561 637.4833086282988 0 637.4833086282988 442.0507986004086 0 0 0 0 125.68807598263811 327.1891789149031 0 327.1891789149031 366.28114014844641 0 0 0 0 175.99406062206981 487.64378693883828 0 487.64378693883828 589.12357960058944 0 0 0 0 162.21655735785316 391.69814566904279 0 391.69814566904279 491.65805735591857 0 0 0 0 299.77598613665214 784.74279404105891 0 784.74279404105891 1103.1960856280875 0 0 0 0 1080.1066168651123 901.93393807687153 0 901.93393807687153 465.07938123113672 0 0 0 0 11.985541668399321 12.577472413085879 0 12.577472413085879 16.45364304892135 0 0 0 0 11.197834488525132 340.74733366676384 0 340.74733366676384 1039.4427629489819 0 0 0 0 -60.508512877630892 25.209012337681202 0 25.209012337681202 675.03616113266798 0 0 0 0 31.184577541593171 114.98933422518894 0 114.98933422518894 251.70703916291313 0 0 0 0 14.85605866707192 227.11881783196077 0 227.11881783196077 687.95205979211096 0 0 0 0 -18.672099283366151 26.816181942058506 0 26.816181942058506 366.2698011989487 0 0 0 0 20.43652476974421 41.676423686626549 0 41.676423686626549 309.60263241877692 0 0 0 0 46.617335612470924 -67.623137789270913 0 -67.623137789270913 38.57831962385535 0 0 0 0 152.27087188504083 18.997301631043229 0 18.997301631043229 -217.12290695906449 0 0 0 0 58.244646084807755 31.485410239933117 0 31.485410239933117 13.92310597224423 0 0 0 0 15.770181816522381 -1.8299791998506407 0 -1.8299791998506407 372.32139863813336 0 0 0 0 19.592608613595075 -199.95655995971356 0 -199.95655995971356 -7.1910830803681165 0 0 0 0 743.45029269975021 190.67125426861526 0 190.67125426861526 -2213.8557209009696 0 0 0 0 1344.5087657092226 -851.45225361454141 0 -851.45225361454141 -1706.3491389916799 0 0 0 0 839.12218559548637 985.714683685821 0 985.714683685821 837.97951364121127 0 0 0 0 6.6357915074524385 0.7724823810043091 0 0.7724823810043091 -0.15987426648440639 0 0 0 0 65.342933192183409 1081.5251003654496 0 1081.5251003654496 2282.794157311751 0 0 0 0 473.62976797635565 391.60004894341205 0 391.60004894341205 1806.9460880086172 0 0 0 0 558.33480543062979 419.98375106148859 0 419.98375106148859 225.96115891755244 0 0 0 0 5.3311836266511818 159.54417936542995 0 159.54417936542995 -115.90737726927728 0 0 0 0 27.218668955869504 38.292961498049046 0 38.292961498049046 41.159915425803469 0 0 0 0 288.69416453760641 586.47741397198479 0 586.47741397198479 994.81753789761956 0 0 0 0 16.370006528531832 7.4455219292910186 0 7.4455219292910186 -3.6760145917496923 0 0 0 0 130.08912368264191 336.36926835656027 0 336.36926835656027 775.40017362962908 0 0 0 0 325.31601348983531 387.02189080453809 0 387.02189080453809 1141.6735336682386 0 0 0 0 698.01474139916536 1205.6227345714578 0 1205.6227345714578 -20.816602956379029 0 0 0 0 155.49746373956805 291.92235721005727 0 291.92235721005727 -1182.0002093350654 0 0 0 0 -205.20783472334415 -28.175796563633298 0 -28.175796563633298 1161.6010234719815 0 0 0 0 1270.5293917704985 58.569106906884372 0 58.569106906884372 88.356824123664865 0 0 0 0 -282.33429629693046 347.29920448979965 0 347.29920448979965 -36.951557604563277 0 0 0 0 43.369377559195982 62.313138683527747 0 62.313138683527747 78.581117557074322 0 0 0 0 -0.11745799386860956 13.157555557347777 0 13.157555557347777 33.555415985768889 0 0 0 0 -943.68128683670511 229.21203112822241 0 229.21203112822241 260.96349374118654 0 0 0 0 167.56533696185807 445.81941492335852 0 445.81941492335852 -249.52518248244451 0 0 0 0 -145.64511845346351 529.81423086960785 0 529.81423086960785 107.09481862076245 0 0 0 0 -8.9309935883056824 19.142748374796462 0 19.142748374796462 52.506278599738152 0 0 0 0 1.415248008082143 16.762185045282436 0 16.762185045282436 33.561593752877918 0 0 0 0 -362.46849323721108 325.50403526759419 0 325.50403526759419 -84.200280252222001 0 0 0 0 -3.1377557207352709 2.9235275088613477 0 2.9235275088613477 5.7755777990124928 0 0 0 0 19.301802336081863 12.341818476109804 0 12.341818476109804 -1.3416325957291217 0 0 0 0 146.25269399828539 310.11499620545169 0 310.11499620545169 503.10180480348458 0 0 0 0 281.56330075938604 323.967224362759 0 323.967224362759 378.08273422140945 0 0 0 0 -47.82429671466889 243.87185676125864 0 243.87185676125864 -437.41954425361382 0 0 0 0 0.02485385918407701 62.11682804228731 0 62.11682804228731 97.723317138316276 0 0 0 0 16.505939148677498 52.363319063955316 0 52.363319063955316 61.190596095802675 0 0 0 0 30.421248271450168 25.341566263382447 0 25.341566263382447 35.948872232118219 0 0 0 0 80.966730852072942 92.286499383803402 0 92.286499383803402 70.180131735282714 0 0 0 0 56.524178738072806 19.594741701130033 0 19.594741701130033 30.094341117631075 0 0 0 0 0.10593696744399494 104.99229843372359 0 104.99229843372359 96.743036020698128 0 0 0 0 184.3871771344493 46.247464284309444 0 46.247464284309444 33.606945091112266 0 0 0 0 210.50121559506806 246.59280083741987 0 246.59280083741987 178.26281807209125 0 0 0 0 0.30671933518169681 242.42544198603309 0 242.42544198603309 351.74588194939042 0 0 0 0 196.10529695271543 457.25056524346428 0 457.25056524346428 487.99594441361751 0 0 0 0 -0.23355422385429847 377.01562741974476 0 377.01562741974476 838.09164410117046 0 0 0 0 283.8967140431414 633.28217623104229 0 633.28217623104229 819.19977857961851 0 0 0 0 24.141780936457508 432.7321051699937 0 432.7321051699937 839.82046578197901 0 0 0 0 684.67584127248119 241.06194351372642 0 241.06194351372642 12.28219419891775 0 0 0 0 -0.28648282505770872 9.9711508391063148 0 9.9711508391063148 28.191219169585093 0 0 0 0 205.31067433275166 166.47438645195189 0 166.47438645195189 187.09356464097618 0 0 0 0 -1267.5953728718268 128.80114523522116 0 128.80114523522116 422.3779807222154 0 0 0 0 -280.99233841198293 -277.88711878409686 0 -277.88711878409686 -44.706122839559157 0 0 0 0 -1341.0026932631699 -232.47809687933113 0 -232.47809687933113 962.18591007027135 0 0 0 0 1457.2369312906012 892.96013568043691 0 892.96013568043691 558.12034742194919 0 0 0 0 0.14632704386500173 3.8258196507078424 0 3.8258196507078424 11.857718735619599 0 0 0 0 960.86284683921258 511.78580188518663 0 511.78580188518663 740.59875522408038 0 0 0 0 816.44963460060171 263.60828858515606 0 263.60828858515606 904.52008325411953 0 0 0 0 -254.97856690308254 605.83921158119119 0 605.83921158119119 1492.5734595499034 0 0 0 0 -524.64876937476583 201.71957386953136 0 201.71957386953136 999.36144922915992 0 0 0 0 -170.52808538640056 286.25183441949662 0 286.25183441949662 -34.920437735487212 0 0 0 0 -100.4560346477956 752.4433771870863 0 752.4433771870863 706.56003656609801 0 0 0 0 -43.094503146118768 346.80993824199027 0 346.80993824199027 784.60828614518869 0 0 0 0 479.13690859018243 810.92469932978474 0 810.92469932978474 -17.420425256037561 0 0 0 0 573.33666898331285 -32.906054249573572 0 -32.906054249573572 -436.35433863480375 0 0 0 0 2.3212401790640058 3.3983939661649032 0 3.3983939661649032 2.6640491266243416 0 0 0 0 1.0931279766373336 11.773553743922093 0 11.773553743922093 10.092500335231307 0 0 0 0 1.2070319841074308 0.37521321302022415 0 0.37521321302022415 -2.8987835727531355 0 0 0 0 -219.75072855723556 479.22578353933022 0 479.22578353933022 876.82391915823246 0 0 0 0 -170.07277952547884 -101.82856595350495 0 -101.82856595350495 299.67128868500731 0 0 0 0 -340.32285495709584 330.41348145567235 0 330.41348145567235 44.500504071173054 0 0 0 0 4.2539053083455656 149.76239576591433 0 149.76239576591433 -187.85114241347611 0 0 0 0 -64.191484277274867 23.076310971167004 0 23.076310971167004 22.632492068603824 0 0 0 0 -0.064391213742055697 281.2686268616153 0 281.2686268616153 344.67048681830056 0 0 0 0 27.993558603542624 415.99363015251174 0 415.99363015251174 889.85040817496611 0 0 0 0 -193.42130645788711 153.69427979607372 0 153.69427979607372 889.44718452065263 0 0 0 0 460.52578706909844 975.09834351408517 0 975.09834351408517 1482.816210401671 0 0 0 0 -45.295200775653939 249.64316306036926 0 249.64316306036926 1431.633226201473 0 0 0 0 -2.2189013961178716 435.0812204004269 0 435.0812204004269 815.32060005221865 0 0 0 0 286.258574223084 122.26294949979274 0 122.26294949979274 175.08385770186578 0 0 0 0 125.67083962095057 -79.037926772125502 0 -79.037926772125502 205.71979590462408 0 0 0 0 22.769942277340306 44.238527411514951 0 44.238527411514951 80.277443282555396 0 0 0 0 -112.85929017895978 -50.439029977684186 0 -50.439029977684186 162.46538423762468 0 0 0 0 -13.667375478229587 15.009005812759824 0 15.009005812759824 222.83504882927809 0 0 0 0 -84.295926201153634 142.30069917654873 0 142.30069917654873 87.133542596552616 0 0 0 0 383.39597535106805 -45.152276948130748 0 -45.152276948130748 302.42555941233149 0 0 0 0 199.63441525914823 148.41691418222581 0 148.41691418222581 206.0995350316883 0 0 0 0 808.33414137959699 292.58002935495279 0 292.58002935495279 222.55375909178474 0 0 0 0 -4.539901946052229 14.960625882119388 0 14.960625882119388 -20.504353468031965 0 0 0 0 529.06831174342733 568.6205934919426 0 568.6205934919426 533.17934114865966 0 0 0 0 7.1171428551668185 -2.3987651600298037 0 -2.3987651600298037 0.0066986082351192522 0 0 0 0 375.77168181233355 369.40834687401821 0 369.40834687401821 472.35186181423705 0 0 0 0 100.36977946666593 143.81995101581379 0 143.81995101581379 280.65099313848623 0 0 0 0 254.58634484712456 107.48990291024165 0 107.48990291024165 278.67063222550405 0 0 0 0 459.13321753094351 377.10824686947672 0 377.10824686947672 373.12063703111926 0 0 0 0 123.09724953489058 -58.726902957154834 0 -58.726902957154834 124.39256755365568 0 0 0 0 205.22885624444098 143.50438138351547 0 143.50438138351547 198.39855054829604 0 0 0 0 328.2197034382134 515.76239322681431 0 515.76239322681431 429.2968427640626 0 0 0 0 -122.66530357304055 281.50737312574279 0 281.50737312574279 337.7131930293981 0 0 0 0 1.0905475402803972 0.78738904636679052 0 0.78738904636679052 -0.34894593729072909 0 0 0 0 136.86979059079022 10.071546006771314 0 10.071546006771314 -179.08377189171551 0 0 0 0 -14.268364226521953 -88.90661046151854 0 -88.90661046151854 15.470339691581103 0 0 0 0 117.54417068518933 -64.038350175289793 0 -64.038350175289793 -50.395934580101311 0 0 0 0 80.313509367399092 -10.042992594228053 0 -10.042992594228053 -91.867780395126829 0 0 0 0 113.06753834813208 6.2238815243163117 0 6.2238815243163117 5.3535037713118072 0 0 0 0 57.372474826385769 -101.1325612280591 0 -101.1325612280591 45.916579610870031 0 0 0 0 -68.272474938890809 -8.718131705804808 0 -8.718131705804808 -3.1157023568362092 0 0 0 0 16.907697621154512 -45.233217322380369 0 -45.233217322380369 -16.332855900842787 0 0 0 0 -155.82415810179737 -12.602135327952965 0 -12.602135327952965 10.34935665341618 0 0 0 0 -71.465741068695934 -16.920904812041044 0 -16.920904812041044 -11.615344582676698 0 0 0 0 88.719761656066112 15.960062519512576 0 15.960062519512576 22.778708494213788 0 0 0 0 -5.9471404419556917 34.192298919353746 0 34.192298919353746 32.07765951274213 0 0 0 0 101.17825312480454 36.98203679832659 0 36.98203679832659 -5.739301707640152 0 0 0 0 1.3983159631148223 27.41680803091505 0 27.41680803091505 20.023303302268658 0 0 0 0 -265.53715081071277 -21.342185312738366 0 -21.342185312738366 90.932380042097066 0 0 0 0 -17.480377674030024 61.899008899108594 0 61.899008899108594 -1.5014997224539002 0 0 0 0 25.268225197181891 22.128756673257158 0 22.128756673257158 -6.3307672038004057 0 0 0 0 24.732336084984127 32.302958034111725 0 32.302958034111725 24.143454421129718 0 0 0 0 57.825950412074235 12.095269680481579 0 12.095269680481579 28.318240539283579 0 0 0 0 53.678958464701282 40.774088994014164 0 40.774088994014164 2.8106681543340528 0 0 0 0 51.800143278604082 1.5617712374296389 0 1.5617712374296389 25.212749444232031 0 0 0 0 26.815650261170049 20.288265658589808 0 20.288265658589808 -10.680874125573609 0 0 0 0 -28.28653445872942 46.443007148056495 0 46.443007148056495 -25.884737189471707 0 0 0 0 26.937952578143722 18.526426469522335 0 18.526426469522335 21.009355311911349 0 0 0 0 15.159765710501233 78.258795715145425 0 78.258795715145425 -16.867032173893335 0 0 0 0 -50.819420159477886 108.78951407655586 0 108.78951407655586 -15.769899882802065 0 0 0 0 14.988380779937321 23.144795581863711 0 23.144795581863711 32.735311086087222 0 0 0 0 -491.2507055622678 592.11296052520288 0 592.11296052520288 -303.257420435737 0 0 0 0 -153.45066626022162 53.217302300290612 0 53.217302300290612 -37.229467021243181 0 0 0 0 74.550178076457087 58.475740982932621 0 58.475740982932621 -20.095210728295569 0 0 0 0 -3.7074947106502805 48.915734458500083 0 48.915734458500083 12.311037189036142 0 0 0 0 0.24755725810183016 29.650001097786692 0 29.650001097786692 6.7686913800910133 0 0 0 0 -310.06957240441989 64.276781578248119 0 64.276781578248119 141.99868653303747 0 0 0 0 -176.36829748035962 50.968950541263439 0 50.968950541263439 20.147930505429031 0 0 0 0 -123.23644177384995 169.78891636858498 0 169.78891636858498 56.241413211391773 0 0 0 0 3.2892832837595432 31.952273049718595 0 31.952273049718595 -7.5561526187802173 0 0 0 0 18.698847935801979 65.866289090298665 0 65.866289090298665 -12.210647756135586 0 0 0 0 -16.014216240200767 50.088794555009372 0 50.088794555009372 2.3651885784202022 0 0 0 0 -6.4005919309146293 27.872224771213002 0 27.872224771213002 18.261902195590711 0 0 0 0 -28.357013374556118 171.34537957778502 0 171.34537957778502 -214.56057490017884 0 0 0 0 -106.19492002940865 122.93245112924811 0 122.93245112924811 -69.155934526872443 0 0 0 0 28.993213400034648 10.050487035884736 0 10.050487035884736 -1.7048377291840673 0 0 0 0 -243.36065957326582 421.51520327507751 0 421.51520327507751 -333.36558180344082 0 0 0 0 1.7927939235041777 51.623419029230718 0 51.623419029230718 -28.010058975523862 0 0 0 0 -12.855268370090926 84.1750562135785 0 84.1750562135785 -6.7156217437432133 0 0 0 0 15.249251830138189 28.167115060279205 0 28.167115060279205 37.032818840996498 0 0 0 0 -787.72371787904831 225.93981689748762 0 225.93981689748762 10.321175650446094 0 0 0 0 -585.71678334110402 810.96696238430013 0 810.96696238430013 -888.48192351530815 0 0 0 0 -5.4211682312347573 6.8425929529667684 0 6.8425929529667684 11.926269789465168 0 0 0 0 -604.71220997218893 625.64178243781953 0 625.64178243781953 -253.09102223884111 0 0 0 0 -209.66096474293863 380.81349219316326 0 380.81349219316326 -515.92550856899106 0 0 0 0 -612.00829141578652 -2.2730399624306301 0 -2.2730399624306301 -205.62321770934432 0 0 0 0 -97.474150517676208 602.93755629371663 0 602.93755629371663 -78.011162362869072 0 0 0 0 -516.72029523041147 180.41573479823273 0 180.41573479823273 -46.673893970735662 0 0 0 0 -467.63955753907794 242.01640214202416 0 242.01640214202416 204.36623268494805 0 0 0 0 126.62635967513233 -72.316095238669732 0 -72.316095238669732 -33.924687560567691 0 0 0 0 -463.83528978001323 213.01111317211326 0 213.01111317211326 -60.654607361149829 0 0 0 0 -1006.9234457857601 580.33377801842471 0 580.33377801842471 -249.93868002291129 0 0 0 0 -397.48698425729708 507.29932806152647 0 507.29932806152647 -446.13675044241973 0 0 0 0 -521.87915370806695 524.66206935271111 0 524.66206935271111 -256.92008643673034 0 0 0 0 -565.87254382257379 554.40780325346714 0 554.40780325346714 -276.42770598787683 0 0 0 0 -288.52857030229825 256.30537483933585 0 256.30537483933585 -318.61757231647061 0 0 0 0 -294.24275502817454 296.74123875861551 0 296.74123875861551 -223.91247801367717 0 0 0 0 -259.06034074456898 63.170361272073251 0 63.170361272073251 -29.695690482811187 0 0 0 0 -14.228630857060125 24.753284725426056 0 24.753284725426056 -105.5706422579533 0 0 0 0 -13.228553256248233 37.604586235484021 0 37.604586235484021 -39.463889888429549 0 0 0 0 -44.606726216919924 -18.283736874116585 0 -18.283736874116585 36.913271489283943 0 0 0 0 84.92816897497687 0.66904147366403777 0 0.66904147366403777 -51.47256072073651 0 0 0 0 -402.51832952005111 381.47437693575546 0 381.47437693575546 -283.10414477546874 0 0 0 0 8.1982463156907102 17.936357457428777 0 17.936357457428777 16.471735862960486 0 0 0 0 2.3204091984607658 31.377528241127948 0 31.377528241127948 8.3981032568112823 0 0 0 0 15.036278958231042 18.218740110579446 0 18.218740110579446 4.3765126979124318 0 0 0 0 -608.7820946271695 460.382372908658 0 460.382372908658 -226.01770179464074 0 0 0 0 -1102.7887950608583 722.20605101078399 0 722.20605101078399 -344.53040606905415 0 0 0 0 7.8173440683486604 5.3904896013608496 0 5.3904896013608496 -2.2781460646978644 0 0 0 0 -445.80391765152672 320.59285614933469 0 320.59285614933469 -258.90008294620202 0 0 0 0 -242.4316176754669 189.40343705914165 0 189.40343705914165 -346.01300322731549 0 0 0 0 -405.25053175055723 502.15677867090562 0 502.15677867090562 -846.05703761892801 0 0 0 0 -441.76389299233051 126.3632759312386 0 126.3632759312386 -296.65239901797031 0 0 0 0 14.662584359902333 20.650662827873045 0 20.650662827873045 21.55493032804155 0 0 0 0 -113.37106177708438 109.36813896237004 0 109.36813896237004 51.549991472878901 0 0 0 0 -216.62492750354977 451.5327294224553 0 451.5327294224553 -683.85409451871237 0 0 0 0 987.67727680030839 285.03359143792113 0 285.03359143792113 -67.425931907095219 0 0 0 0 -82.524694005840502 -21.11052007066337 0 -21.11052007066337 225.3676686347535 0 0 0 0 500.4247595270499 -54.429064612759248 0 -54.429064612759248 -90.601716483553446 0 0 0 0 402.53353012953266 264.23156977348299 0 264.23156977348299 211.78178152624969 0 0 0 0 745.91721648049497 645.06193630762209 0 645.06193630762209 229.46885435738841 0 0 0 0 721.74690696386097 628.8518404213246 0 628.8518404213246 209.7165064295441 0 0 0 0 733.90164442365494 629.24883387047703 0 629.24883387047703 209.37590826069936 0 0 0 0 952.17453761045181 750.80586752579256 0 750.80586752579256 122.46680108981673 0 0 0 0 419.66816552101773 548.79388751739134 0 548.79388751739134 696.59117327216154 0 0 0 0 11.937753247654683 1.2045033206149043 0 1.2045033206149043 0.56971285072785527 0 0 0 0 -37.195637537734001 6.2731174737637048 0 6.2731174737637048 164.71101344748558 0 0 0 0 -111.74620221133591 72.111828015303217 0 72.111828015303217 -68.076908646256925 0 0 0 0 -53.481885415563738 214.60547257752296 0 214.60547257752296 -113.0745903727875 0 0 0 0 502.49084536424562 102.75824901069791 0 102.75824901069791 -584.0444789212379 0 0 0 0 236.73222453586459 285.97918337309602 0 285.97918337309602 382.49629886841649 0 0 0 0 231.86319841729983 237.15629166109147 0 237.15629166109147 9.2820520486748137 0 0 0 0 97.199406143809028 -45.048444313410982 0 -45.048444313410982 -5.3868422578934769 0 0 0 0 667.2363067041515 54.818085004464592 0 54.818085004464592 -141.00274663510936 0 0 0 0 697.63904225715305 263.28203040663175 0 263.28203040663175 -294.50418942218312 0 0 0 0 391.63059250745027 1040.7821538213439 0 1040.7821538213439 916.64652856347675 0 0 0 0 614.48418759477499 291.30148267818731 0 291.30148267818731 -279.71924754655538 0 0 0 0 55.052500202506053 98.497731628453039 0 98.497731628453039 21.749083340235302 0 0 0 0 253.69541432997949 402.16475126739942 0 402.16475126739942 445.22151322023274 0 0 0 0 264.20573736193501 466.821029525173 0 466.821029525173 586.37085581243082 0 0 0 0 -2.2972808202945814 4.1266491822067053 0 4.1266491822067053 -6.6618297461636047 0 0 0 0 308.28544177839649 501.04272629699426 0 501.04272629699426 430.69487791643041 0 0 0 0 305.89769301643537 522.16282699824205 0 522.16282699824205 318.60232670970436 0 0 0 0 390.59362510229766 579.05649631037886 0 579.05649631037886 369.42467767355993 0 0 0 0 1390.9975804753267 153.93652228205247 0 153.93652228205247 -423.05254446481558 0 0 0 0 167.41868954659731 524.13895144863272 0 524.13895144863272 378.45443511658232 0 0 0 0 232.61899782360069 230.21719821568195 0 230.21719821568195 117.83777555480629 0 0 0 0 811.8666088503378 491.64717816307893 0 491.64717816307893 233.77133019539906 0 0 0 0 445.35861322981509 510.61229480800102 0 510.61229480800102 269.85459039937632 0 0 0 0 406.54518825228115 588.23406536642051 0 588.23406536642051 367.79533858472132 0 0 0 0 324.79394041679188 587.03797759503141 0 587.03797759503141 397.47660423187699 0 0 0 0 678.4587058945981 663.34473670478837 0 663.34473670478837 325.49958163436531 0 0 0 0 364.26526198010106 532.01800207423003 0 532.01800207423003 398.25724155035823 0 0 0 0 335.26754775009613 542.34063471896661 0 542.34063471896661 339.96727420878597 0 0 0 0 317.41371593588156 561.03902924083286 0 561.03902924083286 393.04823153651523 0 0 0 0 309.5012654411621 560.99362936875696 0 560.99362936875696 393.06659388041226 0 0 0 0 310.87929789973532 445.07811385285913 0 445.07811385285913 336.21978123171721 0 0 0 0 517.18702702660448 493.50306733428079 0 493.50306733428079 347.48331488564509 0 0 0 0 415.12618064529488 595.0821732383929 0 595.0821732383929 510.87159591680029 0 0 0 0 626.55453197724637 559.04184089549199 0 559.04184089549199 391.75637391601322 0 0 0 0 386.91705736035021 514.21781648345029 0 514.21781648345029 385.92096971852152 0 0 0 0 641.29208735912835 322.08732226670327 0 322.08732226670327 407.34343157623562 0 0 0 0 387.98726681585504 364.49892183461088 0 364.49892183461088 401.19574303252375 0 0 0 0 442.78471993904895 375.24381162151076 0 375.24381162151076 303.43536787772791 0 0 0 0 111.40847310960089 210.21392536799976 0 210.21392536799976 307.20365920510631 0 0 0 0 267.62507990612903 146.80976635177285 0 146.80976635177285 300.17813736979042 0 0 0 0 271.54698137735977 302.14486300926001 0 302.14486300926001 386.5000651524424 0 0 0 0 594.97481375438656 629.21551935245043 0 629.21551935245043 489.82638393973411 0 0 0 0 457.00780350897503 217.11803767527817 0 217.11803767527817 413.77910480832725 0 0 0 0 456.37933163497655 582.41135216598013 0 582.41135216598013 163.07599080011869 0 0 0 0 476.02321387621487 676.07059729283719 0 676.07059729283719 336.51619776204689 0 0 0 0 320.13270408456629 358.54116219707339 0 358.54116219707339 201.46735663370055 0 0 0 0 337.84559270880209 454.00364554067255 0 454.00364554067255 389.69231717651201 0 0 0 0 958.82514219927543 480.58048886037705 0 480.58048886037705 233.99795967040154 0 0 0 0 1264.8068455184621 999.95900370541858 0 999.95900370541858 614.32139199568564 0 0 0 0 0.31533954175364798 0.26897950571769513 0 0.26897950571769513 6.884422944358505 0 0 0 0 -121.08034362681428 68.062155875439203 0 68.062155875439203 262.29979265733891 0 0 0 0 137.11550239915596 191.43421930507429 0 191.43421930507429 82.728065065821283 0 0 0 0 -219.67950646685313 -91.294154396588056 0 -91.294154396588056 125.18292026898416 0 0 0 0 533.8840503879228 511.83674375160854 0 511.83674375160854 766.68536159300857 0 0 0 0 -14.95345641341919 27.834269647724341 0 27.834269647724341 -23.574272265239415 0 0 0 0 -31.35658611780309 50.314101691683391 0 50.314101691683391 -11.224059794247296 0 0 0 0 1.4538440630591793 8.2514815960906347 0 8.2514815960906347 -3.5289536271104431 0 0 0 0 165.03548986666283 216.16517920422848 0 216.16517920422848 543.42114608529664 0 0 0 0 43.611015817295993 327.63853024700074 0 327.63853024700074 692.87885059176187 0 0 0 0 122.63700703677023 103.90159919445432 0 103.90159919445432 526.678758750415 0 0 0 0 122.36853934080864 135.94422991839747 0 135.94422991839747 956.81910427776165 0 0 0 0 124.6150152720802 103.52411175044836 0 103.52411175044836 519.74830252034735 0 0 0 0 156.46505978095229 108.13438748518092 0 108.13438748518092 475.27775804041721 0 0 0 0 1.035400248373108 1.3645844448224942 0 1.3645844448224942 -1.2239151851429 0 0 0 0 -663.77969754071819 -215.95683357621965 0 -215.95683357621965 -54.01186630342454 0 0 0 0 -127.45692588117163 312.43162475991085 0 312.43162475991085 700.77151830460934 0 0 0 0 -0.83706410910977525 1.2737770153100598 0 1.2737770153100598 3.7203374311087671 0 0 0 0 -480.64896559397675 72.852218789590552 0 72.852218789590552 118.56253565615316 0 0 0 0 0.88205771967565738 7.0796153391637198 0 7.0796153391637198 17.549534161111218 0 0 0 0 -455.8240122523639 33.068123693154121 0 33.068123693154121 147.72535690136465 0 0 0 0 -85.593155771581223 157.84238529993127 0 157.84238529993127 138.64105996837498 0 0 0 0 -721.77208175706619 -45.617309076093079 0 -45.617309076093079 441.79870910275713 0 0 0 0 -521.37876171068638 158.42945720650505 0 158.42945720650505 464.53677782042359 0 0 0 0 -103.08111953252592 44.854913293316713 0 44.854913293316713 336.28433374287852 0 0 0 0 64.321265479467911 142.3129953732855 0 142.3129953732855 391.44686042817557 0 0 0 0 219.45780558735896 136.94220989716518 0 136.94220989716518 137.93795156515262 0 0 0 0 341.78462787331955 388.42887659197004 0 388.42887659197004 73.187115502678353 0 0 0 0 -119.89120324623946 134.82853140747466 0 134.82853140747466 221.5939512014811 0 0 0 0 439.67612212823224 420.80855942627022 0 420.80855942627022 -169.50857899623679 0 0 0 0 -244.21552371798316 80.469993860167961 0 80.469993860167961 -28.957974829736486 0 0 0 0 -574.99787115109211 333.27924353576873 0 333.27924353576873 112.40185855593154 0 0 0 0 -137.32251898505274 245.93501564686414 0 245.93501564686414 -79.946023099400918 0 0 0 0 2.1294818795137758 6.4322600478907859 0 6.4322600478907859 14.450692732632035 0 0 0 0 -109.45709673028159 138.3133807154411 0 138.3133807154411 -97.845611259133875 0 0 0 0 -83.418411958558863 42.933070732974556 0 42.933070732974556 -105.4337624160944 0 0 0 0 -273.95190896983695 96.150343919929583 0 96.150343919929583 -65.222644810088241 0 0 0 0 -53.163775611854362 148.53576334314312 0 148.53576334314312 -137.35776936876573 0 0 0 0 -142.90836748632864 127.73987882891379 0 127.73987882891379 -100.77116610398662 0 0 0 0 -71.13587869210096 191.62245226039886 0 191.62245226039886 -237.72615110015249 0 0 0 0 -73.979912574832269 73.863244288455462 0 73.863244288455462 1.9671029821511183 0 0 0 0 -49.664115743122238 138.9179725243157 0 138.9179725243157 -127.62046963777539 0 0 0 0 133.81599088965595 377.17500972338348 0 377.17500972338348 365.32973916766241 0 0 0 0 97.746246610589878 123.1289568917382 0 123.1289568917382 117.61040719819903 0 0 0 0 -32.501466612127842 157.24937768012023 0 157.24937768012023 488.93843585872673 0 0 0 0 -38.763859159480489 165.32489024342067 0 165.32489024342067 -579.38024147966644 0 0 0 0 -16.117219711850339 80.629251115395164 0 80.629251115395164 -271.17223651348286 0 0 0 0 -0.82684629209555283 0.95414004907767236 0 0.95414004907767236 0.26294007192563384 0 0 0 0 -0.72686955365259109 0.97758857907216168 0 0.97758857907216168 0.27439342112154819 0 0 0 0 -139.75507491967437 217.73503801415063 0 217.73503801415063 -399.26445814180988 0 0 0 0 -203.1667327509349 149.30701125424002 0 149.30701125424002 250.454295954587 0 0 0 0 -288.53230426005757 149.4140780349444 0 149.4140780349444 -72.065106210087833 0 0 0 0 -239.35520121626541 255.89483290373755 0 255.89483290373755 -268.82870080068824 0 0 0 0 83.441175257692521 462.96707363683709 0 462.96707363683709 637.90930012589615 0 0 0 0 -226.44371014355875 586.92649030318091 0 586.92649030318091 791.7419333262078 0 0 0 0 85.197670774294238 592.16560367338934 0 592.16560367338934 664.92951511922547 0 0 0 0 -40.610738602365018 183.3185058896388 0 183.3185058896388 705.53412472001946 0 0 0 0 -205.64465174530778 332.04412484197019 0 332.04412484197019 581.28509776806095 0 0 0 0 34.222002713886468 843.49414748911295 0 843.49414748911295 780.96617795858845 0 0 0 0 612.18384802551009 581.9681080257842 0 581.9681080257842 568.63490152475424 0 0 0 0 -203.7629580517314 296.78664123527324 0 296.78664123527324 733.47412720276407 0 0 0 0 518.76123544055372 722.29996686263166 0 722.29996686263166 145.71686151143876 0 0 0 0 1.7344117637200469 3.6293118156678084 0 3.6293118156678084 5.3665589158662641 0 0 0 0 350.16610481178577 640.29587488053289 0 640.29587488053289 376.31140737763053 0 0 0 0 355.22508404822656 672.33910538249438 0 672.33910538249438 378.7961490721973 0 0 0 0 300.02319261784578 696.96105752433414 0 696.96105752433414 806.18005554917909 0 0 0 0 490.25442801379177 362.50009651779146 0 362.50009651779146 710.34721626436067 0 0 0 0 81.774614999081678 -5.5390084849823324 0 -5.5390084849823324 -309.67908157169859 0 0 0 0 296.76971780500025 490.55251691582725 0 490.55251691582725 661.99678786957156 0 0 0 0 349.55136179632063 574.89121094384291 0 574.89121094384291 731.81573422914153 0 0 0 0 -1.1042115763115987 2.6351742488953036 0 2.6351742488953036 -2.3487167759133456 0 0 0 0 250.87152697424426 734.08459939078102 0 734.08459939078102 558.56333736945817 0 0 0 0 111.37397012740803 615.85427475483266 0 615.85427475483266 599.16372067380507 0 0 0 0 -8.9577882299163321 512.009513882801 0 512.009513882801 627.68720135848162 0 0 0 0 208.66336478768972 631.16121929932797 0 631.16121929932797 321.59641614702559 0 0 0 0 137.29690627778109 502.78453508663461 0 502.78453508663461 394.52088692546386 0 0 0 0 238.1499479719605 502.29243433542706 0 502.29243433542706 161.03910938678564 0 0 0 0 123.13966169538617 478.47473428672401 0 478.47473428672401 857.77598968600341 0 0 0 0 94.451964200448856 324.29752530266069 0 324.29752530266069 301.61030863897577 0 0 0 0 -3.3020931837735432 3.6617742574190615 0 3.6617742574190615 22.343463511464293 0 0 0 0 -81.313379253500898 18.926430345414701 0 18.926430345414701 80.041237980291044 0 0 0 0 73.347112095332704 62.772463026954938 0 62.772463026954938 41.146003592300985 0 0 0 0 -0.32184974090839091 20.811672382175324 0 20.811672382175324 -17.91652581158619 0 0 0 0 568.86590774909018 654.73315854089833 0 654.73315854089833 510.62894289910037 0 0 0 0 -61.209045551637246 16.774324064713255 0 16.774324064713255 52.532228138567007 0 0 0 0 635.24179436285885 488.82884096642738 0 488.82884096642738 346.8763738384805 0 0 0 0 1.1596552673878193 2.4384128128906255 0 2.4384128128906255 7.3991589065081911 0 0 0 0 0.73080945489708427 20.543238360314064 0 20.543238360314064 -24.350354993405183 0 0 0 0 -13.766117886047141 113.32060412685132 0 113.32060412685132 54.781038795947097 0 0 0 0 59.147850946748804 49.442104791199199 0 49.442104791199199 -24.227770331013744 0 0 0 0 509.80532125299214 463.23441267566886 0 463.23441267566886 353.188686138712 0 0 0 0 628.1255043322135 557.73826256245434 0 557.73826256245434 336.30701006365416 0 0 0 0 602.71604793088409 436.03404716416117 0 436.03404716416117 353.41595042759582 0 0 0 0 375.75846117181209 566.92540972425741 0 566.92540972425741 355.14106310367879 0 0 0 0 259.91690612530147 410.48120437868965 0 410.48120437868965 558.7174947413655 0 0 0 0 375.88558186529553 592.57237993720082 0 592.57237993720082 549.99720742785212 0 0 0 0 504.71051125119993 466.84898668730511 0 466.84898668730511 416.77204433704355 0 0 0 0 -4.2546902092615539 9.1452548143528958 0 9.1452548143528958 -3.2089657648261714 0 0 0 0 196.43393397950058 275.37643755310728 0 275.37643755310728 319.31308831853312 0 0 0 0 -18.74668917330564 46.216487478661293 0 46.216487478661293 -14.529770104676572 0 0 0 0 -1.2282745792584464 5.1505728421546877 0 5.1505728421546877 4.2923273650173712 0 0 0 0 356.72593002778376 352.70307926444184 0 352.70307926444184 345.91834151595776 0 0 0 0 199.18094777481383 258.95036823903683 0 258.95036823903683 61.357710623444746 0 0 0 0 221.92110020251675 273.89975428653042 0 273.89975428653042 -14.832352298024489 0 0 0 0 269.56877221042305 361.17975467971883 0 361.17975467971883 142.85828227193178 0 0 0 0 284.32906420586005 385.46702033337715 0 385.46702033337715 -95.578728477108598 0 0 0 0 184.80859322398828 392.95993539993833 0 392.95993539993833 169.14780704825807 0 0 0 0 -36.735524808465925 124.31674597399706 0 124.31674597399706 493.80493892656523 0 0 0 0 184.66471458902629 392.28297506253631 0 392.28297506253631 287.70077850851885 0 0 0 0 413.03919678522652 587.31521255189182 0 587.31521255189182 449.254350519235 0 0 0 0 476.09039489622228 273.58871858086604 0 273.58871858086604 176.84590196689896 0 0 0 0 317.19859011319204 303.90888416601229 0 303.90888416601229 950.46004559003268 0 0 0 0 254.21627088232708 57.133143673174345 0 57.133143673174345 20.687232755548393 0 0 0 0 254.00514218016178 524.58062194376907 0 524.58062194376907 142.57647513656048 0 0 0 0 136.58457979542573 232.44071262619582 0 232.44071262619582 -381.38607305048572 0 0 0 0 152.10547961334305 -36.73754896639548 0 -36.73754896639548 -213.23075146854353 0 0 0 0 84.290298048395925 81.856843467509862 0 81.856843467509862 -409.22242456349341 0 0 0 0 0.79726196482806699 43.750274394060398 0 43.750274394060398 -101.73058373296954 0 0 0 0 -282.96808985383541 302.56048890189413 0 302.56048890189413 -153.49492200805253 0 0 0 0 0.7975906494895959 1.0765758109571451 0 1.0765758109571451 0.065922621604364906 0 0 0 0 646.26290851276826 119.84812056241208 0 119.84812056241208 -19.936728211036097 0 0 0 0 67.990497248929842 437.21464524888756 0 437.21464524888756 -105.73393962385671 0 0 0 0 369.19498565743197 359.66170845285342 0 359.66170845285342 -1.293877325594849 0 0 0 0 203.0060877131873 212.5380014894165 0 212.5380014894165 34.699757040812983 0 0 0 0 193.53494160979881 299.1940298977666 0 299.1940298977666 87.630721836969315 0 0 0 0 -40.121490732919483 106.45109565136227 0 106.45109565136227 308.081378714126 0 0 0 0 194.66389508939756 45.052412665304473 0 45.052412665304473 -16.550585782401868 0 0 0 0 205.95367189146418 269.21794393774871 0 269.21794393774871 109.42227621348502 0 0 0 0 222.70856249279313 319.52826501099253 0 319.52826501099253 190.42872586995327 0 0 0 0 4.0149663088064784 2.2010246208154536 0 2.2010246208154536 1.1948964495233767 0 0 0 0 109.55522092835417 21.362283742723776 0 21.362283742723776 -31.889585164302844 0 0 0 0 29.069099910278965 -13.887196280440548 0 -13.887196280440548 25.459989562534247 0 0 0 0 29.783683382192976 -3.441820062658735 0 -3.441820062658735 0.85694468841575144 0 0 0 0 94.789365461670968 61.21908039059872 0 61.21908039059872 -52.54255352968903 0 0 0 0 -81.25080053601414 9.0285519525923519 0 9.0285519525923519 42.101533268887579 0 0 0 0 1.583173045221713 2.060332911547178 0 2.060332911547178 -0.51472623627216763 0 0 0 0 -49.55996506311385 -37.867959334806983 0 -37.867959334806983 84.343503428175609 0 0 0 0 -87.549098960960691 52.976241897663385 0 52.976241897663385 -99.48472069143304 0 0 0 0 1.7534589886462264 2.4381984905957097 0 2.4381984905957097 -0.010313753152388472 0 0 0 0 103.02510133603027 63.849700283651146 0 63.849700283651146 49.279922154852102 0 0 0 0 208.49749039161179 147.95081443588015 0 147.95081443588015 188.25071345291872 0 0 0 0 139.51132777341809 108.44604433453151 0 108.44604433453151 320.22967643184529 0 0 0 0 170.29798546828533 207.34552610161063 0 207.34552610161063 408.23656755453339 0 0 0 0 74.784275836156667 237.1119398529695 0 237.1119398529695 100.03804254414717 0 0 0 0 207.68544515771646 335.35429026802831 0 335.35429026802831 -147.91049524631308 0 0 0 0 279.88980265097052 79.88270421674406 0 79.88270421674406 187.26470914992251 0 0 0 0 321.45325437270003 288.89839043199845 0 288.89839043199845 76.212919981059258 0 0 0 0 167.90444724178087 296.70378759973482 0 296.70378759973482 224.01989769952621 0 0 0 0 160.41898505245081 49.196709105646732 0 49.196709105646732 240.38440912881924 0 0 0 0 122.62887190294714 141.60626610531494 0 141.60626610531494 194.8030062580583 0 0 0 0 9.7420999178102647 214.15133981263261 0 214.15133981263261 77.256213592391305 0 0 0 0 190.00039013063724 139.00672136749381 0 139.00672136749381 44.625664962671635 0 0 0 0 68.226233114535717 387.42711526877247 0 387.42711526877247 -209.91766850159684 0 0 0 0 67.693821436372673 249.86095206840014 0 249.86095206840014 -107.95194587292463 0 0 0 0 138.77193085031104 272.34521003796272 0 272.34521003796272 -105.29377860737077 0 0 0 0 132.83042504127775 188.00921489936434 0 188.00921489936434 28.862814514312049 0 0 0 0 95.182914866341889 290.75810978251684 0 290.75810978251684 -188.63213419518434 0 0 0 0 360.72940948451833 280.09228844392555 0 280.09228844392555 -45.345738107635043 0 0 0 0 359.08465292260757 4.9737415001475398 0 4.9737415001475398 -136.62597774076676 0 0 0 0 193.23292222424425 173.83164361670788 0 173.83164361670788 -99.541744515012397 0 0 0 0 136.16336584580858 352.96723832225143 0 352.96723832225143 -95.055688394879326 0 0 0 0 77.217929145247581 149.90033074008534 0 149.90033074008534 177.19468344890993 0 0 0 0 86.47436732526694 341.06626925891396 0 341.06626925891396 -1068.4110946556989 0 0 0 0 -3.0790266648880902 1.3478970482550654 0 1.3478970482550654 -0.4195605663167763 0 0 0 0 -41.165082410479954 268.88996547575425 0 268.88996547575425 -251.68265317252917 0 0 0 0 28.305847503106634 279.61149241550402 0 279.61149241550402 -162.42602916972101 0 0 0 0 96.428958561819854 369.30848309685484 0 369.30848309685484 -311.31241729292014 0 0 0 0 56.152634582351311 316.9564919393224 0 316.9564919393224 -343.08875131371678 0 0 0 0 54.607648171589972 323.77731642838171 0 323.77731642838171 -249.12571911329178 0 0 0 0 -46.216294079524232 403.04821138686748 0 403.04821138686748 -272.30149423271041 0 0 0 0 18.330374887583275 327.49471547393546 0 327.49471547393546 -280.98017334797078 0 0 0 0 -30.736805724765873 67.506894189149534 0 67.506894189149534 -36.867502640208841 0 0 0 0 12.06881972521056 9.6815151327168056 0 9.6815151327168056 2.6558792138886709 0 0 0 0 -26.90060047281986 68.340920783707134 0 68.340920783707134 -51.44275450684836 0 0 0 0 21.333878746165283 16.412774927692226 0 16.412774927692226 -37.707349677400998 0 0 0 0 3.0755405191686691 3.7158414116496985 0 3.7158414116496985 -4.1004186264341413 0 0 0 0 56.161503826066109 49.556247412909215 0 49.556247412909215 -33.872109638552502 0 0 0 0 1.2522593306516683 -11.483434589940316 0 -11.483434589940316 -0.90632964526230353 0 0 0 0 22.609631551400071 56.031977310312072 0 56.031977310312072 -42.050207174308525 0 0 0 0 10.320197448974497 5.3848457866281159 0 5.3848457866281159 3.1234055641667666 0 0 0 0 17.950425554972753 72.960212676484844 0 72.960212676484844 -35.222337948607674 0 0 0 0 0.82312493284189259 42.311359274027382 0 42.311359274027382 -62.304979873624688 0 0 0 0 16.19953153725146 86.160609602811746 0 86.160609602811746 -92.72069643859777 0 0 0 0 32.697235199470015 51.221991871027967 0 51.221991871027967 -40.225646975067434 0 0 0 0 23.585835686368227 72.383719952213596 0 72.383719952213596 -27.238281953140358 0 0 0 0 -16.959956147926277 38.278384200350047 0 38.278384200350047 56.208612354832439 0 0 0 0 -10.948225193114368 2.752817571416001 0 2.752817571416001 1.7054088920173758 0 0 0 0 -9.0590539145814546 36.434421692548312 0 36.434421692548312 -41.611514717276805 0 0 0 0 -36.346253018520656 66.948824425644489 0 66.948824425644489 -35.138844199447703 0 0 0 0 -23.378598312803661 28.930613530438677 0 28.930613530438677 -44.207812660881245 0 0 0 0 -12.970439840413746 48.312940469375462 0 48.312940469375462 -49.477507965404584 0 0 0 0 -5.3454999523819424 30.325577820605758 0 30.325577820605758 -30.713339573587291 0 0 0 0 -38.382479911138944 64.688316441855932 0 64.688316441855932 -29.927900577240507 0 0 0 0 -30.925969831885595 47.756536250739373 0 47.756536250739373 -3.1902883719885722 0 0 0 0 -8.8716119975251786 52.369640413931847 0 52.369640413931847 -104.71931949913233 0 0 0 0 1.5315309303538385 8.1610280452628672 0 8.1610280452628672 -15.148833812675658 0 0 0 0 -33.181736634320259 29.316385116308084 0 29.316385116308084 -10.940581477960222 0 0 0 0 -21.600050037948677 20.586847687526642 0 20.586847687526642 -30.392512756388442 0 0 0 0 -2.1748848132010608 31.309418094356715 0 31.309418094356715 -62.797100001096624 0 0 0 0 -38.28585623147228 52.086134989987841 0 52.086134989987841 -45.637621221787413 0 0 0 0 1.4609379802786455 19.548763134347965 0 19.548763134347965 -59.552254330217409 0 0 0 0 12.763173290455597 33.086998875868858 0 33.086998875868858 -125.0318967600474 0 0 0 0 -15.82676442662428 26.208157731886644 0 26.208157731886644 -10.068386902522215 0 0 0 0 -51.370632677099366 49.073304884119693 0 49.073304884119693 -44.603527151527032 0 0 0 0 5.9833594666051795 16.785456983508993 0 16.785456983508993 -11.685614943224209 0 0 0 0 -15.995198205760971 25.602255320649419 0 25.602255320649419 -2.8910150340855125 0 0 0 0 14.097407290476511 7.0312817476739156 0 7.0312817476739156 -11.135305266456271 0 0 0 0 -4.8414518829353206 26.12841432929897 0 26.12841432929897 -13.586988103778765 0 0 0 0 -18.311881099090897 21.450055306737227 0 21.450055306737227 -66.353239940129697 0 0 0 0 -20.412645248112312 -5.2931361632986977 0 -5.2931361632986977 -94.564011330206995 0 0 0 0 -21.777201884999755 22.618017832414516 0 22.618017832414516 -2.0398468325985308 0 0 0 0 -22.167418864486535 17.494526729440508 0 17.494526729440508 -38.834663530641592 0 0 0 0 -19.285267690716864 38.023093027101822 0 38.023093027101822 -65.07482744904064 0 0 0 0 -37.50801561213666 46.249934694945296 0 46.249934694945296 -30.869451504963763 0 0 0 0 -56.007686415305216 54.304937971125128 0 54.304937971125128 -34.955423337230968 0 0 0 0 -29.51358430581422 66.101658693793979 0 66.101658693793979 -84.771499879758267 0 0 0 0 -15.828765500657028 65.78821261889334 0 65.78821261889334 -92.64953901476656 0 0 0 0 -33.571469617107141 68.468263191283768 0 68.468263191283768 -75.085646826910306 0 0 0 0 3.6612683070416097 11.696252330794323 0 11.696252330794323 -32.146317027776604 0 0 0 0 3.0580588194333598 2.000660628407239 0 2.000660628407239 -17.9268758784835 0 0 0 0 -17.204559755808077 14.172994569191815 0 14.172994569191815 -21.397117165743111 0 0 0 0 -8.5140940579440212 14.220876681765731 0 14.220876681765731 -13.419883458518598 0 0 0 0 -12.969444950143952 21.729062672666259 0 21.729062672666259 -12.763527916329622 0 0 0 0 -18.069669899015935 33.201332569457463 0 33.201332569457463 -42.20923866584053 0 0 0 0 -33.752890468142141 19.552929836612748 0 19.552929836612748 -3.5503196499003025 0 0 0 0 -39.77235259381996 45.247024898707423 0 45.247024898707423 -41.185021425124432 0 0 0 0 -52.303118030926271 33.423897722626862 0 33.423897722626862 -28.089162982120342 0 0 0 0 -87.420679164330068 35.752981633171657 0 35.752981633171657 -6.8250709727444701 0 0 0 0 -19.226347589949 -6.1712455917677289 0 -6.1712455917677289 -14.803549955875496 0 0 0 0 -75.555894073244417 63.93264509880737 0 63.93264509880737 -76.545228902446979 0 0 0 0 -90.885896407437031 55.740389405050337 0 55.740389405050337 -48.618000259468317 0 0 0 0 -0.41351430831006081 2.7434018713917752 0 2.7434018713917752 -12.726824451189167 0 0 0 0 -107.50381760192613 82.643059380488012 0 82.643059380488012 -38.235942606366734 0 0 0 0 -99.448167256792658 179.2909221512991 0 179.2909221512991 -237.41980915476233 0 0 0 0 -41.260385395953563 75.684121104810856 0 75.684121104810856 -128.09799081638539 0 0 0 0 -94.000075430394645 79.771706009488298 0 79.771706009488298 -51.247652021986141 0 0 0 0 -69.459352491496247 37.79185055796097 0 37.79185055796097 -56.75729658871569 0 0 0 0 -42.827792021838832 70.437040430241723 0 70.437040430241723 -85.197085577954795 0 0 0 0 -30.398741083333334 83.562883599200177 0 83.562883599200177 -112.13407016995188 0 0 0 0 26.089083102287987 52.899752061220624 0 52.899752061220624 -142.25780476556793 0 0 0 0 125.94946194763452 -73.875966665908663 0 -73.875966665908663 -36.181481616187739 0 0 0 0 1.3966986019035161 0.46774659118644024 0 0.46774659118644024 -2.1798190092633689 0 0 0 0 105.51878480752839 -13.784813105784906 0 -13.784813105784906 -86.874525402614381 0 0 0 0 18.570475180935318 18.423966476191708 0 18.423966476191708 -53.747039813680203 0 0 0 0 -4.6739556832999369 -13.221929821477715 0 -13.221929821477715 -35.65271814391599 0 0 0 0 73.558180392410577 -5.2119257712802209 0 -5.2119257712802209 -68.459559141087084 0 0 0 0 63.983239401040919 -11.690634573283205 0 -11.690634573283205 -22.003824650322713 0 0 0 0 72.652236193986028 -3.6700395674106403 0 -3.6700395674106403 -68.043258731431706 0 0 0 0 1.9902587150085935 0.95549151446751068 0 0.95549151446751068 -1.9049084678355115 0 0 0 0 62.414948515088327 14.056967941821313 0 14.056967941821313 -58.479022972716848 0 0 0 0 39.600477990985382 86.039646159807489 0 86.039646159807489 -132.36865978811738 0 0 0 0 -28.08806690550955 -134.59459129292372 0 -134.59459129292372 -284.73165548310135 0 0 0 0 -263.07470157042553 180.21660051944491 0 180.21660051944491 -8.1041067301589464 0 0 0 0 -448.84899689073791 217.39916885435014 0 217.39916885435014 -89.611323299192463 0 0 0 0 -0.15419105504994904 1.2686444650935442 0 1.2686444650935442 -4.8510552342106337 0 0 0 0 -101.74539631181688 215.31391423130299 0 215.31391423130299 -218.81508408255968 0 0 0 0 -162.97869578528116 329.01398745924143 0 329.01398745924143 -201.94042653072574 0 0 0 0 70.521098339142554 -0.66306423730748065 0 -0.66306423730748065 82.513659535943589 0 0 0 0 48.5111585187733 -17.715106895226199 0 -17.715106895226199 136.94740779385029 0 0 0 0 64.786570473734173 -53.355817355903127 0 -53.355817355903127 152.56147837089156 0 0 0 0 57.699977256852435 -14.989603750971582 0 -14.989603750971582 109.59827962944837 0 0 0 0 55.095128533466777 -28.39549793558399 0 -28.39549793558399 95.938104593420576 0 0 0 0 65.466375996402348 2.1152979468060948 0 2.1152979468060948 57.872235809099948 0 0 0 0 25.520984113223676 7.1873203363065841 0 7.1873203363065841 61.398302027262616 0 0 0 0 59.256682856605039 4.6687360671021452 0 4.6687360671021452 25.05991409253329 0 0 0 0 62.408802521958933 13.888564589895395 0 13.888564589895395 37.678222849626763 0 0 0 0 48.927928028513634 -10.295662772748983 0 -10.295662772748983 79.056648271980521 0 0 0 0 64.802885997323528 -2.5169417114680073 0 -2.5169417114680073 55.00136048605782 0 0 0 0 -175.38941584501981 34.451914457434384 0 34.451914457434384 9.2584027227276238 0 0 0 0 85.090274143709394 19.173161092558075 0 19.173161092558075 46.338514267925348 0 0 0 0 -23.694965064418 9.7474879258883451 0 9.7474879258883451 6.1092446820504094 0 0 0 0 66.990960576540601 13.736795030328722 0 13.736795030328722 93.522318026236462 0 0 0 0 -63.542611216973455 1.5261160998688865 0 1.5261160998688865 -26.896110972440511 0 0 0 0 -67.34751839960154 28.788374343638679 0 28.788374343638679 -35.378436237988353 0 0 0 0 -50.118935094084009 12.951741492444853 0 12.951741492444853 -28.204200972942999 0 0 0 0 -90.376184739281598 52.523003863585473 0 52.523003863585473 -27.174395502261177 0 0 0 0 -30.175480068610341 40.69517159559291 0 40.69517159559291 -32.526692516114053 0 0 0 0 -30.474271281273104 18.142826029372372 0 18.142826029372372 -42.497474770916597 0 0 0 0 -30.498531191049551 28.743207487796099 0 28.743207487796099 -55.442684161918805 0 0 0 0 39.600111259860569 174.68790603234311 0 174.68790603234311 -153.07507461892783 0 0 0 0 68.435267115663009 -22.168577645039704 0 -22.168577645039704 97.511630782195425 0 0 0 0 2.2176003098435952 48.123279199741248 0 48.123279199741248 -75.546467044590955 0 0 0 0 -21.515817211035085 41.195144974013942 0 41.195144974013942 74.676034482539592 0 0 0 0 -25.826805994249298 42.006894363120409 0 42.006894363120409 -50.122066183450443 0 0 0 0 -159.27511699343813 154.2948436704728 0 154.2948436704728 -0.20291583817015635 0 0 0 0 83.381567309517777 10.692678256680665 0 10.692678256680665 -42.88622387075884 0 0 0 0 -3.3315781566561782 35.877171458542762 0 35.877171458542762 -90.323402709120273 0 0 0 0 6.6493208015053824 17.035389524228776 0 17.035389524228776 -65.909045638726639 0 0 0 0 -9.4812943161196017 48.8180510890611 0 48.8180510890611 -103.19054414570746 0 0 0 0 1.2859515395801708 39.040448430736809 0 39.040448430736809 -85.893813726437884 0 0 0 0 396.2725416260605 84.632161310844822 0 84.632161310844822 -217.87182799111542 0 0 0 0 186.21909782379862 222.70085153059244 0 222.70085153059244 -205.50118679502702 0 0 0 0 -18.365010374766939 266.75517791625191 0 266.75517791625191 -276.81636966784208 0 0 0 0 -20.664631059014113 203.03551683584945 0 203.03551683584945 -80.809001587811508 0 0 0 0 -26.82411250068435 229.5198056612262 0 229.5198056612262 -93.226137344253402 0 0 0 0 -81.955585108593368 380.15781342614173 0 380.15781342614173 -342.24186329463555 0 0 0 0 87.464054649466561 -60.543669375405443 0 -60.543669375405443 146.381086700776 0 0 0 0 -3.3068647335838364 44.100415928722526 0 44.100415928722526 89.349725028659122 0 0 0 0 -141.60669925857655 164.60776891216119 0 164.60776891216119 -107.03658403500231 0 0 0 0 -154.32405622952274 193.25145183792802 0 193.25145183792802 176.58664799899634 0 0 0 0 -192.638909243733 331.15878146912144 0 331.15878146912144 -116.98864879406392 0 0 0 0 75.356753541256694 -42.514712694512127 0 -42.514712694512127 131.47507000018959 0 0 0 0 68.393326107950998 -25.197854993137298 0 -25.197854993137298 159.43620188976638 0 0 0 0 63.484634255219135 -35.206665883510141 0 -35.206665883510141 151.36210458914866 0 0 0 0 47.925648389199068 -33.586298362782145 0 -33.586298362782145 169.84426762582734 0 0 0 0 51.016989808318613 -18.085711849391373 0 -18.085711849391373 143.22302510586451 0 0 0 0 98.18666201254382 -22.315612232254352 0 -22.315612232254352 149.21079036193987 0 0 0 0 92.322237417996803 -348.53600109115723 0 -348.53600109115723 -539.5452626218248 0 0 0 0 44.327914253757626 -45.554083249007817 0 -45.554083249007817 214.79909983105608 0 0 0 0 49.599209637483 -30.587325292159221 0 -30.587325292159221 219.31155053706607 0 0 0 0 75.767542073252116 -8.6964061801991193 0 -8.6964061801991193 195.46644243360788 0 0 0 0 55.916777547128731 -21.298823502176674 0 -21.298823502176674 180.24661406315863 0 0 0 0 47.387174860479718 -43.001295615424169 0 -43.001295615424169 189.58386603927647 0 0 0 0 -4.0505327550348618 61.213069945350433 0 61.213069945350433 83.271598163577607 0 0 0 0 -430.91655893882125 345.58204958788701 0 345.58204958788701 -233.01119333453971 0 0 0 0 53.010952882430502 -39.485025487223538 0 -39.485025487223538 218.65351388960698 0 0 0 0 -0.063722902742000542 1.5203691514373503 0 1.5203691514373503 5.8990912141422811 0 0 0 0 -357.59155708335311 217.56334145009896 0 217.56334145009896 741.05635010200058 0 0 0 0 -60.121464912157535 125.20847839020917 0 125.20847839020917 16.650718617190932 0 0 0 0 -199.89078903995323 406.24298875335808 0 406.24298875335808 27.403643477515288 0 0 0 0 -205.77137037861166 454.28562195001655 0 454.28562195001655 -339.11717121945912 0 0 0 0 -201.35035078108922 211.98864735341886 0 211.98864735341886 -421.69768182341068 0 0 0 0 -102.27262777202486 326.05902288383004 0 326.05902288383004 -317.67187740056761 0 0 0 0 -1.5310656327716714 3.6072087371503585 0 3.6072087371503585 5.9182958898306266 0 0 0 0 -357.44162272749963 468.18243494797935 0 468.18243494797935 -864.89871771399703 0 0 0 0 -476.32879518261325 346.95485133674447 0 346.95485133674447 -430.49847336439416 0 0 0 0 -113.110810622793 250.76393469838513 0 250.76393469838513 -425.90413142917168 0 0 0 0 -304.14245874853805 181.20531933339953 0 181.20531933339953 -409.36502546315842 0 0 0 0 -245.32320360400445 293.09171824181612 0 293.09171824181612 -332.77095562628165 0 0 0 0 -71.523405978702613 140.21401621388395 0 140.21401621388395 -273.12571146052505 0 0 0 0 -103.6279365888422 127.96607537318232 0 127.96607537318232 -340.83139639936712 0 0 0 0 60.868725859952974 173.68969520978499 0 173.68969520978499 -481.25431034222493 0 0 0 0 136.61036046206846 -5.6083913295465209 0 -5.6083913295465209 -67.674816207409094 0 0 0 0 -653.85591214183296 -47.38995412292752 0 -47.38995412292752 425.58684515589266 0 0 0 0 150.18698367772112 -133.67233084309521 0 -133.67233084309521 73.448714808098885 0 0 0 0 146.44533222923383 -186.27555449149077 0 -186.27555449149077 -386.05887965636521 0 0 0 0 0.35275805036478403 0.13031538131812326 0 0.13031538131812326 -0.92379584432575257 0 0 0 0 517.70101977645822 428.67812536601423 0 428.67812536601423 -93.056030199295492 0 0 0 0 65.485252061426763 185.32581048322072 0 185.32581048322072 -70.417285532079404 0 0 0 0 489.33347993549796 263.69232522451784 0 263.69232522451784 -334.09819846849859 0 0 0 0 -14.539592482344005 51.834148188637187 0 51.834148188637187 -91.793539992893784 0 0 0 0 307.56205529758972 -95.189355958009401 0 -95.189355958009401 -228.12249169407096 0 0 0 0 1.946554448585377 41.491135340741423 0 41.491135340741423 -92.625017128552287 0 0 0 0 -42.937491889624653 53.323330008856374 0 53.323330008856374 -84.992027176691408 0 0 0 0 -27.024282255599246 54.093139122289131 0 54.093139122289131 -96.750299306490888 0 0 0 0 -24.89261100050814 29.24633155308037 0 29.24633155308037 -17.902372512968455 0 0 0 0 -19.021683321681849 24.801944122844588 0 24.801944122844588 -38.898758476829244 0 0 0 0 73.9116046040117 47.469395666226774 0 47.469395666226774 -95.779025293173618 0 0 0 0 54.702690005833574 18.052600777249609 0 18.052600777249609 -108.32673756193981 0 0 0 0 -3.9169916332614667 21.268808803983987 0 21.268808803983987 -43.036589646579316 0 0 0 0 7.4825706006434416 11.971631055634594 0 11.971631055634594 -22.924211822045287 0 0 0 0 28.596785668754819 -2.1887300137677812 0 -2.1887300137677812 -117.25427807608139 0 0 0 0 -36.814643627114492 43.910663101346472 0 43.910663101346472 -32.559124491988769 0 0 0 0 -3.944371437339214 73.834524214874364 0 73.834524214874364 -17.640205289702863 0 0 0 0 -3.0009092564105231 18.241028318145446 0 18.241028318145446 -49.545395866434774 0 0 0 0 362.04832080160122 186.57812193416612 0 186.57812193416612 53.127971273519506 0 0 0 0 284.85340212746087 100.64678440135685 0 100.64678440135685 141.02393181626394 0 0 0 0 226.2042282118291 181.36642973552262 0 181.36642973552262 140.63845279957604 0 0 0 0 205.31659074394702 138.98903282799074 0 138.98903282799074 66.281216913506796 0 0 0 0 331.11460413195164 302.40447852449688 0 302.40447852449688 -31.272455052716396 0 0 0 0 221.34807758952957 126.72974558272472 0 126.72974558272472 86.622015048167668 0 0 0 0 80.023268631488463 228.86417063458975 0 228.86417063458975 80.572643902072741 0 0 0 0 329.28390275285983 280.18687297694123 0 280.18687297694123 234.53802628652556 0 0 0 0 426.53490540163239 63.835692465534521 0 63.835692465534521 241.19105849847256 0 0 0 0 375.72133829486484 285.28890264033907 0 285.28890264033907 69.421133019156059 0 0 0 0 39.363167690768023 -339.03413043182627 0 -339.03413043182627 -282.35087680902961 0 0 0 0 645.41210397552641 -172.09583626613676 0 -172.09583626613676 -557.89555329039649 0 0 0 0 638.62194193498726 97.89014121751643 0 97.89014121751643 53.255727897467295 0 0 0 0 -46.591347430517999 15.541044508667255 0 15.541044508667255 -47.126626792149182 0 0 0 0 1.8628690500818479 -0.42112323434389243 0 -0.42112323434389243 -7.5618569122288903 0 0 0 0 662.85538944695145 245.67851033784586 0 245.67851033784586 39.286173697546474 0 0 0 0 517.22718831776001 224.71003996900981 0 224.71003996900981 112.00021951174222 0 0 0 0 525.0891395982726 259.76650941611479 0 259.76650941611479 112.87933137879008 0 0 0 0 440.7818144739249 198.75928839190783 0 198.75928839190783 110.38967112202226 0 0 0 0 296.7733069342903 186.49792173476453 0 186.49792173476453 147.11578299354005 0 0 0 0 486.74516285456048 160.40179879110565 0 160.40179879110565 74.5084620698035 0 0 0 0 455.27805934824232 139.33339802337878 0 139.33339802337878 75.150310967146652 0 0 0 0 451.53370754990465 178.3839959854522 0 178.3839959854522 100.48304812698916 0 0 0 0 313.14533360884889 182.1972498254363 0 182.1972498254363 120.80431647005753 0 0 0 0 164.25251109509372 163.70378926798639 0 163.70378926798639 163.62709185035055 0 0 0 0 296.85762329668069 131.84116393934892 0 131.84116393934892 87.372520568587788 0 0 0 0 296.2681966903765 189.21474585060787 0 189.21474585060787 145.24825645779856 0 0 0 0 162.55177808035296 186.95789436796622 0 186.95789436796622 203.62047320808779 0 0 0 0 270.36650684558475 225.87711141550824 0 225.87711141550824 202.05985100444377 0 0 0 0 144.4595819488095 244.19690596577493 0 244.19690596577493 278.70034694961032 0 0 0 0 208.59179675582163 200.02576082869746 0 200.02576082869746 225.42228885627264 0 0 0 0 254.50792358925537 258.8852482074908 0 258.8852482074908 264.44307310673321 0 0 0 0 379.40728877689253 279.29997393325175 0 279.29997393325175 240.77959998344886 0 0 0 0 317.54251565848972 218.75305834542996 0 218.75305834542996 209.25979923715204 0 0 0 0 415.20968125873333 211.81766187242101 0 211.81766187242101 144.85310263762949 0 0 0 0 270.37204172964618 225.03888380935615 0 225.03888380935615 214.06194400438835 0 0 0 0 591.20435764002036 281.62931582114697 0 281.62931582114697 125.94944228063105 0 0 0 0 427.48337175038932 257.89429351049876 0 257.89429351049876 164.88781659983943 0 0 0 0 500.63524226853042 268.83049501425194 0 268.83049501425194 163.04901301464633 0 0 0 0 590.28850867938854 265.21908472124051 0 265.21908472124051 114.90866648493102 0 0 0 0 501.25984494790828 277.31223106437392 0 277.31223106437392 158.2328749892331 0 0 0 0 562.69144182121454 299.15801605550587 0 299.15801605550587 162.90983401164704 0 0 0 0 620.54288335712226 275.74528166314485 0 275.74528166314485 106.65478038499714 0 0 0 0 591.23524313023881 332.02087553302408 0 332.02087553302408 190.50626673879742 0 0 0 0 388.05478730933828 257.15321254174705 0 257.15321254174705 207.27985971347516 0 0 0 0 472.11498177320391 310.56104128517109 0 310.56104128517109 236.01286558075662 0 0 0 0 468.8699330409363 303.61948293119349 0 303.61948293119349 233.98579810386582 0 0 0 0 359.59123137670394 272.73241599328685 0 272.73241599328685 272.18151887235217 0 0 0 0 427.79752769482184 317.93355810014691 0 317.93355810014691 299.98536640836392 0 0 0 0 429.78254723776445 311.78932480684853 0 311.78932480684853 309.4545275104465 0 0 0 0 425.32842747275208 329.89730185791268 0 329.89730185791268 370.02793720331829 0 0 0 0 374.96260183905179 271.49624267948093 0 271.49624267948093 305.16041304530518 0 0 0 0 598.696211742179 334.62903799521155 0 334.62903799521155 188.92332688057286 0 0 0 0 644.33290763582045 390.76505851661204 0 390.76505851661204 257.8668552935851 0 0 0 0 519.84738639595162 326.65893596196111 0 326.65893596196111 240.29769857204883 0 0 0 0 524.52417073395918 348.07246224119444 0 348.07246224119444 271.94829120072245 0 0 0 0 487.06987232872052 342.2683675535518 0 342.2683675535518 357.26202261159779 0 0 0 0 485.2674864839355 324.84137259091949 0 324.84137259091949 311.8011020546619 0 0 0 0 588.19993794625771 382.04981293813034 0 382.04981293813034 289.02578702989558 0 0 0 0 553.8981478088408 378.35871591816067 0 378.35871591816067 393.56908431180636 0 0 0 0 594.06665745883583 360.26947267678588 0 360.26947267678588 282.52456125782919 0 0 0 0 699.550937568667 422.17437022043305 0 422.17437022043305 318.69385428020178 0 0 0 0 514.91307346175017 322.32346696961758 0 322.32346696961758 390.84306815348828 0 0 0 0 530.41763950594941 383.74322288013354 0 383.74322288013354 496.08499940206821 0 0 0 0 550.79490534078468 388.10979324808341 0 388.10979324808341 388.17367451410973 0 0 0 0 437.28911192542478 317.81203474503525 0 317.81203474503525 473.65742106718244 0 0 0 0 437.44170628798247 288.72145651863229 0 288.72145651863229 365.8499770557828 0 0 0 0 451.80437520024861 262.02715456712758 0 262.02715456712758 407.87500926751818 0 0 0 0 464.39545521335822 318.74558001089827 0 318.74558001089827 542.91769721661694 0 0 0 0 319.16277459504636 274.62858330237941 0 274.62858330237941 367.11612448043888 0 0 0 0 343.15254483516765 252.60743819757499 0 252.60743819757499 329.06005482743785 0 0 0 0 391.78280505647126 271.35805884231377 0 271.35805884231377 373.05784670004368 0 0 0 0 366.70629412672133 272.30732372093553 0 272.30732372093553 438.54699163312034 0 0 0 0 361.064322434715 244.8963918171321 0 244.8963918171321 352.68728999764426 0 0 0 0 349.88987210520645 279.88334812676112 0 279.88334812676112 408.32929461741151 0 0 0 0 283.14184481752454 231.38594545880551 0 231.38594545880551 330.15989601269393 0 0 0 0 286.91356931266273 250.3423611764847 0 250.3423611764847 383.61220028916432 0 0 0 0 314.76799330898211 251.28674166483688 0 251.28674166483688 305.35928443517332 0 0 0 0 262.6418164015995 256.18820395438161 0 256.18820395438161 370.98699206954916 0 0 0 0 257.68989302724367 237.07264416144517 0 237.07264416144517 310.93472567517892 0 0 0 0 205.60567830028594 233.00682192940076 0 233.00682192940076 358.80046710107126 0 0 0 0 205.59331628273503 231.82754486094927 0 231.82754486094927 318.27107601040916 0 0 0 0 155.01616975286197 215.55610453273221 0 215.55610453273221 301.3942594495893 0 0 0 0 165.34455350530698 239.33003399184963 0 239.33003399184963 340.82200854022449 0 0 0 0 226.77016205223117 227.67116311196514 0 227.67116311196514 288.1810652253771 0 0 0 0 186.97695137595565 217.34348259761373 0 217.34348259761373 263.63481365349435 0 0 0 0 260.28887825043057 227.31246530749559 0 227.31246530749559 262.18864505179636 0 0 0 0 197.94436016939471 250.05651946971102 0 250.05651946971102 312.70501377045002 0 0 0 0 285.33519248178709 272.58644101158279 0 272.58644101158279 301.30356955890602 0 0 0 0 356.2677086272306 253.21670822280066 0 253.21670822280066 240.84269682177438 0 0 0 0 279.38287862485959 237.56367118899288 0 237.56367118899288 307.75680888762145 0 0 0 0 235.68538062714651 251.680187428723 0 251.680187428723 337.50914608546009 0 0 0 0 -21.286693124540761 35.939140619840146 0 35.939140619840146 -68.593534635399919 0 0 0 0 -24.246918464079499 41.799314081879402 0 41.799314081879402 -51.886057668684174 0 0 0 0 1.8639659689610619 21.107729955278419 0 21.107729955278419 -37.223550339535826 0 0 0 0 613.67586357057371 225.81238981347815 0 225.81238981347815 108.12807609396987 0 0 0 0 74.223280048486231 -2.7813282645629442 0 -2.7813282645629442 -39.427968458207943 0 0 0 0 8.7154215378106876 -0.044539768674335178 0 -0.044539768674335178 -18.655090443497286 0 0 0 0 706.1824820608972 373.90922117639002 0 373.90922117639002 245.91729718989518 0 0 0 0 702.76147437930194 355.02489206274913 0 355.02489206274913 183.03789743162633 0 0 0 0 944.47384110071653 223.30945798737594 0 223.30945798737594 -176.12828832597006 0 0 0 0 -0.68713451883392906 4.1509381480284731 0 4.1509381480284731 -5.9642130182462498 0 0 0 0 509.3918355723581 597.44010028430785 0 597.44010028430785 576.35278017169912 0 0 0 0 1071.8467280545083 626.40671251878666 0 626.40671251878666 158.78854012330703 0 0 0 0 1031.9607508771878 487.26629267375392 0 487.26629267375392 322.88927927822806 0 0 0 0 725.73726670521137 341.62545878616947 0 341.62545878616947 266.42978144808876 0 0 0 0 666.24469840322854 433.38174863186578 0 433.38174863186578 419.88478604170086 0 0 0 0 670.89125317345679 435.81177376869528 0 435.81177376869528 363.29974138003308 0 0 0 0 546.71257016935124 335.74281287653866 0 335.74281287653866 462.13463119526568 0 0 0 0 603.82825482299086 446.34871869980634 0 446.34871869980634 631.97477955702925 0 0 0 0 739.03012337774271 754.91177118241285 0 754.91177118241285 1147.5129323021683 0 0 0 0 617.0507920155942 460.1487927553826 0 460.1487927553826 556.14777546923142 0 0 0 0 813.3745294202381 633.98217088473029 0 633.98217088473029 612.9899591409594 0 0 0 0 930.46486972642504 742.75362883619994 0 742.75362883619994 309.25843705493025 0 0 0 0 935.83823330094185 404.67895350189156 0 404.67895350189156 55.036542212823406 0 0 0 0 23.88426020478073 -90.30472139120684 0 -90.30472139120684 211.51644803216186 0 0 0 0 -1.4258201185178221 6.1796794984624306 0 6.1796794984624306 1.844916852359944 0 0 0 0 1341.2947602028798 755.42790299956323 0 755.42790299956323 326.37236026028404 0 0 0 0 -293.85430163017736 -202.90479843594585 0 -202.90479843594585 440.42301779255286 0 0 0 0 -48.456817407350172 225.18323729062467 0 225.18323729062467 787.37339126704319 0 0 0 0 -262.33838776077027 79.391788609049399 0 79.391788609049399 128.88303733793146 0 0 0 0 -76.121279041224625 18.055981304729357 0 18.055981304729357 277.00451218501257 0 0 0 0 -14.499331795671544 17.032883918826165 0 17.032883918826165 20.93134724771889 0 0 0 0 68.92838228826804 63.596593255146217 0 63.596593255146217 85.004858601781962 0 0 0 0 -26.172701014271141 30.550147091143462 0 30.550147091143462 8.6878994630045128 0 0 0 0 131.21583662896228 176.34790733508635 0 176.34790733508635 225.04091062009138 0 0 0 0 149.61200514628399 266.85647244044139 0 266.85647244044139 225.8449346726411 0 0 0 0 39.789472081185522 60.304764565823461 0 60.304764565823461 196.03075318384435 0 0 0 0 94.847220963241853 292.31112467183902 0 292.31112467183902 394.26721456782252 0 0 0 0 424.14463896669986 350.65042283701769 0 350.65042283701769 241.08774168838863 0 0 0 0 558.48715692165206 208.51599236746188 0 208.51599236746188 650.51684078554536 0 0 0 0 525.23111639502167 383.90221055726215 0 383.90221055726215 411.11589965685198 0 0 0 0 555.42346535119577 327.94583620725098 0 327.94583620725098 339.14995766014545 0 0 0 0 644.48373168475155 251.65360838752895 0 251.65360838752895 382.34298804080754 0 0 0 0 532.57991963841778 262.77684083426539 0 262.77684083426539 419.25099439205951 0 0 0 0 514.76922980887321 240.23051689409476 0 240.23051689409476 631.25045569271958 0 0 0 0 423.97140257832507 271.54192019380935 0 271.54192019380935 315.4753990767731 0 0 0 0 411.70293497156308 307.18695279697386 0 307.18695279697386 247.30359445701106 0 0 0 0 390.30917714518182 312.19574828072837 0 312.19574828072837 256.84749437566643 0 0 0 0 466.30587093742361 300.34596718646389 0 300.34596718646389 247.22332577274938 0 0 0 0 400.52941705947705 326.85919991698302 0 326.85919991698302 216.70222635491518 0 0 0 0 78.204602205458286 420.3071485951059 0 420.3071485951059 258.4820263413385 0 0 0 0 259.1904995669247 362.0896990859892 0 362.0896990859892 260.83748288607239 0 0 0 0 223.52483944878622 275.89403689141182 0 275.89403689141182 132.54764057766442 0 0 0 0 235.06279807596729 234.09235043878289 0 234.09235043878289 345.11659945442079 0 0 0 0 260.75587983480727 208.80490961790747 0 208.80490961790747 354.76772872828587 0 0 0 0 191.23722482896483 214.1972458761993 0 214.1972458761993 350.98420814154179 0 0 0 0 152.95319453716002 219.43334290492203 0 219.43334290492203 353.71295043073405 0 0 0 0 193.62026801540924 199.86336243349069 0 199.86336243349069 345.15690105377871 0 0 0 0 202.61807850573678 235.2049133114233 0 235.2049133114233 345.30682082966814 0 0 0 0 156.9011637449621 205.62283694472535 0 205.62283694472535 352.65890474444313 0 0 0 0 249.72459438633814 245.37717123277616 0 245.37717123277616 348.46735862388596 0 0 0 0 226.25171435085213 209.32648074571807 0 209.32648074571807 359.46475042087695 0 0 0 0 278.38419305483694 239.59385628206655 0 239.59385628206655 351.60355159903702 0 0 0 0 330.10865380152973 259.63696035774046 0 259.63696035774046 367.46909109668923 0 0 0 0 362.01625950152447 242.68043242937347 0 242.68043242937347 352.36862806059798 0 0 0 0 306.56079785372276 211.76280440594564 0 211.76280440594564 371.12972502342927 0 0 0 0 419.01124576017173 281.07775291602957 0 281.07775291602957 409.48085543328489 0 0 0 0 380.38978126643633 211.29264877192327 0 211.29264877192327 404.47937690549088 0 0 0 0 470.57441030631526 232.46091048547351 0 232.46091048547351 334.8144776788904 0 0 0 0 463.00844381841853 216.80369570145012 0 216.80369570145012 433.70439286340843 0 0 0 0 442.82898877239859 230.68141038129761 0 230.68141038129761 299.94264227384338 0 0 0 0 394.34740337630501 255.28803767354111 0 255.28803767354111 328.01638534888843 0 0 0 0 320.81474682364933 240.36412665374519 0 240.36412665374519 328.51154954981757 0 0 0 0 366.57951507328835 207.19066624194966 0 207.19066624194966 346.36755439079661 0 0 0 0 299.72009435539076 221.92908201112368 0 221.92908201112368 328.99257894403706 0 0 0 0 364.02759528403476 278.10442504506864 0 278.10442504506864 276.01861177942919 0 0 0 0 405.321787529836 293.9958828736635 0 293.9958828736635 281.40577821609259 0 0 0 0 278.75314196140152 357.99479534227885 0 357.99479534227885 351.23955139014288 0 0 0 0 234.34727553783523 248.69386286341978 0 248.69386286341978 341.23624166391892 0 0 0 0 184.84494259120038 243.39236107358738 0 243.39236107358738 346.72501570010718 0 0 0 0 272.64606945066225 248.75594762100627 0 248.75594762100627 331.95735276900814 0 0 0 0 136.93929337740701 211.55980217942124 0 211.55980217942124 358.76233686361229 0 0 0 0 192.56514068387332 209.489587204891 0 209.489587204891 338.42860971513437 0 0 0 0 151.8981246140811 215.96969048587744 0 215.96969048587744 339.6693084950457 0 0 0 0 163.2402000606271 202.28043825383429 0 202.28043825383429 346.3665837977278 0 0 0 0 -15.704174049371431 151.56709552532266 0 151.56709552532266 432.46291916474729 0 0 0 0 117.99003025799902 235.96890414986774 0 235.96890414986774 369.58087296078156 0 0 0 0 128.04350970001724 229.42793980379975 0 229.42793980379975 357.29068905734312 0 0 0 0 29.975492801147993 -13.492293133306703 0 -13.492293133306703 194.83137353499114 0 0 0 0 2.179605040843466 2.7220101705028554 0 2.7220101705028554 3.8857998138440593 0 0 0 0 -79.754663795205488 141.02002991768313 0 141.02002991768313 705.9279637327254 0 0 0 0 372.41197008356721 454.39743722463572 0 454.39743722463572 432.49698996011102 0 0 0 0 159.31880602077399 335.01441901777707 0 335.01441901777707 368.46752789483435 0 0 0 0 365.50909430742831 328.18227966988161 0 328.18227966988161 293.01546994863929 0 0 0 0 538.62646565410068 290.95221698587193 0 290.95221698587193 301.02108069774113 0 0 0 0 323.17071023393873 383.23442319754759 0 383.23442319754759 234.26757467567404 0 0 0 0 217.14302224589301 311.48136683221946 0 311.48136683221946 337.50074239097012 0 0 0 0 95.758807724203507 466.29918923797777 0 466.29918923797777 328.55677657454362 0 0 0 0 92.839553454572524 570.71257736810958 0 570.71257736810958 275.60099920285938 0 0 0 0 160.87685175580555 680.35743690249546 0 680.35743690249546 492.29906220672001 0 0 0 0 220.31987574413324 255.49487499139468 0 255.49487499139468 639.35449475139103 0 0 0 0 85.439401237296693 215.22559378125521 0 215.22559378125521 -121.82475272075681 0 0 0 0 68.847446982790643 546.83966541544214 0 546.83966541544214 92.593561528831742 0 0 0 0 137.73478310316204 488.9199641337309 0 488.9199641337309 120.02400538251095 0 0 0 0 5.331301016456564 375.32345056332633 0 375.32345056332633 -61.648069596111782 0 0 0 0 141.7522396634713 470.22996382433075 0 470.22996382433075 -98.610479933831812 0 0 0 0 116.58348787247496 512.52205263501219 0 512.52205263501219 93.218741010987287 0 0 0 0 92.943591147997722 67.866571386497526 0 67.866571386497526 12.403389135155521 0 0 0 0 -1.4523635759642275 25.715902234334862 0 25.715902234334862 23.107473244206631 0 0 0 0 -347.48900286400567 341.53030815526836 0 341.53030815526836 -68.092534777586479 0 0 0 0 -259.00346642880868 32.796041390756727 0 32.796041390756727 5.3748713901952669 0 0 0 0 2.490139694923883 8.483294058868033 0 8.483294058868033 8.8889490222962593 0 0 0 0 382.19214925049891 463.38260070753495 0 463.38260070753495 -50.696931443242647 0 0 0 0 121.19131289232701 321.58467885297705 0 321.58467885297705 187.76058168231248 0 0 0 0 166.84846609736269 307.08029164083928 0 307.08029164083928 108.3302205836535 0 0 0 0 155.21898403437444 290.11795597494711 0 290.11795597494711 102.79092404238691 0 0 0 0 165.49165087563597 296.78862962457788 0 296.78862962457788 68.650220258621857 0 0 0 0 179.76950343026147 329.63632724877243 0 329.63632724877243 65.028224656336533 0 0 0 0 178.62988249039336 326.92651858091631 0 326.92651858091631 72.100748626516179 0 0 0 0 167.96111130073768 315.83330878019842 0 315.83330878019842 60.87709607812576 0 0 0 0 188.04989228775594 328.25547550880219 0 328.25547550880219 46.709130407565681 0 0 0 0 177.58303096351756 341.20592002640569 0 341.20592002640569 60.75128418541135 0 0 0 0 191.77698479018363 341.17836343475574 0 341.17836343475574 68.478365906450563 0 0 0 0 201.81520647838261 340.34196486161181 0 340.34196486161181 64.483991237349983 0 0 0 0 186.05722993910604 342.11107758150683 0 342.11107758150683 89.69890807912634 0 0 0 0 162.89886549184303 363.7867145417149 0 363.7867145417149 80.273458122130251 0 0 0 0 210.15879702784514 361.79211929253506 0 361.79211929253506 73.459470219742798 0 0 0 0 212.92735476224698 364.93231686214131 0 364.93231686214131 76.090355978813022 0 0 0 0 234.81628588414969 380.81540761187352 0 380.81540761187352 65.680835876532001 0 0 0 0 189.05433182662455 391.84774160584857 0 391.84774160584857 63.245691794385493 0 0 0 0 176.70170490394776 428.12485701217702 0 428.12485701217702 80.891399309293774 0 0 0 0 170.28288405972125 402.46675112662342 0 402.46675112662342 84.603305839435052 0 0 0 0 169.77630466520168 455.12131647761453 0 455.12131647761453 -31.083493059981265 0 0 0 0 170.94712657840319 440.24053964073391 0 440.24053964073391 65.203776802176435 0 0 0 0 109.84891116422114 474.65124625316821 0 474.65124625316821 131.89360037421466 0 0 0 0 106.96615689907776 463.56058377070258 0 463.56058377070258 124.48152331490564 0 0 0 0 104.79300913741736 426.29706680186973 0 426.29706680186973 223.50771462904595 0 0 0 0 172.66726989845847 384.83078678237507 0 384.83078678237507 125.15896310586686 0 0 0 0 86.975720780905249 381.44800634639978 0 381.44800634639978 125.07379412480998 0 0 0 0 39.70980723210414 374.24385601581344 0 374.24385601581344 230.57917383014296 0 0 0 0 25.111510415409157 417.95625051024808 0 417.95625051024808 307.37449631151503 0 0 0 0 13.578314309741472 426.97812458080443 0 426.97812458080443 335.79673173131778 0 0 0 0 -170.60877510345017 488.58401150414647 0 488.58401150414647 290.49552144949394 0 0 0 0 113.68922502902296 190.46605929445286 0 190.46605929445286 315.03356442469158 0 0 0 0 -104.71913454864989 297.69059311579895 0 297.69059311579895 502.85712832562422 0 0 0 0 36.506984352575046 303.71357180808127 0 303.71357180808127 184.88223687978098 0 0 0 0 139.56129767945458 209.4245982205648 0 209.4245982205648 142.08118656515035 0 0 0 0 132.29937849379121 234.91609196774925 0 234.91609196774925 166.59590033502172 0 0 0 0 202.72372480023569 134.5871946222951 0 134.5871946222951 -283.61969943449367 0 0 0 0 112.66570494199732 43.493896658771519 0 43.493896658771519 -36.202194291014166 0 0 0 0 -3.3397119165106588 2.8878357586354539 0 2.8878357586354539 -1.2019763395933509 0 0 0 0 107.54281801445632 290.79439019386882 0 290.79439019386882 -457.17169186719366 0 0 0 0 -177.27828084204157 338.94525915931627 0 338.94525915931627 -176.50801923063409 0 0 0 0 38.782828959443577 136.61874873957458 0 136.61874873957458 -192.99418558312755 0 0 0 0 23.205367044844024 176.51152726115106 0 176.51152726115106 -292.82948843263148 0 0 0 0 77.212152115733033 403.82597826723611 0 403.82597826723611 -15.155458722114417 0 0 0 0 -211.3398341623415 179.32372178948663 0 179.32372178948663 93.727187173637503 0 0 0 0 -18.757146128158638 118.56827807228365 0 118.56827807228365 7.4750497692893987 0 0 0 0 12.91721518117447 237.40216732492445 0 237.40216732492445 261.05509287934547 0 0 0 0 -35.370256392714509 27.98988324050697 0 27.98988324050697 61.299216410541703 0 0 0 0 -70.24864615851402 57.048348514246754 0 57.048348514246754 225.13250286670882 0 0 0 0 -75.87780083155485 129.27726758887957 0 129.27726758887957 -39.186025848794088 0 0 0 0 -46.551525585959098 17.288829088032799 0 17.288829088032799 51.864287150421205 0 0 0 0 -2.5457851548853796 50.394290552171242 0 50.394290552171242 -113.73519336117158 0 0 0 0 -21.01034559790677 29.335104194080465 0 29.335104194080465 12.771113526199274 0 0 0 0 -9.1895151487733528 49.347845124583955 0 49.347845124583955 -76.992485431247587 0 0 0 0 -24.428631962491636 44.382793900055731 0 44.382793900055731 -60.684123833343961 0 0 0 0 -16.790894490917054 52.552869071387107 0 52.552869071387107 -80.914402552010273 0 0 0 0 7.3410469062309858 81.563862734390568 0 81.563862734390568 -73.096923228846208 0 0 0 0 -3.1876121851046264 122.4640459820564 0 122.4640459820564 -193.01027406802677 0 0 0 0 -26.249848092691536 153.52845374313438 0 153.52845374313438 -34.00008369068928 0 0 0 0 -35.278192363322887 188.87620094671729 0 188.87620094671729 -165.73225390282823 0 0 0 0 -48.540761740010566 72.469803914931617 0 72.469803914931617 23.51727149454382 0 0 0 0 -16.975278070836083 32.450588915776386 0 32.450588915776386 -3.2367421147299309 0 0 0 0 -78.71461952017853 50.363982387320902 0 50.363982387320902 -25.524262032824481 0 0 0 0 -3.5144706745988756 -0.8219842711446006 0 -0.8219842711446006 0.88394000146919183 0 0 0 0 -71.701148427637236 86.737265995421694 0 86.737265995421694 -128.97996305859033 0 0 0 0 7.8804736197620571 -8.168092123011542 0 -8.168092123011542 -42.261845652470036 0 0 0 0 -14.390657020256185 -28.419957279598293 0 -28.419957279598293 -75.23148392758776 0 0 0 0 -21.706570571244811 -42.345649923574456 0 -42.345649923574456 -35.683492127069258 0 0 0 0 -4.1482966412284199 -8.3331928533167527 0 -8.3331928533167527 -0.13459260036079002 0 0 0 0 -72.849507079088653 116.20499004136491 0 116.20499004136491 -255.06295335416553 0 0 0 0 -63.515519183319235 68.803293387901661 0 68.803293387901661 -220.03354704902995 0 0 0 0 -20.636365947504302 4.0999366163833191 0 4.0999366163833191 -5.312683526782318 0 0 0 0 -91.099775195485563 123.90540115525755 0 123.90540115525755 -172.71689817029801 0 0 0 0 -80.753342525273183 122.41454625862934 0 122.41454625862934 -221.17192843097342 0 0 0 0 -137.84055579268897 209.10561346022678 0 209.10561346022678 -197.59889012015083 0 0 0 0 -109.80341449795014 168.50446514634132 0 168.50446514634132 -274.05811793203611 0 0 0 0 -77.123752636569407 122.43279470332618 0 122.43279470332618 -239.33649392476127 0 0 0 0 -80.864668364698446 161.96721314843126 0 161.96721314843126 -432.51776415763106 0 0 0 0 -69.546154372183082 241.62833543456782 0 241.62833543456782 -529.68955243746814 0 0 0 0 -154.37946014181648 118.16151485779073 0 118.16151485779073 -561.12145126422911 0 0 0 0 -162.8963505012689 235.7882474160906 0 235.7882474160906 -403.81176394873 0 0 0 0 -110.77739164527156 215.97642817898668 0 215.97642817898668 -403.38939407001931 0 0 0 0 -142.40777688808703 185.60019044824207 0 185.60019044824207 -196.68377276452884 0 0 0 0 -164.09549430680272 252.82880362764809 0 252.82880362764809 -221.75489927876151 0 0 0 0 -127.74600487895077 161.44916231092066 0 161.44916231092066 -166.04213701290519 0 0 0 0 47.990809768387408 147.26603791024718 0 147.26603791024718 -89.505613513334538 0 0 0 0 -137.82236637790629 202.92373197735196 0 202.92373197735196 -183.20349960424574 0 0 0 0 -133.29105626286037 220.382668519248 0 220.382668519248 -243.45451421683902 0 0 0 0 -152.21640712364388 201.5010919041888 0 201.5010919041888 -170.41421156743309 0 0 0 0 -114.08833700145624 212.52748526989672 0 212.52748526989672 -242.46396799618515 0 0 0 0 -124.41848116722394 219.52959321295839 0 219.52959321295839 -213.54726507122359 0 0 0 0 -34.646161163596481 51.858843494560887 0 51.858843494560887 9.2353228452209297 0 0 0 0 -54.719241719085403 121.92495688650979 0 121.92495688650979 -143.51366941018205 0 0 0 0 -83.039239816069312 202.99999411089357 0 202.99999411089357 -208.71430400924328 0 0 0 0 -23.501954853200004 98.642218266628333 0 98.642218266628333 -111.76907858592676 0 0 0 0 -44.528921175990014 51.252702772785874 0 51.252702772785874 15.925211940877634 0 0 0 0 -154.80025921192282 88.78720875763247 0 88.78720875763247 1.2301922633114373 0 0 0 0 -203.98183352171327 173.62178645016365 0 173.62178645016365 -82.625859593761561 0 0 0 0 -32.124292202657671 15.689420717779285 0 15.689420717779285 49.50801467790734 0 0 0 0 -13.471749661902944 15.880765769850278 0 15.880765769850278 6.2057485644571031 0 0 0 0 -28.832174777250046 43.791634471058245 0 43.791634471058245 -10.309460395931238 0 0 0 0 0.37804039700131398 75.508580085552239 0 75.508580085552239 -104.9991028908953 0 0 0 0 -94.89140334273543 75.245494439644972 0 75.245494439644972 -66.960489625911578 0 0 0 0 -33.326329594478011 38.481141231790389 0 38.481141231790389 2.9294714400311932 0 0 0 0 -19.921299641231457 44.583840820351178 0 44.583840820351178 0.23516880100850202 0 0 0 0 -14.876055185905409 51.868285406108342 0 51.868285406108342 -41.27855978321184 0 0 0 0 41.845661773189931 67.493148981669947 0 67.493148981669947 -42.748486525353655 0 0 0 0 -8.5928526357376427 12.241348590268284 0 12.241348590268284 -16.683575007269823 0 0 0 0 -6.9654595214778965 34.356213753137126 0 34.356213753137126 -53.747393022606047 0 0 0 0 -10.057187815044017 71.753669177582196 0 71.753669177582196 -96.984365701428032 0 0 0 0 -0.086295083755430824 82.297948534770967 0 82.297948534770967 -95.221655097353505 0 0 0 0 11.460085343482206 58.990488928735431 0 58.990488928735431 -61.335166187211144 0 0 0 0 -6.4835504720140307 82.522618793667789 0 82.522618793667789 -69.273480671232392 0 0 0 0 12.586843618385501 74.537823590858352 0 74.537823590858352 -27.374502719059819 0 0 0 0 -17.617099500964287 59.311456863568765 0 59.311456863568765 -20.039073817548342 0 0 0 0 -4.4745200245961314 88.385734463496192 0 88.385734463496192 24.638549966923165 0 0 0 0 14.088655836996622 86.678142951541304 0 86.678142951541304 43.205630843476683 0 0 0 0 -156.81331157766908 100.83112325808906 0 100.83112325808906 -0.44218817494402174 0 0 0 0 -18.039659879628744 74.216550305505734 0 74.216550305505734 -213.69690958314459 0 0 0 0 -20.302196592254404 76.456578791552602 0 76.456578791552602 -72.414468080038205 0 0 0 0 -129.17897724388604 -8.5045676529480261 0 -8.5045676529480261 23.998912255323376 0 0 0 0 -18.381456373709625 49.31220628997221 0 49.31220628997221 -102.40102581880637 0 0 0 0 -159.45380501657201 -106.18650467119187 0 -106.18650467119187 -37.342365125288779 0 0 0 0 -207.03362202140852 79.3935631122622 0 79.3935631122622 -97.997364797203772 0 0 0 0 -50.367528936967574 -153.33676035627286 0 -153.33676035627286 -314.20794268628015 0 0 0 0 -16.02384908852904 2.5604951992134986 0 2.5604951992134986 20.629065047317795 0 0 0 0 -5.0274513496597706 6.6593180151129872 0 6.6593180151129872 -17.913322999872261 0 0 0 0 77.794699727783154 1.6636101778713055 0 1.6636101778713055 -442.80036130713052 0 0 0 0 263.84708014488933 243.31953710017842 0 243.31953710017842 -87.989099307642391 0 0 0 0 -704.1015626418739 160.63875407590604 0 160.63875407590604 -51.311863241290666 0 0 0 0 -8.9871454793064913 -48.854764003765013 0 -48.854764003765013 -588.33216897305829 0 0 0 0 -113.79440069812517 -30.531542509679639 0 -30.531542509679639 -325.88986009030486 0 0 0 0 -173.03318132043523 151.28320181867525 0 151.28320181867525 -284.61738369661543 0 0 0 0 77.612754377712918 156.13658981848675 0 156.13658981848675 -287.5420255732497 0 0 0 0 -578.8205216174556 242.62784243759234 0 242.62784243759234 -304.5477041136437 0 0 0 0 -149.9763831905002 206.88788599198779 0 206.88788599198779 -187.7442790952955 0 0 0 0 -19.568290434672498 54.604505092360988 0 54.604505092360988 -73.610304599026875 0 0 0 0 -145.8903055588089 197.65778400040472 0 197.65778400040472 -185.53686010179649 0 0 0 0 -77.742408794572839 517.23970838103014 0 517.23970838103014 -587.27021026290822 0 0 0 0 -165.41869750678779 311.18587733223285 0 311.18587733223285 -682.21682348293689 0 0 0 0 -160.27118936692932 593.37866329742792 0 593.37866329742792 -120.85272303093006 0 0 0 0 -144.9141558286683 488.12620186893128 0 488.12620186893128 370.66375339967271 0 0 0 0 -84.687621838504128 288.08734047905409 0 288.08734047905409 -162.88908473195988 0 0 0 0 14.736210404662415 334.84614826599045 0 334.84614826599045 -248.59715303382291 0 0 0 0 33.21208306238259 261.74989674124663 0 261.74989674124663 -84.18749776063305 0 0 0 0 6.2999694392638048 389.06233845559473 0 389.06233845559473 -53.920559091819086 0 0 0 0 68.55938787125524 319.20910082033151 0 319.20910082033151 -229.2091413397211 0 0 0 0 -170.2536974294344 -15.00775795950176 0 -15.00775795950176 673.86874113560316 0 0 0 0 -174.45121151204512 710.93180828005916 0 710.93180828005916 -3591.1222571249014 0 0 0 0 26.133585176819906 213.75036954162306 0 213.75036954162306 24.531839346280321 0 0 0 0 -7.12043263715168 139.91523313970174 0 139.91523313970174 305.41311256451445 0 0 0 0 -233.55213030859886 346.90139540962264 0 346.90139540962264 598.30590613259028 0 0 0 0 -0.79159642593582191 5.3635404062077061 0 5.3635404062077061 0.17900512320332851 0 0 0 0 -50.953136409123545 87.786236499414372 0 87.786236499414372 87.667684998828918 0 0 0 0 192.70323693027603 -114.26238314080911 0 -114.26238314080911 162.53013469779944 0 0 0 0 -28.269393800917896 145.24911843640984 0 145.24911843640984 109.06754753984296 0 0 0 0 217.91910597555398 37.170033819380478 0 37.170033819380478 56.035326911268385 0 0 0 0 69.454576358097256 119.38634257884041 0 119.38634257884041 58.388119967497914 0 0 0 0 -70.065437618992291 78.978544357942155 0 78.978544357942155 50.012693295357167 0 0 0 0 -91.151710791600635 130.13064983472941 0 130.13064983472941 -40.919402117620848 0 0 0 0 29.751390386671119 170.60479946392934 0 170.60479946392934 -28.176857140046195 0 0 0 0 57.387106157839298 -16.4260830178373 0 -16.4260830178373 213.52241405654422 0 0 0 0 10.310826043278212 190.98101516616771 0 190.98101516616771 7.7980534298403654 0 0 0 0 -135.48544008771387 395.37817609495323 0 395.37817609495323 -216.72820990942273 0 0 0 0 62.66636560779807 271.43474379678491 0 271.43474379678491 -342.35387983722831 0 0 0 0 -134.92334766358181 174.67254668307214 0 174.67254668307214 -220.19144714834692 0 0 0 0 -49.788520764524947 487.58461344137959 0 487.58461344137959 -667.82086135682039 0 0 0 0 -112.03429753310775 307.62392727194856 0 307.62392727194856 -416.98285983702772 0 0 0 0 -87.598978514783084 102.20432600700587 0 102.20432600700587 -59.178156288266109 0 0 0 0 -68.581011594324082 231.20512089644399 0 231.20512089644399 -174.4733784681539 0 0 0 0 -84.127253725004266 50.362096740864217 0 50.362096740864217 57.62334756591838 0 0 0 0 -63.14442417553073 122.25280980126263 0 122.25280980126263 -46.759259487836971 0 0 0 0 -102.78649013504037 118.16200250052134 0 118.16200250052134 55.473271277202002 0 0 0 0 -37.890618527060724 57.123935598450771 0 57.123935598450771 2.0273104614589101 0 0 0 0 -32.552797091317188 234.1242654019843 0 234.1242654019843 -180.73701732041081 0 0 0 0 -55.701321336135152 123.19547865895038 0 123.19547865895038 -65.401517678572418 0 0 0 0 -121.33773111560004 145.12228896937359 0 145.12228896937359 -35.112971013943024 0 0 0 0 -0.99910082634708886 22.601088634796415 0 22.601088634796415 1.7138926640331553 0 0 0 0 -2.4240401298887946 10.919950767426755 0 10.919950767426755 0.33586131816180043 0 0 0 0 -738.78918127933866 19.780091706161329 0 19.780091706161329 2610.6278351836158 0 0 0 0 -57.674843548862555 45.554869132249223 0 45.554869132249223 81.124121389475476 0 0 0 0 -975.52115974243861 2331.2453016430527 0 2331.2453016430527 -4831.8749728461617 0 0 0 0 -4.0867749265360862 19.334119139311369 0 19.334119139311369 -2.5693324656846457 0 0 0 0 91.769321481485349 23.230451903066296 0 23.230451903066296 -3.213264286499907 0 0 0 0 -840.96156950305158 820.81078891755897 0 820.81078891755897 2552.0763061728185 0 0 0 0 -465.87080483911268 169.90328615974067 0 169.90328615974067 1710.0872181185732 0 0 0 0 -540.57007155560132 131.02354844127876 0 131.02354844127876 1720.2917431056703 0 0 0 0 -418.95479147401056 139.53515438059003 0 139.53515438059003 1235.4582709037113 0 0 0 0 -623.89339732503868 166.08464190163249 0 166.08464190163249 1967.5455435623699 0 0 0 0 -392.47751996430452 546.47971615098504 0 546.47971615098504 1748.1467824494393 0 0 0 0 -377.91140618540066 417.45632370851388 0 417.45632370851388 900.75610450844397 0 0 0 0 -323.76804873159563 1481.0530899313808 0 1481.0530899313808 1802.8626810387414 0 0 0 0 236.44949975900818 803.7322059727278 0 803.7322059727278 -3153.0842630606858 0 0 0 0 281.26958846273192 1493.855407770593 0 1493.855407770593 178.54820958549703 0 0 0 0 -50.028911202052768 119.82224157083238 0 119.82224157083238 -53.954068358012591 0 0 0 0 -180.27389957784908 -215.92571654845415 0 -215.92571654845415 -162.90881277962421 0 0 0 0 -731.51030175292544 -352.79711483586561 0 -352.79711483586561 659.23372193109753 0 0 0 0 -956.49667982208484 -94.076594041875978 0 -94.076594041875978 623.76782138520866 0 0 0 0 -6.4124480540670827 25.176779622810603 0 25.176779622810603 -32.728692489174634 0 0 0 0 -296.82283971102152 192.06690242634249 0 192.06690242634249 1083.8851834974412 0 0 0 0 -760.31772407493554 -114.41414665047523 0 -114.41414665047523 861.81983578097424 0 0 0 0 -805.0660146119917 -43.621788147742336 0 -43.621788147742336 781.86820085629734 0 0 0 0 -313.28294602205278 -31.898728352118269 0 -31.898728352118269 424.11366273658132 0 0 0 0 -552.22761715402703 108.09701663010264 0 108.09701663010264 342.11855145630398 0 0 0 0 -699.93135984920445 122.37364663917469 0 122.37364663917469 464.14871096210845 0 0 0 0 -506.74661756691057 -41.97208102044533 0 -41.97208102044533 391.07689462938652 0 0 0 0 -491.00191937836644 -72.017210619329489 0 -72.017210619329489 638.79489763189486 0 0 0 0 -492.18143442252767 81.812543481752073 0 81.812543481752073 647.49432865230301 0 0 0 0 -342.62919093172104 -55.33928206452083 0 -55.33928206452083 773.20264551509172 0 0 0 0 -337.30603439600964 145.49828683706437 0 145.49828683706437 848.21926077963963 0 0 0 0 -459.67227566517249 132.14344672121206 0 132.14344672121206 1246.049018036083 0 0 0 0 -334.98381963856809 27.741525103106142 0 27.741525103106142 691.28759694686232 0 0 0 0 -359.33507831164752 49.234074695474192 0 49.234074695474192 1280.9403917692707 0 0 0 0 -364.42764360927686 78.919787843416088 0 78.919787843416088 1270.01626842517 0 0 0 0 -109.62991038573091 -121.916127459579 0 -121.916127459579 1466.4546959035179 0 0 0 0 -93.736582559169619 -44.05415832620929 0 -44.05415832620929 1128.150960285885 0 0 0 0 3.5564890746827587 15.832315425263005 0 15.832315425263005 733.58416893364119 0 0 0 0 -206.92470705229061 37.951203953658478 0 37.951203953658478 851.8098073127112 0 0 0 0 -254.49393603950739 65.918729930202971 0 65.918729930202971 1097.6875176869726 0 0 0 0 -333.03106914511227 111.12156490509722 0 111.12156490509722 812.76112596062376 0 0 0 0 -158.27070046516019 8.0086707433438278 0 8.0086707433438278 558.59020641776806 0 0 0 0 -220.78487313822552 140.47245631409942 0 140.47245631409942 675.78571628703867 0 0 0 0 -55.694801153076696 37.518499510963011 0 37.518499510963011 447.33637360602734 0 0 0 0 -243.61995850988023 142.89196840344266 0 142.89196840344266 389.08527689457878 0 0 0 0 -354.99110702727921 109.54804811530448 0 109.54804811530448 507.10629193928435 0 0 0 0 88.333486173316487 102.07478170904415 0 102.07478170904415 578.42899167909854 0 0 0 0 -90.46318052496099 260.40552881356791 0 260.40552881356791 467.13081849013179 0 0 0 0 -111.48437108127109 144.87461935300598 0 144.87461935300598 928.27071894261462 0 0 0 0 186.11671870791179 21.434560814906945 0 21.434560814906945 944.677798088082 0 0 0 0 -27.799148643927765 1136.3017768451373 0 1136.3017768451373 -5796.7580446515803 0 0 0 0 116.08955169450201 -16.741665589118838 0 -16.741665589118838 1190.0100069385771 0 0 0 0 482.8904344811308 -143.57857142070861 0 -143.57857142070861 1127.9830020218869 0 0 0 0 726.73615215058089 -401.10351798441297 0 -401.10351798441297 1344.3210630811955 0 0 0 0 66.15264371932426 -377.03866079602994 0 -377.03866079602994 1753.320755441302 0 0 0 0 454.6747082023212 -622.70258717343859 0 -622.70258717343859 1661.6113424270661 0 0 0 0 -19.792991252121283 -174.26374896493144 0 -174.26374896493144 1440.8568671422963 0 0 0 0 -525.03369388694409 -17.341941548555042 0 -17.341941548555042 2099.9777607703145 0 0 0 0 -201.03638672514353 -525.40496224730668 0 -525.40496224730668 2242.8964361512521 0 0 0 0 -286.82728551980836 -232.25766798265067 0 -232.25766798265067 1993.469394406864 0 0 0 0 -357.60415709938388 -53.704371708854524 0 -53.704371708854524 1613.8180728719199 0 0 0 0 -372.06035480742867 30.905207512225388 0 30.905207512225388 1581.8412550654903 0 0 0 0 -543.37024025281426 96.864924460256589 0 96.864924460256589 1978.6131565562937 0 0 0 0 -64.7548167115674 45.529213340125352 0 45.529213340125352 1177.1401210185845 0 0 0 0 111.49311621692323 206.07084897410095 0 206.07084897410095 1083.5539234944627 0 0 0 0 -2.2246149531193993 30.366871559328473 0 30.366871559328473 6.1508516842974092 0 0 0 0 -293.53173264522047 1066.8328725262472 0 1066.8328725262472 -3225.89814570821 0 0 0 0 -51.479578594568011 145.09197379983198 0 145.09197379983198 1061.3764035101058 0 0 0 0 34.817787052423228 222.09769053117998 0 222.09769053117998 1061.9423544982512 0 0 0 0 494.68478094859165 68.967738692354942 0 68.967738692354942 1063.3041386507975 0 0 0 0 -31.398971172908205 261.92270210361039 0 261.92270210361039 791.85163634727417 0 0 0 0 253.8009033658891 194.07811827334535 0 194.07811827334535 795.96843247072684 0 0 0 0 76.929136390008352 268.91481461966168 0 268.91481461966168 444.88501564882972 0 0 0 0 63.405223897110773 263.29569387247466 0 263.29569387247466 754.59729785673699 0 0 0 0 -42.142666877287411 268.39070343424919 0 268.39070343424919 757.11801434673544 0 0 0 0 4.8346986630713218 164.648469246682 0 164.648469246682 716.54908288699335 0 0 0 0 32.173864302581933 248.86295772927224 0 248.86295772927224 382.07257156728338 0 0 0 0 21.407967161392662 357.72455308512963 0 357.72455308512963 486.80420627708918 0 0 0 0 -50.750334320815455 349.90488183128855 0 349.90488183128855 385.43197855741164 0 0 0 0 -29.299781288937083 235.89485922835865 0 235.89485922835865 485.20666008342414 0 0 0 0 -21.487770247721528 274.26757997013328 0 274.26757997013328 530.97267718260628 0 0 0 0 38.636028840508516 111.85393391822799 0 111.85393391822799 586.19111992774742 0 0 0 0 29.429312394891895 16.748720218747849 0 16.748720218747849 773.45595182407851 0 0 0 0 -27.483567156941717 180.41177200632228 0 180.41177200632228 730.66904880657239 0 0 0 0 -42.477261463616742 99.599740704790747 0 99.599740704790747 923.24329216958722 0 0 0 0 -7.7324078172896407 -60.383698374898813 0 -60.383698374898813 962.6100737169977 0 0 0 0 -4.8505617271121082 305.68402981589463 0 305.68402981589463 28.246587771125633 0 0 0 0 51.084055096162047 131.86477251371161 0 131.86477251371161 -158.59650483286987 0 0 0 0 49.189130667044083 271.2821922135181 0 271.2821922135181 45.038343499715666 0 0 0 0 -56.925929752986121 364.23457487339965 0 364.23457487339965 315.89962067086572 0 0 0 0 -142.26268349447491 394.631647820539 0 394.631647820539 70.310253728275711 0 0 0 0 34.917349112605734 302.64173247405233 0 302.64173247405233 113.09771522032315 0 0 0 0 -101.90898816865229 261.98171582802843 0 261.98171582802843 445.47845851597225 0 0 0 0 -35.489562532286072 278.14275906381181 0 278.14275906381181 135.25372044101459 0 0 0 0 -184.49308938745162 168.72743171089428 0 168.72743171089428 123.43799620594837 0 0 0 0 23.692930494687971 235.04049222443575 0 235.04049222443575 -164.21845989392023 0 0 0 0 -97.932709951630386 306.09213625680877 0 306.09213625680877 -204.01780578494709 0 0 0 0 -416.4161725842132 442.49623289072679 0 442.49623289072679 -486.50420892097281 0 0 0 0 -93.668956958052149 294.64862267725528 0 294.64862267725528 -421.07400786059588 0 0 0 0 -490.93537708764779 311.89243916980922 0 311.89243916980922 -346.11407206350873 0 0 0 0 -651.51557598849467 460.64908377714892 0 460.64908377714892 -324.67965759207868 0 0 0 0 -2576.9651201586821 200.68030629442001 0 200.68030629442001 244.95880411253938 0 0 0 0 -817.59291072689666 -244.34915224071301 0 -244.34915224071301 274.39484543918854 0 0 0 0 -789.8284294779296 -251.89514181605773 0 -251.89514181605773 56.248302100248111 0 0 0 0 -1046.5590389967438 31.278131113778727 0 31.278131113778727 67.963663123784499 0 0 0 0 -480.64722473080474 2.0391560916559683 0 2.0391560916559683 61.734695064520338 0 0 0 0 -502.81428763865551 245.47577228824684 0 245.47577228824684 -63.997781226429652 0 0 0 0 -461.17233216577188 -23.993835599879731 0 -23.993835599879731 96.534106596907804 0 0 0 0 -294.07313260326919 310.57664623130495 0 310.57664623130495 -59.872578629843304 0 0 0 0 -192.62764471603441 120.63411823545357 0 120.63411823545357 386.59587651778384 0 0 0 0 -116.11767055744713 63.269849880617585 0 63.269849880617585 141.29856178642876 0 0 0 0 -307.15654433025338 91.5685252781077 0 91.5685252781077 166.40520811643728 0 0 0 0 -212.00890803468792 -6.3331817634518757 0 -6.3331817634518757 270.94060418144727 0 0 0 0 -324.15447247608972 86.250716852233381 0 86.250716852233381 196.1004092985313 0 0 0 0 -325.54343250678448 -137.13444338366082 0 -137.13444338366082 -10.866730270859989 0 0 0 0 -333.50995344554394 -160.87412741456319 0 -160.87412741456319 53.856400277032662 0 0 0 0 -575.07760397425045 -276.3101024518819 0 -276.3101024518819 2.0453659620070539 0 0 0 0 -361.32571838118383 -243.94341532538556 0 -243.94341532538556 -173.75760247316066 0 0 0 0 -344.23064692668049 -213.67424955317983 0 -213.67424955317983 -450.78933766733098 0 0 0 0 -452.0530563264474 195.05160339245776 0 195.05160339245776 -123.19637521345453 0 0 0 0 -608.68705052116275 49.806134651809771 0 49.806134651809771 309.13910659572139 0 0 0 0 -314.78924032516079 -26.879503270474743 0 -26.879503270474743 165.5608408658336 0 0 0 0 -731.90001873839356 301.10122657405827 0 301.10122657405827 -176.42178109193628 0 0 0 0 -374.91685916551978 -997.56159750245661 0 -997.56159750245661 -80.831855638125489 0 0 0 0 30.277693914391421 210.18457361148876 0 210.18457361148876 -137.96122735831887 0 0 0 0 -69.105906353841419 -446.90575462744528 0 -446.90575462744528 -253.16575619183186 0 0 0 0 -8.6361254409073567 26.384460095505116 0 26.384460095505116 -44.820439958815662 0 0 0 0 -1787.4457355877894 -1187.3554852465022 0 -1187.3554852465022 562.84539258915902 0 0 0 0 -1224.1998431270113 1036.7866366897651 0 1036.7866366897651 -795.76741252338252 0 0 0 0 -554.17893800972342 359.42970010297131 0 359.42970010297131 -571.21836718301347 0 0 0 0 -8.2639867319382141 26.085038659743155 0 26.085038659743155 -41.862669025257134 0 0 0 0 176.28948544052037 -63.739138223230839 0 -63.739138223230839 -69.112382414583408 0 0 0 0 366.39849456794673 250.20305859212294 0 250.20305859212294 -204.68701273889019 0 0 0 0 -295.92404202110811 -204.085360765117 0 -204.085360765117 185.38467730080083 0 0 0 0 -2393.2113803745524 1653.957643058533 0 1653.957643058533 -896.95319782465231 0 0 0 0 -115.94364549052352 460.04347877813325 0 460.04347877813325 -99.942348857854086 0 0 0 0 160.05498475124386 249.19401613947139 0 249.19401613947139 -226.53562636647257 0 0 0 0 121.29890668563803 174.24287691931568 0 174.24287691931568 145.62877040515741 0 0 0 0 -388.22984930334036 328.04862102221688 0 328.04862102221688 218.17666115844258 0 0 0 0 -1420.3662885607191 -49.993646959093894 0 -49.993646959093894 180.13439003582607 0 0 0 0 -1094.3790678334335 -229.50337326849694 0 -229.50337326849694 224.91117901117832 0 0 0 0 -998.87994574127424 -719.90695784649461 0 -719.90695784649461 -27.733606656482152 0 0 0 0 -828.82344197452039 -31.156923138223647 0 -31.156923138223647 81.947216724387545 0 0 0 0 -406.1878319705138 -404.31480521420417 0 -404.31480521420417 -138.77083199099434 0 0 0 0 144.7289814031792 -245.44021620548665 0 -245.44021620548665 -581.22814955457216 0 0 0 0 169.34844098901522 -256.95070402292004 0 -256.95070402292004 -596.28118363052999 0 0 0 0 174.75615166986972 -273.28360802616771 0 -273.28360802616771 -558.24053955553973 0 0 0 0 155.98146055886173 -279.4738784514775 0 -279.4738784514775 -483.5705543904478 0 0 0 0 -2144.5889623412731 -107.20840476974627 0 -107.20840476974627 -23.632096284105501 0 0 0 0 121.99533580765547 119.04592190753181 0 119.04592190753181 -996.72501939701397 0 0 0 0 -5.5809977316324932 10.240428957701393 0 10.240428957701393 -5.8231652507019369 0 0 0 0 -1478.6335952079098 -785.37315582759402 0 -785.37315582759402 -24.831956000667788 0 0 0 0 2.7758576883517065 1.985924759118574 0 1.985924759118574 -0.87095883332696289 0 0 0 0 -1735.9107514188145 -486.56955311357524 0 -486.56955311357524 131.66513227729411 0 0 0 0 -1301.4418732262093 1208.8280747328472 0 1208.8280747328472 -1159.4129744182392 0 0 0 0 23.828231143146695 401.4747419296782 0 401.4747419296782 -1378.9645854682822 0 0 0 0 -185.63339142778932 125.15459833741306 0 125.15459833741306 -777.24014963289301 0 0 0 0 -121.5354290952564 -209.5559736813384 0 -209.5559736813384 -239.42786782902658 0 0 0 0 66.776948516224365 124.98654621311425 0 124.98654621311425 -384.24861095013421 0 0 0 0 -63.766861117454027 92.568506930651665 0 92.568506930651665 -246.20491543269327 0 0 0 0 -60.066629639190069 -277.06890266096934 0 -277.06890266096934 -259.98778761312133 0 0 0 0 8.8459007598572441 7.1940632207102979 0 7.1940632207102979 -6.1598810796852508 0 0 0 0 -22.334090600059426 -13.055609083580748 0 -13.055609083580748 -811.42347894722798 0 0 0 0 -28.337306357598777 28.644563269652163 0 28.644563269652163 -24.223608784413514 0 0 0 0 -114.92654010341357 124.03360501452335 0 124.03360501452335 144.2993028267083 0 0 0 0 23.847154771516216 72.209021281531022 0 72.209021281531022 -58.016284994155967 0 0 0 0 -13.554735170026078 5.2127832556254852 0 5.2127832556254852 15.836563427667315 0 0 0 0 8.8351443436094996 23.300063288845422 0 23.300063288845422 -67.445721539097576 0 0 0 0 62.124215970172372 153.36437872696933 0 153.36437872696933 -181.0370548360238 0 0 0 0 59.682298727826833 132.73024421222061 0 132.73024421222061 -48.016714222914743 0 0 0 0 138.53122679940134 222.33932311015451 0 222.33932311015451 23.273796779529221 0 0 0 0 59.57487565574047 136.17190473826486 0 136.17190473826486 158.72228045690827 0 0 0 0 77.830856789518293 238.26457762521386 0 238.26457762521386 283.19789673632113 0 0 0 0 -7.70742470192166 5.2772886700393755 0 5.2772886700393755 -1.7619381949754427 0 0 0 0 -196.339316545771 415.37879344224802 0 415.37879344224802 418.18831164297808 0 0 0 0 -4.6114134819503292 2.0924688180946411 0 2.0924688180946411 -0.37053757349918826 0 0 0 0 -141.15230234360206 -224.39349371030585 0 -224.39349371030585 288.83853795025789 0 0 0 0 -295.85316262739616 140.71681799403996 0 140.71681799403996 581.34347744768547 0 0 0 0 -186.51328020006258 153.44304874519366 0 153.44304874519366 136.87149325465725 0 0 0 0 -153.90445607418224 82.143343522544455 0 82.143343522544455 212.38062743746923 0 0 0 0 -137.65871009734838 -13.341654102270695 0 -13.341654102270695 196.88302578390721 0 0 0 0 388.31117372544395 54.230466283643182 0 54.230466283643182 -187.59557811641571 0 0 0 0 -202.47192944211383 -67.678415942616994 0 -67.678415942616994 92.961363728773904 0 0 0 0 -18.823412879712123 59.776441047586559 0 59.776441047586559 118.34425341377209 0 0 0 0 -18.018799765577569 48.749859341096453 0 48.749859341096453 48.139232118799555 0 0 0 0 -179.7502718382093 142.33254631275031 0 142.33254631275031 116.65770967023127 0 0 0 0 -64.561286070442293 83.306947951743496 0 83.306947951743496 146.86298379131767 0 0 0 0 124.46185486784816 49.762404124514433 0 49.762404124514433 -3.0792730811954243 0 0 0 0 87.242200202093954 124.937348964173 0 124.937348964173 14.317152257226553 0 0 0 0 220.99390922960811 -47.429066901786427 0 -47.429066901786427 83.400894488023368 0 0 0 0 1.7192597335478488 5.1310932048562954 0 5.1310932048562954 -8.5513891303368581 0 0 0 0 304.60044725094485 177.37744046217631 0 177.37744046217631 -142.57704687465593 0 0 0 0 365.92464873182325 131.26948332170286 0 131.26948332170286 -270.22566402319353 0 0 0 0 298.8530183252351 134.11514928919041 0 134.11514928919041 -363.02270733781188 0 0 0 0 -121.86518282182078 323.35283123956469 0 323.35283123956469 -169.44982641029856 0 0 0 0 -312.56407449148537 149.22121999876254 0 149.22121999876254 106.99563116305035 0 0 0 0 261.54777513386557 263.59277989490352 0 263.59277989490352 33.935007384628989 0 0 0 0 -308.48440052312799 -17.649509871749615 0 -17.649509871749615 -102.24186683570588 0 0 0 0 249.81819188993654 -7.0052927612157418 0 -7.0052927612157418 95.968125527346274 0 0 0 0 -52.735722237972368 296.81387834534144 0 296.81387834534144 -274.46741942096014 0 0 0 0 -388.06086794532666 237.52932187545139 0 237.52932187545139 108.41596103995107 0 0 0 0 -247.70141546836385 219.04371872184129 0 219.04371872184129 76.266347692737327 0 0 0 0 -172.16040649911611 213.34625558965399 0 213.34625558965399 69.932088483059488 0 0 0 0 -183.95739694792792 247.56254625840029 0 247.56254625840029 16.33676089727669 0 0 0 0 -235.18531503933627 168.09417792414752 0 168.09417792414752 41.404743675069767 0 0 0 0 -231.92872032529704 153.61648893891834 0 153.61648893891834 89.984516730979522 0 0 0 0 -121.47940504307553 153.55919478196665 0 153.55919478196665 23.764689210227516 0 0 0 0 -87.516120741918712 249.59271853893824 0 249.59271853893824 15.014872420288157 0 0 0 0 0.71041321791271006 3.3640685230454537 0 3.3640685230454537 -2.5554163317230802 0 0 0 0 0.45025187048944254 2.4307966582491822 0 2.4307966582491822 1.1937381670908138 0 0 0 0 1119.2137083390662 60.387676869102506 0 60.387676869102506 97.241022734976923 0 0 0 0 -604.53600383208868 150.53899330046988 0 150.53899330046988 239.68132795240672 0 0 0 0 -296.08413771715823 97.129094560114936 0 97.129094560114936 87.034207994292956 0 0 0 0 1002.8291577337568 309.37781193074989 0 309.37781193074989 -103.1905983453471 0 0 0 0 297.27532920991871 46.363109625179277 0 46.363109625179277 53.769017236685613 0 0 0 0 -8.6986125988199205 241.80597148713957 0 241.80597148713957 25.509120514827373 0 0 0 0 -6.6027694327822246 147.07896367259673 0 147.07896367259673 -30.187061801851087 0 0 0 0 -165.69525616399187 18.466875930815149 0 18.466875930815149 7.864115947704704 0 0 0 0 -138.21171787049025 154.17627570616241 0 154.17627570616241 29.563907189494785 0 0 0 0 72.909093243710231 203.37306031959088 0 203.37306031959088 9.5347899282314756 0 0 0 0 32.625438665028923 52.694469427886361 0 52.694469427886361 -39.430243783230253 0 0 0 0 97.414684470542852 314.91318495519226 0 314.91318495519226 20.125268499145022 0 0 0 0 79.200881163069425 224.78594989321937 0 224.78594989321937 12.336720093797339 0 0 0 0 116.66643328415921 295.05784173066422 0 295.05784173066422 40.370543198088853 0 0 0 0 125.20905647219843 280.01430745566904 0 280.01430745566904 -5.8906367820454761 0 0 0 0 23.754944401187572 307.30461544450475 0 307.30461544450475 -2.3979911939131853 0 0 0 0 -0.43449307789705927 314.32806873523805 0 314.32806873523805 -94.492121666577987 0 0 0 0 16.687084639266686 217.61178667381319 0 217.61178667381319 -11.911524685572658 0 0 0 0 101.09386586276196 234.4107533770748 0 234.4107533770748 -39.388512954494217 0 0 0 0 115.18561513521126 273.14807865098373 0 273.14807865098373 45.596069247772903 0 0 0 0 148.3823270731109 265.70106152052176 0 265.70106152052176 18.574466106703767 0 0 0 0 143.44378611536013 319.80353767858105 0 319.80353767858105 25.790049537353752 0 0 0 0 171.39636324888488 311.96036830739831 0 311.96036830739831 21.550301588344155 0 0 0 0 113.4255078591541 288.46827348521037 0 288.46827348521037 30.213720039791951 0 0 0 0 158.99630214107674 307.84779347175572 0 307.84779347175572 14.54156036407403 0 0 0 0 151.13878489755007 326.80529833594846 0 326.80529833594846 49.026441488051205 0 0 0 0 170.94161384616018 325.7678724176003 0 325.7678724176003 44.149884783557354 0 0 0 0 174.92751789464637 342.41217354734727 0 342.41217354734727 53.373479626148765 0 0 0 0 154.5947144025904 328.50110947726353 0 328.50110947726353 67.41701642391854 0 0 0 0 177.96228865641751 323.00993108807097 0 323.00993108807097 67.474180847129901 0 0 0 0 187.26392544848022 346.24023144316834 0 346.24023144316834 68.395602521042747 0 0 0 0 179.13006424100968 334.68419412022922 0 334.68419412022922 62.029487182400771 0 0 0 0 193.62074036753984 330.06053773333588 0 330.06053773333588 70.646756534919405 0 0 0 0 195.28581516045824 325.04170468028587 0 325.04170468028587 77.642802044385462 0 0 0 0 259.84756016782922 263.95447594130746 0 263.95447594130746 87.37073635751949 0 0 0 0 185.50249017033866 278.52438443313997 0 278.52438443313997 104.6684238969392 0 0 0 0 147.2927152521861 309.96214265894196 0 309.96214265894196 82.536031758263562 0 0 0 0 177.77756442985992 308.11399626316779 0 308.11399626316779 36.339445871057251 0 0 0 0 42.768678425076359 223.23230020878327 0 223.23230020878327 32.900265243428294 0 0 0 0 209.03733557682426 240.15881346539936 0 240.15881346539936 27.557207778058455 0 0 0 0 146.87401666279038 157.38284408707932 0 157.38284408707932 22.269858050811308 0 0 0 0 170.44107001691373 145.06266054489606 0 145.06266054489606 10.170353373265243 0 0 0 0 -77.543411534068582 68.77811199423013 0 68.77811199423013 145.01761286188594 0 0 0 0 0.12164046775495141 3.9630240490730095 0 3.9630240490730095 2.9256339200350538 0 0 0 0 644.15562090761887 198.00621718402726 0 198.00621718402726 23.832496988045023 0 0 0 0 326.94595078060047 353.78798573772838 0 353.78798573772838 151.22486574445429 0 0 0 0 184.86707363836649 258.79296094325036 0 258.79296094325036 211.58985218411544 0 0 0 0 -409.35170903669348 194.70120695290601 0 194.70120695290601 164.57891103705333 0 0 0 0 0.13015653741713662 1.8467513120846135 0 1.8467513120846135 1.7379471412808272 0 0 0 0 263.27915029641736 156.0060218294966 0 156.0060218294966 81.637311414797296 0 0 0 0 12.239167417867975 351.2096263237936 0 351.2096263237936 180.66069870184219 0 0 0 0 254.32395603911755 237.3068031495568 0 237.3068031495568 102.53929679331031 0 0 0 0 246.50797298696943 220.04349618377819 0 220.04349618377819 66.518027060978056 0 0 0 0 280.5914816081895 229.23286741975426 0 229.23286741975426 -5.4143775265984004 0 0 0 0 256.17584686028567 217.27586213354698 0 217.27586213354698 50.88815861411058 0 0 0 0 229.23849053510276 291.30668610519751 0 291.30668610519751 64.812580189713117 0 0 0 0 246.84721392531355 287.91215450954405 0 287.91215450954405 32.396207810743363 0 0 0 0 226.96088414769474 305.00326073521319 0 305.00326073521319 21.605440443992848 0 0 0 0 213.90598288949786 279.44625411343259 0 279.44625411343259 103.87584903702009 0 0 0 0 -143.64782625049352 281.04988911333533 0 281.04988911333533 143.67434772532215 0 0 0 0 -41.28854995200065 36.774134484152967 0 36.774134484152967 -33.301212828876587 0 0 0 0 -52.904808668703481 72.476689473169699 0 72.476689473169699 24.17003902235183 0 0 0 0 -6.586770912889925 5.8681992992024288 0 5.8681992992024288 3.1529816170614851 0 0 0 0 -124.15394259621019 -199.42543429559197 0 -199.42543429559197 17.390248773946951 0 0 0 0 -27.42237673920863 -223.27202141819453 0 -223.27202141819453 151.4177276586488 0 0 0 0 -488.72963006834107 -95.194877527788776 0 -95.194877527788776 512.80958114064197 0 0 0 0 503.20053737036324 801.01646640257241 0 801.01646640257241 -110.5848726000404 0 0 0 0 -704.46607304938516 410.69846564203908 0 410.69846564203908 -183.54186316080268 0 0 0 0 -3.200970752389944 6.0799761358107887 0 6.0799761358107887 -5.3162338328240821 0 0 0 0 -2156.8118615102139 -542.39561283955845 0 -542.39561283955845 107.05008486121142 0 0 0 0 -1978.5273230279618 105.66967556952341 0 105.66967556952341 626.3478847309525 0 0 0 0 -1131.4527175733565 196.90538273348648 0 196.90538273348648 617.44005877284508 0 0 0 0 -1096.3695727990962 -266.60932876171137 0 -266.60932876171137 281.81310357925213 0 0 0 0 191.1395119806557 277.39631645696318 0 277.39631645696318 40.921527843940567 0 0 0 0 560.8466422066449 91.053991807108105 0 91.053991807108105 -34.406576305389535 0 0 0 0 -7.0317309454104375 17.77294002344523 0 17.77294002344523 -21.237987853472475 0 0 0 0 115.48256215676702 -59.226401605454157 0 -59.226401605454157 11.976310843259171 0 0 0 0 758.2143472612388 323.93204934571804 0 323.93204934571804 -149.10286114202245 0 0 0 0 62.728842135137711 414.53591546324787 0 414.53591546324787 -127.31908734528406 0 0 0 0 -447.93672471259015 392.97765935074312 0 392.97765935074312 119.9603135800844 0 0 0 0 -549.62136073833244 -23.197379659022772 0 -23.197379659022772 -24.948029285844314 0 0 0 0 -84.208454267140951 218.15876234524922 0 218.15876234524922 -37.472416409524158 0 0 0 0 -62.007033683245027 66.094071995861668 0 66.094071995861668 -481.51560204458201 0 0 0 0 -866.91295136398548 674.78294759583514 0 674.78294759583514 -86.266422460139438 0 0 0 0 -117.81901906237181 166.4149772993951 0 166.4149772993951 -85.244108638016769 0 0 0 0 808.97270415926869 428.14968930233499 0 428.14968930233499 -255.91929724988586 0 0 0 0 -3.3905162607375487 3.1773880498665559 0 3.1773880498665559 0.79259795559525514 0 0 0 0 -767.68678506574815 93.393170907699641 0 93.393170907699641 63.831306635176588 0 0 0 0 -102.33393953017412 131.2182617713587 0 131.2182617713587 69.458412274478178 0 0 0 0 -222.75994761128663 186.23672951611866 0 186.23672951611866 108.7978980179978 0 0 0 0 -236.14019959777579 85.319644150920794 0 85.319644150920794 64.423278989885148 0 0 0 0 -161.73837928534886 162.83108507836914 0 162.83108507836914 52.796920931761633 0 0 0 0 -216.05066145777528 189.73421229705855 0 189.73421229705855 102.09290159859484 0 0 0 0 -137.46884189469893 230.54164019170821 0 230.54164019170821 123.233734135134 0 0 0 0 51.454081377531111 342.28069837467956 0 342.28069837467956 65.620804519656303 0 0 0 0 -3.5958953578701767 302.31109167910108 0 302.31109167910108 94.90806452423567 0 0 0 0 -181.05610926754684 328.4112258114526 0 328.4112258114526 115.31412663619994 0 0 0 0 -69.41575282973281 331.13489750383451 0 331.13489750383451 134.42387357938424 0 0 0 0 -69.280310183430629 313.50642878724648 0 313.50642878724648 124.97639581418662 0 0 0 0 -115.3819605100125 257.50257498480369 0 257.50257498480369 82.579315003102238 0 0 0 0 -83.102805910661118 244.44117186920084 0 244.44117186920084 -2.7907964317655569 0 0 0 0 -113.40942836495014 192.29831418534923 0 192.29831418534923 70.097275044896378 0 0 0 0 214.5173899164929 156.11067830030879 0 156.11067830030879 162.58950470964191 0 0 0 0 173.86716025523037 214.62675254029455 0 214.62675254029455 82.183459279698582 0 0 0 0 264.14401449066281 104.97780931035049 0 104.97780931035049 201.25371308777358 0 0 0 0 239.37935066881982 166.54749735201131 0 166.54749735201131 87.57870665759765 0 0 0 0 272.49027830149316 147.7457197206877 0 147.7457197206877 74.463980707612791 0 0 0 0 246.34598522366286 181.15949801240458 0 181.15949801240458 36.507601249863001 0 0 0 0 210.09880189578325 189.42711771334325 0 189.42711771334325 79.212819483586827 0 0 0 0 246.03263083103911 181.76119032090287 0 181.76119032090287 68.251218586148752 0 0 0 0 202.1999180239327 279.8728248136249 0 279.8728248136249 28.529373928433415 0 0 0 0 34.687529425429602 276.75562695216649 0 276.75562695216649 82.635975863631757 0 0 0 0 0.28799335010444338 290.61082959417945 0 290.61082959417945 123.51740293777038 0 0 0 0 119.58862126001623 278.15995949532953 0 278.15995949532953 71.097422981223644 0 0 0 0 158.3417234597855 211.67159623588668 0 211.67159623588668 116.15061811640044 0 0 0 0 131.59192385474489 239.8590499349466 0 239.8590499349466 141.75835659887525 0 0 0 0 74.001276730252357 262.87015870461073 0 262.87015870461073 136.71893313082546 0 0 0 0 -36.508765085618506 294.57863912778703 0 294.57863912778703 150.67907179166286 0 0 0 0 66.384725669436648 282.78538493248288 0 282.78538493248288 117.17184160878242 0 0 0 0 -6.1995424261331209 324.88421232249857 0 324.88421232249857 127.07874847330277 0 0 0 0 53.686092505011402 296.63100263838896 0 296.63100263838896 172.53968736464049 0 0 0 0 26.010089617570884 269.56763925014002 0 269.56763925014002 180.3377020193293 0 0 0 0 89.893232309366795 246.39820969471111 0 246.39820969471111 209.13991474125942 0 0 0 0 131.46333144199275 239.35848993935565 0 239.35848993935565 176.61575368926788 0 0 0 0 200.98058863558799 211.42876933212574 0 211.42876933212574 168.88297059742399 0 0 0 0 199.40116533174671 246.47162316310187 0 246.47162316310187 306.98680312630677 0 0 0 0 370.7142265643979 217.46817488521992 0 217.46817488521992 185.61610914668381 0 0 0 0 247.97045729833553 251.27938021860973 0 251.27938021860973 207.50329697676898 0 0 0 0 -0.15824410069060235 0.26725967733740141 0 0.26725967733740141 3.7664659966662413 0 0 0 0 -206.47069342131817 -137.1423304439586 0 -137.1423304439586 81.900337264720292 0 0 0 0 242.3484813305422 121.34513824926762 0 121.34513824926762 352.35644930151784 0 0 0 0 568.16809892385118 485.75944981849807 0 485.75944981849807 401.19152439263053 0 0 0 0 256.76351555919973 153.74076462752782 0 153.74076462752782 92.134966168834126 0 0 0 0 304.40497702757693 139.73443536502327 0 139.73443536502327 93.780194249738997 0 0 0 0 294.00985215729906 131.11428243692444 0 131.11428243692444 60.117453661707259 0 0 0 0 287.5892199739319 167.34567534565213 0 167.34567534565213 -67.739664357606671 0 0 0 0 160.53199496709749 194.21373963023871 0 194.21373963023871 47.459654524918733 0 0 0 0 274.33464967999453 173.25442933596116 0 173.25442933596116 25.10449009086733 0 0 0 0 299.60565068113283 158.17960924201907 0 158.17960924201907 -40.114699879582986 0 0 0 0 282.98683272330959 130.05153331376141 0 130.05153331376141 27.312099153117742 0 0 0 0 -71.923727664332546 212.03488884029503 0 212.03488884029503 -154.88711306084588 0 0 0 0 -62.632359028455539 120.46879701724174 0 120.46879701724174 -96.64274049557207 0 0 0 0 10.126555454140544 211.51063626917858 0 211.51063626917858 1.9886415708060667 0 0 0 0 124.48147151204103 123.83812677982132 0 123.83812677982132 -89.921024192974073 0 0 0 0 111.09212803869923 261.12260567021985 0 261.12260567021985 215.20597239777999 0 0 0 0 -4.0822692675437793 120.95607440228014 0 120.95607440228014 52.96458239453932 0 0 0 0 -74.098409175177949 100.05937416111738 0 100.05937416111738 172.13674945197272 0 0 0 0 -82.300084415071979 185.81838373476967 0 185.81838373476967 95.737369796828716 0 0 0 0 -37.626882587541331 45.362843143524515 0 45.362843143524515 122.75859234139261 0 0 0 0 -74.544766733527013 52.261396582563975 0 52.261396582563975 130.74193969134649 0 0 0 0 -61.791361125331605 111.04092994668463 0 111.04092994668463 345.58039802282474 0 0 0 0 -164.39627327769904 -58.410709200366909 0 -58.410709200366909 224.07581060815937 0 0 0 0 -17.034645103154617 21.202953984040505 0 21.202953984040505 95.283917942568223 0 0 0 0 45.312545803419198 27.170889573841123 0 27.170889573841123 114.80609570329761 0 0 0 0 -15.186939853681906 1.5206528674716537 0 1.5206528674716537 125.46099965125177 0 0 0 0 -3.9000859187290189 59.29759635013761 0 59.29759635013761 103.14150150492787 0 0 0 0 23.396715222474086 90.231169811497239 0 90.231169811497239 89.858389546458056 0 0 0 0 -50.882116980051251 81.754433210689058 0 81.754433210689058 211.33229043231768 0 0 0 0 -2.7150291164925875 44.423503349255043 0 44.423503349255043 23.578858214670618 0 0 0 0 -31.462689099487761 169.43479874837067 0 169.43479874837067 26.923634750441124 0 0 0 0 -56.792590970570018 181.22784587455044 0 181.22784587455044 41.490826804074459 0 0 0 0 -9.5379883142923063 111.62647540939361 0 111.62647540939361 82.732804697183383 0 0 0 0 -51.720996895490316 108.47253566119252 0 108.47253566119252 93.501309114899414 0 0 0 0 -25.608985493520777 74.239516679102053 0 74.239516679102053 -53.78623336092096 0 0 0 0 -31.724693123836914 184.90802834872829 0 184.90802834872829 15.833238329327287 0 0 0 0 -114.2738717103166 186.05819289862302 0 186.05819289862302 -66.132967758523591 0 0 0 0 -40.638813455949276 221.49061735032592 0 221.49061735032592 -134.1353701179969 0 0 0 0 -129.57757841705279 329.72373916766082 0 329.72373916766082 -36.839003755892463 0 0 0 0 -74.325579509479212 224.03401096739435 0 224.03401096739435 -15.161822198107984 0 0 0 0 -90.493316891299401 192.64502221001203 0 192.64502221001203 -32.175326519326518 0 0 0 0 -112.18917154957262 161.98565369650373 0 161.98565369650373 271.83822707670333 0 0 0 0 0.6534024007043584 1.716168981598905 0 1.716168981598905 0.77043682762018761 0 0 0 0 -102.51750744469427 156.09543294294963 0 156.09543294294963 51.83970046596005 0 0 0 0 -73.310678576019626 152.08310342450062 0 152.08310342450062 43.923042958209408 0 0 0 0 -101.31787736325532 225.70254823226605 0 225.70254823226605 -26.88401858412908 0 0 0 0 -64.728015942499042 169.85179647802579 0 169.85179647802579 34.541434138016484 0 0 0 0 -63.379485377695346 186.65851489533179 0 186.65851489533179 -94.930900935336467 0 0 0 0 -57.53796560241517 171.65268626214038 0 171.65268626214038 -28.403226479109435 0 0 0 0 -158.92235761981283 195.7158785005231 0 195.7158785005231 -32.629136865600231 0 0 0 0 -83.046398740909353 148.61666443246395 0 148.61666443246395 -231.28167476477029 0 0 0 0 -163.39691255408979 206.43013514763879 0 206.43013514763879 -155.19861252686678 0 0 0 0 -65.842499085529198 217.45393419868196 0 217.45393419868196 -388.69102030539216 0 0 0 0 -103.92299047267875 205.77466457261312 0 205.77466457261312 -103.94293961819858 0 0 0 0 2.9185928615051822 3.8796693270476084 0 3.8796693270476084 1.81735772506525 0 0 0 0 60.959041625613281 -18.499293250245501 0 -18.499293250245501 -232.46012851084379 0 0 0 0 -76.08477685173284 134.42196498233761 0 134.42196498233761 -56.090614672699303 0 0 0 0 -119.54018489356531 325.09606317031648 0 325.09606317031648 -427.08927575960297 0 0 0 0 47.046911735216781 69.456055067095804 0 69.456055067095804 -311.96161690681038 0 0 0 0 4.2743830382361736 4.4252685071509461 0 4.4252685071509461 1.7402567240461906 0 0 0 0 -240.02916984300828 385.47362485961094 0 385.47362485961094 -368.76830909005184 0 0 0 0 -46.582449576751969 173.02208950895147 0 173.02208950895147 -339.26195053007541 0 0 0 0 -2.046064343943371 0.93981790435627488 0 0.93981790435627488 -0.17906790151084628 0 0 0 0 -176.55495202602106 -50.486488099420058 0 -50.486488099420058 129.6251231317583 0 0 0 0 -238.20499162144188 101.90326364079101 0 101.90326364079101 -45.014899109402904 0 0 0 0 -359.72887523177224 336.84940021161856 0 336.84940021161856 -293.93159340466082 0 0 0 0 -475.69927081840615 393.23345008934757 0 393.23345008934757 -243.10670299804769 0 0 0 0 -49.31102631730937 101.36163824116738 0 101.36163824116738 -500.23117590575202 0 0 0 0 -484.37985781411589 332.53145706073155 0 332.53145706073155 -500.28280518235465 0 0 0 0 -508.09608042006448 584.93014280510261 0 584.93014280510261 -425.55300701523083 0 0 0 0 -729.32790702809507 90.098461903729913 0 90.098461903729913 -1.0073576668883106 0 0 0 0 2.1567730762953943 56.999725823341578 0 56.999725823341578 -321.8596851484217 0 0 0 0 -0.067989933515509193 4.9949735511928193 0 4.9949735511928193 0.12147710726594596 0 0 0 0 -3.278053646528825 2.0848733454315962 0 2.0848733454315962 0.033726617334198572 0 0 0 0 36.066321558384516 99.788499408048665 0 99.788499408048665 -239.36592018923693 0 0 0 0 -27.687113329502608 14.325690621768445 0 14.325690621768445 112.10963920177164 0 0 0 0 -50.022619597246376 103.88241844803088 0 103.88241844803088 -184.56670587272492 0 0 0 0 -23.88279985501822 436.89399368810291 0 436.89399368810291 -183.93836868890503 0 0 0 0 -95.55571068063 238.0147857970187 0 238.0147857970187 -152.70749622405492 0 0 0 0 72.097566457945504 267.46941447939389 0 267.46941447939389 -328.31169589582714 0 0 0 0 42.267147653199572 247.37456184421171 0 247.37456184421171 -106.2192890678125 0 0 0 0 88.271405435878478 328.73906038946734 0 328.73906038946734 34.868962498600013 0 0 0 0 126.30298693061195 417.31298706458983 0 417.31298706458983 -129.3944482552688 0 0 0 0 123.37204167127402 422.70000046490895 0 422.70000046490895 21.714825590723194 0 0 0 0 174.12646220973329 402.58542784994461 0 402.58542784994461 89.842752920492785 0 0 0 0 196.49765310124712 364.91003898793315 0 364.91003898793315 81.447911426708743 0 0 0 0 147.96978547364051 341.47985296827756 0 341.47985296827756 -52.729215945491887 0 0 0 0 -3.7409876446799899 307.83050099218963 0 307.83050099218963 591.22682750633976 0 0 0 0 105.84242180090587 250.19868300828603 0 250.19868300828603 137.43719287610656 0 0 0 0 -1.2822128941182527 1.4901396539954987 0 1.4901396539954987 0.33803696234877822 0 0 0 0 106.30083144516175 252.96554677050517 0 252.96554677050517 -23.40085768291101 0 0 0 0 134.26450432983984 349.02153570877636 0 349.02153570877636 281.18455493175134 0 0 0 0 134.69449221163347 336.63383444056774 0 336.63383444056774 289.95264359105931 0 0 0 0 -12.641167696270713 107.00801144840443 0 107.00801144840443 396.16910459463179 0 0 0 0 255.26025178231794 546.4242940414988 0 546.4242940414988 203.05880125012482 0 0 0 0 258.57619096181588 610.07670910168963 0 610.07670910168963 31.754252317936334 0 0 0 0 398.52551750928251 494.23602570046205 0 494.23602570046205 102.93863243723172 0 0 0 0 346.39325369588187 418.47493692702847 0 418.47493692702847 1.9229304293257883 0 0 0 0 576.96482786575507 569.71437105435871 0 569.71437105435871 -84.138288582500536 0 0 0 0 641.8837673758826 343.59197563160342 0 343.59197563160342 6.9524368251877604 0 0 0 0 157.68639261031785 519.35664797107165 0 519.35664797107165 437.76242320369784 0 0 0 0 229.68591452154214 450.79067019325885 0 450.79067019325885 268.77624780411134 0 0 0 0 230.57701143959275 407.06635898910463 0 407.06635898910463 150.90816964014812 0 0 0 0 231.13648330745491 385.2344146914329 0 385.2344146914329 195.89533907540317 0 0 0 0 244.78655863075983 403.14190823775425 0 403.14190823775425 161.7386255576821 0 0 0 0 259.10056799963786 453.27607950174934 0 453.27607950174934 154.02359735460777 0 0 0 0 269.25543841796753 447.01787416473962 0 447.01787416473962 111.99507955631816 0 0 0 0 260.16373560209649 383.83406759230456 0 383.83406759230456 95.918265353291645 0 0 0 0 305.09672377767129 418.2477189450874 0 418.2477189450874 112.68146361505205 0 0 0 0 251.38579371791639 390.8185910929933 0 390.8185910929933 73.069706771078927 0 0 0 0 261.4745985255031 410.5511965022888 0 410.5511965022888 133.48539622008684 0 0 0 0 237.408202161605 363.40592418794404 0 363.40592418794404 86.512010299877147 0 0 0 0 216.75820000775275 407.82140125064689 0 407.82140125064689 150.9100536683012 0 0 0 0 226.59671853922191 370.46383394079749 0 370.46383394079749 110.68912923415337 0 0 0 0 219.40563975541158 387.02115533358688 0 387.02115533358688 73.1131720714111 0 0 0 0 223.56741721016078 418.91638499378314 0 418.91638499378314 16.249549426822341 0 0 0 0 209.45442704361994 362.72084768349487 0 362.72084768349487 72.300569943115988 0 0 0 0 242.37297360445518 368.47409649741167 0 368.47409649741167 73.226448525943852 0 0 0 0 207.91418220478954 356.60168890073328 0 356.60168890073328 84.548270373488776 0 0 0 0 217.91269008098016 347.98851621674248 0 347.98851621674248 72.352179304689344 0 0 0 0 216.95361395209261 361.40013811833751 0 361.40013811833751 85.029787763531203 0 0 0 0 249.02836315475724 360.8609461770393 0 360.8609461770393 81.963063031667843 0 0 0 0 250.89948967227247 383.9342283509759 0 383.9342283509759 99.127827833737683 0 0 0 0 192.35384801962209 344.72605520068828 0 344.72605520068828 56.406773404982232 0 0 0 0 202.89853924654744 352.42452953192696 0 352.42452953192696 71.648098510635464 0 0 0 0 190.72121762823917 343.08815576150482 0 343.08815576150482 75.823717934668821 0 0 0 0 204.55158242570906 347.70934087527348 0 347.70934087527348 69.316644093232753 0 0 0 0 191.94705653510027 345.93765866943431 0 345.93765866943431 66.576082899442554 0 0 0 0 199.27011096401839 358.12125203305914 0 358.12125203305914 77.769151703017997 0 0 0 0 211.3753878165553 360.13933236269077 0 360.13933236269077 68.590756732977752 0 0 0 0 211.62447000710017 357.12322332874101 0 357.12322332874101 37.82452393227868 0 0 0 0 214.81006143342165 371.16889636429187 0 371.16889636429187 72.775622169363487 0 0 0 0 213.34970520570278 350.02706870808834 0 350.02706870808834 48.757954315085954 0 0 0 0 203.59569028775786 343.5337369826525 0 343.5337369826525 65.018351235965383 0 0 0 0 237.44934128619207 374.72182205040008 0 374.72182205040008 102.75731313691358 0 0 0 0 270.9462404151418 376.32735122641316 0 376.32735122641316 85.028489907850599 0 0 0 0 276.44716960941878 368.81421050847712 0 368.81421050847712 87.398669170041103 0 0 0 0 230.77717225243396 366.55151541568193 0 366.55151541568193 97.233068713678222 0 0 0 0 228.26038115717529 354.1193113456211 0 354.1193113456211 79.71882040501805 0 0 0 0 213.17380063630844 367.34341022826993 0 367.34341022826993 95.15587995111855 0 0 0 0 234.04808986582793 364.86017157273091 0 364.86017157273091 77.696330337057589 0 0 0 0 218.53243380636377 387.6441557255439 0 387.6441557255439 92.97368430638744 0 0 0 0 221.75996692329136 388.13657457115914 0 388.13657457115914 30.127874897036236 0 0 0 0 229.47658365312236 393.2627205811732 0 393.2627205811732 118.79176411152912 0 0 0 0 241.65732430228672 388.63429653614367 0 388.63429653614367 51.740576663549291 0 0 0 0 281.02884845916196 340.29337794016828 0 340.29337794016828 106.32911164956749 0 0 0 0 347.02229145573801 394.3380576462805 0 394.3380576462805 89.291622352066042 0 0 0 0 331.62087554415484 265.18004045765338 0 265.18004045765338 197.10302371332364 0 0 0 0 266.95907417972558 469.6281719213348 0 469.6281719213348 -154.04199170777429 0 0 0 0 171.32371290897572 466.82688642965513 0 466.82688642965513 92.083578415831653 0 0 0 0 243.02874056161818 428.33773161122372 0 428.33773161122372 55.024694426483165 0 0 0 0 258.14696525736326 401.46590596040733 0 401.46590596040733 -77.891798871554784 0 0 0 0 238.96627122856444 372.63724927722797 0 372.63724927722797 21.373665883955255 0 0 0 0 273.18103626755982 367.22840032211616 0 367.22840032211616 -66.136702977637469 0 0 0 0 279.74274587845503 296.32957552265725 0 296.32957552265725 -147.76572649812078 0 0 0 0 245.13278466273186 326.41252185905614 0 326.41252185905614 -184.17289543231891 0 0 0 0 272.45649464467078 335.30846089490052 0 335.30846089490052 -211.73081331465073 0 0 0 0 240.7155476002772 322.75596007354034 0 322.75596007354034 39.468255462874367 0 0 0 0 240.81825090476559 344.05060152447913 0 344.05060152447913 -22.87384680773539 0 0 0 0 238.44389306422454 366.30709870345891 0 366.30709870345891 25.781939689222781 0 0 0 0 278.39503107659039 297.12200865229352 0 297.12200865229352 -39.416662620053103 0 0 0 0 254.11851798294083 299.16444630236583 0 299.16444630236583 -21.211632764436786 0 0 0 0 280.16797025444339 240.84978050510017 0 240.84978050510017 -76.471419185400009 0 0 0 0 278.13715075169966 206.60338641169074 0 206.60338641169074 -26.422281597436267 0 0 0 0 252.66365580148886 238.88624451408214 0 238.88624451408214 -251.71360586465744 0 0 0 0 265.24459872033549 282.24202332929781 0 282.24202332929781 -113.58722675703029 0 0 0 0 279.79105848159179 215.27665801677153 0 215.27665801677153 -150.20026494649937 0 0 0 0 213.49807489487284 211.46220384377375 0 211.46220384377375 -65.394997700926524 0 0 0 0 194.42371520058077 161.21412097642224 0 161.21412097642224 -195.32134965399746 0 0 0 0 103.4254133323484 206.6118567509875 0 206.6118567509875 -113.72283593014254 0 0 0 0 204.91857686179719 261.05166783052846 0 261.05166783052846 -208.67861294083741 0 0 0 0 126.24722397007463 185.89285369117715 0 185.89285369117715 -279.87783154642602 0 0 0 0 91.254285239610908 248.0374059514761 0 248.0374059514761 -329.34661111716377 0 0 0 0 31.656352771502497 107.267787701001 0 107.267787701001 -251.16808991212383 0 0 0 0 -92.140646621035557 219.78276730181096 0 219.78276730181096 -149.24199380887148 0 0 0 0 -279.2341713188398 197.46351710189265 0 197.46351710189265 -281.44908448161368 0 0 0 0 -68.669400418157238 187.58861128418357 0 187.58861128418357 -285.93111260237492 0 0 0 0 -36.973129329591757 145.39519160919372 0 145.39519160919372 -296.1827380501536 0 0 0 0 -36.87531677199695 65.272278981428826 0 65.272278981428826 -567.56123007410497 0 0 0 0 2.2255537473569831 2.0633760476958187 0 2.0633760476958187 0.30476676701805161 0 0 0 0 189.60822649875627 406.48138814654158 0 406.48138814654158 -683.75841219587164 0 0 0 0 -68.17090230496251 528.65562879405843 0 528.65562879405843 147.16788257586268 0 0 0 0 162.91439201798221 526.73442934972354 0 526.73442934972354 -301.48135236625239 0 0 0 0 251.3807026192776 299.67513400779671 0 299.67513400779671 -441.55774211515381 0 0 0 0 -110.15534575868514 209.59991579531652 0 209.59991579531652 89.616614230434607 0 0 0 0 -180.24004194717782 373.9093554134522 0 373.9093554134522 -31.142606790478567 0 0 0 0 0.16321613485342823 326.01520086851315 0 326.01520086851315 -525.49484093486501 0 0 0 0 -74.640534409605607 301.68140743175491 0 301.68140743175491 -347.37854930422327 0 0 0 0 -512.02162684041832 780.17132047790346 0 780.17132047790346 -629.49515740139577 0 0 0 0 150.63824331511205 -167.11477023200314 0 -167.11477023200314 -1319.1656820390835 0 0 0 0 -585.18672137766407 218.22099805660037 0 218.22099805660037 2.5352959645101691 0 0 0 0 -5.2984933709533237 5.8892111738132016 0 5.8892111738132016 -7.157335018060401 0 0 0 0 -38.712671273809974 -62.326837538878863 0 -62.326837538878863 -36.736824074893661 0 0 0 0 43.31717525136628 317.97541759808701 0 317.97541759808701 -910.48483566468894 0 0 0 0 36.306970815487148 -78.28047295716533 0 -78.28047295716533 -121.96760638265914 0 0 0 0 24.667612979719706 314.38120537352006 0 314.38120537352006 -34.553064438811816 0 0 0 0 73.560168441639689 41.475332327068827 0 41.475332327068827 -35.099913877907966 0 0 0 0 21.279503104102332 -5.4969595471211505 0 -5.4969595471211505 -33.88812925030436 0 0 0 0 -13.023620558198914 18.042276607727864 0 18.042276607727864 -15.83248950587749 0 0 0 0 -1.5322940518196617 10.095296574943234 0 10.095296574943234 -4.4020855679601976 0 0 0 0 -23.133692794393937 25.722147846435064 0 25.722147846435064 -8.3528081694912544 0 0 0 0 -368.72408129033283 206.72264460538327 0 206.72264460538327 -13.759278062192607 0 0 0 0 -44.443330193709699 28.749522814026477 0 28.749522814026477 4.7500119052110676 0 0 0 0 118.81261891964823 162.29595529538256 0 162.29595529538256 -22.112174335512464 0 0 0 0 188.18144484363074 362.446523307897 0 362.446523307897 167.07055097868761 0 0 0 0 315.26840286116749 43.25065365577143 0 43.25065365577143 -1.9947761359981087 0 0 0 0 2.4101740241266327 1.4782138196488575 0 1.4782138196488575 -0.23075846017586521 0 0 0 0 -6.9399099109577946 114.6588179762889 0 114.6588179762889 379.62780160446255 0 0 0 0 -24.149705723310035 42.447908098950279 0 42.447908098950279 -25.557639570395622 0 0 0 0 -25.233387938089436 40.200352304587796 0 40.200352304587796 -4.6613463125850103 0 0 0 0 -16.350255657474918 16.296885804442354 0 16.296885804442354 34.794382795415004 0 0 0 0 -6.0817726958084677 42.395839430758883 0 42.395839430758883 48.392040824070136 0 0 0 0 -47.564671594664105 165.95361222119561 0 165.95361222119561 244.95750046429021 0 0 0 0 119.74516356029199 221.85204814649842 0 221.85204814649842 137.3489382192738 0 0 0 0 108.28662327829079 245.27300629017054 0 245.27300629017054 165.45710983132449 0 0 0 0 86.601437129142141 152.44810527738287 0 152.44810527738287 82.694441182252376 0 0 0 0 252.52350536611721 146.21436153623131 0 146.21436153623131 232.8262360909157 0 0 0 0 284.28538842795388 325.35568366091729 0 325.35568366091729 202.42806302088911 0 0 0 0 183.73948900756659 289.08613133157223 0 289.08613133157223 170.91905589480803 0 0 0 0 116.19137656930161 246.29153513645889 0 246.29153513645889 185.36665339428328 0 0 0 0 127.80568972790206 206.01563853461948 0 206.01563853461948 215.82737875675116 0 0 0 0 -10.912468051137694 201.73519436943661 0 201.73519436943661 382.639526400254 0 0 0 0 -36.369821784525811 450.98466124999203 0 450.98466124999203 5.677321803796076 0 0 0 0 40.766061124387306 288.74155850239936 0 288.74155850239936 67.640161147641265 0 0 0 0 -0.23230571614112705 238.75034632585971 0 238.75034632585971 224.28799709761188 0 0 0 0 0.1078686996079341 273.30321403179448 0 273.30321403179448 272.02966364239887 0 0 0 0 46.932185117086192 264.09804294623177 0 264.09804294623177 236.84204266417942 0 0 0 0 131.8140253438105 293.8652921350108 0 293.8652921350108 230.16020116770051 0 0 0 0 45.472576621239568 259.71467504313489 0 259.71467504313489 238.6283784177499 0 0 0 0 96.2029340520603 294.94125573974293 0 294.94125573974293 230.61511195495996 0 0 0 0 17.241352733065469 325.98619132867304 0 325.98619132867304 283.37945420345613 0 0 0 0 7.2796295489824843 264.65135437406093 0 264.65135437406093 254.78225904914189 0 0 0 0 -0.13026998426721548 278.85501947801509 0 278.85501947801509 235.18835534235618 0 0 0 0 96.902871318765392 328.99151833584722 0 328.99151833584722 238.06792450207445 0 0 0 0 -56.588311551429797 183.13789236809058 0 183.13789236809058 343.10614716485611 0 0 0 0 7.3416840989229968 287.5159731666273 0 287.5159731666273 477.51400478903224 0 0 0 0 -1.5093289970695309 -1.0410180815294598 0 -1.0410180815294598 0.16422405830092696 0 0 0 0 14.122179030684492 153.5301488894965 0 153.5301488894965 -89.648383560413833 0 0 0 0 199.6446757399608 320.09640908317073 0 320.09640908317073 605.3358622186214 0 0 0 0 221.38725703649106 397.13776643735923 0 397.13776643735923 595.80814439104677 0 0 0 0 374.21412568930828 417.49559087371233 0 417.49559087371233 452.1603763901951 0 0 0 0 36.309822311275639 -57.294653506990983 0 -57.294653506990983 173.03107318651433 0 0 0 0 3.7913046782206035 5.7517314294484265 0 5.7517314294484265 1.8135444695622565 0 0 0 0 294.64445058018191 227.86722323896015 0 227.86722323896015 329.42867182766076 0 0 0 0 247.01505853788694 381.66234557816875 0 381.66234557816875 321.8558909441856 0 0 0 0 100.60534671544247 303.25549465308279 0 303.25549465308279 295.40754979923713 0 0 0 0 201.25102299384889 320.9167695169408 0 320.9167695169408 300.10326107568017 0 0 0 0 269.94580232474982 304.73431193818999 0 304.73431193818999 221.22297426012938 0 0 0 0 242.64812949924817 259.50267852726938 0 259.50267852726938 141.23049244237109 0 0 0 0 183.24584461866471 268.92559229816061 0 268.92559229816061 215.24023474980902 0 0 0 0 173.57946085989533 350.97626475609809 0 350.97626475609809 253.16266724343313 0 0 0 0 204.63717792509851 285.90518426230688 0 285.90518426230688 229.96548364963746 0 0 0 0 212.43968364438115 314.76280933316923 0 314.76280933316923 192.84229014512584 0 0 0 0 172.33675705263158 285.69399310238123 0 285.69399310238123 181.64775314778717 0 0 0 0 165.03714893667711 275.49040454668011 0 275.49040454668011 171.36797521436165 0 0 0 0 216.32103671982622 255.99120927581157 0 255.99120927581157 175.33874885187106 0 0 0 0 146.63145955032087 217.59346037262446 0 217.59346037262446 143.98379516092973 0 0 0 0 201.58711603868869 286.13045335961851 0 286.13045335961851 152.31366111460102 0 0 0 0 138.5236267708533 241.27884974104313 0 241.27884974104313 141.9160064750231 0 0 0 0 139.23092969330173 223.67538968761664 0 223.67538968761664 139.00576419127037 0 0 0 0 173.68492713358137 136.98277566586694 0 136.98277566586694 39.147994680180602 0 0 0 0 8.3242873563358444 72.900643507237646 0 72.900643507237646 40.994012580450544 0 0 0 0 -8.4563921248608622 6.6161369812800359 0 6.6161369812800359 1.0337863373889604 0 0 0 0 65.363160817949392 44.776962593342091 0 44.776962593342091 19.118777132748164 0 0 0 0 271.30789883729085 196.23619024010634 0 196.23619024010634 80.16508178300046 0 0 0 0 -83.776708757093729 21.373980207101994 0 21.373980207101994 117.88909594510801 0 0 0 0 0.77918317783548474 1.3539454747526776 0 1.3539454747526776 0.82532304037294768 0 0 0 0 217.31763743104239 169.28114464385339 0 169.28114464385339 158.54404932573993 0 0 0 0 201.79218271293939 279.44064979477491 0 279.44064979477491 209.89511005093163 0 0 0 0 251.78553404039849 320.18275369967841 0 320.18275369967841 320.24656625890179 0 0 0 0 242.19962513031714 235.80030921451907 0 235.80030921451907 244.54973767144384 0 0 0 0 321.39104758255417 253.18624443918179 0 253.18624443918179 192.05875766320281 0 0 0 0 276.29038135309565 73.724944011351639 0 73.724944011351639 -387.24400425568297 0 0 0 0 432.17649583356979 589.0615075605341 0 589.0615075605341 559.31772202748402 0 0 0 0 -0.39120706560231611 -1.6174695377877342 0 -1.6174695377877342 -0.53890253239824215 0 0 0 0 388.31955337233376 625.82445495582078 0 625.82445495582078 596.15043175002029 0 0 0 0 222.74715698974069 294.76078496291137 0 294.76078496291137 348.67139919310205 0 0 0 0 589.22048563211865 -76.72079157050905 0 -76.72079157050905 -357.53142560183562 0 0 0 0 8.6359081903647166 89.998201705925624 0 89.998201705925624 -102.60823038612264 0 0 0 0 -2.7248198603495553 8.8710266619731719 0 8.8710266619731719 10.337057760962466 0 0 0 0 232.96263959594944 795.49353864730949 0 795.49353864730949 818.98080881212422 0 0 0 0 -96.876328637226834 4.6278442811689047 0 4.6278442811689047 561.45979610085124 0 0 0 0 -28.459920699831855 145.25130131363574 0 145.25130131363574 113.69291776247906 0 0 0 0 -30.48382883015438 123.13339310323653 0 123.13339310323653 -4.5740902735974487 0 0 0 0 -17.653314039226757 59.926791702835665 0 59.926791702835665 59.531483915354329 0 0 0 0 -17.997662864093741 79.019521114484959 0 79.019521114484959 -2.7659962361817634 0 0 0 0 -39.688590872698114 23.876261584853182 0 23.876261584853182 12.098919239673933 0 0 0 0 -105.94550266832084 -119.47034809291574 0 -119.47034809291574 -70.481419355441176 0 0 0 0 -30.857345277676046 23.643130857563214 0 23.643130857563214 -15.401047936479825 0 0 0 0 -37.031837900212849 39.644811191385315 0 39.644811191385315 7.0462283536984387 0 0 0 0 -105.15204775236134 -129.42478883638648 0 -129.42478883638648 48.341274601514669 0 0 0 0 99.873802681109737 23.835257093026939 0 23.835257093026939 -10.039956922099009 0 0 0 0 -96.014647466159659 -165.55555664788426 0 -165.55555664788426 44.298949815352898 0 0 0 0 -24.685125178188173 20.703928921365559 0 20.703928921365559 -5.2264812313915172 0 0 0 0 -2.7128023428687627 10.916038222763461 0 10.916038222763461 -3.567255289476023 0 0 0 0 -365.51348185892493 13.086974403723161 0 13.086974403723161 48.402772516078585 0 0 0 0 -7.8085583846186637 -3.4813666592363006 0 -3.4813666592363006 -11.891805077601475 0 0 0 0 -15.829294957879299 13.741663764593696 0 13.741663764593696 -7.9839704844373358 0 0 0 0 7.6726108343937085 67.573295374305417 0 67.573295374305417 30.871765908867928 0 0 0 0 65.227517514205829 146.11288083979889 0 146.11288083979889 116.66247862424188 0 0 0 0 33.832878144079586 47.3787755399253 0 47.3787755399253 42.457066669153392 0 0 0 0 -2.7735887913513579 57.027215947454351 0 57.027215947454351 29.949217726446477 0 0 0 0 -13.1227910493526 -10.277984517930406 0 -10.277984517930406 -11.313615684008255 0 0 0 0 -19.034633339134601 10.767247556866806 0 10.767247556866806 -3.358587217522814 0 0 0 0 -4.7828970574017831 4.7033082927376526 0 4.7033082927376526 -3.9863821452534633 0 0 0 0 -21.724437747245247 14.045646171000953 0 14.045646171000953 2.5933408320925082 0 0 0 0 -10.669622978319239 21.196509806950417 0 21.196509806950417 -4.8323257913689304 0 0 0 0 -17.297275641460146 12.093845603643786 0 12.093845603643786 -5.4743979378379493 0 0 0 0 -13.179026682516678 9.1168242597068883 0 9.1168242597068883 5.2424327551986316 0 0 0 0 -17.254816009226488 16.035046751211667 0 16.035046751211667 -3.9291200711195415 0 0 0 0 -38.030934095331759 24.436945878624101 0 24.436945878624101 -10.28115661058655 0 0 0 0 -13.390630620277079 29.401193465018878 0 29.401193465018878 -17.725900843372074 0 0 0 0 -27.883650880961795 32.514866493044792 0 32.514866493044792 -25.756550153681019 0 0 0 0 -22.175159138798335 28.281000446421103 0 28.281000446421103 -22.151034536676889 0 0 0 0 -21.438572970397843 22.710390219931831 0 22.710390219931831 -13.562392427945483 0 0 0 0 -40.996344048056926 43.417808637571397 0 43.417808637571397 -20.452681962449788 0 0 0 0 -12.452623677289921 -147.22051413522098 0 -147.22051413522098 -21.573807107448374 0 0 0 0 -1.75567345623395 7.295862760181258 0 7.295862760181258 1.5699346565925936 0 0 0 0 -518.8585826466151 54.673644479684299 0 54.673644479684299 165.79741418935191 0 0 0 0 -47.302769444921068 21.141384904620736 0 21.141384904620736 -18.304860851103513 0 0 0 0 -25.162055048858747 34.991077578366458 0 34.991077578366458 -42.230824925127308 0 0 0 0 -31.600629838731038 30.623663527482677 0 30.623663527482677 -2.4787541549412708 0 0 0 0 -15.780757655891648 24.556168962451011 0 24.556168962451011 -12.064631849125362 0 0 0 0 0.1899629246364043 2.9326087296841266 0 2.9326087296841266 0.2146616957437999 0 0 0 0 358.34221180005989 569.93066524920141 0 569.93066524920141 -272.33927048541545 0 0 0 0 -5.8528805394889787 43.586211017733149 0 43.586211017733149 257.91706525914196 0 0 0 0 -1.095619748456933 5.3720616559706116 0 5.3720616559706116 4.1330924726754361 0 0 0 0 -472.12623282572531 218.93895066965069 0 218.93895066965069 193.013748140497 0 0 0 0 -10.226831841817329 70.655510408605551 0 70.655510408605551 -101.55007822589505 0 0 0 0 -34.628707766878506 9.3132783092896716 0 9.3132783092896716 2.2531232279252436 0 0 0 0 -12.512008161640679 5.3415377186918249 0 5.3415377186918249 10.090048881619051 0 0 0 0 -29.531836813268455 19.9100915578274 0 19.9100915578274 -8.949801043440857 0 0 0 0 4.8174718751556327 10.522074840170802 0 10.522074840170802 -4.5798798319779479 0 0 0 0 10.711442619046522 4.1827475498746907 0 4.1827475498746907 2.5838562403840761 0 0 0 0 619.73194674618208 -14.359437415260345 0 -14.359437415260345 -108.68074814814099 0 0 0 0 1008.3955222579752 342.79923736561386 0 342.79923736561386 -81.092227481487498 0 0 0 0 689.31007894276991 773.69458057629254 0 773.69458057629254 134.57222530806393 0 0 0 0 152.74909493485029 453.5386269548917 0 453.5386269548917 749.65650055907099 0 0 0 0 510.99578305726027 575.04433933870951 0 575.04433933870951 -133.92664218936443 0 0 0 0 358.32004901774178 569.72195894395202 0 569.72195894395202 9.0515054893003253 0 0 0 0 379.33603903625044 143.9977727963842 0 143.9977727963842 172.03922347297157 0 0 0 0 263.66393257351592 315.11061634375255 0 315.11061634375255 -74.098909567733472 0 0 0 0 -3.5516594281778282 -0.54717790555945989 0 -0.54717790555945989 -0.43120755562010338 0 0 0 0 -74.081049365660874 -59.079460295582066 0 -59.079460295582066 82.343817691564254 0 0 0 0 27.952975065977697 13.70335090466822 0 13.70335090466822 4.0856640259194412 0 0 0 0 -69.615977036229651 113.0846297460207 0 113.0846297460207 17.596823683847106 0 0 0 0 0.91821774232084863 93.861020620977797 0 93.861020620977797 -157.95062022771407 0 0 0 0 -0.38453849185316358 61.219503497275582 0 61.219503497275582 -158.74566084035723 0 0 0 0 -6.049233484376515 8.0717571638512702 0 8.0717571638512702 3.2858108287233705 0 0 0 0 11.320907184104726 72.105566032577372 0 72.105566032577372 182.94763186425325 0 0 0 0 24.281933439910063 111.654139668879 0 111.654139668879 154.14370352427795 0 0 0 0 -24.801777361632048 140.42919547491624 0 140.42919547491624 382.12050389659635 0 0 0 0 36.005920342722675 261.49959346560445 0 261.49959346560445 1277.7089068285686 0 0 0 0 -13.486206283236243 30.305962180171719 0 30.305962180171719 629.78841676371303 0 0 0 0 160.84706331677808 501.09870193305051 0 501.09870193305051 593.11643613626984 0 0 0 0 26.255379434369388 302.02007806959 0 302.02007806959 302.05968533362648 0 0 0 0 -9.3458659126408747 318.9698319163208 0 318.9698319163208 379.85206320061786 0 0 0 0 57.71161318236409 289.55150826993986 0 289.55150826993986 85.450506641181164 0 0 0 0 96.58169417145109 385.7367150133141 0 385.7367150133141 278.82068905808023 0 0 0 0 230.75722789353313 265.76726806867055 0 265.76726806867055 42.18316711679654 0 0 0 0 259.45202191440694 388.23598617889729 0 388.23598617889729 253.32075309586344 0 0 0 0 587.67360332221506 1.1731935165059895 0 1.1731935165059895 -41.795875076841185 0 0 0 0 68.204299210141471 22.064917227727165 0 22.064917227727165 -33.81625487121255 0 0 0 0 340.06451016242681 293.88457005069472 0 293.88457005069472 299.70965320858159 0 0 0 0 755.26929755254241 716.75833372812031 0 716.75833372812031 665.2301481764016 0 0 0 0 890.88618691238662 -244.86467700111098 0 -244.86467700111098 353.81373527552068 0 0 0 0 99.959515229260433 -36.407785341127237 0 -36.407785341127237 328.37269005586631 0 0 0 0 141.77806752966717 -2.6936549402466881 0 -2.6936549402466881 -167.93697330715622 0 0 0 0 -111.62005698179928 241.61610383957031 0 241.61610383957031 -273.55199049977273 0 0 0 0 268.64275039637505 38.705995951027944 0 38.705995951027944 -218.73898345735688 0 0 0 0 195.87479619337682 -22.612080238393901 0 -22.612080238393901 -31.480128494600933 0 0 0 0 -1.6984773036893159 -0.84390416590203188 0 -0.84390416590203188 0.1943584844927102 0 0 0 0 -5.1436984700291362 6.4437841762990828 0 6.4437841762990828 -12.098880105971507 0 0 0 0 35.841483033738768 24.300070237417913 0 24.300070237417913 -30.320128654417204 0 0 0 0 64.64338548197702 3.5678697833509432 0 3.5678697833509432 -152.59249265819381 0 0 0 0 -28.624418091771076 9.3908653641310593 0 9.3908653641310593 -150.08504310784656 0 0 0 0 -30.734515088556336 30.157201206482938 0 30.157201206482938 -18.723662803676003 0 0 0 0 11.119999232816554 67.672165422069583 0 67.672165422069583 -2.6548351227016838 0 0 0 0 -3.7573469864437357 60.547149645392892 0 60.547149645392892 32.296758753709582 0 0 0 0 43.536639592246502 25.228230344383519 0 25.228230344383519 -59.85890307410591 0 0 0 0 -7.0075601802964229 31.45626779433951 0 31.45626779433951 -54.899415594854872 0 0 0 0 27.543777895916719 55.544453487033024 0 55.544453487033024 -4.595862144822604 0 0 0 0 17.52431755370776 43.319580780011165 0 43.319580780011165 -29.950527851387964 0 0 0 0 -0.99227603474237469 3.6408139427923567 0 3.6408139427923567 -0.84687584347976541 0 0 0 0 -23.807243486549254 10.248344928456476 0 10.248344928456476 22.672945172822008 0 0 0 0 13.38655919978919 48.972487849159734 0 48.972487849159734 55.429838635165311 0 0 0 0 14.009292233109591 57.551684170179215 0 57.551684170179215 63.511512263941768 0 0 0 0 16.44560258828642 55.215539548553352 0 55.215539548553352 -6.4923884787385759 0 0 0 0 21.526764015766275 36.320759137503977 0 36.320759137503977 12.583096848110825 0 0 0 0 13.02346975565888 53.283569423226709 0 53.283569423226709 17.949615007322791 0 0 0 0 8.2588317882727438 34.341272609265907 0 34.341272609265907 0.096004728699261577 0 0 0 0 63.411365702638705 15.630801422494528 0 15.630801422494528 -9.9616211154261691 0 0 0 0 120.34089692324233 88.319702512579624 0 88.319702512579624 0.059250506676107761 0 0 0 0 38.558901888525725 69.84441019453152 0 69.84441019453152 51.611291463719681 0 0 0 0 43.452598193798622 84.688922481926056 0 84.688922481926056 41.190203760327677 0 0 0 0 93.515186359334621 30.865349866873657 0 30.865349866873657 -100.88229897153269 0 0 0 0 67.014881856972352 61.329462119579603 0 61.329462119579603 -118.98067380818611 0 0 0 0 35.773531878651255 47.771711657211995 0 47.771711657211995 5.6921905814980978 0 0 0 0 26.019826586350732 44.767787787556912 0 44.767787787556912 12.803931570187116 0 0 0 0 37.545100901130354 132.67480259153399 0 132.67480259153399 38.299077255240263 0 0 0 0 24.108417292695776 63.955843481994634 0 63.955843481994634 -34.597391892131782 0 0 0 0 122.63718366354442 82.396092210390634 0 82.396092210390634 -33.053685843307903 0 0 0 0 53.416303693978989 296.89306273559669 0 296.89306273559669 38.780610951298513 0 0 0 0 140.65009194135382 189.39462291929908 0 189.39462291929908 -144.38668753612365 0 0 0 0 35.12846881452424 169.16259279665519 0 169.16259279665519 28.645191788233205 0 0 0 0 98.475313809643922 239.30091538369902 0 239.30091538369902 103.41165497147813 0 0 0 0 29.320952909249172 217.03525866796917 0 217.03525866796917 173.30544396694495 0 0 0 0 -4.2044147749620606 235.37130300524541 0 235.37130300524541 291.59589427723245 0 0 0 0 -3.754871537508734 223.08371021830362 0 223.08371021830362 181.39740151732713 0 0 0 0 8.3182246857268183 127.81049402775398 0 127.81049402775398 207.34750608339164 0 0 0 0 2.0578238808448077 102.36040345341553 0 102.36040345341553 121.56446090078725 0 0 0 0 48.13788885842223 101.27475308826979 0 101.27475308826979 -38.086077457523061 0 0 0 0 -26.250202213643206 47.455335699658463 0 47.455335699658463 -12.787860364395783 0 0 0 0 -125.05016454342694 165.21184026904848 0 165.21184026904848 -123.63343107203036 0 0 0 0 15.220894892141786 43.335035809494798 0 43.335035809494798 11.675281336769203 0 0 0 0 -242.15262866276862 210.4530302582441 0 210.4530302582441 -31.758322234591105 0 0 0 0 30.910506077027094 81.92304699991837 0 81.92304699991837 -81.987344247584588 0 0 0 0 -161.55866655975478 401.7858504448468 0 401.7858504448468 -202.97569825707433 0 0 0 0 -159.39873498019733 387.12533836905459 0 387.12533836905459 -225.92766743726315 0 0 0 0 -161.10869488765456 381.34529388924875 0 381.34529388924875 -245.14649124234438 0 0 0 0 -149.82747042465144 317.44392300988852 0 317.44392300988852 -153.48461072944156 0 0 0 0 -24.319700789630588 157.63699324720665 0 157.63699324720665 -408.0688405149067 0 0 0 0 5.4633761159246035 39.711052672848311 0 39.711052672848311 10.573688408680624 0 0 0 0 -7.8233012904893258 389.64494423672113 0 389.64494423672113 -665.568297160763 0 0 0 0 -12.62874999520136 132.60476459946676 0 132.60476459946676 455.28526391898959 0 0 0 0 -24.243641028704587 91.064990459190085 0 91.064990459190085 519.2782248522733 0 0 0 0 -6.7544169133943797 112.34165535529564 0 112.34165535529564 243.41643588932675 0 0 0 0 -1.9418506445435924 258.02489102851268 0 258.02489102851268 247.62354396813316 0 0 0 0 1.050006305496936 248.40927864110654 0 248.40927864110654 268.20675730757284 0 0 0 0 -53.737110808739089 265.26311159484067 0 265.26311159484067 451.03326828436894 0 0 0 0 1.1401003099745139 335.17831872353509 0 335.17831872353509 272.89525194551788 0 0 0 0 -31.37986119713787 282.63956697778258 0 282.63956697778258 337.45195362094091 0 0 0 0 8.8845492104737787 313.7299369632276 0 313.7299369632276 131.21648793657005 0 0 0 0 -29.51955158822966 274.66462087462696 0 274.66462087462696 260.92846088039209 0 0 0 0 -62.855944105373055 140.99542282224502 0 140.99542282224502 128.00911915418777 0 0 0 0 52.263104821849993 127.78883415089581 0 127.78883415089581 -187.34238986254968 0 0 0 0 -28.298953594625345 215.74686777378929 0 215.74686777378929 284.64863782926295 0 0 0 0 -8.1605915738764452 273.04964628042308 0 273.04964628042308 263.99670206382325 0 0 0 0 -8.3081952799821579 280.65631458871468 0 280.65631458871468 243.16593904968613 0 0 0 0 18.488377323417808 250.59913920766303 0 250.59913920766303 230.84707519631866 0 0 0 0 9.8716293231627787 286.99693233616927 0 286.99693233616927 254.43534918827936 0 0 0 0 1.2679027985068387 268.15208232832538 0 268.15208232832538 214.86329829464512 0 0 0 0 -28.645990861061364 269.52365273787655 0 269.52365273787655 253.19183676395551 0 0 0 0 -23.032633850421234 224.604072286682 0 224.604072286682 223.95742466786214 0 0 0 0 -20.063217500246537 259.61642895748537 0 259.61642895748537 264.58072502574032 0 0 0 0 15.568823075529508 266.23713980894217 0 266.23713980894217 198.4328992845185 0 0 0 0 85.019259410415543 166.18780938644932 0 166.18780938644932 -469.65859258197816 0 0 0 0 6.548109478862898 248.68935139209134 0 248.68935139209134 97.903080008556572 0 0 0 0 -1.5169132656541251 0.50490424388277422 0 0.50490424388277422 0.10753129900570801 0 0 0 0 -47.757979190886545 182.39151937225142 0 182.39151937225142 217.94679566471382 0 0 0 0 -68.559001159606851 211.80815103720215 0 211.80815103720215 273.44477603565224 0 0 0 0 -23.886477396590635 181.93517647421618 0 181.93517647421618 136.81513233407532 0 0 0 0 -0.049834841083793435 86.690886422876702 0 86.690886422876702 136.26309599105051 0 0 0 0 -17.076362809762941 83.632781605692799 0 83.632781605692799 -103.50848006641536 0 0 0 0 19.028904761208523 35.190349529344175 0 35.190349529344175 8.8616606416700812 0 0 0 0 42.988856046309593 79.215767507999317 0 79.215767507999317 -233.54702671418454 0 0 0 0 -0.44644952920499748 9.9537402422104631 0 9.9537402422104631 4.843904788787297 0 0 0 0 -30.311011935693386 9.0349451089305148 0 9.0349451089305148 29.556617515872858 0 0 0 0 28.997451846444164 -30.709352070683963 0 -30.709352070683963 128.8228408574214 0 0 0 0 -89.011301821996312 22.56474832776621 0 22.56474832776621 80.044829086910795 0 0 0 0 14.913420419659815 60.640728544911781 0 60.640728544911781 -14.718697877596696 0 0 0 0 -2.9641447880360516 3.8865420654488467 0 3.8865420654488467 4.7675655119402371 0 0 0 0 -102.84842673510866 191.71700216657428 0 191.71700216657428 -185.01790978373811 0 0 0 0 -108.15537972087623 140.80255020851473 0 140.80255020851473 -124.9059774095017 0 0 0 0 -162.2251823574552 162.43113982309569 0 162.43113982309569 -133.16226985036792 0 0 0 0 -48.084935676870373 110.81070446332478 0 110.81070446332478 -53.021335464538879 0 0 0 0 -57.731956171501224 163.80186187097843 0 163.80186187097843 -168.51480404317135 0 0 0 0 14.956795674748719 49.242357671530044 0 49.242357671530044 -147.36098222891451 0 0 0 0 64.93989883375616 146.77045051269624 0 146.77045051269624 -202.6329517753893 0 0 0 0 15.662211131420918 24.619790562522212 0 24.619790562522212 -130.78809469268663 0 0 0 0 5.9637445860563929 2.4732314288753763 0 2.4732314288753763 1.7151893306351154 0 0 0 0 1.4277620625202871 2.0154063093742209 0 2.0154063093742209 0.80200307714813057 0 0 0 0 39.928323582102166 76.916784354766264 0 76.916784354766264 -253.77681739944092 0 0 0 0 -179.72401723152143 43.611231892283286 0 43.611231892283286 -122.15420880845295 0 0 0 0 -47.512689073013462 61.025639915111242 0 61.025639915111242 58.636012808706546 0 0 0 0 -45.155910838598302 46.771124324907078 0 46.771124324907078 -35.985460150028544 0 0 0 0 133.27506250455372 -8.308392390536028 0 -8.308392390536028 -28.362381584282957 0 0 0 0 -2.8293361712312617 328.83324145731967 0 328.83324145731967 -35.4877182053242 0 0 0 0 5.9607209371351928 133.66342840216385 0 133.66342840216385 8.8192687396194742 0 0 0 0 -57.86108510971826 80.81279296230241 0 80.81279296230241 58.53446096565947 0 0 0 0 0.025691925185697073 -0.12786841236195556 0 -0.12786841236195556 -0.26615321119385271 0 0 0 0 -48.183096307431697 -47.348018411716112 0 -47.348018411716112 188.27569764396139 0 0 0 0 -53.56881055192207 43.029366671074513 0 43.029366671074513 148.57355082339564 0 0 0 0 -62.014366737337696 44.673575340007119 0 44.673575340007119 62.998508378407223 0 0 0 0 -0.12015582000276481 63.051741827301385 0 63.051741827301385 -14.455812157370929 0 0 0 0 16.752410776363831 -33.771301423407749 0 -33.771301423407749 43.445900383062508 0 0 0 0 -22.220373599491722 128.59075945981022 0 128.59075945981022 -83.30904169812311 0 0 0 0 22.240834104583463 21.208373622793815 0 21.208373622793815 20.43539593786911 0 0 0 0 -19.327287975924264 102.797476493678 0 102.797476493678 -106.54499352732819 0 0 0 0 -3.076255461157416 101.11319881044437 0 101.11319881044437 -133.52883963488421 0 0 0 0 -2.6743482166784815 123.49146387373912 0 123.49146387373912 -120.07113341078002 0 0 0 0 -24.365195962236612 141.71563645605875 0 141.71563645605875 -134.30532744432276 0 0 0 0 -22.152566495602514 194.16170734062325 0 194.16170734062325 -70.568474144844004 0 0 0 0 -103.5823407946009 145.5911895588215 0 145.5911895588215 -82.950530863180575 0 0 0 0 -67.540287476502272 109.00539419433107 0 109.00539419433107 23.035313125012635 0 0 0 0 5.692584437263406 33.976918946039817 0 33.976918946039817 19.488329944251863 0 0 0 0 -148.942622518196 216.03853133472649 0 216.03853133472649 -71.164749455099809 0 0 0 0 -71.373155931984911 179.35111659586818 0 179.35111659586818 -88.859564248155948 0 0 0 0 -72.592708199027186 48.900898694300139 0 48.900898694300139 -20.561151039183287 0 0 0 0 -73.93207714373716 149.65117628296389 0 149.65117628296389 -43.961659265796698 0 0 0 0 -77.127581134384442 44.953186837941715 0 44.953186837941715 -23.343457144332291 0 0 0 0 -52.26719688693629 203.43778440996357 0 203.43778440996357 5.3848713967454387 0 0 0 0 -189.86709358864391 103.47867314963696 0 103.47867314963696 -54.502703708541958 0 0 0 0 -228.64716097883888 267.987324767882 0 267.987324767882 18.19586472256924 0 0 0 0 -13.962241998112532 13.303296605612971 0 13.303296605612971 -6.3892823536314154 0 0 0 0 459.23082353696554 -16.381380552893461 0 -16.381380552893461 -12.678521892085314 0 0 0 0 315.10597017652617 293.59838576218499 0 293.59838576218499 -243.23710108370142 0 0 0 0 -131.54120700908948 105.42219055975511 0 105.42219055975511 165.03176610575974 0 0 0 0 139.47957928167671 58.86322192249645 0 58.86322192249645 3.0846949546139513 0 0 0 0 165.05296163386993 300.6235436546558 0 300.6235436546558 -11.401134499187719 0 0 0 0 -47.665497796075215 193.97377848611359 0 193.97377848611359 -4.2888178344583139 0 0 0 0 23.036301547594348 187.6101558112266 0 187.6101558112266 -4.2906722045772767 0 0 0 0 -102.38385930358285 111.71003709663246 0 111.71003709663246 -0.36873900109276292 0 0 0 0 32.373747466066561 156.97395804888765 0 156.97395804888765 -11.379573009378873 0 0 0 0 -95.103751361863942 209.27503140367207 0 209.27503140367207 -32.799912513655727 0 0 0 0 445.98144611460339 107.7296228087489 0 107.7296228087489 -63.88330078076433 0 0 0 0 0.39082856986527226 1.9246142839772169 0 1.9246142839772169 -0.19534055496963276 0 0 0 0 -361.48903941263416 203.38611985296484 0 203.38611985296484 22.880258607361611 0 0 0 0 38.344752986133244 142.34909474949927 0 142.34909474949927 35.365967419467324 0 0 0 0 152.23044288582059 196.14583134734858 0 196.14583134734858 19.25951703978717 0 0 0 0 -16.892183537365781 97.140879329437666 0 97.140879329437666 33.182931959308917 0 0 0 0 20.284118664829293 76.395623676085961 0 76.395623676085961 21.792407392743826 0 0 0 0 -25.543845706618413 79.265311191748879 0 79.265311191748879 24.63787350428538 0 0 0 0 -49.84771736269613 94.237426451529245 0 94.237426451529245 21.489707244138117 0 0 0 0 10.117230045647375 147.55442890699669 0 147.55442890699669 18.500338181758707 0 0 0 0 -14.307180005091141 167.71461952664686 0 167.71461952664686 15.227289434540126 0 0 0 0 -111.80339332576295 153.34545328719651 0 153.34545328719651 18.226625789295213 0 0 0 0 -84.63372400476419 83.997971251501895 0 83.997971251501895 22.122926338157413 0 0 0 0 -76.672173275856011 45.462165461676243 0 45.462165461676243 -22.782628648340861 0 0 0 0 59.211116707927431 211.5514002392465 0 211.5514002392465 112.4523635997939 0 0 0 0 -51.141530048505956 82.792267962520782 0 82.792267962520782 42.93891108806929 0 0 0 0 -67.145922926592903 71.411547759891619 0 71.411547759891619 36.372887384586647 0 0 0 0 -29.66838186313862 66.585923042019658 0 66.585923042019658 -7.078737461615674 0 0 0 0 -52.386062515271533 103.63178526834236 0 103.63178526834236 10.332264269141888 0 0 0 0 -84.569259790259821 56.241498095691895 0 56.241498095691895 -74.80885133501215 0 0 0 0 -186.26842680333357 93.568122884544209 0 93.568122884544209 20.243939493731887 0 0 0 0 -62.847142631115275 103.65386065989333 0 103.65386065989333 7.056710250886681 0 0 0 0 95.618758506285531 134.378422277146 0 134.378422277146 -50.587267691258603 0 0 0 0 -186.81547673947716 184.79320220604131 0 184.79320220604131 -0.76416563501538803 0 0 0 0 133.96928829921944 18.037139265376027 0 18.037139265376027 -48.672981781317503 0 0 0 0 0.96377450727408132 1.1242786554490749 0 1.1242786554490749 -0.24982637595559254 0 0 0 0 -86.56142815135081 140.62711102575577 0 140.62711102575577 36.589153550543415 0 0 0 0 -23.423529249776038 132.0603207011518 0 132.0603207011518 7.4195797564298118 0 0 0 0 -69.12853935638077 49.37371432174799 0 49.37371432174799 -21.73861431447142 0 0 0 0 10.851088873731442 46.759135280392002 0 46.759135280392002 50.882581893391034 0 0 0 0 -20.067000581751927 -17.965181151215802 0 -17.965181151215802 156.95282432265438 0 0 0 0 16.514880304966937 268.34868904867835 0 268.34868904867835 163.27991888584847 0 0 0 0 12.634121687650349 372.80036169143818 0 372.80036169143818 538.05558233849661 0 0 0 0 119.14994714368368 323.32958701224743 0 323.32958701224743 193.05218160884669 0 0 0 0 -11.641623061113933 258.01574327865455 0 258.01574327865455 236.93419563602583 0 0 0 0 28.888285144885231 247.0272901745916 0 247.0272901745916 192.97268502340012 0 0 0 0 -17.118451953312615 271.29095912258526 0 271.29095912258526 212.88726236733055 0 0 0 0 -78.344770061316055 44.191135552573826 0 44.191135552573826 -21.271041305781679 0 0 0 0 -9.8309349526462029 217.9853703945555 0 217.9853703945555 173.9771319272586 0 0 0 0 53.756648336773651 214.8238746209604 0 214.8238746209604 173.53466903500157 0 0 0 0 61.54756131881004 237.61001182797463 0 237.61001182797463 66.298243945533613 0 0 0 0 230.80686282117676 362.8718774040608 0 362.8718774040608 39.688286532356869 0 0 0 0 128.32377868729782 316.94772957130499 0 316.94772957130499 112.62609683677874 0 0 0 0 291.23625484038348 268.11364327789943 0 268.11364327789943 -95.50113754278027 0 0 0 0 183.69094937238879 261.52436950004949 0 261.52436950004949 -61.000949469502302 0 0 0 0 285.91730998550338 201.50076686191915 0 201.50076686191915 -137.96163402952516 0 0 0 0 407.80959418774 169.03448494118493 0 169.03448494118493 -147.29542887591924 0 0 0 0 212.72064442498959 133.91853711754084 0 133.91853711754084 -103.69696021969503 0 0 0 0 179.33668704030606 172.8216040303405 0 172.8216040303405 -63.06043427653276 0 0 0 0 103.2100636603318 160.99762673198802 0 160.99762673198802 -34.455237306834533 0 0 0 0 184.95634649039857 244.37139263960034 0 244.37139263960034 49.629874565087448 0 0 0 0 7.4957208853156772 158.22000918061167 0 158.22000918061167 94.105961421459142 0 0 0 0 80.942657817744475 199.24610635639874 0 199.24610635639874 20.923927948992969 0 0 0 0 50.666624695095379 174.08297367739578 0 174.08297367739578 9.7963621852904907 0 0 0 0 -30.35078438976052 200.56277341054738 0 200.56277341054738 10.080549547548586 0 0 0 0 4.3629621976360795 179.48135469839508 0 179.48135469839508 -62.321137385785278 0 0 0 0 61.847780745316413 152.20397256362776 0 152.20397256362776 -58.694413095487107 0 0 0 0 63.155109047700535 130.02140531200894 0 130.02140531200894 -77.674527409109942 0 0 0 0 70.04148094696211 87.272212743512682 0 87.272212743512682 -237.16115658578565 0 0 0 0 73.317336476834498 168.50576708481913 0 168.50576708481913 -131.24791386182187 0 0 0 0 -14.204759376887523 159.6886916949079 0 159.6886916949079 -131.74192445537562 0 0 0 0 -7.2081678053509677 159.61033118215892 0 159.61033118215892 -117.19304254412964 0 0 0 0 10.755458254239784 164.83147349487081 0 164.83147349487081 -119.38696478563725 0 0 0 0 24.318800747896603 168.1803756898862 0 168.1803756898862 -189.13447306331 0 0 0 0 15.946181544612045 109.92407241069759 0 109.92407241069759 -200.10352050273468 0 0 0 0 5.6712945440085605 119.98578671595351 0 119.98578671595351 -148.35677287878934 0 0 0 0 1.7712006325018592 94.206756890082033 0 94.206756890082033 -158.74095353660596 0 0 0 0 71.33357309942312 -48.838365744906127 0 -48.838365744906127 -580.37727026663197 0 0 0 0 20.398032215758576 86.371045614678224 0 86.371045614678224 -176.66193836341881 0 0 0 0 162.86506932710472 226.81342765272348 0 226.81342765272348 -90.352610106319844 0 0 0 0 193.96513779854286 260.60540880564804 0 260.60540880564804 -381.28068453337801 0 0 0 0 573.45417457849544 230.17178014816454 0 230.17178014816454 -284.16805594569905 0 0 0 0 318.14798467781293 104.85841211039133 0 104.85841211039133 -139.11642357396522 0 0 0 0 441.62001567902553 194.54738764121248 0 194.54738764121248 -140.06779778823693 0 0 0 0 294.60034659407211 155.26984193186809 0 155.26984193186809 -110.39539854707255 0 0 0 0 298.91418304515537 147.653247772334 0 147.653247772334 -118.67333552073796 0 0 0 0 166.37852650787681 126.70241687133966 0 126.70241687133966 -88.194745395721839 0 0 0 0 161.75280443763768 172.18917953709024 0 172.18917953709024 -174.75106127701292 0 0 0 0 302.43101840603049 423.30278056812313 0 423.30278056812313 37.603479954021793 0 0 0 0 165.01758995549244 228.32196136269386 0 228.32196136269386 -232.65692645127638 0 0 0 0 543.77224335842766 191.64648542858868 0 191.64648542858868 -174.64114662871725 0 0 0 0 398.73749986505572 215.98551189875297 0 215.98551189875297 127.8178709935346 0 0 0 0 0.50682262481235085 1.2249121191099732 0 1.2249121191099732 2.1955107174194026 0 0 0 0 594.57613901163541 492.65851696662281 0 492.65851696662281 111.32971682347488 0 0 0 0 661.45371353226801 431.37827137035856 0 431.37827137035856 3.9694486876869632 0 0 0 0 -49.367792880945672 45.04953752888423 0 45.04953752888423 -3.1311225337703945 0 0 0 0 -67.615709820151096 33.654837659109035 0 33.654837659109035 58.941959666479363 0 0 0 0 0.52764280686139386 -0.18337257510228255 0 -0.18337257510228255 1.2626633045399913 0 0 0 0 -43.520049016544363 65.427549238276697 0 65.427549238276697 -34.549537355388566 0 0 0 0 106.511799975131 -135.07009549954728 0 -135.07009549954728 -336.44372939035384 0 0 0 0 -264.32560255554563 536.05480126718976 0 536.05480126718976 -186.34770784177726 0 0 0 0 -1082.8395063616408 540.34782089202054 0 540.34782089202054 -365.45142078785648 0 0 0 0 -383.89762421801424 365.4937702246425 0 365.4937702246425 -405.22604029642753 0 0 0 0 -232.83570401889665 113.739246052216 0 113.739246052216 -748.0408883904729 0 0 0 0 -864.68943903160834 691.42784631485665 0 691.42784631485665 -495.93842125084211 0 0 0 0 -333.92707665295893 219.21549896757097 0 219.21549896757097 -149.16263598696787 0 0 0 0 63.335355984050693 383.46264626642642 0 383.46264626642642 -363.37862907463932 0 0 0 0 -273.31685865409236 439.22559631994955 0 439.22559631994955 -221.29811182244703 0 0 0 0 22.855153312149923 345.27669093984514 0 345.27669093984514 -279.54916172457342 0 0 0 0 -321.77863564207109 304.06941527082336 0 304.06941527082336 -326.38241536621354 0 0 0 0 -663.13516095614614 504.57899728091616 0 504.57899728091616 -167.49240935338003 0 0 0 0 -257.01197092463553 288.23198243210936 0 288.23198243210936 -89.153994904594583 0 0 0 0 -191.46730642935654 457.13599994289007 0 457.13599994289007 -144.16937179477463 0 0 0 0 -2.3763050353835951 2.8382125506322424 0 2.8382125506322424 -5.9685721280750954 0 0 0 0 -1505.2339642142833 197.84702651530824 0 197.84702651530824 11.207736999222107 0 0 0 0 195.92760350130993 108.24777250230818 0 108.24777250230818 -304.92982779888553 0 0 0 0 -715.03829422769468 -16.234200656101052 0 -16.234200656101052 -60.602543227159913 0 0 0 0 -415.06754972060662 29.444324596561273 0 29.444324596561273 3.0446364621420798 0 0 0 0 -363.54134781603352 75.49279142078376 0 75.49279142078376 -37.064085606969456 0 0 0 0 -443.33786279097694 106.59620753676973 0 106.59620753676973 8.9520636190609366 0 0 0 0 -277.24876925017452 173.53458858474187 0 173.53458858474187 34.490463265477956 0 0 0 0 -302.00279538000405 -0.10222679234880161 0 -0.10222679234880161 -13.887022580602206 0 0 0 0 -69.707946412469028 376.0406790576435 0 376.0406790576435 -30.986798200694466 0 0 0 0 -77.445604933171126 251.8746335563701 0 251.8746335563701 -36.350650734351802 0 0 0 0 -338.80184050297976 338.2660731066826 0 338.2660731066826 -38.292883238909781 0 0 0 0 92.159486383357944 416.04273475230184 0 416.04273475230184 -154.49181326710823 0 0 0 0 51.896451386026456 327.91986803720465 0 327.91986803720465 -120.98586730551506 0 0 0 0 289.90795903611433 354.79544016490763 0 354.79544016490763 -228.61480054516505 0 0 0 0 57.860606214408108 433.32893950168545 0 433.32893950168545 -170.20893506730135 0 0 0 0 381.29754403533298 293.42094851534421 0 293.42094851534421 -215.9475791622599 0 0 0 0 283.00295126420679 290.62190009245023 0 290.62190009245023 -159.7992905576175 0 0 0 0 272.75753283509948 320.09477303507765 0 320.09477303507765 -177.6922546154783 0 0 0 0 204.44546528310457 311.33241484030987 0 311.33241484030987 -73.411922583538853 0 0 0 0 212.17972598939741 299.8684216556444 0 299.8684216556444 87.068435142016824 0 0 0 0 -20.765843603447138 341.51847792819353 0 341.51847792819353 155.9214800648424 0 0 0 0 116.49078646801172 257.57828293796729 0 257.57828293796729 34.114515047756868 0 0 0 0 180.34341859861888 377.39270341255178 0 377.39270341255178 -60.966355364364745 0 0 0 0 156.82584882859737 165.48359068997979 0 165.48359068997979 432.76259168500474 0 0 0 0 123.70169452133814 255.24765504708921 0 255.24765504708921 206.8659106945961 0 0 0 0 397.73497099561064 313.81864030158067 0 313.81864030158067 85.305047376128073 0 0 0 0 296.75366541565381 475.21330413482519 0 475.21330413482519 259.31802184496337 0 0 0 0 -106.55406838926137 52.118220299122186 0 52.118220299122186 445.20506920572916 0 0 0 0 -10.071764115054691 9.6557714523427052 0 9.6557714523427052 -0.44121373640660977 0 0 0 0 504.45423659626613 206.79182770056468 0 206.79182770056468 55.341539843364444 0 0 0 0 -20.553086076222826 362.28535217928766 0 362.28535217928766 600.20351516438859 0 0 0 0 -58.833156462465922 455.60605275399894 0 455.60605275399894 380.68705578567096 0 0 0 0 155.84407441037911 571.48029217609292 0 571.48029217609292 361.90577138770459 0 0 0 0 -397.34681921217998 379.82201169605287 0 379.82201169605287 295.50473750082983 0 0 0 0 0.93419473221064209 6.9064678652655243 0 6.9064678652655243 -4.6256416821701265 0 0 0 0 -85.642026621440891 19.372204776020226 0 19.372204776020226 -3.7140620532818502 0 0 0 0 181.48673200536268 480.27022711810059 0 480.27022711810059 117.45488495625614 0 0 0 0 180.84198054752414 488.03681344674169 0 488.03681344674169 204.01909651966162 0 0 0 0 -205.37385743889536 840.3750999031945 0 840.3750999031945 -84.183451624305235 0 0 0 0 -15.289283368118049 465.37710565775888 0 465.37710565775888 203.68566990628642 0 0 0 0 517.2916590156201 346.26096946295365 0 346.26096946295365 42.900559433372109 0 0 0 0 105.00071723687779 198.13451153233541 0 198.13451153233541 37.174419110790041 0 0 0 0 -79.025511572967844 90.561033518670229 0 90.561033518670229 57.431242876435135 0 0 0 0 -29.172542652930133 286.02937728176403 0 286.02937728176403 157.81900647726388 0 0 0 0 162.42362962931657 390.34346841871184 0 390.34346841871184 129.14163322231252 0 0 0 0 -203.00925371328412 258.46300047603017 0 258.46300047603017 92.425912847562358 0 0 0 0 -6.969060066935981 233.62047174436793 0 233.62047174436793 77.609744441440853 0 0 0 0 -128.19125063448882 112.35950003973721 0 112.35950003973721 66.149475322667058 0 0 0 0 -120.90705510610496 155.56265346192504 0 155.56265346192504 -19.855928368182504 0 0 0 0 -179.43697652859191 45.952368158463742 0 45.952368158463742 -7.5201130790919706 0 0 0 0 -405.31295726129611 192.02896266692733 0 192.02896266692733 6.0309267972315865 0 0 0 0 15.624247908344842 29.637068389426531 0 29.637068389426531 28.13051822847774 0 0 0 0 3.9556527837033215 7.5780651011078533 0 7.5780651011078533 -4.3770992864362697 0 0 0 0 0.31901741334508671 16.831515131546141 0 16.831515131546141 0.84250240408557886 0 0 0 0 -491.61300217520329 163.52604917778172 0 163.52604917778172 43.868203060558699 0 0 0 0 -331.12407056328084 536.69558215081997 0 536.69558215081997 -8.4374207809755717 0 0 0 0 -1556.3810720516703 406.00327217002268 0 406.00327217002268 -83.948202154086175 0 0 0 0 -754.28039723100426 624.3632628613293 0 624.3632628613293 -268.3664777199956 0 0 0 0 -762.38608990908824 95.334408872361664 0 95.334408872361664 33.548774435108498 0 0 0 0 -1.9644051911971161 2.6179054243888729 0 2.6179054243888729 -1.5612502516828926 0 0 0 0 92.247518521147867 48.326869804902344 0 48.326869804902344 -59.557453162437014 0 0 0 0 2.2603576586856295 13.126940867410511 0 13.126940867410511 -2.8972851938042368 0 0 0 0 -810.22342882436351 602.72542077732669 0 602.72542077732669 -399.78424870236631 0 0 0 0 -982.14229446405443 479.1223494622318 0 479.1223494622318 -435.72858899654966 0 0 0 0 -895.94856447520942 599.39214703483685 0 599.39214703483685 -486.2362000227331 0 0 0 0 -1035.7266331151768 503.50640293445986 0 503.50640293445986 -260.31388679636802 0 0 0 0 -1163.0270177901548 534.64040134989045 0 534.64040134989045 -262.73117617759738 0 0 0 0 -28.946745185530744 19.225538883907575 0 19.225538883907575 -22.401029154536445 0 0 0 0 6.15149375001333 6.4347786111903957 0 6.4347786111903957 -1.860909707630988 0 0 0 0 -40.508972265619377 62.538045882400183 0 62.538045882400183 -13.663140191107232 0 0 0 0 -799.78530281337589 632.06929018015944 0 632.06929018015944 -407.67918570148504 0 0 0 0 -860.86958029547168 575.81886097384177 0 575.81886097384177 -435.41416176399434 0 0 0 0 -771.65637983290799 577.97386971749802 0 577.97386971749802 -457.38017644886349 0 0 0 0 -0.052525043287459994 20.878243935558203 0 20.878243935558203 -26.038908703426841 0 0 0 0 1.9515918370295253 3.4488806529232789 0 3.4488806529232789 -1.4025431796421728 0 0 0 0 -441.38796083073248 934.86841450181691 0 934.86841450181691 -232.68208241327204 0 0 0 0 -1104.3931451276767 852.88576711810265 0 852.88576711810265 -237.50966277980842 0 0 0 0 -859.05849060784385 501.81872943735925 0 501.81872943735925 -277.43703458903474 0 0 0 0 -650.42762991639029 453.04674639731093 0 453.04674639731093 -29.867247794683863 0 0 0 0 -2.6043971632243483 707.54296264689219 0 707.54296264689219 -186.0432026025137 0 0 0 0 -284.50573710871686 670.79826005258928 0 670.79826005258928 -137.61199867863616 0 0 0 0 0.25214993459667312 557.48882103164033 0 557.48882103164033 -95.192343019777127 0 0 0 0 -175.10882988316735 464.87507497470415 0 464.87507497470415 -46.547669752880211 0 0 0 0 -218.56994429512997 468.75080628670003 0 468.75080628670003 3.5740491402393673 0 0 0 0 -343.51553811963186 505.42120091505171 0 505.42120091505171 49.924061297011576 0 0 0 0 -10.831871815142222 223.22738944091543 0 223.22738944091543 11.181085703831741 0 0 0 0 -0.98809114056119363 13.532575683109457 0 13.532575683109457 12.047027018616063 0 0 0 0 -61.118721325263323 194.52588720026711 0 194.52588720026711 26.382113054602087 0 0 0 0 14.158658585980447 132.48803717134615 0 132.48803717134615 80.390668081789045 0 0 0 0 1.6730221947630355 10.707070628841571 0 10.707070628841571 -15.192260350353216 0 0 0 0 757.83705949086288 342.4093546977665 0 342.4093546977665 -24.55481046991008 0 0 0 0 2.1724758221000897 8.4028658291244795 0 8.4028658291244795 2.0245232775017499 0 0 0 0 -206.82775179529563 101.99563947847037 0 101.99563947847037 -122.40380602818914 0 0 0 0 116.86137470834365 102.96229399195727 0 102.96229399195727 56.853744658199503 0 0 0 0 -2.0385911830380792 -179.95475256064674 0 -179.95475256064674 60.071195120511447 0 0 0 0 -305.0268941934919 358.81183241789222 0 358.81183241789222 117.67296529269152 0 0 0 0 105.53448594182555 483.37182686518099 0 483.37182686518099 83.073974078743049 0 0 0 0 841.60692765619024 -89.632737234847809 0 -89.632737234847809 108.69784263852944 0 0 0 0 128.54500584749258 523.3530382248332 0 523.3530382248332 367.13769394814335 0 0 0 0 -95.291936554087442 229.27339564965496 0 229.27339564965496 154.98363766965394 0 0 0 0 28.875762713796576 221.98979079949822 0 221.98979079949822 -350.96761562585198 0 0 0 0 -942.8840724685142 672.11628650882994 0 672.11628650882994 -320.64003715368847 0 0 0 0 -1356.4070435719441 911.57724619550004 0 911.57724619550004 -325.20645673504623 0 0 0 0 0.98106194682478431 2.9870758912601474 0 2.9870758912601474 -1.7082613197165557 0 0 0 0 2174.2296632017169 167.83145047470157 0 167.83145047470157 -1209.3474295913766 0 0 0 0 -862.28034867915267 986.91668129215213 0 986.91668129215213 -661.1721186002269 0 0 0 0 1259.5567980561027 979.20429842891917 0 979.20429842891917 -1621.0306582337089 0 0 0 0 -415.60066494918283 855.6437021724214 0 855.6437021724214 -431.05839430247033 0 0 0 0 14.675573758497194 295.36283395154351 0 295.36283395154351 -1210.0225214487846 0 0 0 0 -685.90519743645473 -188.74068825764459 0 -188.74068825764459 -384.94244780322333 0 0 0 0 -0.44876359755289741 311.25736395752756 0 311.25736395752756 -521.11424519089883 0 0 0 0 -0.13068056879637879 325.56331295617292 0 325.56331295617292 -494.04153832922566 0 0 0 0 -262.33193444991412 234.4944328307547 0 234.4944328307547 -165.15646118959921 0 0 0 0 -140.12661825495525 351.71905602719198 0 351.71905602719198 -142.57781493556104 0 0 0 0 -302.897255474742 320.09671305687584 0 320.09671305687584 -421.84275821749179 0 0 0 0 -310.60097202230099 289.28687137393354 0 289.28687137393354 63.518120161674233 0 0 0 0 -0.24195275422971463 357.02615831976982 0 357.02615831976982 -303.6575003341859 0 0 0 0 0.62525267711316701 617.42222123483771 0 617.42222123483771 389.72181091687526 0 0 0 0 -1523.010014206553 306.97455637797793 0 306.97455637797793 855.7650510678468 0 0 0 0 1213.6224733824238 574.00331534102588 0 574.00331534102588 147.88566513628029 0 0 0 0 0.67245966853538164 4.64640406669443 0 4.64640406669443 3.9604928888081474 0 0 0 0 779.17761496215462 285.86478636677111 0 285.86478636677111 0.29552272523505962 0 0 0 0 487.6415559074303 480.84129633878183 0 480.84129633878183 320.54109628319202 0 0 0 0 152.90790493231907 88.967920650738961 0 88.967920650738961 159.38879792209264 0 0 0 0 99.128404340204725 132.3864439893232 0 132.3864439893232 164.79326598690022 0 0 0 0 81.739763370365836 184.24089922458916 0 184.24089922458916 135.90681342811149 0 0 0 0 411.49403095944945 124.52332065854716 0 124.52332065854716 45.743983137159375 0 0 0 0 -94.030030136480491 328.08901287554909 0 328.08901287554909 -274.46021210155595 0 0 0 0 -30.253030798702639 605.99258160189993 0 605.99258160189993 -108.64406620444788 0 0 0 0 -0.48517768814757289 0.12695110265046594 0 0.12695110265046594 0.38670442998518695 0 0 0 0 57.044750160126114 -19.763846210924612 0 -19.763846210924612 -51.264705552632222 0 0 0 0 -22.153808794922952 7.4837051377262469 0 7.4837051377262469 -11.880297720999806 0 0 0 0 -196.36068147519836 150.46989663780914 0 150.46989663780914 -89.913144394624396 0 0 0 0 3.8039094434393981 11.314564492151831 0 11.314564492151831 -2.8689235361315042 0 0 0 0 1.5860301952053391 10.146454581625576 0 10.146454581625576 4.7264819510303795 0 0 0 0 -734.96741743242092 386.40299758107903 0 386.40299758107903 -37.194233558993801 0 0 0 0 -226.95582580690825 127.98199712578935 0 127.98199712578935 -105.62948617930306 0 0 0 0 -214.65232633488631 311.38896824307994 0 311.38896824307994 -232.98147465936563 0 0 0 0 -0.15845195513975341 160.24030959909942 0 160.24030959909942 -146.01189759387489 0 0 0 0 -114.6201454051652 149.25598407362349 0 149.25598407362349 -87.567400763131445 0 0 0 0 -55.986827124404954 109.70429663477626 0 109.70429663477626 -76.919088675114835 0 0 0 0 -130.87644897833343 86.043355568771403 0 86.043355568771403 -43.436055769212544 0 0 0 0 -59.421096970690996 43.583827217442376 0 43.583827217442376 -32.581886914094866 0 0 0 0 -947.35855006704332 824.39659457299013 0 824.39659457299013 -693.4999615370034 0 0 0 0 0.98940363790867991 1.2969623913413244 0 1.2969623913413244 -8.9466948971441127 0 0 0 0 -53.360795535161742 -63.351907418906194 0 -63.351907418906194 -118.07170926452454 0 0 0 0 5.5439944793515537 9.8053850046897679 0 9.8053850046897679 2.9295775869684704 0 0 0 0 76.08506187124658 342.69744967371616 0 342.69744967371616 -1174.6571640045804 0 0 0 0 -539.3272747505398 924.71203012326441 0 924.71203012326441 -985.34306041500076 0 0 0 0 -0.10339167224083212 75.260612349038638 0 75.260612349038638 -75.355113026020263 0 0 0 0 118.73382961659809 8.5647692569145875 0 8.5647692569145875 -933.35681133917387 0 0 0 0 2.4522065814967675 2.1832947502409468 0 2.1832947502409468 0.97230519555539985 0 0 0 0 -4.9545062763480985 0.59168283610931383 0 0.59168283610931383 -0.95945493952530114 0 0 0 0 212.32936748346037 977.04485224722703 0 977.04485224722703 -1814.902127915957 0 0 0 0 -31.740731836893247 -16.305086388481868 0 -16.305086388481868 75.337395075377572 0 0 0 0 -4.2846733193146065 1429.8196859742438 0 1429.8196859742438 -460.0468244916774 0 0 0 0 -14.921952073187015 1.8323090374246078 0 1.8323090374246078 1.1989487580866154 0 0 0 0 6.8238634179295303 10.158259750733976 0 10.158259750733976 -1.7996700540207087 0 0 0 0 -54.559768355502456 32.408098339084063 0 32.408098339084063 12.75175666877476 0 0 0 0 -118.43799155573652 1054.0703775512884 0 1054.0703775512884 -1407.4268182622509 0 0 0 0 -1077.7261329798712 364.80973738838838 0 364.80973738838838 -1120.0656522874851 0 0 0 0 -15.270247356642358 -14.843328772050882 0 -14.843328772050882 5.728970255178865 0 0 0 0 -8.922529975141515 41.900720468060172 0 41.900720468060172 -36.61988513860706 0 0 0 0 0.027120696438942105 44.095503412214384 0 44.095503412214384 -7.0043130611120432 0 0 0 0 -20.162706901122874 37.205114911645069 0 37.205114911645069 48.071560847114597 0 0 0 0 -2174.9791514500394 1207.3359135397268 0 1207.3359135397268 -382.12745328045276 0 0 0 0 -1067.3011061886427 713.92115429311161 0 713.92115429311161 -282.38667767337756 0 0 0 0 -425.57606602198211 284.02032983331264 0 284.02032983331264 -521.42754659619823 0 0 0 0 -745.97575463215981 688.89997657959339 0 688.89997657959339 -535.13273217147434 0 0 0 0 -541.91316499401364 814.4369632138505 0 814.4369632138505 -683.48555795754146 0 0 0 0 -332.74970385613415 717.52375866741932 0 717.52375866741932 -656.30789590418135 0 0 0 0 -4.6449415967254026 38.493485028223404 0 38.493485028223404 -635.43278060542798 0 0 0 0 -119.77007842757303 450.70311816969843 0 450.70311816969843 -611.91846023812468 0 0 0 0 0.27079611832495232 8.5848719658155943 0 8.5848719658155943 3.5441415575043678 0 0 0 0 -519.30663202483629 636.14121374613205 0 636.14121374613205 -525.12211299756837 0 0 0 0 -444.53222211206594 829.37146355267942 0 829.37146355267942 -1044.4300871513842 0 0 0 0 -1.8516373609470378 2.6157520594380372 0 2.6157520594380372 -5.2045515115937491 0 0 0 0 -380.02021001368121 470.38380244516884 0 470.38380244516884 -1120.168980863762 0 0 0 0 -3.2465945018278148 2.2128024842518954 0 2.2128024842518954 -0.74683331547791454 0 0 0 0 -407.08581541425519 45.016536975042982 0 45.016536975042982 -125.61204083793564 0 0 0 0 -696.41397245822736 447.23765299896513 0 447.23765299896513 -134.72678343766893 0 0 0 0 -464.49966083390609 347.49243762723017 0 347.49243762723017 -342.3934837558736 0 0 0 0 -272.45152522328954 426.63858651771079 0 426.63858651771079 -314.64312428364065 0 0 0 0 -99.316911995887494 325.64100637267802 0 325.64100637267802 -361.73301462831296 0 0 0 0 -38.287844624239369 535.85396183161356 0 535.85396183161356 344.39855075608466 0 0 0 0 0.60403423043010207 3.6672796101366885 0 3.6672796101366885 1.4575314425947639 0 0 0 0 -147.52699841229332 890.07897512445015 0 890.07897512445015 -1359.0467130092729 0 0 0 0 -342.46409261233657 571.3517578149324 0 571.3517578149324 -770.62514024574921 0 0 0 0 44.130093182307064 190.17054937543367 0 190.17054937543367 -614.19519153103101 0 0 0 0 0.5273559222304165 6.1274288411657949 0 6.1274288411657949 -2.3854594870263668 0 0 0 0 298.96911665075095 959.51498418904703 0 959.51498418904703 -546.56691753593077 0 0 0 0 1673.5101886858029 230.15889809897271 0 230.15889809897271 -460.87446060644197 0 0 0 0 -136.73992706082936 376.31321394247607 0 376.31321394247607 -685.17934180154589 0 0 0 0 -390.42809608513926 477.02154535542104 0 477.02154535542104 -695.61705838292983 0 0 0 0 -383.48754056328471 544.63955071322289 0 544.63955071322289 -260.54325838944351 0 0 0 0 -417.70867446775355 491.37135870167958 0 491.37135870167958 -239.99736534563272 0 0 0 0 -556.3219493400029 690.24784586484202 0 690.24784586484202 -330.0109642076477 0 0 0 0 -385.42996558120285 594.48726854228721 0 594.48726854228721 -374.263590877963 0 0 0 0 -287.18845672194948 755.94100871506544 0 755.94100871506544 -430.32058807301655 0 0 0 0 -457.00821308686864 832.512879812959 0 832.512879812959 -242.35643713746322 0 0 0 0 -680.51640013662109 659.49106973982452 0 659.49106973982452 -264.12612937131962 0 0 0 0 -508.22162573149762 619.31380545252523 0 619.31380545252523 -258.21748489782112 0 0 0 0 -654.64463860039086 611.79680811998287 0 611.79680811998287 -330.48348269971757 0 0 0 0 -1197.5774192976605 719.16328753614107 0 719.16328753614107 -458.58250655222582 0 0 0 0 -779.06139120495209 1074.7500918670285 0 1074.7500918670285 -803.19240958750379 0 0 0 0 -446.47900409309659 821.77091871895573 0 821.77091871895573 -621.3303070713373 0 0 0 0 -590.86623015481837 855.6143708230984 0 855.6143708230984 -606.18195595781071 0 0 0 0 -378.99221055688395 616.68970295920371 0 616.68970295920371 -337.7329115588509 0 0 0 0 414.14200853953662 942.27613529963492 0 942.27613529963492 -467.72406777740252 0 0 0 0 -333.39615812000079 1027.8850672946935 0 1027.8850672946935 -52.483959260822303 0 0 0 0 232.82559387404763 458.43902117840298 0 458.43902117840298 -86.563630596196163 0 0 0 0 371.15171920927878 504.32626065873853 0 504.32626065873853 -76.749168254496908 0 0 0 0 715.39913103065919 718.80613731212179 0 718.80613731212179 -370.35405516440187 0 0 0 0 -739.51755633110588 410.45050702821209 0 410.45050702821209 -212.80507158181354 0 0 0 0 -3.3847544398599609 4.0522400270868175 0 4.0522400270868175 -2.4308771381504783 0 0 0 0 565.83846171967889 665.05301989233703 0 665.05301989233703 348.21789434422345 0 0 0 0 605.39941370339147 175.16815022929768 0 175.16815022929768 333.32092219387414 0 0 0 0 -8.1436278342366109 8.324327697534649 0 8.324327697534649 -3.7322367977644575 0 0 0 0 -24.525579061481949 -10.124418840567159 0 -10.124418840567159 20.259019877204992 0 0 0 0 -14.854320656191703 17.882255044356498 0 17.882255044356498 99.234206188168173 0 0 0 0 -14.713754353652178 10.68378148540577 0 10.68378148540577 -6.7961723013409951 0 0 0 0 -1064.4804511791299 383.73167581962844 0 383.73167581962844 470.40536525416974 0 0 0 0 123.38408511743637 509.19526347590545 0 509.19526347590545 -1135.5387693785233 0 0 0 0 -7.2226693253205951 4.586729198057597 0 4.586729198057597 -2.7616689153336793 0 0 0 0 -331.15779750711226 -118.72247631869141 0 -118.72247631869141 40.298125822297152 0 0 0 0 -786.34469499953411 670.84259738441688 0 670.84259738441688 -628.52272884021022 0 0 0 0 -840.44902565620578 526.5523938034421 0 526.5523938034421 -946.47571873085508 0 0 0 0 -954.62151121502393 1020.1587033573232 0 1020.1587033573232 -680.15931762861328 0 0 0 0 -914.66698511924551 856.7154728712685 0 856.7154728712685 -322.86544503963887 0 0 0 0 -854.93992882396196 848.96276457645035 0 848.96276457645035 -548.18106962982711 0 0 0 0 -969.90558461319233 823.60388699363102 0 823.60388699363102 -426.60934757357245 0 0 0 0 -1009.5262832661829 738.3804561067227 0 738.3804561067227 -434.50742723137955 0 0 0 0 33.855370396989748 34.70857048253221 0 34.70857048253221 -10.016171011544202 0 0 0 0 -1033.1703460668687 734.07009392997134 0 734.07009392997134 -434.1994983880104 0 0 0 0 -896.20097751261164 597.49197917197034 0 597.49197917197034 -309.9459242564335 0 0 0 0 35.937323126678073 35.357537133445447 0 35.357537133445447 -13.811935690525416 0 0 0 0 -721.92533048526639 483.13261035654796 0 483.13261035654796 -414.79145177251485 0 0 0 0 -169.44122030944072 105.52337365272433 0 105.52337365272433 -1.1122085817260086 0 0 0 0 1.2496869031971514 1.1078812340486976 0 1.1078812340486976 -0.52344023465251155 0 0 0 0 -147.27573085059248 78.580685677534348 0 78.580685677534348 -22.897186219204741 0 0 0 0 -798.331142310828 501.6262583446296 0 501.6262583446296 -205.90737259185926 0 0 0 0 -810.84621137343129 650.2437063475636 0 650.2437063475636 -482.06840542579812 0 0 0 0 -742.78940099475221 484.30925302302967 0 484.30925302302967 -510.51226481276899 0 0 0 0 -726.86672671732958 719.11941724223288 0 719.11941724223288 -478.58461096356768 0 0 0 0 -873.28431815754084 562.26587913755702 0 562.26587913755702 -275.99311821888841 0 0 0 0 -619.29308871304966 505.39562885048872 0 505.39562885048872 -270.56403519403011 0 0 0 0 -678.16849977275342 493.92685355721369 0 493.92685355721369 -208.91909761253191 0 0 0 0 -602.77435240767227 358.26058108319921 0 358.26058108319921 -234.72452887675877 0 0 0 0 -507.51492691991734 391.5347553560805 0 391.5347553560805 -149.96210932805843 0 0 0 0 -527.17412713714293 585.11860451159737 0 585.11860451159737 -310.22063450620044 0 0 0 0 -268.85001910539722 332.73766791092385 0 332.73766791092385 -262.31181724609451 0 0 0 0 -350.11283339683359 475.26932111784481 0 475.26932111784481 -326.84511864544766 0 0 0 0 -34.203936993108073 64.806541805646702 0 64.806541805646702 -49.871962676937983 0 0 0 0 40.414884711010679 36.045783084046818 0 36.045783084046818 -17.966039619640881 0 0 0 0 -35.305065467940949 61.7256681489107 0 61.7256681489107 -52.101733346693436 0 0 0 0 -7.1572060514804434 19.722525887373195 0 19.722525887373195 -12.351596202272049 0 0 0 0 29.21326795778868 41.459459312445532 0 41.459459312445532 -17.994629226879752 0 0 0 0 -40.324350691928885 105.36976096874514 0 105.36976096874514 -176.44971682288815 0 0 0 0 -39.940675747247951 133.49370096303028 0 133.49370096303028 -10.6122238580665 0 0 0 0 -121.09048458396319 142.34708483179747 0 142.34708483179747 -44.562205259706388 0 0 0 0 -34.814595574496934 66.813219182572993 0 66.813219182572993 -45.647842987971671 0 0 0 0 1.8249896931605853 2.1572943072920268 0 2.1572943072920268 -0.12072092908719867 0 0 0 0 -35.90025104360484 63.702340236591226 0 63.702340236591226 -48.751047093079251 0 0 0 0 -36.04300991712671 57.391614618585663 0 57.391614618585663 -63.167768926345161 0 0 0 0 1.9302847873258848 2.09643704770874 0 2.09643704770874 -0.30389043112022307 0 0 0 0 28.009929149907293 87.24079794285808 0 87.24079794285808 -55.796305749649036 0 0 0 0 -115.57992215871764 81.393353004272285 0 81.393353004272285 -25.292463954217965 0 0 0 0 -87.215194456559402 65.298079390830026 0 65.298079390830026 -43.331370249336032 0 0 0 0 37.12817138787198 35.733934068771674 0 35.733934068771674 -16.975048314632019 0 0 0 0 109.85255236994817 15.653021037040162 0 15.653021037040162 -39.229977745143515 0 0 0 0 258.28952103922529 55.660864180290446 0 55.660864180290446 -76.921355518385099 0 0 0 0 109.94498253474922 145.88257821935622 0 145.88257821935622 -93.534202479506348 0 0 0 0 168.24411942285587 136.45083909775531 0 136.45083909775531 -136.10842759425032 0 0 0 0 59.906963003099918 134.97956054443785 0 134.97956054443785 -60.384863645551377 0 0 0 0 66.686212907223307 117.26133621653207 0 117.26133621653207 -56.725342208399525 0 0 0 0 133.11477930503315 144.21516724328512 0 144.21516724328512 -55.962445409531938 0 0 0 0 -1.3545174298533311 74.220187862130842 0 74.220187862130842 -49.151624695696228 0 0 0 0 125.69484747088245 85.353906608347984 0 85.353906608347984 16.453987535733177 0 0 0 0 103.32378307584804 136.46751969261095 0 136.46751969261095 -60.941928312127857 0 0 0 0 0.76448237739644398 3.4677763630670349 0 3.4677763630670349 -0.29668646370318186 0 0 0 0 35.517637069910279 214.85869032943651 0 214.85869032943651 -15.619373714202084 0 0 0 0 641.43060029139883 161.43553113541793 0 161.43553113541793 -41.446303112665191 0 0 0 0 111.39620811615384 133.30740248321433 0 133.30740248321433 -65.75351215356568 0 0 0 0 183.50263754658954 276.84589365486499 0 276.84589365486499 -91.37419986777968 0 0 0 0 -252.48793603628656 232.35668349224761 0 232.35668349224761 -32.266922753260587 0 0 0 0 0.64825751489930017 2.1523656843769317 0 2.1523656843769317 -0.22066507501516242 0 0 0 0 288.81585509010893 342.59452905799026 0 342.59452905799026 36.760138468711375 0 0 0 0 505.34741716970802 218.23261358103082 0 218.23261358103082 -90.285505838386598 0 0 0 0 280.84591553207611 -10.75124475008306 0 -10.75124475008306 -55.65254868089869 0 0 0 0 236.64544252810083 63.901749983097034 0 63.901749983097034 -25.098847326633404 0 0 0 0 170.45332508108731 -46.361247909253507 0 -46.361247909253507 -30.963412428460288 0 0 0 0 298.6217832649636 79.887941627806867 0 79.887941627806867 -40.375639120087726 0 0 0 0 270.18758861797232 113.69120085999748 0 113.69120085999748 5.4754697438911535 0 0 0 0 312.75071096804913 -151.3052888604152 0 -151.3052888604152 136.01547995501824 0 0 0 0 951.52180831987971 117.18827354234054 0 117.18827354234054 -119.12851140122621 0 0 0 0 -83.394352982570126 207.52772309889224 0 207.52772309889224 46.810795116963618 0 0 0 0 122.68190239924843 429.11332879583097 0 429.11332879583097 1084.925037213392 0 0 0 0 -44.301964673263683 68.012861106880337 0 68.012861106880337 340.85839233369916 0 0 0 0 167.15678815532556 454.24323412682497 0 454.24323412682497 553.41527748996305 0 0 0 0 500.11438131591785 414.06814724199285 0 414.06814724199285 48.05947105584346 0 0 0 0 812.07060156827743 745.09162448232473 0 745.09162448232473 390.40601087333926 0 0 0 0 991.70563431228402 72.993418516667589 0 72.993418516667589 -1366.2695885203211 0 0 0 0 -245.22631528433158 619.74289054028122 0 619.74289054028122 -498.04060252731142 0 0 0 0 9.5940361168926103 5.574394651153824 0 5.574394651153824 2.3441424151185259 0 0 0 0 1000.1868860056998 269.21233459626364 0 269.21233459626364 -321.08254807681442 0 0 0 0 538.16256778862771 438.41991223897458 0 438.41991223897458 110.90902876560801 0 0 0 0 29.904213142036319 30.823098817460604 0 30.823098817460604 -9.2341212048321779 0 0 0 0 -1327.7757587939923 567.36391617730897 0 567.36391617730897 -420.85841288482698 0 0 0 0 -1045.4146186834369 823.23730566899576 0 823.23730566899576 -695.74854061834958 0 0 0 0 1650.8776654404028 -266.35762252851055 0 -266.35762252851055 -553.30089460776799 0 0 0 0 22.14295210211597 21.643740524543944 0 21.643740524543944 -9.5574820878302233 0 0 0 0 -1727.2133961351628 999.32095827109697 0 999.32095827109697 -489.85977438608825 0 0 0 0 8.0347586821913595 7.4844799254753553 0 7.4844799254753553 -4.0621320612695229 0 0 0 0 3014.3450289252378 -994.84694440483327 0 -994.84694440483327 -125.20205809390609 0 0 0 0 1018.1467075470136 -297.71366705571745 0 -297.71366705571745 308.7179877149174 0 0 0 0 284.02866014923347 36.364371478153771 0 36.364371478153771 -383.66165574888828 0 0 0 0 1110.5700114499737 472.09055659262026 0 472.09055659262026 -288.11259837436228 0 0 0 0 577.64566509179349 -80.329517558007865 0 -80.329517558007865 180.57011360437173 0 0 0 0 2086.3039176847469 500.85993280553521 0 500.85993280553521 -321.53650125720378 0 0 0 0 217.83164879680044 186.01744954025889 0 186.01744954025889 -0.54374406587521662 0 0 0 0 496.69496911481474 431.91234878015894 0 431.91234878015894 92.77631760587974 0 0 0 0 619.23260574537289 175.14824159003274 0 175.14824159003274 -247.37205150016962 0 0 0 0 501.19270153828802 397.36511046960004 0 397.36511046960004 -28.545625906510395 0 0 0 0 -0.93679154371880458 6.4757776416107973 0 6.4757776416107973 -6.4478959779596465 0 0 0 0 93.237340837520605 89.857957425505447 0 89.857957425505447 122.61060538981837 0 0 0 0 179.60505447240939 198.21531709180817 0 198.21531709180817 100.92862932922071 0 0 0 0 128.06035942971175 294.8470793333363 0 294.8470793333363 389.73544160453821 0 0 0 0 360.28391346207354 920.42066956237977 0 920.42066956237977 318.55305774798398 0 0 0 0 -3.9267728232347565 8.0996974691819972 0 8.0996974691819972 -6.5226162329612833 0 0 0 0 -3.1054798038430533 3.9533472819793261 0 3.9533472819793261 -2.5457427617464248 0 0 0 0 -1010.2844467608011 465.84059207588143 0 465.84059207588143 1060.8989494114176 0 0 0 0 -58.341559346452414 383.24254300693065 0 383.24254300693065 -416.66164843986371 0 0 0 0 -108.93635363060093 85.012767477965099 0 85.012767477965099 653.63806417061096 0 0 0 0 -1104.3671892049233 742.42207644240716 0 742.42207644240716 657.61006028587144 0 0 0 0 -1020.2814737249464 382.3196311369793 0 382.3196311369793 649.89991636008926 0 0 0 0 -1075.1511864328604 479.86049738265501 0 479.86049738265501 361.98118613629958 0 0 0 0 -737.36002177603586 538.69030074195871 0 538.69030074195871 368.97559663315769 0 0 0 0 -114.44372279132585 1153.3447820182482 0 1153.3447820182482 -758.70638041440907 0 0 0 0 -2234.5857805442192 1737.2961998344281 0 1737.2961998344281 -584.85705236049398 0 0 0 0 -775.86669454041112 574.2587222290058 0 574.2587222290058 -490.42033917219305 0 0 0 0 -50.137714158216113 652.08892739523799 0 652.08892739523799 2.0031566602510793 0 0 0 0 -686.46864055256083 691.02961215719733 0 691.02961215719733 -0.31070174179876631 0 0 0 0 -566.1641826910145 245.73318513133017 0 245.73318513133017 470.54370304516124 0 0 0 0 -2.3558211719901152 2.2063462555780831 0 2.2063462555780831 -0.78491053506495234 0 0 0 0 -86.230472578961781 403.2327604781367 0 403.2327604781367 177.19676563254325 0 0 0 0 47.965911250095814 500.69533823539314 0 500.69533823539314 138.04869428277016 0 0 0 0 -896.26340079338115 662.80388489901634 0 662.80388489901634 345.8654521454182 0 0 0 0 -887.32115127850557 392.14745078238775 0 392.14745078238775 298.73189645020557 0 0 0 0 -841.80697971506379 787.52834149826049 0 787.52834149826049 210.08044549745318 0 0 0 0 -426.84350283381536 633.81561308684832 0 633.81561308684832 250.45076501320727 0 0 0 0 106.0850057377902 521.00029949242162 0 521.00029949242162 82.154580921524939 0 0 0 0 405.53298116927908 845.47592877162242 0 845.47592877162242 201.06193751491446 0 0 0 0 -81.731925782787584 340.24524990967257 0 340.24524990967257 919.55798524006605 0 0 0 0 2.9362092787982732 4.3472424268482541 0 4.3472424268482541 1.4452530086201278 0 0 0 0 184.05307548258133 101.94800273044166 0 101.94800273044166 -1338.5091091951836 0 0 0 0 -4.0749460298182072 4.0828376202729046 0 4.0828376202729046 -1.6676493662943344 0 0 0 0 120.90217515492986 447.31577413968216 0 447.31577413968216 -500.79355076522188 0 0 0 0 84.2515084972365 -35.440668069211824 0 -35.440668069211824 -295.44816906329015 0 0 0 0 75.143335032789764 -26.394390411260247 0 -26.394390411260247 -72.979189197543747 0 0 0 0 -651.34613713586441 367.48146569672099 0 367.48146569672099 882.18627384366482 0 0 0 0 -170.64121782497023 15.198845778013492 0 15.198845778013492 -80.017443092518079 0 0 0 0 -1062.5079648577048 627.43704540713406 0 627.43704540713406 -339.82762805657694 0 0 0 0 -192.64651652327609 440.18327494401706 0 440.18327494401706 -995.96580307540353 0 0 0 0 -725.20192322414732 780.37688040264766 0 780.37688040264766 -507.78065185198648 0 0 0 0 -1066.5227063207458 814.21573661059119 0 814.21573661059119 -522.0987076715337 0 0 0 0 -1070.5862575153642 828.76837685738428 0 828.76837685738428 -419.61964366239408 0 0 0 0 -1393.2873905282213 872.60388738702841 0 872.60388738702841 -430.73908897433284 0 0 0 0 -879.46832817670656 794.46466121818958 0 794.46466121818958 -518.48837006811664 0 0 0 0 -739.63911433477188 576.05417746837702 0 576.05417746837702 -227.47204951838103 0 0 0 0 -519.11921280461684 502.13147864280836 0 502.13147864280836 -524.66146810190548 0 0 0 0 8.6430982950623729 73.186517437958173 0 73.186517437958173 -375.7632469481141 0 0 0 0 -975.18766956802574 793.02729687048486 0 793.02729687048486 -516.02946326545862 0 0 0 0 -2.270529646890779 2.2885915521181985 0 2.2885915521181985 -0.39922084006441061 0 0 0 0 -460.95045879805912 702.25028109974483 0 702.25028109974483 -1194.6659948963206 0 0 0 0 112.20101798817996 -10.348630152139776 0 -10.348630152139776 -269.2367172427912 0 0 0 0 36.886582306284254 -101.06916985893622 0 -101.06916985893622 -214.64434557630739 0 0 0 0 -219.91664173255413 48.90120331280923 0 48.90120331280923 -227.77811470459392 0 0 0 0 -1.7185439189981651 5.7292063098074877 0 5.7292063098074877 -0.58226654322431237 0 0 0 0 -232.40851894821753 68.435705685762514 0 68.435705685762514 -87.086500331741263 0 0 0 0 127.43157866196998 84.819992282327803 0 84.819992282327803 -175.38417239706177 0 0 0 0 45.098996396057373 280.86970486528026 0 280.86970486528026 295.32822722809215 0 0 0 0 193.71587055457712 82.53321246055566 0 82.53321246055566 -66.76098905714025 0 0 0 0 64.115777290042388 244.76428875396869 0 244.76428875396869 220.11497617547866 0 0 0 0 -1.999205986969173 45.765331124799559 0 45.765331124799559 21.010359514046286 0 0 0 0 -16.170300165065484 11.773087288836852 0 11.773087288836852 -7.883502816397872 0 0 0 0 52.848929776209843 152.0058056954058 0 152.0058056954058 -101.35621508778422 0 0 0 0 132.07646506303354 11.020972424204956 0 11.020972424204956 -305.87925433720375 0 0 0 0 148.08540807145255 98.064719245976448 0 98.064719245976448 -56.510589291363431 0 0 0 0 45.71364419546444 3.945884835531615 0 3.945884835531615 124.6938316496944 0 0 0 0 -27.31417348476316 -24.515550459345832 0 -24.515550459345832 -26.225528680554817 0 0 0 0 160.66195831467485 109.76333747425815 0 109.76333747425815 -301.15903036908276 0 0 0 0 -9.5785117105024256 -77.242549422997399 0 -77.242549422997399 149.2896862760681 0 0 0 0 -134.64504760052296 216.09265323075306 0 216.09265323075306 359.60964824660914 0 0 0 0 17.146971635598035 9.159572931377383 0 9.159572931377383 -1.1016229335672136 0 0 0 0 186.53304379108886 -5.7704292258022178 0 -5.7704292258022178 -461.24667128503916 0 0 0 0 -140.67705049387632 435.1788641270216 0 435.1788641270216 -439.34595604903006 0 0 0 0 -92.786040755014255 11.62639414790101 0 11.62639414790101 -1040.2410720527841 0 0 0 0 -110.91946205047861 335.78976101082299 0 335.78976101082299 -283.77282485897285 0 0 0 0 -76.971191773161991 121.12799566168906 0 121.12799566168906 -409.55530129584076 0 0 0 0 -192.18421403413959 256.31420781543784 0 256.31420781543784 -275.36988163597198 0 0 0 0 20.231688085772475 -47.153343614993901 0 -47.153343614993901 -124.06733687993983 0 0 0 0 -116.33424221905443 293.40468482709548 0 293.40468482709548 -126.75440221100143 0 0 0 0 6.0091312034719522 7.7402135791612281 0 7.7402135791612281 -0.93337427935657757 0 0 0 0 -88.435963684882154 194.69129671629344 0 194.69129671629344 624.75381730873187 0 0 0 0 130.76238249527159 81.292000558878499 0 81.292000558878499 0.53704918958101189 0 0 0 0 60.920243785097341 248.20529110562427 0 248.20529110562427 545.19835787378179 0 0 0 0 69.178717132865131 -78.475440257443552 0 -78.475440257443552 42.848483947680506 0 0 0 0 12.208004668240392 118.74537587777968 0 118.74537587777968 -59.623880324266793 0 0 0 0 -1.5822223469778294 2.4467238974609558 0 2.4467238974609558 -1.6890249872462455 0 0 0 0 -49.632181461980508 486.82185107990153 0 486.82185107990153 -1564.3996911427785 0 0 0 0 -0.22036832741650869 63.953542339355408 0 63.953542339355408 -149.73270324699479 0 0 0 0 -137.89188010616817 410.12018937200264 0 410.12018937200264 -1623.1576568053351 0 0 0 0 -58.817703858874665 496.00036131492561 0 496.00036131492561 -1028.3112736146795 0 0 0 0 -294.10389597435278 352.18114491499728 0 352.18114491499728 -1103.3545655492271 0 0 0 0 -68.711425192494062 210.51475289240443 0 210.51475289240443 25.885365138288762 0 0 0 0 -132.97428379928897 359.67924350235262 0 359.67924350235262 -199.56059639845989 0 0 0 0 8.0934527998396391 10.598997819675091 0 10.598997819675091 3.0408587021551554 0 0 0 0 -182.12651537186321 668.87762634064347 0 668.87762634064347 157.08933105443066 0 0 0 0 -181.8707545386913 670.62846078886514 0 670.62846078886514 -329.60254685060863 0 0 0 0 -161.93859447492287 296.23525783424884 0 296.23525783424884 -338.52663053295691 0 0 0 0 -173.68041803290109 410.63430132921485 0 410.63430132921485 -837.33969271930619 0 0 0 0 -172.34163976369746 482.63847736179196 0 482.63847736179196 -646.42575231644514 0 0 0 0 171.89919337560059 514.04415920009706 0 514.04415920009706 -1293.0298047462566 0 0 0 0 10.220837518774729 14.01190580274617 0 14.01190580274617 4.3601238176075938 0 0 0 0 -232.2431855877403 625.55204970488739 0 625.55204970488739 -1069.7564861990031 0 0 0 0 -525.98079844335371 1079.7136043243117 0 1079.7136043243117 -264.03776218339499 0 0 0 0 -514.70347776462404 733.25901090139268 0 733.25901090139268 -0.063142230427729373 0 0 0 0 7.2246359181140178 14.506346255142333 0 14.506346255142333 4.5746159812597824 0 0 0 0 -180.10651844924723 839.81946321524083 0 839.81946321524083 -1760.8696301729033 0 0 0 0 -204.37383279178903 550.85358122123216 0 550.85358122123216 -1420.8718856478336 0 0 0 0 -431.27762445580447 818.78954308456741 0 818.78954308456741 -765.06483737198869 0 0 0 0 1.4734598053595898 1160.488088561902 0 1160.488088561902 -1158.3644281278721 0 0 0 0 -245.19836812694848 1285.4253927252321 0 1285.4253927252321 -821.17853588026264 0 0 0 0 -303.90892581275693 830.88459284927376 0 830.88459284927376 -1316.7432696337128 0 0 0 0 -1.6332888665965584 944.20598045243787 0 944.20598045243787 -1990.5162808681707 0 0 0 0 -376.65458700739691 656.5740599044293 0 656.5740599044293 -1480.5733937350292 0 0 0 0 -208.72800415662277 638.53746175235756 0 638.53746175235756 -2106.7736022120953 0 0 0 0 -223.2230820809782 926.24069284841244 0 926.24069284841244 -1474.1889841266384 0 0 0 0 -180.13716380468395 917.82096882342012 0 917.82096882342012 -1442.9287396701329 0 0 0 0 -2.8695295188909995 2.9681488799637066 0 2.9681488799637066 -1.2186965588394827 0 0 0 0 56.339399627660896 836.02436272318846 0 836.02436272318846 -2450.6994303535466 0 0 0 0 -92.921146221196977 -102.91800056661305 0 -102.91800056661305 -177.76001689528493 0 0 0 0 0.46990546060987981 339.59779222478574 0 339.59779222478574 -392.30138746874582 0 0 0 0 -36.63090821060905 378.93763085021419 0 378.93763085021419 -433.12595115671866 0 0 0 0 -870.11697347614972 226.10796402294363 0 226.10796402294363 41.746478228451451 0 0 0 0 30.874251000932418 -2.9016303957032505 0 -2.9016303957032505 24.630127028169227 0 0 0 0 4.2620880747296042 3.5529604337970682 0 3.5529604337970682 1.8645750718467866 0 0 0 0 -460.38034643650462 572.15184409430367 0 572.15184409430367 -197.80227138679948 0 0 0 0 31.2756776617789 502.68744107329258 0 502.68744107329258 -718.00594988554076 0 0 0 0 -420.87345376769372 964.99200709166325 0 964.99200709166325 -961.75237180431577 0 0 0 0 -1140.4123401620454 731.08130730702396 0 731.08130730702396 -421.95868627172968 0 0 0 0 -895.99698404528317 329.88196014869027 0 329.88196014869027 -115.1264746611705 0 0 0 0 6.633686962861205 10.073292890825577 0 10.073292890825577 -6.9130516743150139 0 0 0 0 -340.99863539720172 334.55953609687276 0 334.55953609687276 -284.93098140331858 0 0 0 0 -744.25010555790141 1399.3004747521672 0 1399.3004747521672 -1309.3485255157721 0 0 0 0 600.55526628413645 -571.59447641082079 0 -571.59447641082079 -1968.3613025982522 0 0 0 0 -1.3739428297470226 10.635039158329249 0 10.635039158329249 2.8036624175368203 0 0 0 0 -79.11598887789296 494.80850607074899 0 494.80850607074899 -618.42114098882121 0 0 0 0 244.92358981957659 37.846245933265891 0 37.846245933265891 -1239.6614642602426 0 0 0 0 148.90064049570356 325.65371745984885 0 325.65371745984885 -1175.0575646412835 0 0 0 0 -223.71966106930267 395.6384922965517 0 395.6384922965517 -567.87196616443543 0 0 0 0 -160.70350801652239 110.79838088525139 0 110.79838088525139 214.60014262275217 0 0 0 0 166.94832811121887 177.95959519399912 0 177.95959519399912 -589.41300038107329 0 0 0 0 85.108030398594565 98.662454769131728 0 98.662454769131728 -120.99069255785702 0 0 0 0 31.82776690588824 12.240159672537587 0 12.240159672537587 -5.3064374019294487 0 0 0 0 81.496453405430657 404.56905356235802 0 404.56905356235802 -166.04029515788716 0 0 0 0 93.352598749566823 27.864398165402235 0 27.864398165402235 -120.86390973816771 0 0 0 0 126.59684076403209 -159.62277386962523 0 -159.62277386962523 -986.97938502585748 0 0 0 0 151.11875103361672 -273.96811825579789 0 -273.96811825579789 -560.7265717809787 0 0 0 0 114.77587325297645 204.35892129941931 0 204.35892129941931 -967.23760299687274 0 0 0 0 70.779379397790763 102.62301279511303 0 102.62301279511303 -304.94013447100588 0 0 0 0 -4.4540691670845263 -283.64589211691782 0 -283.64589211691782 -131.63333179180336 0 0 0 0 -45.169825344331912 -9.117693405605678 0 -9.117693405605678 -97.239665140186844 0 0 0 0 -10.090539141535956 7.7284402736684115 0 7.7284402736684115 4.3247536665619037 0 0 0 0 40.122830008156598 -5.7479417575959815 0 -5.7479417575959815 25.462027394891265 0 0 0 0 76.963647233817028 36.894353432639036 0 36.894353432639036 7.1238436982675921 0 0 0 0 15.557627842936199 56.241995707314345 0 56.241995707314345 1.5192631565223564 0 0 0 0 -20.897459867261276 28.611586100701466 0 28.611586100701466 3.6056217591513899 0 0 0 0 45.704226416011807 -110.38875114240727 0 -110.38875114240727 -299.74642117880285 0 0 0 0 3.4461685158300952 30.332741855344679 0 30.332741855344679 -3.6611151493682073 0 0 0 0 -1.9198181593613839 18.786083044854117 0 18.786083044854117 -2.552864891699663 0 0 0 0 121.12431259677373 29.408963045663768 0 29.408963045663768 -43.324362277795444 0 0 0 0 2.4083576159828226 22.771900003288465 0 22.771900003288465 14.99013873478907 0 0 0 0 120.28760677896207 44.354194507526699 0 44.354194507526699 -7.3112314793179394 0 0 0 0 -13.287972358921067 16.276819992302222 0 16.276819992302222 -0.98001718369899038 0 0 0 0 186.68446130631492 421.32595464249971 0 421.32595464249971 153.86353196190612 0 0 0 0 134.50723735050269 453.4800032038529 0 453.4800032038529 598.92963164085813 0 0 0 0 -11.253721049839541 14.624786965557639 0 14.624786965557639 -10.316739783593363 0 0 0 0 23.3043077279508 190.62801390250388 0 190.62801390250388 93.744796260580188 0 0 0 0 -36.345599052772741 148.84718073244221 0 148.84718073244221 -13.28352678201918 0 0 0 0 -76.406866909557721 19.305151494256279 0 19.305151494256279 -28.782414520843304 0 0 0 0 13.156238925133948 65.359927558441996 0 65.359927558441996 74.633544543830794 0 0 0 0 -17.575286198305548 20.70128612886765 0 20.70128612886765 28.700158443807595 0 0 0 0 235.78341005539187 223.04956727628451 0 223.04956727628451 608.35934316381463 0 0 0 0 -13.583997899341057 9.9587990327395275 0 9.9587990327395275 0.33932590570303489 0 0 0 0 542.11425103540296 391.19150728084105 0 391.19150728084105 261.12132627073879 0 0 0 0 24.451644865679555 211.75823261585901 0 211.75823261585901 612.8665496434769 0 0 0 0 -44.14317484262574 364.44542908029325 0 364.44542908029325 988.16891304423189 0 0 0 0 662.21751428750758 799.1175105466782 0 799.1175105466782 815.40903667970269 0 0 0 0 -436.82845290263504 531.38576859428031 0 531.38576859428031 574.85250055080542 0 0 0 0 -421.03117835180456 -279.54883938800776 0 -279.54883938800776 1859.1960462078059 0 0 0 0 2.1180448402048171 2.6622647609559493 0 2.6622647609559493 3.7979114572685759 0 0 0 0 -127.7862457915835 333.25892576769184 0 333.25892576769184 -375.70568044598986 0 0 0 0 -0.54912321217995663 276.98084931512619 0 276.98084931512619 -352.95825996914209 0 0 0 0 6.2693405919412584 10.935243801367065 0 10.935243801367065 5.2644521768652766 0 0 0 0 24.814178365220727 388.66890855063997 0 388.66890855063997 605.60885201060228 0 0 0 0 -130.6860391776645 318.42367928658496 0 318.42367928658496 -266.75368623024224 0 0 0 0 -297.67626445493806 141.54926931036243 0 141.54926931036243 -43.050508577183791 0 0 0 0 0.2937081672075692 128.79641985782109 0 128.79641985782109 588.51769192538268 0 0 0 0 -6.6607120778344324 11.227075485476234 0 11.227075485476234 -22.221883224985504 0 0 0 0 -10.278042456420735 7.1512424093234586 0 7.1512424093234586 -8.7541767448128667 0 0 0 0 -20.638461553100569 3.6654987580768648 0 3.6654987580768648 -14.09724302817267 0 0 0 0 -11.549403889124733 9.7029291904227648 0 9.7029291904227648 -10.092969778481347 0 0 0 0 -4.1019422546742135 16.217063041083748 0 16.217063041083748 -12.542120565929508 0 0 0 0 -3.7617007145618118 15.69819340554568 0 15.69819340554568 -11.851440623773669 0 0 0 0 -7.0743747409924254 -7.8876960630368558 0 -7.8876960630368558 23.228129818502566 0 0 0 0 -0.4220741811204789 9.9586073109021527 0 9.9586073109021527 -8.354937309602974 0 0 0 0 -10.252661884480858 6.6062432436647214 0 6.6062432436647214 16.745240968353755 0 0 0 0 -3.6181658709026401 -2.7369921836122302 0 -2.7369921836122302 8.9429182286379607 0 0 0 0 4.1947700676537352 11.217947246346739 0 11.217947246346739 -7.3868498991541856 0 0 0 0 13.102639136235666 -3.8728662142093526 0 -3.8728662142093526 -2.7627307473594556 0 0 0 0 -6.0941371577865766 17.513547499647757 0 17.513547499647757 -5.48706683445198 0 0 0 0 -5.1885176624455198 1.3503382452472579 0 1.3503382452472579 1.2227503052599786 0 0 0 0 -38.757089314971381 1.1261246397189097 0 1.1261246397189097 -7.2939737923443317 0 0 0 0 -61.450825104799151 4.0309760854579508 0 4.0309760854579508 21.848144308789415 0 0 0 0 -71.724711835797279 44.317596748962387 0 44.317596748962387 17.008444806847365 0 0 0 0 -85.525187565723172 32.364322927282046 0 32.364322927282046 61.723289306324659 0 0 0 0 -88.16710986588987 -87.588860593183199 0 -87.588860593183199 1.22336199279016 0 0 0 0 -76.79778913631344 -5.8944809991571674 0 -5.8944809991571674 77.136603170161834 0 0 0 0 -136.23042929166468 67.082733817812368 0 67.082733817812368 65.798801981603901 0 0 0 0 113.94344386667035 -5.0880282426660415 0 -5.0880282426660415 74.425518151288998 0 0 0 0 -121.29134000653357 33.601151586175547 0 33.601151586175547 174.59727354157803 0 0 0 0 -0.89435899522104556 2.2351032185507833 0 2.2351032185507833 -2.3403761109173615 0 0 0 0 -171.36839026943107 -75.129712777912573 0 -75.129712777912573 -34.508053114890572 0 0 0 0 -7.1441131265510194 25.261496719413117 0 25.261496719413117 -44.769439185529336 0 0 0 0 -15.501218027751747 -11.969370921655354 0 -11.969370921655354 -78.628426627710724 0 0 0 0 -21.622722152372717 24.914102834253754 0 24.914102834253754 -6.427861679407215 0 0 0 0 -381.86975713360425 268.828941226604 0 268.828941226604 -199.51359514009528 0 0 0 0 1.1461821666565086 0.70552196657242661 0 0.70552196657242661 -5.55715634328714 0 0 0 0 -125.40102620746165 -88.786045822143933 0 -88.786045822143933 -83.129909005579975 0 0 0 0 11.243737981244522 51.067932270936581 0 51.067932270936581 -390.629935585559 0 0 0 0 17.479329437524939 29.997870902784598 0 29.997870902784598 -27.428194541469566 0 0 0 0 1.5965038829533551 -0.8397746737728724 0 -0.8397746737728724 -28.832500944396457 0 0 0 0 19.692260525026541 30.517313644642854 0 30.517313644642854 -29.11477021949031 0 0 0 0 44.392569527484739 65.754558302603982 0 65.754558302603982 -0.74915352859125051 0 0 0 0 22.39663028862924 19.568558689603378 0 19.568558689603378 -39.614348611197784 0 0 0 0 -5.0280548871946422 16.641515343099108 0 16.641515343099108 -6.4053183057407388 0 0 0 0 -9.2164385399403272 47.044297629527136 0 47.044297629527136 27.238970999718731 0 0 0 0 -11.826982593254762 17.745443875974097 0 17.745443875974097 -2.9542370425150217 0 0 0 0 -14.67767732680386 33.012655033922783 0 33.012655033922783 -2.3706802452652482 0 0 0 0 1.4502414539570054 86.519471209752737 0 86.519471209752737 2.2021502326824702 0 0 0 0 4.9567288467787876 103.01888594775664 0 103.01888594775664 66.492648991872557 0 0 0 0 -148.11100338361621 101.17531775906536 0 101.17531775906536 156.91630081448875 0 0 0 0 -38.937429089518446 8.7044513985019876 0 8.7044513985019876 134.40284896107551 0 0 0 0 -39.848800343649941 -21.266378274718591 0 -21.266378274718591 38.876917493405927 0 0 0 0 -18.790373872202426 18.183562467328755 0 18.183562467328755 -4.8827799255463837 0 0 0 0 -49.659621242501998 53.298973185894283 0 53.298973185894283 45.996256309450473 0 0 0 0 153.17216397267106 254.23876227292203 0 254.23876227292203 299.61991686992042 0 0 0 0 508.20704905245429 349.57436310344929 0 349.57436310344929 314.24996265714435 0 0 0 0 79.9719516931209 198.75403947613086 0 198.75403947613086 -22.051949942779174 0 0 0 0 197.34686373052864 165.42863530694376 0 165.42863530694376 -42.361981736772577 0 0 0 0 -3.3346375085725324 -0.46525416231844474 0 -0.46525416231844474 13.100962735608022 0 0 0 0 0.83600252473773295 -1.5802370253894722 0 -1.5802370253894722 1.6964534769357726 0 0 0 0 -274.9338252355808 -196.09492119984134 0 -196.09492119984134 207.43900676024532 0 0 0 0 -30.73650940727839 18.618661442837038 0 18.618661442837038 51.552592552357964 0 0 0 0 -25.173967584866659 105.85752511392639 0 105.85752511392639 104.90069915745698 0 0 0 0 105.94775282261071 63.595106189284706 0 63.595106189284706 27.86364237946691 0 0 0 0 -90.181828979815691 47.504619363513484 0 47.504619363513484 190.80159378603275 0 0 0 0 -7.0051950190905226 -1.007694976804153 0 -1.007694976804153 11.052994526938733 0 0 0 0 23.773325914557972 -25.307260114808741 0 -25.307260114808741 149.66511800876469 0 0 0 0 -165.37198128593172 -83.9612411260714 0 -83.9612411260714 43.009914270223817 0 0 0 0 -217.02430776956723 -30.802414878688978 0 -30.802414878688978 153.92122972862853 0 0 0 0 -7.38669066312137 -2.003399443097436 0 -2.003399443097436 20.826410482413891 0 0 0 0 126.29170395137919 238.81183079009134 0 238.81183079009134 327.68607430502016 0 0 0 0 -226.27858268877026 106.03617224919435 0 106.03617224919435 117.80990073159046 0 0 0 0 -116.56797112202457 -2.1728131301642861 0 -2.1728131301642861 99.978893840772798 0 0 0 0 -31.50517210115504 81.795853895397158 0 81.795853895397158 79.475928128886153 0 0 0 0 -43.927537751607815 27.218873233039631 0 27.218873233039631 1.7079643869001302 0 0 0 0 -51.893363727979704 30.053386221334222 0 30.053386221334222 6.0520396080391947 0 0 0 0 -95.030151460227671 -42.50337934752315 0 -42.50337934752315 24.577621714270208 0 0 0 0 129.05621627112308 198.10241597416825 0 198.10241597416825 232.95200107482378 0 0 0 0 -10.403933679221154 18.271125083148945 0 18.271125083148945 1.6223422119765019 0 0 0 0 -9.3609150503437064 9.6567883469349454 0 9.6567883469349454 3.8746721263574955 0 0 0 0 -10.978399133542553 19.352216792787658 0 19.352216792787658 2.1036224849085556 0 0 0 0 -12.477028214274469 18.477576498924464 0 18.477576498924464 1.6582712694362272 0 0 0 0 -12.687514089863701 11.57099031813739 0 11.57099031813739 12.435655432540827 0 0 0 0 -12.870836719906038 14.265343795843364 0 14.265343795843364 -2.0343804043950513 0 0 0 0 -54.954718800107003 60.619522323249839 0 60.619522323249839 -10.830258931149729 0 0 0 0 -50.167803841615751 1.4549825871508801 0 1.4549825871508801 -70.945521584988455 0 0 0 0 -42.049599625818701 45.729044384512235 0 45.729044384512235 -50.410380935871217 0 0 0 0 -58.449330473882128 14.435846162072266 0 14.435846162072266 -7.6311468605417758 0 0 0 0 -29.729254632472475 43.553491032304009 0 43.553491032304009 -46.069987134309486 0 0 0 0 -36.36474788565647 61.43462262461253 0 61.43462262461253 -7.0541618790011853 0 0 0 0 -18.251136030362332 21.378089071592591 0 21.378089071592591 -9.015541047470407 0 0 0 0 -2.335589912139767 54.255058109352831 0 54.255058109352831 -6.9759627033199649 0 0 0 0 -29.238595916491249 57.70036786457058 0 57.70036786457058 -1.5509295396623202 0 0 0 0 -8.6626888522296213 116.12264172109644 0 116.12264172109644 14.252072524279356 0 0 0 0 9.1002445262456604 86.672635606402764 0 86.672635606402764 15.823822831094731 0 0 0 0 -17.188419103254091 47.018622730298375 0 47.018622730298375 -0.32808619702700526 0 0 0 0 -36.875049659298384 64.060358740360243 0 64.060358740360243 -4.1730701877386309 0 0 0 0 -23.051639505665662 58.531405730260303 0 58.531405730260303 -13.772801347455243 0 0 0 0 12.750248442071097 49.485895813137176 0 49.485895813137176 -9.303253956430126 0 0 0 0 -31.97185133527455 43.69551910753944 0 43.69551910753944 0.23776490103045944 0 0 0 0 -18.268538875714512 60.696627837067354 0 60.696627837067354 5.3853604264149908 0 0 0 0 11.871950309345266 17.214857375860447 0 17.214857375860447 -62.38099249638617 0 0 0 0 20.216421869240548 37.035069635530817 0 37.035069635530817 -17.449597012542654 0 0 0 0 -61.885889785053223 43.113683336763643 0 43.113683336763643 11.207950979121961 0 0 0 0 -11.193321408139127 -7.145524529623799 0 -7.145524529623799 21.594348403974436 0 0 0 0 -10.511745568968763 14.191222635883605 0 14.191222635883605 9.3942096102691721 0 0 0 0 -24.017546307271793 31.750176590395391 0 31.750176590395391 -10.10101214656747 0 0 0 0 -22.875187166511751 15.346360067858768 0 15.346360067858768 10.410848183984854 0 0 0 0 -19.010967034770147 21.705532905762084 0 21.705532905762084 -2.9712767487217207 0 0 0 0 -24.602980964143171 22.113043166518764 0 22.113043166518764 8.9786681185432826 0 0 0 0 -16.551212851973105 15.99123158587463 0 15.99123158587463 3.4991799901799823 0 0 0 0 -23.49854760256229 17.73870773782199 0 17.73870773782199 9.4830897603511062 0 0 0 0 -89.237527303885145 -3.0665443439866067 0 -3.0665443439866067 12.61147446545192 0 0 0 0 -71.162481892599317 44.714963079466543 0 44.714963079466543 0.34924573984608287 0 0 0 0 -232.36951948619389 170.34038726038125 0 170.34038726038125 45.222115067750565 0 0 0 0 -37.414824809158745 101.77398416128563 0 101.77398416128563 51.607669945471571 0 0 0 0 -258.96801743117612 189.01787498880731 0 189.01787498880731 75.314518694234721 0 0 0 0 0.33343511639889556 4.071236300483406 0 4.071236300483406 -1.5040525670613185 0 0 0 0 2.592478059050336 33.201888634321222 0 33.201888634321222 -76.914035860827425 0 0 0 0 11.871950309236126 17.214857375896827 0 17.214857375896827 -62.380992496353429 0 0 0 0 -4.9722294060331187 20.483149743566763 0 20.483149743566763 -22.396549754326202 0 0 0 0 -8.4653229787044211 14.008065160680914 0 14.008065160680914 -4.7397772601295785 0 0 0 0 11.871950309228851 17.214857375860447 0 17.214857375860447 -62.380992496298859 0 0 0 0 -10.440288874346713 16.069458999464274 0 16.069458999464274 0.7852531831420464 0 0 0 0 -9.5701020280303055 20.572784279855114 0 20.572784279855114 -1.5438463204263826 0 0 0 0 -9.1253750799805857 15.735720832621155 0 15.735720832621155 -14.967998841765052 0 0 0 0 -12.819226269013598 19.764408286901016 0 19.764408286901016 3.930288339870458 0 0 0 0 -10.636664321904391 21.324918689591868 0 21.324918689591868 -0.7892469367798185 0 0 0 0 -12.717011550307006 20.995593940467643 0 20.995593940467643 0.97020881218486466 0 0 0 0 -18.385788620660605 18.738335227571952 0 18.738335227571952 1.1003718352112628 0 0 0 0 -13.689976721596395 15.306990880708327 0 15.306990880708327 -8.4153097552107283 0 0 0 0 -18.197476906539123 11.555361768681905 0 11.555361768681905 0.84591268219446647 0 0 0 0 -16.849230510913912 13.774928263155743 0 13.774928263155743 2.313350712065585 0 0 0 0 -19.081516573263798 14.682560230838135 0 14.682560230838135 5.4556509611720685 0 0 0 0 -16.023137915446569 18.414877073402749 0 18.414877073402749 7.16451793372471 0 0 0 0 -18.007001919050708 16.733706839188017 0 16.733706839188017 8.7342150726472028 0 0 0 0 -20.579638835992228 -41.76522434022263 0 -41.76522434022263 203.97832217688119 0 0 0 0 -19.559470810334265 15.642646054912014 0 15.642646054912014 13.507805793583568 0 0 0 0 -35.114748480891649 79.257334750898735 0 79.257334750898735 -119.75268024060733 0 0 0 0 -19.784576325819216 10.57490747162592 0 10.57490747162592 14.17313966508118 0 0 0 0 -17.935115899606899 18.46465437198276 0 18.46465437198276 9.3828000247085583 0 0 0 0 80.328283207141794 -60.771559566390351 0 -60.771559566390351 129.8347107387126 0 0 0 0 -0.83472858802349492 0.34621300169561664 0 0.34621300169561664 0.6540768740214169 0 0 0 0 -10.707685740888337 12.702858824883151 0 12.702858824883151 2.6759026307827298 0 0 0 0 -1.0930358420064366 -4.1103808284248942 0 -4.1103808284248942 12.828692196212774 0 0 0 0 -28.671271704846731 48.073220822501753 0 48.073220822501753 -66.790993928490934 0 0 0 0 -33.001713331259452 34.156713748787297 0 34.156713748787297 -28.259531224866805 0 0 0 0 -29.233871530455872 41.099666489944866 0 41.099666489944866 -27.17224771484689 0 0 0 0 -32.647529324852258 50.34396258765446 0 50.34396258765446 -24.552355551510118 0 0 0 0 -29.228245389371295 16.22949942878131 0 16.22949942878131 19.99511889497262 0 0 0 0 1.3144260528107807 2.3133009099359825 0 2.3133009099359825 4.9539234920946171 0 0 0 0 -39.524998311375384 37.643896153213063 0 37.643896153213063 -19.187557658208334 0 0 0 0 -33.297173048029435 34.43640257458901 0 34.43640257458901 -18.440086775975942 0 0 0 0 -39.485953809076818 38.644039624439756 0 38.644039624439756 -17.073346791617951 0 0 0 0 -0.41211988463282978 29.123002461519718 0 29.123002461519718 -0.57620910134210135 0 0 0 0 -9.0307109399045089 22.021569512131379 0 22.021569512131379 10.424419622242567 0 0 0 0 -22.604584898524081 33.232941595785633 0 33.232941595785633 -0.60998573411779944 0 0 0 0 0.71154569535307388 6.2017584371417129 0 6.2017584371417129 5.1886952528994641 0 0 0 0 -8.7466337216105785 32.342329046698097 0 32.342329046698097 -4.6776899835713266 0 0 0 0 -13.591264634769686 12.168280482652335 0 12.168280482652335 -1.1742269738938376 0 0 0 0 -2.1056364505766396 26.364595349316005 0 26.364595349316005 32.723686602770613 0 0 0 0 3.5134965339748305 12.98462110451419 0 12.98462110451419 9.8845452375899185 0 0 0 0 -12.648823317665119 18.671907418492992 0 18.671907418492992 27.496131183870602 0 0 0 0 -11.197994839710191 -9.5817013186915574 0 -9.5817013186915574 54.892283711342316 0 0 0 0 -19.504216740198899 4.8803739347604278 0 4.8803739347604278 29.982985986767744 0 0 0 0 -28.790577032210876 82.119043987098848 0 82.119043987098848 -22.806630759372638 0 0 0 0 -1.058637776754793 1.0474256016361565 0 1.0474256016361565 0.59301757623072504 0 0 0 0 55.784463309537387 74.057086981296379 0 74.057086981296379 1.5546098149570753 0 0 0 0 0.16712471119072347 0.83311952530060296 0 0.83311952530060296 1.8587949265515533 0 0 0 0 -11.004351362909802 -39.511755286835978 0 -39.511755286835978 107.07980362432863 0 0 0 0 1.1016954356146016 31.010672965994672 0 31.010672965994672 -21.145555212757245 0 0 0 0 -7.5158091327393777 -11.474530774848972 0 -11.474530774848972 30.518975141763804 0 0 0 0 -19.678261002295585 1.7826650485599203 0 1.7826650485599203 17.331756462834164 0 0 0 0 -0.6262143947871408 0.81419533103812114 0 0.81419533103812114 0.52496711860622725 0 0 0 0 -5.6511687457241351 82.73597666243586 0 82.73597666243586 -43.445551629056354 0 0 0 0 131.59265756097375 71.232919125788612 0 71.232919125788612 103.1228288336315 0 0 0 0 -41.999199839567154 114.77453815062472 0 114.77453815062472 217.42083945860941 0 0 0 0 -27.048301284521585 65.263963803266961 0 65.263963803266961 188.08527672938362 0 0 0 0 73.841142088464039 -18.643848191186407 0 -18.643848191186407 122.26220126159023 0 0 0 0 -20.908238459396671 58.375882880183781 0 58.375882880183781 41.05280177777604 0 0 0 0 -78.278023517475958 45.988410682291942 0 45.988410682291942 136.06566653233858 0 0 0 0 -88.360544407027191 12.737605193807212 0 12.737605193807212 33.672037892603839 0 0 0 0 -47.157480735800164 71.327791729321689 0 71.327791729321689 57.672878399745969 0 0 0 0 -50.09892518637389 61.570570897216385 0 61.570570897216385 25.532975021240418 0 0 0 0 18.833639168473383 75.143976623523486 0 75.143976623523486 -6.3000346143708157 0 0 0 0 -14.330546935521852 31.367115380580799 0 31.367115380580799 -23.037267212166626 0 0 0 0 -7.0052311376812213 48.276185466804236 0 48.276185466804236 -26.239778611234215 0 0 0 0 -11.980261645512655 51.100049221298832 0 51.100049221298832 -21.628540261695889 0 0 0 0 -18.159134237132093 51.532767882450571 0 51.532767882450571 -20.842383833311033 0 0 0 0 -79.212016396053514 58.654758137221506 0 58.654758137221506 25.491075033958623 0 0 0 0 -17.635679956903914 54.722280358895659 0 54.722280358895659 -21.46100219733853 0 0 0 0 -47.280770360448514 59.912100586370798 0 59.912100586370798 -14.821731932519469 0 0 0 0 -35.933268364975447 30.990482417961175 0 30.990482417961175 -17.078372531872446 0 0 0 0 13.984784456501302 -16.662012740119508 0 -16.662012740119508 173.43852219242035 0 0 0 0 -10.821327865829517 37.389605101458073 0 37.389605101458073 -17.623474470834481 0 0 0 0 -12.064469308970729 31.888805906957714 0 31.888805906957714 -8.9253294889967947 0 0 0 0 -19.335900212828644 17.772605560158581 0 17.772605560158581 11.911645839626207 0 0 0 0 -18.819301377355259 49.33963601919487 0 49.33963601919487 -19.031519452066277 0 0 0 0 -54.136447527447672 21.512240503516296 0 21.512240503516296 27.1306074994136 0 0 0 0 -1.6133505300806661 0.57413661355556656 0 0.57413661355556656 -0.65591244799939119 0 0 0 0 -18.966584975933245 42.516945149868604 0 42.516945149868604 -4.286846784845693 0 0 0 0 -18.403600288220332 43.578751679538982 0 43.578751679538982 -32.166948749396397 0 0 0 0 -16.929758887542391 16.931244491663961 0 16.931244491663961 12.999065061191992 0 0 0 0 3.8891005610348657 -62.850503587760613 0 -62.850503587760613 210.64870214513576 0 0 0 0 -9.3074682406004285 40.574295563143096 0 40.574295563143096 -31.174792219728261 0 0 0 0 -23.68470381822312 18.096148307685166 0 18.096148307685166 -4.0988349917849831 0 0 0 0 25.831755795203208 75.403095312174628 0 75.403095312174628 12.057312854369229 0 0 0 0 28.078831199294655 186.67056560311903 0 186.67056560311903 66.650398167075764 0 0 0 0 15.895775563727511 25.349392158772389 0 25.349392158772389 28.197647045764825 0 0 0 0 10.820558298997639 1.4339415341601125 0 1.4339415341601125 -38.428381706544315 0 0 0 0 28.944112904309804 82.96635287474237 0 82.96635287474237 -43.116413148280117 0 0 0 0 -29.744378311894252 -83.535524012433598 0 -83.535524012433598 171.80465886686693 0 0 0 0 -80.296822326830807 36.261897742483598 0 36.261897742483598 25.362168086059683 0 0 0 0 2.6795056094078973 24.74486106243603 0 24.74486106243603 -1.34710353815899 0 0 0 0 -13.773984249612113 53.989614632024313 0 53.989614632024313 -5.9080082898435649 0 0 0 0 -3.4101114476931755 1.5903731223281632 0 1.5903731223281632 9.2181158465919353 0 0 0 0 -61.36810168838565 70.939520807984081 0 70.939520807984081 3.5229433302138204 0 0 0 0 -44.256657744372205 38.68142689610977 0 38.68142689610977 12.433962097864423 0 0 0 0 6.2239074890981527 14.290306118992021 0 14.290306118992021 5.6960057990132427 0 0 0 0 -35.009889696073515 21.947702444243987 0 21.947702444243987 18.145074874977581 0 0 0 0 -0.34106046539586288 0.45579770881074388 0 0.45579770881074388 16.113685755757146 0 0 0 0 -16.499836428068193 6.1887142462483098 0 6.1887142462483098 30.399865483486792 0 0 0 0 246.56687000576494 151.10471162205431 0 151.10471162205431 61.867179081331415 0 0 0 0 68.067584139409519 102.48002618629471 0 102.48002618629471 187.93371789041703 0 0 0 0 -97.600751272184425 11.508163116985088 0 11.508163116985088 15.613767625996843 0 0 0 0 -87.517729918599798 68.918584711231233 0 68.918584711231233 58.150277359090978 0 0 0 0 -29.950572747127808 29.007318915357246 0 29.007318915357246 18.971589316202881 0 0 0 0 -107.37405146046513 40.88523779838215 0 40.88523779838215 -4.5633544667070964 0 0 0 0 -169.60764314333301 6.4313000243682836 0 6.4313000243682836 49.922604036095436 0 0 0 0 -0.99876084647559438 0.0046099739072271717 0 0.0046099739072271717 10.229244659724486 0 0 0 0 383.88778898890996 274.21612328625088 0 274.21612328625088 142.76002158910705 0 0 0 0 204.12896595051188 207.12055099420195 0 207.12055099420195 176.30172168730496 0 0 0 0 214.87569224574872 237.54279394431069 0 237.54279394431069 148.43441270707444 0 0 0 0 185.02834496789001 227.13143638379006 0 227.13143638379006 168.97634028862376 0 0 0 0 186.48028866082677 214.68991124673994 0 214.68991124673994 163.16454959733892 0 0 0 0 37.338251066061275 254.06220391624265 0 254.06220391624265 191.52074881722911 0 0 0 0 177.635713433001 266.26097357199251 0 266.26097357199251 169.972042890593 0 0 0 0 -45.163370113839846 322.83840966867319 0 322.83840966867319 191.83159212575902 0 0 0 0 -37.551419228581835 325.92572858341646 0 325.92572858341646 167.36192661522728 0 0 0 0 -153.45268843501708 376.97323079415219 0 376.97323079415219 199.02355820536104 0 0 0 0 30.563029548361555 246.2531044717889 0 246.2531044717889 199.972427229819 0 0 0 0 -87.241328508582228 310.13059285644704 0 310.13059285644704 214.22971460543613 0 0 0 0 -87.775032405606908 302.76504153019323 0 302.76504153019323 193.67421477942844 0 0 0 0 -167.68916616997558 428.16329418880105 0 428.16329418880105 51.077433767743059 0 0 0 0 -327.57025097683436 372.7964953430801 0 372.7964953430801 195.20675052102888 0 0 0 0 -80.564264710759744 192.22421515273891 0 192.22421515273891 109.74382827805391 0 0 0 0 -135.27534381975602 124.69897150714496 0 124.69897150714496 55.871263979821379 0 0 0 0 80.377390543111687 65.231985306520073 0 65.231985306520073 -3.5069531371755147 0 0 0 0 -19.88358037697617 7.0093074135038478 0 7.0093074135038478 37.107226773703587 0 0 0 0 -0.28532423837267729 4.1826208391708004 0 4.1826208391708004 2.598081206252445 0 0 0 0 -42.097979636446325 47.060132595981486 0 47.060132595981486 -30.590358954395924 0 0 0 0 62.354090147775423 12.299061795110902 0 12.299061795110902 -48.245199951998075 0 0 0 0 101.78145367248817 166.1689043185479 0 166.1689043185479 280.5565593861611 0 0 0 0 1.6406510144387809 -0.12910421532386351 0 -0.12910421532386351 3.0779537592711819 0 0 0 0 37.230913130078989 24.755619368264888 0 24.755619368264888 -27.459168502748071 0 0 0 0 183.80637364593349 280.32518685000468 0 280.32518685000468 127.45732292435423 0 0 0 0 -34.433200434445553 146.26369819105366 0 146.26369819105366 266.61991168359964 0 0 0 0 90.43759319930723 353.90691905729545 0 353.90691905729545 40.469308381649171 0 0 0 0 66.48014563916513 208.04462023354608 0 208.04462023354608 -39.158172865289089 0 0 0 0 -25.57067721407293 162.42860427770029 0 162.42860427770029 -45.599026833782773 0 0 0 0 29.00369157788009 317.93440321222988 0 317.93440321222988 20.936630207375856 0 0 0 0 -71.612032038689676 280.65842133266142 0 280.65842133266142 47.619643314588757 0 0 0 0 -48.091366496938463 388.85163997197105 0 388.85163997197105 137.4853282396507 0 0 0 0 -46.759679056778623 379.40065886706907 0 379.40065886706907 76.843265346387852 0 0 0 0 -65.795746354866424 337.09555454790825 0 337.09555454790825 92.217471305069921 0 0 0 0 -67.592682778620656 336.65559334983845 0 336.65559334983845 182.28966417097035 0 0 0 0 -96.811308468504649 414.5769409447912 0 414.5769409447912 124.49032892240029 0 0 0 0 -95.520085532675694 411.41710412745761 0 411.41710412745761 123.87285039830385 0 0 0 0 -107.91050836172144 539.27917026200976 0 539.27917026200976 -21.905541023093974 0 0 0 0 -192.52783733926481 443.11846399173555 0 443.11846399173555 117.15999198637337 0 0 0 0 -28.887648934286517 444.7306874298738 0 444.7306874298738 74.68966250133235 0 0 0 0 -11.053822225927433 451.71120795333081 0 451.71120795333081 71.854707451038848 0 0 0 0 300.08229984135505 422.34885742697224 0 422.34885742697224 -6.6631649751634541 0 0 0 0 207.02690736251316 385.10593477363363 0 385.10593477363363 32.156810356691494 0 0 0 0 72.251445543313821 397.38882609443135 0 397.38882609443135 76.662395293962618 0 0 0 0 65.728591225654441 335.26859061444861 0 335.26859061444861 79.273206736776046 0 0 0 0 188.11386211490299 398.62586283560449 0 398.62586283560449 177.48366142416126 0 0 0 0 315.00739021172649 375.28451389199108 0 375.28451389199108 -1.7763803664638544 0 0 0 0 148.09221918933144 452.53103883452513 0 452.53103883452513 25.906944483547704 0 0 0 0 146.10494030532936 299.99720857979446 0 299.99720857979446 -53.902243433002695 0 0 0 0 101.0163176691658 309.5738072883214 0 309.5738072883214 25.850707753554161 0 0 0 0 49.230753512841147 460.51755075201891 0 460.51755075201891 -113.06618428629736 0 0 0 0 100.28940188485285 382.44235829707395 0 382.44235829707395 -34.172293812514908 0 0 0 0 -66.128128005315375 455.25782264411464 0 455.25782264411464 -86.285563482198995 0 0 0 0 132.71278931512097 266.2027168393106 0 266.2027168393106 -242.7701936082176 0 0 0 0 79.019896758502 0.14974514576533693 0 0.14974514576533693 -247.79544586309567 0 0 0 0 16.580529687658782 410.7698309944517 0 410.7698309944517 -420.6595577965054 0 0 0 0 31.335473744655246 101.41015615683864 0 101.41015615683864 -99.745202070298546 0 0 0 0 1.5734785159875173 -7.7139180323210894 0 -7.7139180323210894 2.5154077301949656 0 0 0 0 18.718614103755954 93.856199401800495 0 93.856199401800495 211.50762680444313 0 0 0 0 1.3449635492793774 -0.32308997987901478 0 -0.32308997987901478 0.25410070954959174 0 0 0 0 126.36353343315022 172.73837094000555 0 172.73837094000555 -26.484644437314273 0 0 0 0 -4.3420138743476855 111.82704102351818 0 111.82704102351818 190.56507559106467 0 0 0 0 111.84739956012982 168.49912641182937 0 168.49912641182937 211.74827003924293 0 0 0 0 65.673796025876072 239.38988280619378 0 239.38988280619378 108.48485275042094 0 0 0 0 -888.81909847588213 -49.189456246131158 0 -49.189456246131158 70.147484217503006 0 0 0 0 87.434065273743499 471.06982719909934 0 471.06982719909934 -686.92066924840037 0 0 0 0 -7.1935338115985559 4.9602279717869706 0 4.9602279717869706 -3.4670607612526538 0 0 0 0 -223.16708998984723 276.82055688673972 0 276.82055688673972 -331.70247628571815 0 0 0 0 -28.14343605430804 -106.76269634078562 0 -106.76269634078562 257.32655178327695 0 0 0 0 12.823519129848137 84.932723265446839 0 84.932723265446839 75.766155653191163 0 0 0 0 -29.200233180469695 265.34946282810779 0 265.34946282810779 284.58375657056604 0 0 0 0 -17.466472932150882 12.265664811907008 0 12.265664811907008 -8.6856096715845439 0 0 0 0 -92.582653358629614 -58.260724789088272 0 -58.260724789088272 1.0721732193051139 0 0 0 0 11.714711502483624 99.673028733854153 0 99.673028733854153 4.6996674769065976 0 0 0 0 -528.6650746646992 215.29304636543748 0 215.29304636543748 109.22184093991098 0 0 0 0 -338.69302329374477 352.27964964190687 0 352.27964964190687 38.295972784406331 0 0 0 0 -62.708811011580337 450.08387011941113 0 450.08387011941113 -319.97862052913115 0 0 0 0 -493.82908443322776 576.50437945338854 0 576.50437945338854 -14.343437866469685 0 0 0 0 -211.37192843712546 418.47705813000721 0 418.47705813000721 -251.04961032999199 0 0 0 0 -318.23608714946204 694.85575832272116 0 694.85575832272116 -948.37793719274123 0 0 0 0 -1080.4864733172362 661.28424513910795 0 661.28424513910795 -83.037313231734515 0 0 0 0 -625.92610381069471 49.99185908887921 0 49.99185908887921 -559.23498982499586 0 0 0 0 -913.42049021538878 735.34183869309436 0 735.34183869309436 -509.53750323783606 0 0 0 0 -194.98208559814339 267.13057080366161 0 267.13057080366161 -474.04050700124571 0 0 0 0 -2.8358346699296355 1.1511855245059728 0 1.1511855245059728 -0.54499986011256851 0 0 0 0 -30.446207001112271 38.348498320325234 0 38.348498320325234 89.383033148875256 0 0 0 0 3.8892654105008475 3.3456340391324488 0 3.3456340391324488 -1.4535081875741795 0 0 0 0 13.383476587096084 6.4457067719995393 0 6.4457067719995393 -5.9536519923531159 0 0 0 0 23.252621003963213 -18.666526500344844 0 -18.666526500344844 -68.277476955230668 0 0 0 0 -24.291437366453714 4.8467414221341443 0 4.8467414221341443 0.61398183115683391 0 0 0 0 -496.47670148357429 236.92256787192855 0 236.92256787192855 -25.692449357225996 0 0 0 0 -130.94945667282354 460.26510308299112 0 460.26510308299112 -488.55140691476845 0 0 0 0 -9.1733728558201122 0.56321849821873116 0 0.56321849821873116 -0.60519877298401958 0 0 0 0 -429.13030191884263 963.86232894980094 0 963.86232894980094 -1328.0382332149784 0 0 0 0 -603.9436064470392 872.27380689665006 0 872.27380689665006 -655.32706409964635 0 0 0 0 -162.55170120475486 319.75714026531023 0 319.75714026531023 -312.04942165708053 0 0 0 0 -1112.6750552810481 801.03867866214205 0 801.03867866214205 -414.27893839469652 0 0 0 0 -555.93067035796048 38.258562851833631 0 38.258562851833631 -504.93936364233377 0 0 0 0 -844.85414730550428 745.05404970938901 0 745.05404970938901 -330.0176561980843 0 0 0 0 -427.57540384436561 378.90613175644648 0 378.90613175644648 -91.515645141098503 0 0 0 0 -236.26464761665829 23.026750900669867 0 23.026750900669867 -49.466939250589348 0 0 0 0 -127.70165332378383 149.73573066235258 0 149.73573066235258 -184.31026545582426 0 0 0 0 -142.28285355492255 48.850735791552779 0 48.850735791552779 -20.482438298378838 0 0 0 0 -259.8946037369642 -124.76531440735198 0 -124.76531440735198 183.30039293376831 0 0 0 0 -819.84336318021303 149.51930261451332 0 149.51930261451332 142.66230078097578 0 0 0 0 -16.911804538565775 97.187310010114743 0 97.187310010114743 114.79169964408402 0 0 0 0 -9.0666612062873355 149.05054054801803 0 149.05054054801803 -32.888428622216452 0 0 0 0 19.864505909169566 54.033303596701444 0 54.033303596701444 11.240842124505434 0 0 0 0 36.570533280404561 71.227491141198698 0 71.227491141198698 -6.7078350600058911 0 0 0 0 32.068009984614037 50.297083785557334 0 50.297083785557334 -103.97836301635107 0 0 0 0 24.475099561941533 8.4860717871124507 0 8.4860717871124507 -21.910469719754474 0 0 0 0 0.96550726555630462 18.294231762449357 0 18.294231762449357 -6.4469252881784769 0 0 0 0 30.609741303756891 18.204006319865584 0 18.204006319865584 -12.501066468226782 0 0 0 0 26.532199264145675 8.361197418285883 0 8.361197418285883 -35.739481690143293 0 0 0 0 10.139808050617376 50.48249768876417 0 50.48249768876417 -70.029972313524922 0 0 0 0 47.949870244709018 17.586472598604814 0 17.586472598604814 -71.543152132609976 0 0 0 0 -3.5978225926724541 5.0993433164938011 0 5.0993433164938011 -5.2638152931643845 0 0 0 0 -22.018165551773563 48.034984052108484 0 48.034984052108484 -26.578487557015251 0 0 0 0 9.8262646343101281 20.513688151951271 0 20.513688151951271 -10.670923352346648 0 0 0 0 135.12758599024824 54.007599281183502 0 54.007599281183502 -54.705372770018585 0 0 0 0 18.28352288849419 44.831805655368953 0 44.831805655368953 -102.33952883552411 0 0 0 0 8.7481293184755486 27.503357673198479 0 27.503357673198479 56.586237456605886 0 0 0 0 -26.837553382683836 135.26146142025391 0 135.26146142025391 32.572157299058745 0 0 0 0 108.2887447013718 -84.532794094910059 0 -84.532794094910059 -21.252636884133608 0 0 0 0 209.13359486050285 26.43733266626441 0 26.43733266626441 -21.036084840980038 0 0 0 0 14.477216154137718 24.263228283285173 0 24.263228283285173 19.285539456366124 0 0 0 0 -87.084449001949906 51.551869919501769 0 51.551869919501769 -64.970349554874701 0 0 0 0 10.599217944345559 6.0681482045428368 0 6.0681482045428368 -44.264962526368436 0 0 0 0 -0.52007064581779616 1.8456328717068544 0 1.8456328717068544 -5.6286145813888169 0 0 0 0 7.2554959832270072 17.651845991360062 0 17.651845991360062 6.7233065168757022 0 0 0 0 -277.08971871369431 276.0656197098433 0 276.0656197098433 -227.99210363280008 0 0 0 0 -285.05745681022381 253.52546710450406 0 253.52546710450406 -226.77356649493709 0 0 0 0 -284.01618296973174 271.21684879723034 0 271.21684879723034 -220.26987944944995 0 0 0 0 -276.56435717005297 282.27031708761569 0 282.27031708761569 -216.68135580168746 0 0 0 0 -254.89570413014371 241.18954846735323 0 241.18954846735323 -204.63574215769768 0 0 0 0 -421.84072460533935 361.18887149409056 0 361.18887149409056 -183.91784450119758 0 0 0 0 -283.53411786823926 275.59225436732959 0 275.59225436732959 -205.72782133726287 0 0 0 0 -364.61584524395585 259.65994278993458 0 259.65994278993458 -46.008288544275274 0 0 0 0 192.55080676722901 116.73812889344117 0 116.73812889344117 -218.24826891681732 0 0 0 0 0.3900378697346758 4.078075749830802 0 4.078075749830802 -9.0722812534968682 0 0 0 0 -150.34150452396807 184.33565729847032 0 184.33565729847032 10.7070975458264 0 0 0 0 -144.45947421104938 3.2586535302216362 0 3.2586535302216362 88.601267488309531 0 0 0 0 19.762072360487764 -92.627351926799747 0 -92.627351926799747 24.642046130522431 0 0 0 0 12.84037666444171 14.813692559924306 0 14.813692559924306 18.345174558618595 0 0 0 0 -37.427357401888003 61.216848210136959 0 61.216848210136959 -15.469575299233838 0 0 0 0 -178.38641497119193 24.129647910769108 0 24.129647910769108 -11.406455330456083 0 0 0 0 -93.541701263839059 91.515045803207613 0 91.515045803207613 -101.2482563668018 0 0 0 0 -351.15486622976277 318.7517709411768 0 318.7517709411768 -265.02009123354219 0 0 0 0 -282.54917098364569 143.5714217091587 0 143.5714217091587 -41.769589649498812 0 0 0 0 -125.56154570922445 131.92137922153051 0 131.92137922153051 -8.3473891724715941 0 0 0 0 34.634227313918018 125.60545325296698 0 125.60545325296698 -45.519546545579942 0 0 0 0 138.25120023187083 21.080976936651496 0 21.080976936651496 -82.796465763996821 0 0 0 0 -60.826805646534922 -20.954891614615917 0 -20.954891614615917 -27.802388211610378 0 0 0 0 17.97783352366497 15.182711060666591 0 15.182711060666591 7.1693672226230092 0 0 0 0 119.13887622115999 881.53936643249745 0 881.53936643249745 -1347.2649203916626 0 0 0 0 64.036634885621424 127.25389100812208 0 127.25389100812208 8.9480530960900069 0 0 0 0 -330.92444206096297 302.91219022787845 0 302.91219022787845 -736.01995486051965 0 0 0 0 14.261192547444004 17.675630315400497 0 17.675630315400497 11.118711297298965 0 0 0 0 -262.69336113833742 633.0020918281225 0 633.0020918281225 -691.86560475225815 0 0 0 0 28.141090869909021 61.036866156104225 0 61.036866156104225 -142.01673448587644 0 0 0 0 64.068701848560977 -13.131587083422346 0 -13.131587083422346 -85.061034968988679 0 0 0 0 -21.055413154930648 36.088688545663899 0 36.088688545663899 -40.836763324618914 0 0 0 0 10.011970918569205 3.5440470823850774 0 3.5440470823850774 -48.187292797112605 0 0 0 0 2.5776211592237814 -5.7654671822092496 0 -5.7654671822092496 -18.402371910400689 0 0 0 0 -9.9996596526325447 10.715489326670649 0 10.715489326670649 -28.77333435089713 0 0 0 0 -195.52633375418736 266.62392434338835 0 266.62392434338835 -297.43393560417462 0 0 0 0 -302.1444875657071 352.06028189444169 0 352.06028189444169 -327.53024090633699 0 0 0 0 -357.05015222268958 425.82690262509277 0 425.82690262509277 -277.33546537698567 0 0 0 0 -290.80569783951069 406.67568579345243 0 406.67568579345243 -274.8296290195176 0 0 0 0 -302.2972074285376 454.41788483494702 0 454.41788483494702 -403.63202519466722 0 0 0 0 -242.30245494692372 352.74056034358364 0 352.74056034358364 -439.97491397228441 0 0 0 0 -378.82020181809639 424.33594670195453 0 424.33594670195453 -248.95832195826006 0 0 0 0 -348.46695087596527 490.13907116101291 0 490.13907116101291 -260.81457672605757 0 0 0 0 357.53358385655883 438.92719724093331 0 438.92719724093331 -304.99778246144706 0 0 0 0 -220.55554762019074 306.6446598592338 0 306.6446598592338 -126.70341949191788 0 0 0 0 2.3827512061197922 705.80694526386287 0 705.80694526386287 -360.08922773115046 0 0 0 0 282.4459348931905 232.80551294261022 0 232.80551294261022 109.34927822521422 0 0 0 0 -16.403704799224215 -46.307817732063995 0 -46.307817732063995 12.719461828441126 0 0 0 0 -8.5352230510925438 93.878194808199623 0 93.878194808199623 -869.89214682541933 0 0 0 0 0.26605894938168717 2.5271315133621783 0 2.5271315133621783 -2.8648409433541815 0 0 0 0 -150.87872393417092 483.42013673651672 0 483.42013673651672 494.513429900966 0 0 0 0 -147.7780789576791 478.67833694181536 0 478.67833694181536 -212.96915043900299 0 0 0 0 -333.72435683747062 400.3531659951459 0 400.3531659951459 -245.72403161306647 0 0 0 0 -296.8918725528747 426.77346518980812 0 426.77346518980812 -283.14458586348337 0 0 0 0 -406.24749362604052 363.82254428178385 0 363.82254428178385 69.463042240178765 0 0 0 0 -66.214738171376894 216.04770208095624 0 216.04770208095624 -34.503019185183803 0 0 0 0 -367.86820776431523 289.97828551117709 0 289.97828551117709 0.358465534748585 0 0 0 0 -68.755844313258422 214.54358284424961 0 214.54358284424961 150.97878718454012 0 0 0 0 -81.520818352981223 292.73793393978303 0 292.73793393978303 -0.07731985967620858 0 0 0 0 -357.14132337126102 372.42651647578532 0 372.42651647578532 -207.24675265917176 0 0 0 0 -156.83990713457183 246.09183467652838 0 246.09183467652838 -276.25063203465834 0 0 0 0 -185.45727214911676 17.936994012341529 0 17.936994012341529 59.419390731753083 0 0 0 0 8.305755566102313 10.662515470943326 0 10.662515470943326 12.309083032211817 0 0 0 0 -141.1609057589103 160.42161981406025 0 160.42161981406025 -151.32760396556205 0 0 0 0 -147.43832598674817 33.745937932992092 0 33.745937932992092 63.590683307425934 0 0 0 0 -0.50085262723055735 -0.11405667723555979 0 -0.11405667723555979 -3.3100191921168687 0 0 0 0 239.50058039454052 23.435919567215024 0 23.435919567215024 -151.16982465871843 0 0 0 0 -1012.4199792520776 426.83688036345666 0 426.83688036345666 -89.072864401779952 0 0 0 0 -550.93753473692686 575.8630373342985 0 575.8630373342985 -267.78538666137683 0 0 0 0 -346.09200040120049 356.18216693707654 0 356.18216693707654 -335.61107922374322 0 0 0 0 -353.18213810317229 279.18447217402718 0 279.18447217402718 -41.539129445631261 0 0 0 0 -523.668104189117 265.26259451556871 0 265.26259451556871 -42.158840951055026 0 0 0 0 -408.3555876659666 315.79164613719149 0 315.79164613719149 29.378803704421443 0 0 0 0 -242.28980431648597 234.77397051943444 0 234.77397051943444 -42.287528888693487 0 0 0 0 -237.49982425978669 212.37250169639083 0 212.37250169639083 -132.60495420573625 0 0 0 0 600.17788665700937 493.59189769071963 0 493.59189769071963 52.961996057239048 0 0 0 0 0.61759171803253654 1.002747855107792 0 1.002747855107792 -2.5248333147717119 0 0 0 0 -780.09535996324939 207.25310268202156 0 207.25310268202156 444.96006956131168 0 0 0 0 1.3746527647578688 2.0650738209610608 0 2.0650738209610608 0.34364565825195825 0 0 0 0 901.7558725132676 386.98671145095432 0 386.98671145095432 -640.06306647116799 0 0 0 0 -237.33408069505003 196.76259711846524 0 196.76259711846524 4.2013190193974879 0 0 0 0 791.63012789918139 277.57705601336056 0 277.57705601336056 130.30675856495509 0 0 0 0 3.5840033076022664 4.2204416775538931 0 4.2204416775538931 4.6382469016020593 0 0 0 0 9.3571171263724864 11.506703157205266 0 11.506703157205266 -31.660079522422166 0 0 0 0 1.8707983948202767 6.8309427032688603 0 6.8309427032688603 3.1440838901303323 0 0 0 0 14.367690204417897 10.581206589438807 0 10.581206589438807 -14.336822200122697 0 0 0 0 -2.7831062032264526 8.5000575672966079 0 8.5000575672966079 -0.47956164491552045 0 0 0 0 -160.25557833755101 232.94465522729661 0 232.94465522729661 -210.92522309468768 0 0 0 0 3.0144597244667253 8.5477858144834471 0 8.5477858144834471 4.3069069890376923 0 0 0 0 -171.90068953662012 393.30592934169181 0 393.30592934169181 -589.25238629962769 0 0 0 0 -121.31538445408637 274.97348750949368 0 274.97348750949368 -426.12657769182988 0 0 0 0 -242.35537631992338 448.66760527584847 0 448.66760527584847 -214.13210169591912 0 0 0 0 -218.7718980647951 473.08270980826637 0 473.08270980826637 -242.84441476916982 0 0 0 0 -277.72665340604135 485.86599693701555 0 485.86599693701555 130.16127413022332 0 0 0 0 -387.25952244610107 270.29872054151383 0 270.29872054151383 -110.03689893465707 0 0 0 0 -243.13312264634351 660.99676942043516 0 660.99676942043516 6.4247575935714849 0 0 0 0 -42.459682787677593 537.7410935140997 0 537.7410935140997 -130.38796113659919 0 0 0 0 -185.0897703079163 533.9242250608113 0 533.9242250608113 -111.99392988952604 0 0 0 0 -15.228134324257553 -159.76622729924566 0 -159.76622729924566 8.9478709182913008 0 0 0 0 210.17120478724246 368.66862430148103 0 368.66862430148103 101.92464158339499 0 0 0 0 598.36820601772706 -109.67967129242606 0 -109.67967129242606 -227.80283879917988 0 0 0 0 0.76817355531510434 2.3104254544124636 0 2.3104254544124636 2.4638975186626624 0 0 0 0 477.89932362819309 425.59831378001763 0 425.59831378001763 372.24442563030243 0 0 0 0 707.24731971958386 488.2573527008667 0 488.2573527008667 -62.559718829266785 0 0 0 0 -210.02543541936939 229.20385766971594 0 229.20385766971594 58.14799243039306 0 0 0 0 23.934147407172986 421.6139582877795 0 421.6139582877795 -143.93891821050056 0 0 0 0 -36.591425541691024 76.108876311554923 0 76.108876311554923 -78.833037553042232 0 0 0 0 -199.75478420777046 215.47966244461986 0 215.47966244461986 -147.81545577935321 0 0 0 0 -366.08272041289365 186.29412750307165 0 186.29412750307165 -136.10018261584992 0 0 0 0 -275.10764706349948 298.9321548033862 0 298.9321548033862 -414.67212016027042 0 0 0 0 -359.20734103423842 523.22832725976787 0 523.22832725976787 -674.37194446616923 0 0 0 0 -564.30210457988596 337.83073361267088 0 337.83073361267088 -147.82507630237308 0 0 0 0 -72.224449245380129 543.22395288867847 0 543.22395288867847 -103.68087892472249 0 0 0 0 -168.15332868387623 675.57085549539443 0 675.57085549539443 -150.91000546700525 0 0 0 0 124.87338693938301 150.55039506931007 0 150.55039506931007 -20.41532846676273 0 0 0 0 72.072189696869373 632.24246620596386 0 632.24246620596386 -252.62937552700168 0 0 0 0 -357.15684693222374 881.2735787821839 0 881.2735787821839 -445.00219803068467 0 0 0 0 118.36424485229327 277.53590251602873 0 277.53590251602873 -497.17047233827816 0 0 0 0 317.48213108261007 -18.944001760726678 0 -18.944001760726678 -87.336260027335811 0 0 0 0 -0.24559634487011373 0.36563540443684417 0 0.36563540443684417 -6.4101506501449137 0 0 0 0 115.71751366560693 157.12448512782066 0 157.12448512782066 0.19814539043909463 0 0 0 0 29.423316417211026 104.63077755890481 0 104.63077755890481 32.241847332239558 0 0 0 0 56.768857941526676 94.308864599212029 0 94.308864599212029 3.0501820209392463 0 0 0 0 57.001756170582212 88.565154332094608 0 88.565154332094608 -35.897446166491136 0 0 0 0 133.34735733412344 43.867179279968695 0 43.867179279968695 -28.725059148631772 0 0 0 0 0.46669417001822922 -0.57632750257658927 0 -0.57632750257658927 -18.267495829665705 0 0 0 0 -481.72894439769789 510.23202021282304 0 510.23202021282304 -350.8590579668562 0 0 0 0 -430.94794334217204 412.61957823891498 0 412.61957823891498 -208.01059593740865 0 0 0 0 -408.19179901178632 590.58517580370972 0 590.58517580370972 -838.71304521519414 0 0 0 0 -570.29594485925554 590.1042562153707 0 590.1042562153707 -343.71777008041954 0 0 0 0 -634.48011835910074 512.34676681989367 0 512.34676681989367 -343.84047181066853 0 0 0 0 -1280.863243179896 915.26976635903702 0 915.26976635903702 -431.08584873659493 0 0 0 0 899.38709691733584 907.72175045671429 0 907.72175045671429 433.46751820731151 0 0 0 0 461.72584491638986 277.95837951768226 0 277.95837951768226 402.55076387951704 0 0 0 0 406.6247235663451 385.04263938163058 0 385.04263938163058 197.88177884046308 0 0 0 0 202.15030776708136 323.64472363552704 0 323.64472363552704 386.59317729417671 0 0 0 0 161.64246538277459 472.92162536421165 0 472.92162536421165 466.97948761165753 0 0 0 0 349.74148696287432 406.97990708058842 0 406.97990708058842 315.90995672267309 0 0 0 0 574.95197272561757 642.30734152929062 0 642.30734152929062 443.8409824010887 0 0 0 0 331.50046714591474 472.08046254009332 0 472.08046254009332 607.26534623329644 0 0 0 0 -376.8737855233876 -120.82550089824508 0 -120.82550089824508 -141.21530755572167 0 0 0 0 34.146268427858558 108.36452386822384 0 108.36452386822384 -110.89700503999484 0 0 0 0 65.765291032846108 148.98817101345776 0 148.98817101345776 -21.13332973931756 0 0 0 0 -91.643162077571105 175.61747036621819 0 175.61747036621819 14.620095364996814 0 0 0 0 -94.188605593026296 170.01327181895613 0 170.01327181895613 27.623422764663701 0 0 0 0 55.732388211880334 282.98007113771018 0 282.98007113771018 448.89245845090772 0 0 0 0 -23.015856883343986 23.244001455284888 0 23.244001455284888 -11.216030689623949 0 0 0 0 -0.71356832738231724 0.035426919032317983 0 0.035426919032317983 3.924881068036683 0 0 0 0 -785.50790449567012 -145.78384598160119 0 -145.78384598160119 39.738665332311939 0 0 0 0 -16.315163595685931 62.931056322722725 0 62.931056322722725 -143.85306032231892 0 0 0 0 -117.39371621412488 229.31041075288886 0 229.31041075288886 -96.320226122625172 0 0 0 0 -626.49514613684141 506.37126758914383 0 506.37126758914383 -155.58742084709229 0 0 0 0 -706.4035304809554 157.66812512703586 0 157.66812512703586 224.42113576867268 0 0 0 0 -542.44704283093256 1109.9978844047218 0 1109.9978844047218 404.90959805701823 0 0 0 0 1.1376208755113657 2.5865148123096127 0 2.5865148123096127 1.5082521891270062 0 0 0 0 242.35933823113373 351.52344666786848 0 351.52344666786848 -5.1446534945571329 0 0 0 0 846.54906791344524 162.84058296846433 0 162.84058296846433 -195.3102743324489 0 0 0 0 519.70841719239797 614.18761537509272 0 614.18761537509272 -30.248781724480068 0 0 0 0 42.434563862987488 584.92781364401526 0 584.92781364401526 -161.81531413861376 0 0 0 0 193.22127099811814 152.07158619153415 0 152.07158619153415 -29.486966282205685 0 0 0 0 155.26857952123561 134.26684483280587 0 134.26684483280587 -321.93902801406875 0 0 0 0 261.9697242201525 86.104389295752753 0 86.104389295752753 -62.328150571513106 0 0 0 0 13.557176594035923 613.14741240935473 0 613.14741240935473 508.82994569052516 0 0 0 0 211.87047950194574 298.27326559799258 0 298.27326559799258 246.97218049261573 0 0 0 0 161.30811309099502 137.97321082746748 0 137.97321082746748 81.749191277507634 0 0 0 0 245.79444511494728 204.13416742809204 0 204.13416742809204 -238.78193298142651 0 0 0 0 184.35215491643089 221.51662187062539 0 221.51662187062539 -99.259950664872122 0 0 0 0 153.38223519117929 183.83436188709948 0 183.83436188709948 -135.26919183678183 0 0 0 0 280.0293202343081 215.29988393428357 0 215.29988393428357 -241.30666981949253 0 0 0 0 523.62462697682065 120.05190054474588 0 120.05190054474588 -127.09742308016212 0 0 0 0 33.922771665964092 315.31990881838465 0 315.31990881838465 -250.82258196487237 0 0 0 0 185.44616712058644 252.29085530874727 0 252.29085530874727 131.36416543810446 0 0 0 0 -80.230583761225262 428.96474800236501 0 428.96474800236501 -265.6720625788148 0 0 0 0 -233.49993315235633 333.91017345344881 0 333.91017345344881 -102.93504540670074 0 0 0 0 3.1111200569866195 5.7176349129217954 0 5.7176349129217954 1.3445045111424747 0 0 0 0 -162.96411305467427 240.93077476803501 0 240.93077476803501 -196.24025478511612 0 0 0 0 -542.36083714124607 293.68391542801692 0 293.68391542801692 -199.35736156369626 0 0 0 0 -250.71513066962871 355.82385828600309 0 355.82385828600309 -279.58459340092213 0 0 0 0 -321.84288059897881 458.79098975210945 0 458.79098975210945 -412.91784447825194 0 0 0 0 -255.02500736530419 288.31113601233665 0 288.31113601233665 -581.99617897711141 0 0 0 0 -304.69053103122928 375.23675422625092 0 375.23675422625092 -494.85394260803878 0 0 0 0 -373.40472460603996 486.85754744951555 0 486.85754744951555 -522.88168100810617 0 0 0 0 -112.18685195407352 805.00299309710135 0 805.00299309710135 -1226.0382453735947 0 0 0 0 0.4719580427647756 3.3298742224244222 0 3.3298742224244222 1.0480363402897126 0 0 0 0 3.1573663221497554 518.28724823671291 0 518.28724823671291 650.71782850352974 0 0 0 0 -460.42054007408706 587.7735967542103 0 587.7735967542103 -606.25115111889318 0 0 0 0 -22.029033271359822 1136.0745563302407 0 1136.0745563302407 -399.31826909858501 0 0 0 0 40.435330651482218 -22.765229980308504 0 -22.765229980308504 1.3603915647508984 0 0 0 0 -227.67521825296808 337.77045305001957 0 337.77045305001957 -930.39530066555017 0 0 0 0 398.10507587774453 352.64670695808587 0 352.64670695808587 472.6042238290247 0 0 0 0 106.81564418611879 145.75956063951162 0 145.75956063951162 365.81804486882174 0 0 0 0 395.83383559472537 265.11795973169552 0 265.11795973169552 126.9534277900093 0 0 0 0 1.3219407986129923 2.7833374874894083 0 2.7833374874894083 0.14503121716137457 0 0 0 0 -790.00874836358571 633.60117609252848 0 633.60117609252848 -239.30612341033702 0 0 0 0 767.00718428386142 282.01944034940243 0 282.01944034940243 -19.568882899624441 0 0 0 0 -263.38524459346445 928.30101053153339 0 928.30101053153339 -74.564539839862846 0 0 0 0 -27.290110415090567 801.08607155994832 0 801.08607155994832 279.359414747767 0 0 0 0 -526.62899935904534 1105.4983329164097 0 1105.4983329164097 -27.580524851575319 0 0 0 0 -42.515793843371057 1252.959367024916 0 1252.959367024916 -0.36368046428833622 0 0 0 0 -207.04519063859561 1159.8035789625137 0 1159.8035789625137 -177.16681586877894 0 0 0 0 -192.74198560295417 1233.5034044112399 0 1233.5034044112399 -62.895880556228803 0 0 0 0 -1.3621557582027126 2.9404536922762503 0 2.9404536922762503 -0.91036158059689143 0 0 0 0 -137.20004506286389 449.28501734115707 0 449.28501734115707 -627.46808558611519 0 0 0 0 98.318065044445348 447.00959404295281 0 447.00959404295281 807.12355016683432 0 0 0 0 67.887087366015749 78.250006187976396 0 78.250006187976396 104.46195607062327 0 0 0 0 0.90384023475075992 -25.650140409357846 0 -25.650140409357846 -0.81859644953510724 0 0 0 0 -4.9162585750480705 5.6588911390118426 0 5.6588911390118426 -1.9916689321587882 0 0 0 0 109.73393895176579 172.37438210035452 0 172.37438210035452 199.61855962678965 0 0 0 0 19.665856697430538 79.107713651894301 0 79.107713651894301 123.57381024028655 0 0 0 0 7.4616939359874053 134.20748529492994 0 134.20748529492994 -48.925906565717014 0 0 0 0 90.405207370512244 83.287123277337741 0 83.287123277337741 0.24112507747486234 0 0 0 0 84.647323900769152 236.69137604128991 0 236.69137604128991 233.65456068020285 0 0 0 0 -751.9453740393792 228.12561135187934 0 228.12561135187934 0.20695884443921386 0 0 0 0 169.76754734641327 -78.103992024134641 0 -78.103992024134641 -39.791459307281912 0 0 0 0 -312.76946140772998 780.56541108958481 0 780.56541108958481 -1379.8817908758938 0 0 0 0 -4.8853621474946722 3.4000630649492933 0 3.4000630649492933 -1.5933427143769237 0 0 0 0 -1157.1391385381253 -35.17364661258398 0 -35.17364661258398 491.43523512807587 0 0 0 0 -1754.0962861802018 807.2854934749048 0 807.2854934749048 -1137.2113638014489 0 0 0 0 28.683770923149311 456.45799190100001 0 456.45799190100001 -1102.1517437872099 0 0 0 0 -8.3981907295771983 6.2514316122939704 0 6.2514316122939704 -2.2790073696032422 0 0 0 0 53.488131596725211 369.21299136895323 0 369.21299136895323 -421.34123004248977 0 0 0 0 48.121168511835684 41.573355554841726 0 41.573355554841726 -197.64528397237154 0 0 0 0 -1423.7282574144674 1301.5595782608216 0 1301.5595782608216 -1009.8853845795238 0 0 0 0 -1575.4137815945951 557.15070073805691 0 557.15070073805691 47.996430118408171 0 0 0 0 -855.64183656698015 918.62680393506889 0 918.62680393506889 -819.77630158171814 0 0 0 0 -603.8444952647551 512.53770222658204 0 512.53770222658204 -301.37526187603362 0 0 0 0 -760.66096150043995 672.35254099262238 0 672.35254099262238 -262.79483217013512 0 0 0 0 -937.95794735800871 330.45573158638217 0 330.45573158638217 38.03939957471448 0 0 0 0 -1220.3069637281419 506.19255912298104 0 506.19255912298104 -41.380294878093991 0 0 0 0 -720.77279332042167 315.37524000764824 0 315.37524000764824 0.13991341491782805 0 0 0 0 -343.41953173586654 465.2713804292307 0 465.2713804292307 -187.52476590355218 0 0 0 0 -781.40033945007121 338.34472888207529 0 338.34472888207529 25.302607006753533 0 0 0 0 -122.97797469489163 386.84337171566949 0 386.84337171566949 -171.82550948503012 0 0 0 0 -333.94884253089276 427.82705719246542 0 427.82705719246542 -178.25983023800654 0 0 0 0 184.35567901266015 345.39978171029361 0 345.39978171029361 -225.36184016415791 0 0 0 0 193.49073467243284 274.05565339975328 0 274.05565339975328 -111.49976130540017 0 0 0 0 90.911094377874377 224.78368619486719 0 224.78368619486719 -135.12440181728198 0 0 0 0 57.285311853753228 18.869276316207106 0 18.869276316207106 -30.69620750300237 0 0 0 0 -3.0992918929878215 6.457957259091927 0 6.457957259091927 -2.9881042467532097 0 0 0 0 0.63257320047065946 4.5254568961123169 0 4.5254568961123169 0.33135185370209541 0 0 0 0 32.935292011315255 -14.869629248443857 0 -14.869629248443857 1.8057060264472966 0 0 0 0 -389.7425437913962 282.37281639359389 0 282.37281639359389 -193.63695348735928 0 0 0 0 -10.680914468291121 5.1234488777481602 0 5.1234488777481602 -0.00069080434695933945 0 0 0 0 -3.7445088039357959 -1.0488007503145411 0 -1.0488007503145411 -0.9049580539196711 0 0 0 0 -17.391354755734724 17.239468617201243 0 17.239468617201243 -2.806639176036839 0 0 0 0 -8.6081258139867032 53.354341702817692 0 53.354341702817692 32.147878243958985 0 0 0 0 -36.198851485882273 60.25293222345681 0 60.25293222345681 185.37605665944284 0 0 0 0 -290.12724854022963 136.44334411690215 0 136.44334411690215 -119.88522655442284 0 0 0 0 -26.685037722020407 -1.70495040035496 0 -1.70495040035496 1.163096455466551 0 0 0 0 148.02235024124445 187.4824450366068 0 187.4824450366068 -13.513052043461357 0 0 0 0 40.574109892847446 -211.14906894681189 0 -211.14906894681189 -149.01255738190957 0 0 0 0 -601.13653001448711 300.72114366412643 0 300.72114366412643 0.11582962822649279 0 0 0 0 -224.4576481403642 399.18180711746936 0 399.18180711746936 -336.16979741276737 0 0 0 0 -1254.5160962884529 614.95310118730413 0 614.95310118730413 -134.09219517872225 0 0 0 0 -1059.8010642314548 184.3476869221995 0 184.3476869221995 270.78347707424291 0 0 0 0 -695.24308932811709 -417.00483089285262 0 -417.00483089285262 116.97196530213841 0 0 0 0 -9.9142658618586132 -1.4615703079734317 0 -1.4615703079734317 -0.7283866323491992 0 0 0 0 -1627.7083391882261 879.04123485877062 0 879.04123485877062 -1154.3021474312773 0 0 0 0 -1913.5056310940763 678.62239536289053 0 678.62239536289053 167.92914623572688 0 0 0 0 -1112.7481465710489 1197.400727064738 0 1197.400727064738 -1038.4619554295277 0 0 0 0 -762.63962693589838 -112.11422611083253 0 -112.11422611083253 -100.93651528231567 0 0 0 0 -2129.1827090264173 -255.31322127082649 0 -255.31322127082649 159.80642877407081 0 0 0 0 -983.19004899766833 -210.10745514996233 0 -210.10745514996233 -60.903405974939233 0 0 0 0 -2260.5758751021885 1073.0305087083907 0 1073.0305087083907 -318.86039961976348 0 0 0 0 -429.50717404315287 -261.59030589915346 0 -261.59030589915346 -141.89178272239224 0 0 0 0 -837.89319070415229 -282.68419355449805 0 -282.68419355449805 -84.956024341707234 0 0 0 0 -785.4647557202029 -26.768104243812559 0 -26.768104243812559 -18.517365689825965 0 0 0 0 -822.37185252185645 -133.13290612362471 0 -133.13290612362471 29.598357610560925 0 0 0 0 -843.42947788428091 97.472944764915155 0 97.472944764915155 74.05308274935669 0 0 0 0 -1386.5946132755646 13.900847784832877 0 13.900847784832877 109.08155031294154 0 0 0 0 -746.34344565411561 68.612298932686826 0 68.612298932686826 100.5671278622176 0 0 0 0 -796.57921415046735 48.100887394004531 0 48.100887394004531 120.30287268979737 0 0 0 0 -505.28055375028623 -2.5576669544097967 0 -2.5576669544097967 93.268493466170185 0 0 0 0 -516.38388125994982 -15.036867523263936 0 -15.036867523263936 21.592819711513584 0 0 0 0 -519.07269910951572 -87.390061871309854 0 -87.390061871309854 19.420930910651805 0 0 0 0 -110.79404480654742 -58.600494684702426 0 -58.600494684702426 -110.10125726889237 0 0 0 0 -235.84055583199131 75.301337311349926 0 75.301337311349926 90.174888726891368 0 0 0 0 -522.8094381874057 -43.919358740837197 0 -43.919358740837197 154.32993382456698 0 0 0 0 -187.86044256700799 -14.866118415415258 0 -14.866118415415258 -39.015305128777982 0 0 0 0 -179.01051015667372 -28.822990737560758 0 -28.822990737560758 -150.58997369774443 0 0 0 0 -15.642579879844426 -29.589164912285923 0 -29.589164912285923 -130.113875804911 0 0 0 0 22.440099908295338 3.2970036528040509 0 3.2970036528040509 -82.56082704468281 0 0 0 0 8.295971469570091 80.813544897167958 0 80.813544897167958 9.4691302157007158 0 0 0 0 -57.259347422915255 31.519205150805647 0 31.519205150805647 -6.0462184751522727 0 0 0 0 1.5751093169093739 -1.2840463950166736 0 -1.2840463950166736 -0.70843477312364911 0 0 0 0 37.01647320080906 35.879646909750591 0 35.879646909750591 -20.771232469897768 0 0 0 0 0.34456775859194022 9.168380901132906 0 9.168380901132906 -2.3406698880706642 0 0 0 0 -16.150816960607045 42.649945848188509 0 42.649945848188509 38.10218774092391 0 0 0 0 -13.632117346418559 21.762818218957058 0 21.762818218957058 -8.0625927165111761 0 0 0 0 57.022641748903879 79.795112505355064 0 79.795112505355064 -28.15231723710167 0 0 0 0 47.307687892147442 28.377816900112521 0 28.377816900112521 -7.5415109568639309 0 0 0 0 -6.7352815800568351 15.944469420694077 0 15.944469420694077 2.4484193002499524 0 0 0 0 -26.741311940188712 4.9089281806571705 0 4.9089281806571705 3.4769441885942989 0 0 0 0 -2.420241322101802 12.009497884087978 0 12.009497884087978 -6.8207695502351271 0 0 0 0 -6.3756270987759933 39.14495659977365 0 39.14495659977365 -21.751827038242482 0 0 0 0 -14.547813899282747 19.029711449915425 0 19.029711449915425 -8.6471112210127217 0 0 0 0 -20.880572164536026 66.498482078206507 0 66.498482078206507 -25.744044236467744 0 0 0 0 -68.450944340052402 -5.1058172186094453 0 -5.1058172186094453 97.273701363739747 0 0 0 0 -3.7877455268718165 1.0750314496071951 0 1.0750314496071951 -76.414134120770541 0 0 0 0 -74.998181444018741 85.954556069558748 0 85.954556069558748 -126.36030499706612 0 0 0 0 -8.8201598309344096 -2.1856833719165678 0 -2.1856833719165678 -0.57095232351048963 0 0 0 0 191.88979543829464 -237.00032092973561 0 -237.00032092973561 -602.65041554826894 0 0 0 0 -496.63300498299088 -61.294180341170431 0 -61.294180341170431 25.76723718726862 0 0 0 0 -359.47826031259137 82.041136875683151 0 82.041136875683151 -21.010274398417096 0 0 0 0 -161.30049312465118 104.6340212176874 0 104.6340212176874 -28.536536646344757 0 0 0 0 -258.78962648077254 -63.643679233873627 0 -63.643679233873627 10.735505133387051 0 0 0 0 -474.77559643128393 -79.451652230705804 0 -79.451652230705804 -114.40871061448706 0 0 0 0 -541.64799706115662 57.011553900429135 0 57.011553900429135 5.2158634542502114 0 0 0 0 -114.58226437226106 96.312978295703942 0 96.312978295703942 -392.28399741375688 0 0 0 0 -295.32717693456675 93.145434446192667 0 93.145434446192667 518.68568098595642 0 0 0 0 -338.68324832889374 420.06712891152165 0 420.06712891152165 47.865405506658135 0 0 0 0 -66.907480828800544 78.960768647442819 0 78.960768647442819 456.01047445302584 0 0 0 0 -12.691079255410196 0.37791036892430441 0 0.37791036892430441 1.0619309684124687 0 0 0 0 -54.090559390136605 84.957164058361741 0 84.957164058361741 323.0468528459387 0 0 0 0 -121.73086376118022 -494.33039243860367 0 -494.33039243860367 18.031800349031982 0 0 0 0 13.761644080643237 224.08920724492782 0 224.08920724492782 41.903835622080805 0 0 0 0 -12.252600236419266 -1.4233906748225564 0 -1.4233906748225564 0.58383264889679687 0 0 0 0 -308.33753385485807 -206.7004643314358 0 -206.7004643314358 687.39943312365358 0 0 0 0 40.184261065165629 146.52305636682286 0 146.52305636682286 129.37165735712915 0 0 0 0 -75.502883142660721 -0.64400318678781332 0 -0.64400318678781332 262.39192513055605 0 0 0 0 -56.131317656821921 168.63624570660249 0 168.63624570660249 -159.26966200262541 0 0 0 0 -81.723649123372525 -293.16763945216007 0 -293.16763945216007 88.6372637700224 0 0 0 0 18.707788038947022 -273.57566312259087 0 -273.57566312259087 75.093773354165023 0 0 0 0 -4.5406150552242117 -2.5117911332049658 0 -2.5117911332049658 -0.40845697390656888 0 0 0 0 -101.63747606439938 239.56224245944395 0 239.56224245944395 -207.34575691098507 0 0 0 0 -103.49653319179015 -267.46432554685452 0 -267.46432554685452 117.48411026557369 0 0 0 0 141.26804423571991 212.918266706758 0 212.918266706758 -58.610539262941529 0 0 0 0 78.664132065985569 190.32976628413599 0 190.32976628413599 -48.948381720832003 0 0 0 0 -52.988883609730635 286.30578973161209 0 286.30578973161209 -128.99497973752659 0 0 0 0 -41.607348113735242 330.83067681239118 0 330.83067681239118 -143.93183860476711 0 0 0 0 -418.2864908731508 274.08383859724199 0 274.08383859724199 -62.22263443711563 0 0 0 0 -422.40942091558463 260.52438633514976 0 260.52438633514976 -1.7271005465778444 0 0 0 0 -247.90643034805623 295.55336576440004 0 295.55336576440004 -103.15315627244854 0 0 0 0 -200.01559428084556 274.45234779851853 0 274.45234779851853 30.847112587394804 0 0 0 0 -217.20161715877623 320.45586593801818 0 320.45586593801818 -90.503682996690259 0 0 0 0 -148.29796341335782 434.57915123265957 0 434.57915123265957 -292.72081895003794 0 0 0 0 -270.86014236029223 426.81066635506068 0 426.81066635506068 -55.595535738306353 0 0 0 0 -1.5961337137875731 265.11773921233907 0 265.11773921233907 -101.6271840293623 0 0 0 0 -26.543742837498144 96.118325070113769 0 96.118325070113769 394.25444352956038 0 0 0 0 -56.884662308574207 -45.0573057560905 0 -45.0573057560905 586.32559689908521 0 0 0 0 -5.1373390568693855 0.12579504841345113 0 0.12579504841345113 0.3960031914891573 0 0 0 0 -47.829481136954655 15.534738085680146 0 15.534738085680146 702.42794663989343 0 0 0 0 75.36679045477976 667.60004528711215 0 667.60004528711215 342.84898889220494 0 0 0 0 -209.83968947063838 289.49335499861172 0 289.49335499861172 130.11108701924968 0 0 0 0 190.47147910322076 391.60189281242856 0 391.60189281242856 159.15733573284706 0 0 0 0 26.042406360892386 200.81237780696392 0 200.81237780696392 120.31606647562148 0 0 0 0 174.05106253338491 497.09980954100683 0 497.09980954100683 89.903330396296496 0 0 0 0 137.81145589669705 400.58296912410515 0 400.58296912410515 415.16172669338266 0 0 0 0 -20.121237558930488 430.98536312172655 0 430.98536312172655 456.73132460600391 0 0 0 0 -17.35469734350194 469.51503120622874 0 469.51503120622874 650.96903438022855 0 0 0 0 -131.58182751777653 351.93474142430205 0 351.93474142430205 581.06723731955572 0 0 0 0 135.99550607741202 364.94599220864347 0 364.94599220864347 468.27664265672502 0 0 0 0 -67.308634520050944 537.28196796156226 0 537.28196796156226 1041.1370830408996 0 0 0 0 -361.91344611345153 304.29365652218075 0 304.29365652218075 607.50803652085597 0 0 0 0 594.20056585872999 308.28929541663092 0 308.28929541663092 578.48258398530379 0 0 0 0 0.019788222432598923 0.64548653198053962 0 0.64548653198053962 7.7661853468135149 0 0 0 0 -215.10918977628864 -118.91733139900316 0 -118.91733139900316 835.46612960170023 0 0 0 0 -130.42838221038744 -191.52718968871704 0 -191.52718968871704 330.40318484384625 0 0 0 0 -36.485079202423549 -66.277405012908275 0 -66.277405012908275 302.77032613453775 0 0 0 0 -31.956571001207692 107.63900262511015 0 107.63900262511015 390.13612361253763 0 0 0 0 63.354959013157895 236.76749694842874 0 236.76749694842874 395.58716244313109 0 0 0 0 -10.478057296199495 263.31250956903386 0 263.31250956903386 397.89735358806502 0 0 0 0 -7.5602244451295846 284.6900036650386 0 284.6900036650386 552.9114729185967 0 0 0 0 -33.271751584748301 99.234847614185128 0 99.234847614185128 439.39984456751699 0 0 0 0 -17.393766696515499 69.619409768034529 0 69.619409768034529 289.53593024317524 0 0 0 0 42.436549278373093 112.93976124393521 0 112.93976124393521 225.11241061003238 0 0 0 0 33.390134196721533 63.407746265336755 0 63.407746265336755 114.56887363287387 0 0 0 0 43.620376893884838 148.77161669201269 0 148.77161669201269 256.8680528368568 0 0 0 0 44.168684666384763 149.65365012064285 0 149.65365012064285 236.92366185234278 0 0 0 0 115.66510558165919 127.63792560379079 0 127.63792560379079 -4.6922281059050874 0 0 0 0 37.948186089643286 -67.595312942372402 0 -67.595312942372402 -10.22263467060111 0 0 0 0 -144.10675513030969 49.12926830946526 0 49.12926830946526 -58.903756473795511 0 0 0 0 95.444437164077499 -17.121298001409741 0 -17.121298001409741 -81.377974990784423 0 0 0 0 47.647433939540065 37.023980426412891 0 37.023980426412891 122.82281119300751 0 0 0 0 94.483258536825815 34.950000499375165 0 34.950000499375165 65.443206423195079 0 0 0 0 30.539118618110194 9.079644231023849 0 9.079644231023849 94.307183314551366 0 0 0 0 79.154767924884709 7.7681326387973968 0 7.7681326387973968 25.118868860939983 0 0 0 0 -5.4427065525890157 -42.16318625670101 0 -42.16318625670101 34.614215972949751 0 0 0 0 24.346598517210168 -42.045411061699269 0 -42.045411061699269 17.714867154747481 0 0 0 0 -14.18477540184038 11.699947302662238 0 11.699947302662238 11.556276582740381 0 0 0 0 -8.4886333681615724 20.021018356909735 0 20.021018356909735 -0.90959333028877154 0 0 0 0 -9.0338413609133568 19.877944990745164 0 19.877944990745164 -0.35355292280291906 0 0 0 0 -8.2059266068754368 19.208148826313845 0 19.208148826313845 -0.066199085384141654 0 0 0 0 -14.096435828518576 15.795017765587474 0 15.795017765587474 -5.1597838590161871 0 0 0 0 35.263801543591029 -76.648637723548745 0 -76.648637723548745 28.243714007177914 0 0 0 0 -32.042632534244149 -2.2533024052536348 0 -2.2533024052536348 -2.2301573229779024 0 0 0 0 -18.214441071401161 1.6418005802461266 0 1.6418005802461266 -4.0740664979675785 0 0 0 0 3.1044287587191093 19.20233537434251 0 19.20233537434251 -5.9311214470362756 0 0 0 0 -23.377932041104728 30.795443538621839 0 30.795443538621839 -10.98154290264938 0 0 0 0 -8.387818144257011 -19.672910249537381 0 -19.672910249537381 1.6620344637485687 0 0 0 0 7.1631783004853276 3.3546082623652183 0 3.3546082623652183 -4.4594803061700077 0 0 0 0 6.5062139038072928 4.4143456312158378 0 4.4143456312158378 13.203632987941091 0 0 0 0 24.156867291554875 -10.614351314943633 0 -10.614351314943633 17.917275718406017 0 0 0 0 -4.9216858954368377 17.571464345972345 0 17.571464345972345 3.0731334894662723 0 0 0 0 15.15462470443417 19.472403462415969 0 19.472403462415969 84.158831928478321 0 0 0 0 17.061153087530784 -13.610826379750506 0 -13.610826379750506 37.561162501122453 0 0 0 0 -12.492433418123056 -19.520960987854778 0 -19.520960987854778 39.399042484583333 0 0 0 0 12.148913804355672 3.805003199064231 0 3.805003199064231 81.98756886087358 0 0 0 0 35.574719498382848 -14.708256124489708 0 -14.708256124489708 30.495461658574641 0 0 0 0 7.7648678950070007 15.550334784158622 0 15.550334784158622 178.53119157147012 0 0 0 0 43.501555774888402 28.394142365636071 0 28.394142365636071 77.657326412469047 0 0 0 0 22.697580999346343 2.1838729730079649 0 2.1838729730079649 95.346406714321347 0 0 0 0 19.037410213546934 -59.515780202822498 0 -59.515780202822498 166.24231956691074 0 0 0 0 11.818683033327943 37.342606968422842 0 37.342606968422842 172.98021325617447 0 0 0 0 -144.40920146133385 63.515739662037959 0 63.515739662037959 13.399067635535175 0 0 0 0 34.197948181287018 21.112299571737822 0 21.112299571737822 -58.254860373475822 0 0 0 0 23.713338372518933 -17.405796807201114 0 -17.405796807201114 79.787827769236173 0 0 0 0 15.1097882418916 -20.46975493986065 0 -20.46975493986065 -90.760564057141892 0 0 0 0 -46.774819640286751 107.16855203897489 0 107.16855203897489 -24.666167136485456 0 0 0 0 -9.1418875202058416 40.808374546337291 0 40.808374546337291 -6.8422587624372682 0 0 0 0 31.2228423238479 23.057201669423193 0 23.057201669423193 -15.906622786889784 0 0 0 0 -44.741098337342009 47.977386921044854 0 47.977386921044854 11.876222785591381 0 0 0 0 -0.86054978257305947 42.398405731022649 0 42.398405731022649 -21.350386392950895 0 0 0 0 -57.509397333976835 47.839335539680178 0 47.839335539680178 -12.807981791494967 0 0 0 0 -27.447637388986351 53.446728183509549 0 53.446728183509549 -21.233818221000377 0 0 0 0 -32.98876062173531 19.70977590183702 0 19.70977590183702 4.2190707502995792 0 0 0 0 -19.58977722891359 18.669333797875879 0 18.669333797875879 3.7012225505241076 0 0 0 0 -28.123682086478325 15.06104130674241 0 15.06104130674241 2.4639718479587507 0 0 0 0 -34.822611337458511 17.933133492544584 0 17.933133492544584 9.4588514137249149 0 0 0 0 -21.056359232936302 15.821300915606116 0 15.821300915606116 -1.9155825789639493 0 0 0 0 -23.743199389846268 17.281655950586355 0 17.281655950586355 -2.7076012736415578 0 0 0 0 -5.8665219981566885 13.341956462420725 0 13.341956462420725 -7.8384163766671895 0 0 0 0 -34.868514805573795 24.571588933988096 0 24.571588933988096 -3.8432058223697823 0 0 0 0 -8.9251332999610895 20.566409154293069 0 20.566409154293069 -1.4693597469267843 0 0 0 0 -3.4438213606190402 27.155494352628011 0 27.155494352628011 -15.305189238351886 0 0 0 0 -8.5455131741323385 20.337311848568788 0 20.337311848568788 -1.3491132585622836 0 0 0 0 -9.9470159755401255 20.373913344668836 0 20.373913344668836 -0.53304227881017141 0 0 0 0 -43.810120873189419 13.165052408454358 0 13.165052408454358 -7.7383386606816202 0 0 0 0 -45.635545766678391 27.694879388749541 0 27.694879388749541 -8.6664610121006262 0 0 0 0 -9.8872360583201662 3.9170107758337824 0 3.9170107758337824 9.0968880158635557 0 0 0 0 248.00555827499693 139.19192694910453 0 139.19192694910453 58.36467319969438 0 0 0 0 -133.50326272443544 94.373905152722728 0 94.373905152722728 -63.704899206103619 0 0 0 0 -18.912936943789614 2.6805923529295228 0 2.6805923529295228 2.8621615147190798 0 0 0 0 -9.0164353469286613 3.0943744241229787 0 3.0943744241229787 21.008494403521482 0 0 0 0 -130.76762476045727 59.561382019834127 0 59.561382019834127 288.00809626351474 0 0 0 0 253.21690444738488 217.18222475359289 0 217.18222475359289 24.01097903018308 0 0 0 0 -101.23100156327246 -34.271852017071069 0 -34.271852017071069 706.04765013590077 0 0 0 0 -99.063862347635222 417.64803938248633 0 417.64803938248633 1367.9179749673312 0 0 0 0 70.033611456960216 585.7702855119478 0 585.7702855119478 -256.67638185953547 0 0 0 0 -18.442808439233431 82.051355701602006 0 82.051355701602006 143.19498871015094 0 0 0 0 -0.98220887874185436 0.3488167182578934 0 0.3488167182578934 0.82433864648860222 0 0 0 0 -37.202361505279441 735.93204348253494 0 735.93204348253494 1062.4246139456009 0 0 0 0 723.88881755175726 675.52752752818287 0 675.52752752818287 467.56641799485078 0 0 0 0 -31.396772144366423 -1.0276509638861171 0 -1.0276509638861171 928.85260624947477 0 0 0 0 -117.77446075420471 193.33878280881254 0 193.33878280881254 493.14445365629217 0 0 0 0 -153.01928534215403 69.471718446786326 0 69.471718446786326 390.00497094847378 0 0 0 0 -17.883971778140221 171.45931856856805 0 171.45931856856805 342.49123816504562 0 0 0 0 -91.099985153501393 157.8417442120417 0 157.8417442120417 421.77308835203075 0 0 0 0 -1.8119882221218653 3.1050064093015806 0 3.1050064093015806 1.4248819710028933 0 0 0 0 -362.66997025439741 385.67238738370725 0 385.67238738370725 512.1629964898375 0 0 0 0 -44.574548036862325 374.76027454574796 0 374.76027454574796 339.79744391445229 0 0 0 0 -91.712099208815289 24.930845887686473 0 24.930845887686473 875.42730972616118 0 0 0 0 344.20317575969239 509.06248656995922 0 509.06248656995922 -729.55850555442794 0 0 0 0 -0.42211102956509094 0.7566387642628456 0 0.7566387642628456 0.26657342927488337 0 0 0 0 604.11422488638846 28.85031023104284 0 28.85031023104284 -107.34796673933306 0 0 0 0 623.35683103268275 738.61318594665136 0 738.61318594665136 -39.093391672451617 0 0 0 0 -33.596663085697401 304.32035330587132 0 304.32035330587132 -215.01441188966783 0 0 0 0 294.69222113239357 949.07275696485704 0 949.07275696485704 764.78475701331263 0 0 0 0 -112.74115957344907 555.04685655733965 0 555.04685655733965 385.50921508332249 0 0 0 0 585.44580507342107 691.83835830806311 0 691.83835830806311 738.84476909155273 0 0 0 0 791.42956263255201 893.42336781647646 0 893.42336781647646 95.702723385849822 0 0 0 0 138.9838061582218 211.73464340013834 0 211.73464340013834 420.60766228428838 0 0 0 0 -51.156825179961743 472.0830193848717 0 472.0830193848717 381.28531766566448 0 0 0 0 -402.08620315182725 784.06939870873066 0 784.06939870873066 210.82788334207544 0 0 0 0 -120.06389138697153 620.06723581169535 0 620.06723581169535 -105.05445216069711 0 0 0 0 -476.36212226814496 56.138184113378884 0 56.138184113378884 121.4136346087007 0 0 0 0 -218.64981428206374 435.84398262038303 0 435.84398262038303 -583.85170897552769 0 0 0 0 -6.4359388462143912 0.69135175054258013 0 0.69135175054258013 -0.23015742274235729 0 0 0 0 -572.73825654231496 138.2083272914424 0 138.2083272914424 635.29085385158396 0 0 0 0 -698.18433409445811 440.62122576386128 0 440.62122576386128 1.4561383667569316 0 0 0 0 -267.04276103941902 29.436185806169306 0 29.436185806169306 72.053677739655541 0 0 0 0 -153.01309394506006 169.73735207995014 0 169.73735207995014 -67.034681416316744 0 0 0 0 -403.67032245688142 201.84652416052086 0 201.84652416052086 -47.469073361029587 0 0 0 0 -401.22882267783734 287.78659986067032 0 287.78659986067032 -35.264251092088671 0 0 0 0 -333.06582103856226 263.213089978889 0 263.213089978889 -44.437106738445436 0 0 0 0 -260.04718504559878 329.03190151470517 0 329.03190151470517 130.91834908930468 0 0 0 0 1183.1275512098946 571.02267013665551 0 571.02267013665551 59.01691823269357 0 0 0 0 1150.7111735671842 342.56370752352632 0 342.56370752352632 -72.715269975931733 0 0 0 0 -84.05333646868894 55.371749023313896 0 55.371749023313896 735.25147455596618 0 0 0 0 -122.8563557472753 223.50556912425054 0 223.50556912425054 84.166082533694862 0 0 0 0 -67.543060437149506 68.502177949379984 0 68.502177949379984 -96.978096810144052 0 0 0 0 749.33871827144321 158.37657480733833 0 158.37657480733833 -87.508766246336563 0 0 0 0 1.5726603702031028 1.8155573061168901 0 1.8155573061168901 0.33519326792152526 0 0 0 0 -46.478093087482648 266.35691772011296 0 266.35691772011296 -108.43572125355786 0 0 0 0 269.2609381044881 88.310858095519507 0 88.310858095519507 -92.934388198555098 0 0 0 0 2.2049091525328466 3.3565390496157583 0 3.3565390496157583 0.20725597747188829 0 0 0 0 52.698342985625004 154.41763137271801 0 154.41763137271801 -141.75953766524617 0 0 0 0 -185.79598571172119 122.69046787393199 0 122.69046787393199 -119.26258960117593 0 0 0 0 150.81677547447498 146.86752899310704 0 146.86752899310704 -203.6103995099802 0 0 0 0 -261.47346954772638 300.70615951980835 0 300.70615951980835 -102.45346901213998 0 0 0 0 -307.29984548582888 243.6934649879131 0 243.6934649879131 -69.352500064589549 0 0 0 0 -167.13781938661214 154.62118772883878 0 154.62118772883878 10.282098292991577 0 0 0 0 -118.07414118909128 193.21499163597218 0 193.21499163597218 -198.16910077820285 0 0 0 0 -268.93031401225653 310.37326390680209 0 310.37326390680209 -176.7174554843732 0 0 0 0 -438.77521185461046 232.81400439265053 0 232.81400439265053 -148.23217142614885 0 0 0 0 -504.85182332376462 277.08123267839983 0 277.08123267839983 -78.497315402506501 0 0 0 0 -324.84949265782416 325.57961525162318 0 325.57961525162318 -209.93896391728595 0 0 0 0 -675.49484262162696 273.95722937696246 0 273.95722937696246 -29.851403545617359 0 0 0 0 -438.75000785265911 245.51878298050906 0 245.51878298050906 -391.69895189599993 0 0 0 0 -601.38533247570376 389.00202054315832 0 389.00202054315832 -189.77775746858606 0 0 0 0 -21.571561557213499 249.29383814782705 0 249.29383814782705 -331.93662683633784 0 0 0 0 -0.77640639159996994 0.83428075929674606 0 0.83428075929674606 0.4126118566907131 0 0 0 0 -7.3522655195556581 33.543320994514943 0 33.543320994514943 -119.30400800752795 0 0 0 0 -116.60132763252477 181.48264060767542 0 181.48264060767542 -192.77878995604078 0 0 0 0 13.561306026763305 -8.0470747641629714 0 -8.0470747641629714 14.683134077389695 0 0 0 0 40.493779917411302 -82.185344945915858 0 -82.185344945915858 73.917641162955988 0 0 0 0 105.83826478605624 125.69003516106022 0 125.69003516106022 -212.027114459117 0 0 0 0 -2.0164879744172453 2.3287516304120963 0 2.3287516304120963 -3.0591293591747615 0 0 0 0 -570.57920491008281 -107.15275130554983 0 -107.15275130554983 -27.249353260922362 0 0 0 0 -42.511613004720857 5.155516667466145 0 5.155516667466145 -29.052909589698174 0 0 0 0 -52.148430940098251 -18.91535556040435 0 -18.91535556040435 1.6613744918977318 0 0 0 0 -29.744504889443306 -17.958811064472684 0 -17.958811064472684 11.978454775529826 0 0 0 0 -4.4943669308491678 5.9901328984805371 0 5.9901328984805371 -8.0963643288470735 0 0 0 0 11.711744855359029 20.643842679574846 0 20.643842679574846 17.040177789207519 0 0 0 0 16.346784553666112 46.832833644060884 0 46.832833644060884 106.70039096311257 0 0 0 0 -7.0738356979014778 10.277265650044939 0 10.277265650044939 -9.7180548594154459 0 0 0 0 -23.807596422288043 17.170869728773596 0 17.170869728773596 1.0852829926734557 0 0 0 0 -28.692189639819844 13.877789956750348 0 13.877789956750348 1.1119254875738989 0 0 0 0 -35.410120070535413 -9.7441898521938128 0 -9.7441898521938128 -10.448469203744025 0 0 0 0 -40.988369770660711 4.0327060377599082 0 4.0327060377599082 39.334959079915279 0 0 0 0 -31.156451119946723 12.901350643995102 0 12.901350643995102 5.667510897244938 0 0 0 0 -23.346337611670151 29.319682010326687 0 29.319682010326687 26.076019756219466 0 0 0 0 -6.4846995227798114 3.4765723340144898 0 3.4765723340144898 1.4016108303177646 0 0 0 0 -3.1352656891394872 27.276403060599478 0 27.276403060599478 6.0616021761234151 0 0 0 0 -134.96956694749861 104.45915345485992 0 104.45915345485992 -39.054827803745866 0 0 0 0 -405.17618026186028 313.97572437301642 0 313.97572437301642 -88.769647105840249 0 0 0 0 -578.48903868871923 232.48597894707837 0 232.48597894707837 -43.323441123815428 0 0 0 0 79.761497137318656 129.25796715461001 0 129.25796715461001 -16.353453881285532 0 0 0 0 0.08898609020254078 0.27665409002373487 0 0.27665409002373487 -0.24640107495400798 0 0 0 0 -77.794461041372415 245.54699622191765 0 245.54699622191765 -196.85167196281236 0 0 0 0 -0.72951439585077793 0.32440895136200965 0 0.32440895136200965 0.64232642707428766 0 0 0 0 -67.035895572742447 32.094410967816657 0 32.094410967816657 -16.87393351927858 0 0 0 0 -151.86129103262283 229.29182887508796 0 229.29182887508796 -46.440490453382608 0 0 0 0 49.474137861703412 6.1972599590353639 0 6.1972599590353639 31.454457639356406 0 0 0 0 -12.731388705103427 -4.6362673848088889 0 -4.6362673848088889 -39.136228664513283 0 0 0 0 -38.162853894022646 106.5226572185602 0 106.5226572185602 -33.597897766046799 0 0 0 0 57.721362267920995 27.318327058565046 0 27.318327058565046 -122.07684854761465 0 0 0 0 8.9149074369837447 28.648401974240816 0 28.648401974240816 -15.81986198454949 0 0 0 0 -151.7455669068062 37.837180664240805 0 37.837180664240805 31.849518462799097 0 0 0 0 -87.007838396511943 140.64742638408097 0 140.64742638408097 -138.33379989734931 0 0 0 0 -99.1115492278077 42.294131550384918 0 42.294131550384918 -99.32712950133282 0 0 0 0 -11.983548862592215 106.53106599012426 0 106.53106599012426 -56.579685409051308 0 0 0 0 -1.5256810560929779 1.7165374051301185 0 1.7165374051301185 2.8026203297725729 0 0 0 0 -58.213599413145857 65.575073442516441 0 65.575073442516441 -91.863890163527685 0 0 0 0 -39.182681150996359 -42.183413517472218 0 -42.183413517472218 97.937190774260671 0 0 0 0 -100.81251702654663 89.190911950402096 0 89.190911950402096 -53.352503781105042 0 0 0 0 -98.147923969073418 99.946640096672127 0 99.946640096672127 -58.19530753896106 0 0 0 0 -2.1240278584807797 0.51301688166905279 0 0.51301688166905279 -0.27808298140191168 0 0 0 0 -23.759654393528763 -18.885553063340922 0 -18.885553063340922 44.935829265807115 0 0 0 0 5.1844263443126692 3.2377842622881872 0 3.2377842622881872 11.271857202980755 0 0 0 0 -42.362353575850648 -12.493414501337611 0 -12.493414501337611 63.237781647909287 0 0 0 0 23.863533717085375 -22.949541730275087 0 -22.949541730275087 25.737326137663331 0 0 0 0 78.314628124071533 -146.71772991816215 0 -146.71772991816215 166.04241922016809 0 0 0 0 -26.764075662618779 67.276377939009762 0 67.276377939009762 -228.65995313238818 0 0 0 0 -283.74814521420922 74.936596930085216 0 74.936596930085216 153.62047115858149 0 0 0 0 333.97319262066594 49.898705702758889 0 49.898705702758889 -159.10825740565633 0 0 0 0 -49.138219381122326 -11.278969936651265 0 -11.278969936651265 67.134377368463902 0 0 0 0 -49.600030355343222 17.291681487474307 0 17.291681487474307 83.011130609418615 0 0 0 0 47.14692839752388 1.9417790735678864 0 1.9417790735678864 72.566545529611176 0 0 0 0 -27.753601634183724 61.872399271273025 0 61.872399271273025 41.595198416131097 0 0 0 0 -20.436527402780484 47.157472624261572 0 47.157472624261572 115.88924798447624 0 0 0 0 -31.726961013725031 32.570711963085159 0 32.570711963085159 27.442013304353168 0 0 0 0 -17.71792022370937 27.558102797296669 0 27.558102797296669 24.114274297462543 0 0 0 0 -25.692526492624893 21.790476643065631 0 21.790476643065631 70.434393389139132 0 0 0 0 5.3293084088290925 49.104441647708882 0 49.104441647708882 33.817889421981818 0 0 0 0 -16.00360052092401 59.902358416537027 0 59.902358416537027 -4.0014438857385812 0 0 0 0 -23.046573388908655 4.9823151292712282 0 4.9823151292712282 0.76366606964438688 0 0 0 0 -2.9089251781793521 9.3966662398167529 0 9.3966662398167529 18.276340086325845 0 0 0 0 310.67768286463252 -53.786584810104614 0 -53.786584810104614 -251.391615986955 0 0 0 0 139.53893206228076 -465.34997392949026 0 -465.34997392949026 187.97239406204244 0 0 0 0 82.754814139170776 142.2612093354237 0 142.2612093354237 -38.163551690508939 0 0 0 0 -1.1791926119294658 23.274201252803323 0 23.274201252803323 -34.458316136668145 0 0 0 0 -58.320371007919675 31.539437149616788 0 31.539437149616788 -29.862288979757068 0 0 0 0 -116.97314906437714 99.562611267137981 0 99.562611267137981 50.343288487682003 0 0 0 0 -129.49474029305929 29.695971568246023 0 29.695971568246023 45.680820030975156 0 0 0 0 8.3912216324238322 29.620590104591564 0 29.620590104591564 -12.160807004628737 0 0 0 0 -76.123238396670786 114.44682866317453 0 114.44682866317453 38.550642294243517 0 0 0 0 -20.124220735372546 -63.989353351514183 0 -63.989353351514183 232.60715344367782 0 0 0 0 -58.122728094329432 39.854489495643065 0 39.854489495643065 208.89720487340674 0 0 0 0 -71.146084319175088 50.794327229874398 0 50.794327229874398 49.637361460943794 0 0 0 0 46.5629082350207 79.255282577314574 0 79.255282577314574 -71.801201346057496 0 0 0 0 8.7622882633822883 92.112528489094984 0 92.112528489094984 -15.885362859076849 0 0 0 0 11.215510876862313 32.371976862961738 0 32.371976862961738 -9.6895650591751092 0 0 0 0 414.26617916270447 178.07904023563424 0 178.07904023563424 -105.35169505128397 0 0 0 0 0.25938407245156681 0.45820629276042979 0 0.45820629276042979 -0.93422454315113157 0 0 0 0 410.85790532865713 157.86032258083833 0 157.86032258083833 -87.241454294930008 0 0 0 0 396.34054901476293 211.03306433129728 0 211.03306433129728 -143.5645215971017 0 0 0 0 262.56195497576118 262.27182855757383 0 262.27182855757383 -33.725620211342175 0 0 0 0 309.76901047374531 161.12635009036967 0 161.12635009036967 67.697018686299998 0 0 0 0 183.66425810428234 289.53495349580339 0 289.53495349580339 -133.54885562700656 0 0 0 0 340.79346384309747 256.15749113806851 0 256.15749113806851 -164.33295275398541 0 0 0 0 337.99852773565863 263.77520523995736 0 263.77520523995736 -54.462032463379728 0 0 0 0 282.54957013310798 338.57956147219556 0 338.57956147219556 70.967087998458737 0 0 0 0 280.94675482531329 346.91770942305448 0 346.91770942305448 31.003021898537554 0 0 0 0 378.82136622197322 380.74702099565002 0 380.74702099565002 -84.938507685987133 0 0 0 0 426.78942030950657 517.09260267455102 0 517.09260267455102 222.72169474080874 0 0 0 0 352.63025808851125 388.25333722155847 0 388.25333722155847 42.730816104448422 0 0 0 0 112.70443812411531 294.4438116165893 0 294.4438116165893 98.005711457764846 0 0 0 0 238.23580122629755 422.21383320031055 0 422.21383320031055 217.01263059432313 0 0 0 0 35.667109207592148 273.39756578349261 0 273.39756578349261 276.5370561798627 0 0 0 0 74.274069721977412 275.95017464978082 0 275.95017464978082 210.04993113796809 0 0 0 0 247.6107979355229 485.90241679174142 0 485.90241679174142 405.86654532628017 0 0 0 0 699.89348535707995 765.58368946173505 0 765.58368946173505 480.60532386091836 0 0 0 0 413.47218359696035 396.32393551112727 0 396.32393551112727 181.41206194054394 0 0 0 0 -0.0025846703163319162 0.99915954992459888 0 0.99915954992459888 -1.2190764081252041 0 0 0 0 194.28365043483132 90.502410007919025 0 90.502410007919025 -30.950060895873321 0 0 0 0 143.71207125911769 195.73022934234541 0 195.73022934234541 61.334540688634661 0 0 0 0 171.85920941504719 229.19064893133145 0 229.19064893133145 93.643259107975609 0 0 0 0 -49.783872818794407 55.12236777625003 0 55.12236777625003 36.457239647999813 0 0 0 0 33.802478445454085 83.747878686325294 0 83.747878686325294 47.380631038107822 0 0 0 0 37.737227374098438 -10.108748137505245 0 -10.108748137505245 26.406418498906987 0 0 0 0 209.52494326563431 85.684811559131049 0 85.684811559131049 -23.854340139252599 0 0 0 0 -63.067499777225748 82.87309312970865 0 82.87309312970865 -81.657683422603441 0 0 0 0 0.17509099623629876 -0.030211757877077972 0 -0.030211757877077972 -0.66685059938485836 0 0 0 0 -232.00539036644705 28.533787908143495 0 28.533787908143495 196.56154510140914 0 0 0 0 -28.152911015386053 61.477052077647386 0 61.477052077647386 -69.916018869851541 0 0 0 0 -54.757307538430723 71.526913069101283 0 71.526913069101283 -55.987805238732108 0 0 0 0 -51.471471467814808 50.95348750588164 0 50.95348750588164 -46.783689477299049 0 0 0 0 -10.71584620895419 44.141317596480803 0 44.141317596480803 -64.102982034048182 0 0 0 0 -15.462912493622639 25.789596891399697 0 25.789596891399697 -37.217718100640923 0 0 0 0 -3.2926225765264689 58.280188536095011 0 58.280188536095011 13.33072110957437 0 0 0 0 10.181117017618277 6.0308218767160255 0 6.0308218767160255 4.8724111939797794 0 0 0 0 42.772715696849446 324.50595201100987 0 324.50595201100987 676.75626665073696 0 0 0 0 -117.8150507490609 80.257847928271076 0 80.257847928271076 549.28010117070698 0 0 0 0 213.75150698927973 455.04647836840741 0 455.04647836840741 593.04998759912178 0 0 0 0 223.67020744283764 270.56459518227712 0 270.56459518227712 283.80086984908303 0 0 0 0 -43.805716064057833 14.252396951016635 0 14.252396951016635 158.82183564764637 0 0 0 0 -5.5519081728750734 23.462716757606358 0 23.462716757606358 -95.845443562575383 0 0 0 0 -19.795738769984382 97.571444793848059 0 97.571444793848059 -91.603141177169846 0 0 0 0 19.656920892042056 22.01520990534511 0 22.01520990534511 12.261055674127945 0 0 0 0 -75.714513705895115 149.15254660490609 0 149.15254660490609 -127.4724397314676 0 0 0 0 -69.552287409879682 81.149532821173125 0 81.149532821173125 92.887169403144071 0 0 0 0 -62.709624407856381 104.41316988021799 0 104.41316988021799 -28.347394093212642 0 0 0 0 -20.939227051177898 28.920191906960639 0 28.920191906960639 9.0160893463469591 0 0 0 0 -41.798685742499174 27.60593398857327 0 27.60593398857327 -25.420425879849063 0 0 0 0 -55.968543415987369 8.2553316213688959 0 8.2553316213688959 78.20895079888578 0 0 0 0 -194.31566312098403 89.012701726453088 0 89.012701726453088 214.725419652048 0 0 0 0 -109.44630611624962 -44.236095098538499 0 -44.236095098538499 132.2272294415161 0 0 0 0 32.814653358526357 90.177924640297988 0 90.177924640297988 80.381242081843084 0 0 0 0 -20.543287133667377 27.237216689874458 0 27.237216689874458 -31.653939993837412 0 0 0 0 -29.743590237648505 54.250622006818958 0 54.250622006818958 -36.273851222327721 0 0 0 0 -29.357940211417372 51.605351636175328 0 51.605351636175328 -33.388321566105333 0 0 0 0 -28.812293895355992 51.374699055601013 0 51.374699055601013 -59.755072572377685 0 0 0 0 -37.505917331814544 50.4543651948552 0 50.4543651948552 -22.372458623352031 0 0 0 0 -38.745865478958876 73.268320118826523 0 73.268320118826523 -92.776105679382454 0 0 0 0 -21.975069951815986 10.549575677004842 0 10.549575677004842 16.437338450333534 0 0 0 0 -79.951112941183965 97.166190042284143 0 97.166190042284143 -33.325716882667621 0 0 0 0 -4.110320980525481 7.7113638780317739 0 7.7113638780317739 7.0734948740765446 0 0 0 0 -50.016700072737706 4.8691471420384005 0 4.8691471420384005 9.573524551356968 0 0 0 0 -9.4376258189431006 4.942363698398907 0 4.942363698398907 1.700000545952399 0 0 0 0 -4.1391969647261853 4.5991347027268077 0 4.5991347027268077 -2.890440924458602 0 0 0 0 -13.084619136228866 4.5152633551479084 0 4.5152633551479084 -9.8539027606602758 0 0 0 0 -28.401675338331593 23.995764572978324 0 23.995764572978324 -14.600058858755283 0 0 0 0 18.052677627505545 52.305758346374205 0 52.305758346374205 -13.865735557852531 0 0 0 0 42.303621093429683 20.991778501978843 0 20.991778501978843 -19.016882473470559 0 0 0 0 47.076904896965061 51.62379710141613 0 51.62379710141613 -55.371422648411681 0 0 0 0 -1.0782989787603583 88.282191491274716 0 88.282191491274716 -47.944771949052665 0 0 0 0 -38.99781442843414 84.447362953753327 0 84.447362953753327 -51.991168755993385 0 0 0 0 -39.778404929757016 19.29629605541777 0 19.29629605541777 21.668656298083079 0 0 0 0 -78.556452751681718 53.169514323290059 0 53.169514323290059 45.320542674904573 0 0 0 0 3.1334758025613638 10.762568949950648 0 10.762568949950648 -0.91228867576462847 0 0 0 0 -6.1759154047980616 19.064632160894561 0 19.064632160894561 14.823376547210287 0 0 0 0 -22.137080768089298 29.784844967154669 0 29.784844967154669 -18.375039085220529 0 0 0 0 -32.962405041900638 58.502357416960876 0 58.502357416960876 45.127666320557182 0 0 0 0 -25.591312868983096 16.413469560935482 0 16.413469560935482 -39.536162325972327 0 0 0 0 0.081949754525339813 33.176284909639435 0 33.176284909639435 21.657063599515823 0 0 0 0 -26.942947323624708 21.94238025147024 0 21.94238025147024 -36.032559098715865 0 0 0 0 26.42489315132957 23.070835649765286 0 23.070835649765286 -43.27357857255447 0 0 0 0 -88.233881188895367 27.730682827022974 0 27.730682827022974 -13.797737708600835 0 0 0 0 6.0690639469105419 29.135381463497389 0 29.135381463497389 -19.307256546746203 0 0 0 0 -39.010351419381891 -8.9554719008256143 0 -8.9554719008256143 -5.9076601668202784 0 0 0 0 -13.17633621419759 57.320382700117989 0 57.320382700117989 -25.627837647100023 0 0 0 0 -65.984443232624471 101.97119468109668 0 101.97119468109668 -24.485537013155408 0 0 0 0 -101.40190498427546 95.819371113117086 0 95.819371113117086 -24.127003676854656 0 0 0 0 -66.526281650356395 96.998812765708863 0 96.998812765708863 -45.149129399687808 0 0 0 0 -90.655541435067789 84.310476466967884 0 84.310476466967884 -51.705891405828879 0 0 0 0 -84.314864616681007 97.084356809857127 0 97.084356809857127 -60.266592537096585 0 0 0 0 -61.615194377940497 54.156068565345777 0 54.156068565345777 8.1626586211641552 0 0 0 0 -25.353492368409206 88.126063953441189 0 88.126063953441189 -76.865830228252889 0 0 0 0 36.07285902516378 8.5273120102865505 0 8.5273120102865505 -23.160757935580477 0 0 0 0 50.610345829249127 15.199914256999818 0 15.199914256999818 -25.818391800137761 0 0 0 0 63.906057570282428 16.726132908155705 0 16.726132908155705 -22.490798634051316 0 0 0 0 9.4779297158270879 7.3246590320929741 0 7.3246590320929741 -4.9076973787303757 0 0 0 0 -2.0638697199319722 70.534177340745373 0 70.534177340745373 -29.687107381991154 0 0 0 0 -58.449611837830162 85.764636736734246 0 85.764636736734246 -27.27801000146701 0 0 0 0 -13.939892597588369 107.92320771855339 0 107.92320771855339 -44.517846237111371 0 0 0 0 -112.74997133047145 124.24805771755928 0 124.24805771755928 -4.7505177793864277 0 0 0 0 -59.703928973360462 108.13509414415125 0 108.13509414415125 -22.252255352403154 0 0 0 0 4.4232535087887754 181.00695606397983 0 181.00695606397983 -119.68824223423144 0 0 0 0 -176.0872704887588 146.89344837583121 0 146.89344837583121 -6.1068470784857709 0 0 0 0 -125.31422720500632 427.98652048614895 0 427.98652048614895 -215.24740086094243 0 0 0 0 38.298174825893511 176.5147424327879 0 176.5147424327879 -120.86898203436431 0 0 0 0 107.48609848310298 158.17253464538589 0 158.17253464538589 -300.06086634068924 0 0 0 0 83.081939158095338 46.941853297583293 0 46.941853297583293 -101.97190198695898 0 0 0 0 190.58602540169886 -6.1433485003981332 0 -6.1433485003981332 -89.685096197848907 0 0 0 0 74.778703598476568 -18.673113447683136 0 -18.673113447683136 -54.109344777913066 0 0 0 0 186.38767881847889 -203.61990006607448 0 -203.61990006607448 127.81371346492233 0 0 0 0 543.92524589998357 -194.27920469753008 0 -194.27920469753008 -263.88136664671811 0 0 0 0 588.24043826489537 368.06054030418545 0 368.06054030418545 -812.88217086080112 0 0 0 0 -28.174528150691913 23.22133011241749 0 23.22133011241749 85.625510760051839 0 0 0 0 74.684283069065714 -11.551140822262823 0 -11.551140822262823 -31.431422117629154 0 0 0 0 -27.433942305259386 15.238044820835491 0 15.238044820835491 -0.51865131188145952 0 0 0 0 24.622073263428319 -73.827522778454295 0 -73.827522778454295 181.03730136974264 0 0 0 0 -10.653980305360164 77.616577374392364 0 77.616577374392364 74.951140755008964 0 0 0 0 -24.254080465383595 53.561286118987482 0 53.561286118987482 59.567115540325176 0 0 0 0 4.6070603566219326 24.797365904575429 0 24.797365904575429 -0.12292328232950922 0 0 0 0 -31.965505514352117 34.072296450332942 0 34.072296450332942 23.752898474602262 0 0 0 0 13.768903643838712 83.680327218367893 0 83.680327218367893 36.864162740651395 0 0 0 0 48.293757271458162 76.504665545311582 0 76.504665545311582 36.858894266537391 0 0 0 0 66.621871364266553 29.439271105082298 0 29.439271105082298 58.923902590395301 0 0 0 0 26.580087083406397 73.641119791485835 0 73.641119791485835 43.095665577493492 0 0 0 0 37.695860304214875 60.702114196265029 0 60.702114196265029 -17.357134332080022 0 0 0 0 12.952334066183539 58.367265073480667 0 58.367265073480667 -15.761553357784578 0 0 0 0 41.200303451754735 46.876347416793578 0 46.876347416793578 -79.467744400841184 0 0 0 0 27.226585697186238 73.779404064931441 0 73.779404064931441 -29.334293200336106 0 0 0 0 1.8340804083854891 56.652094177858089 0 56.652094177858089 1.7062552131610573 0 0 0 0 17.921631261207949 61.262286619570659 0 61.262286619570659 -45.139818811017903 0 0 0 0 -12.697506597130996 36.331001068199839 0 36.331001068199839 -45.266995362981106 0 0 0 0 -2.5030986431738711 42.204904794747563 0 42.204904794747563 -45.425934785394929 0 0 0 0 -30.428504547613556 -0.23939606305066263 0 -0.23939606305066263 -85.54207764302555 0 0 0 0 -0.070492184720933437 -27.437371249354328 0 -27.437371249354328 -125.65179667770281 0 0 0 0 42.120167627712362 44.859786015433201 0 44.859786015433201 -78.208180263656686 0 0 0 0 9.445761904164101 45.911584835659596 0 45.911584835659596 -54.302833184556221 0 0 0 0 26.727077625466336 8.6222282486105541 0 8.6222282486105541 -128.96524769556709 0 0 0 0 -11.582611334953981 44.050277749927773 0 44.050277749927773 141.6895774872246 0 0 0 0 60.759331931823908 4.3954616016817454 0 4.3954616016817454 5.1782617542412481 0 0 0 0 -3.3064914915303234 34.616101500218065 0 34.616101500218065 95.468500763759948 0 0 0 0 0.28758741184719838 58.317408433671517 0 58.317408433671517 87.911746133919223 0 0 0 0 -13.063680499166367 54.916604168494814 0 54.916604168494814 87.363501066269237 0 0 0 0 12.974731553447782 49.187460305976856 0 49.187460305976856 80.475964427896542 0 0 0 0 -1.1797734881001816 44.549285825348761 0 44.549285825348761 92.296277407556772 0 0 0 0 13.652919804066187 74.10045864766289 0 74.10045864766289 109.93450881983154 0 0 0 0 4.1481278309801581 8.8014034060413664 0 8.8014034060413664 -0.26015883351639424 0 0 0 0 17.129366425229819 42.601433589712542 0 42.601433589712542 -50.253521861727677 0 0 0 0 5.9077927159185961 20.416285611026673 0 20.416285611026673 12.727759808979386 0 0 0 0 31.449248429227737 85.707999897171248 0 85.707999897171248 61.43230759461585 0 0 0 0 4.8646107661112197 25.006618712173694 0 25.006618712173694 -0.296521844924996 0 0 0 0 20.192074202670483 33.73952799712788 0 33.73952799712788 -33.529648899238964 0 0 0 0 8.8392234220227692 51.641263362485915 0 51.641263362485915 -16.170817460217222 0 0 0 0 8.9236537303549994 53.162790232650877 0 53.162790232650877 -6.3196057245222619 0 0 0 0 6.7590685696377477 67.241060869797366 0 67.241060869797366 -0.16069316903303843 0 0 0 0 -16.329561377119489 47.890910910089133 0 47.890910910089133 5.7999601420160616 0 0 0 0 -36.376836748374899 27.964851889685178 0 27.964851889685178 7.9153077338705771 0 0 0 0 -14.200865237009566 -3.5947223139883135 0 -3.5947223139883135 45.362203682384461 0 0 0 0 25.169421332643651 34.382677790457819 0 34.382677790457819 31.634483949805144 0 0 0 0 -62.531185416421522 47.057653673489767 0 47.057653673489767 68.412482292216737 0 0 0 0 -7.4598536878288542 12.321226620918424 0 12.321226620918424 3.4975262291591207 0 0 0 0 -8.1306324778725312 16.377656077926616 0 16.377656077926616 1.3663533219175505 0 0 0 0 -7.6222883055597883 10.062204377569458 0 10.062204377569458 1.0464713245489783 0 0 0 0 5.2985994611153728 16.31610550849291 0 16.31610550849291 17.738733842998045 0 0 0 0 -4.7698025752324611 22.113843111037568 0 22.113843111037568 11.088222115271492 0 0 0 0 -30.490606584113266 33.915129445940693 0 33.915129445940693 13.872050426933129 0 0 0 0 0.86840949801444367 27.175784797687811 0 27.175784797687811 3.561868853692431 0 0 0 0 -13.459759488828112 18.787028853686337 0 18.787028853686337 0.74069444066079271 0 0 0 0 7.7258036990351684 25.332423823592762 0 25.332423823592762 36.011935302718484 0 0 0 0 1.06912776912759 12.449994525606598 0 12.449994525606598 18.469215897937829 0 0 0 0 4.1990844443544262 21.052915688710442 0 21.052915688710442 13.418592671260882 0 0 0 0 -10.628144130084365 21.09930750570129 0 21.09930750570129 25.852158484743995 0 0 0 0 -8.1246525421161095 26.294403158477053 0 26.294403158477053 12.422292946946982 0 0 0 0 -7.3534347773911577 22.748185991178616 0 22.748185991178616 25.323145304457285 0 0 0 0 23.042597409446898 40.159372643618553 0 40.159372643618553 30.092973578968667 0 0 0 0 2.844275420033652 19.99232814116365 0 19.99232814116365 20.333115938648888 0 0 0 0 23.68431101835813 28.310629908886767 0 28.310629908886767 19.617329173819599 0 0 0 0 3.6377093327046168 25.261382990785933 0 25.261382990785933 13.924903833634744 0 0 0 0 7.2982729243194626 21.814095854208063 0 21.814095854208063 14.428582174779876 0 0 0 0 5.7885263875436976 15.334853583840705 0 15.334853583840705 7.8462397460542093 0 0 0 0 3.05637569052233 12.748017402813048 0 12.748017402813048 6.7514747897297269 0 0 0 0 65.999066954034788 58.458649507410883 0 58.458649507410883 3.7617395686684176 0 0 0 0 -21.601731069502421 47.429188898444409 0 47.429188898444409 83.002386795720668 0 0 0 0 58.651695686789026 44.883236688016041 0 44.883236688016041 -17.189217597770039 0 0 0 0 -0.71702559687516398 4.3869436085893696 0 4.3869436085893696 -1.8123858562081807 0 0 0 0 -16.279413285254122 38.665117042779457 0 38.665117042779457 76.632067643120536 0 0 0 0 -5.7194995039644709 36.928259797032297 0 36.928259797032297 73.836477599354112 0 0 0 0 -28.266615554599412 33.565190179415367 0 33.565190179415367 21.902803868542833 0 0 0 0 8.7674166980623198 22.058080479977392 0 22.058080479977392 12.981155040737249 0 0 0 0 -58.868344869926659 90.019390476529225 0 90.019390476529225 -464.92121343562758 0 0 0 0 -257.37296386265734 -287.62440044661344 0 -287.62440044661344 123.20654074877166 0 0 0 0 -333.10941631319679 -2.777127300090342 0 -2.777127300090342 125.07068469769001 0 0 0 0 -363.2153637122301 200.19903076919945 0 200.19903076919945 -20.123457535039051 0 0 0 0 -114.37607462815367 11.03626746134978 0 11.03626746134978 98.978718210506486 0 0 0 0 -87.088215131397732 133.18747153708841 0 133.18747153708841 -441.8276501573564 0 0 0 0 36.51651243028391 -25.218467121841968 0 -25.218467121841968 -154.74508226143371 0 0 0 0 -148.34975476133332 -643.59388168696023 0 -643.59388168696023 436.63057452059002 0 0 0 0 -2.23037477197947 1.7678859814168035 0 1.7678859814168035 -1.4549352685447943 0 0 0 0 42.968036369667061 149.17363082064549 0 149.17363082064549 -95.505236358454567 0 0 0 0 -27.526933189779712 21.005755171701821 0 21.005755171701821 22.52011599476117 0 0 0 0 -59.11035450248869 56.203198785215136 0 56.203198785215136 71.650649073177192 0 0 0 0 -25.295135124206794 29.165425781803648 0 29.165425781803648 -3.9177681342266339 0 0 0 0 -133.27251819256276 45.655778956986978 0 45.655778956986978 138.27894097561875 0 0 0 0 -45.462271764129582 43.918363184027839 0 43.918363184027839 -17.329276744316303 0 0 0 0 -22.858029533790553 21.97178611390958 0 21.97178611390958 -1.6464026050364815 0 0 0 0 -2.7414849021474765 40.026079007733642 0 40.026079007733642 65.732425438131031 0 0 0 0 -29.651495936950596 -1.6691828267539677 0 -1.6691828267539677 271.22316372465502 0 0 0 0 0.036713871873978121 1.3341250486692857 0 1.3341250486692857 0.46598411078119284 0 0 0 0 47.79812215981201 85.082878731360324 0 85.082878731360324 -146.66317076482665 0 0 0 0 -25.137858910347859 154.21878914572699 0 154.21878914572699 135.15022116604814 0 0 0 0 -27.528692138406768 -2.2026849436715565 0 -2.2026849436715565 17.986046623838774 0 0 0 0 5.7740609337956812 58.690844494574776 0 58.690844494574776 37.332864022668218 0 0 0 0 -11.656538966368316 31.60874430424883 0 31.60874430424883 62.444368762091472 0 0 0 0 -2.3010767951654998 50.731767209421378 0 50.731767209421378 56.781843502611991 0 0 0 0 -13.497206583142543 35.409113861180231 0 35.409113861180231 63.75417344795278 0 0 0 0 -16.002967139856992 46.030620670073404 0 46.030620670073404 59.155361225799425 0 0 0 0 -12.431691127261729 30.53752491249179 0 30.53752491249179 62.542021292558275 0 0 0 0 -16.874833766294614 33.482855953072431 0 33.482855953072431 80.638128806953318 0 0 0 0 -0.31912980983844719 5.8003014808134239 0 5.8003014808134239 -7.3040803769601865 0 0 0 0 -21.368528373872323 10.392542577650602 0 10.392542577650602 18.22071341843548 0 0 0 0 -26.374207077650453 31.398082132093805 0 31.398082132093805 19.349624564871192 0 0 0 0 -53.532217981572103 49.453231144478195 0 49.453231144478195 -7.6667006395146018 0 0 0 0 -42.763233915929959 12.012622169222595 0 12.012622169222595 11.512443944044207 0 0 0 0 -35.560683229214192 20.943119012146781 0 20.943119012146781 9.6827157843217719 0 0 0 0 -14.713376476137455 35.889969160405599 0 35.889969160405599 10.5272497955375 0 0 0 0 -54.441881925637063 48.568813233810943 0 48.568813233810943 11.07035568383435 0 0 0 0 -40.140535664522758 27.253488035999908 0 27.253488035999908 40.070126342488948 0 0 0 0 -38.962905693317225 49.345904847956263 0 49.345904847956263 10.288059909580625 0 0 0 0 -50.753458138249698 47.824021175940288 0 47.824021175940288 -13.581775865010513 0 0 0 0 -33.234562098550668 47.637640911587368 0 47.637640911587368 -13.601341104127641 0 0 0 0 -26.577050210238667 51.635607423715555 0 51.635607423715555 -41.631769857762265 0 0 0 0 -13.797956331818568 30.355731164265308 0 30.355731164265308 -9.0310033137320715 0 0 0 0 15.429378441152949 35.234128865879029 0 35.234128865879029 -35.473261982726399 0 0 0 0 -35.365700986008051 50.860807687278793 0 50.860807687278793 3.1946448704475188 0 0 0 0 -33.681902076888946 47.863082891952217 0 47.863082891952217 5.7794945698806259 0 0 0 0 -22.745508332645485 21.382939085889333 0 21.382939085889333 -5.6248672466649623 0 0 0 0 -68.505224025784628 53.815436603888884 0 53.815436603888884 186.75392827851829 0 0 0 0 -159.19288097405297 290.88221056293696 0 290.88221056293696 -50.164322937882389 0 0 0 0 -16.227214203790936 -21.566429344922653 0 -21.566429344922653 -137.0461017638554 0 0 0 0 -8.4508028169821046 36.846004039380205 0 36.846004039380205 -33.630050996664067 0 0 0 0 -2.2353173168036307 6.1803706516364372 0 6.1803706516364372 -1.0448783590625474 0 0 0 0 -21.227261928324879 22.805165673988085 0 22.805165673988085 -103.76515928220761 0 0 0 0 -28.620752344790162 18.50044578611778 0 18.50044578611778 -47.060490964817291 0 0 0 0 64.42230834093607 -150.36517285772334 0 -150.36517285772334 225.14653788646319 0 0 0 0 5.5910962887865026 150.82715612678294 0 150.82715612678294 -327.05129006377865 0 0 0 0 -4.0575147442135489 0.82895686736563334 0 0.82895686736563334 -0.015293070026132227 0 0 0 0 -0.67775583359761526 -0.20847824785595037 0 -0.20847824785595037 0.67515374776042947 0 0 0 0 -47.374203881578069 -51.589598980550363 0 -51.589598980550363 401.9331753343431 0 0 0 0 -23.166791000647208 99.474422803603375 0 99.474422803603375 -173.21292012857521 0 0 0 0 -53.093917313861311 74.365396396504366 0 74.365396396504366 -64.365655577916186 0 0 0 0 -58.354471599187264 36.604386880119364 0 36.604386880119364 -23.933569390050252 0 0 0 0 -94.686788165179678 37.764167137769618 0 37.764167137769618 44.896966276595776 0 0 0 0 -106.92917130690148 120.61574397098957 0 120.61574397098957 -54.795465449342373 0 0 0 0 -11.992614048429473 2.1981377117692915 0 2.1981377117692915 1.7128419313511909 0 0 0 0 -78.186420309573805 56.980141515901778 0 56.980141515901778 133.43048588022793 0 0 0 0 -102.67096142747778 53.666228339346162 0 53.666228339346162 -19.351535732013872 0 0 0 0 -91.599178170605228 36.349168797951279 0 36.349168797951279 -7.986935537905083 0 0 0 0 -23.120984577337367 40.08688200740653 0 40.08688200740653 -56.151924612699077 0 0 0 0 -81.672539272432005 90.214256385575936 0 90.214256385575936 -94.237156250354019 0 0 0 0 -81.038924384298298 76.951150433718794 0 76.951150433718794 -104.49453798530885 0 0 0 0 -117.63881913298974 104.1786959277797 0 104.1786959277797 -50.825570588407572 0 0 0 0 -76.156832246542763 92.638786927720503 0 92.638786927720503 -61.707012467588356 0 0 0 0 -63.032426958317956 134.67693567894821 0 134.67693567894821 0.10054782130464446 0 0 0 0 -52.487606595663237 142.20783695899445 0 142.20783695899445 -91.083753073889966 0 0 0 0 -20.682978391078677 73.758795671189318 0 73.758795671189318 -211.29832910945697 0 0 0 0 -157.43597420219521 226.34032900344027 0 226.34032900344027 -201.68508698919322 0 0 0 0 -148.9521735145172 97.727413294589496 0 97.727413294589496 -64.143937786073366 0 0 0 0 -267.07696011060034 42.089708910059926 0 42.089708910059926 -77.928012659293017 0 0 0 0 16.892058874220311 40.678951261124894 0 40.678951261124894 -109.20592166328424 0 0 0 0 -16.603964692510999 107.55298881384806 0 107.55298881384806 -172.49690597085282 0 0 0 0 98.071365951199368 51.23810640395277 0 51.23810640395277 -75.826402853163017 0 0 0 0 -0.47947429428495525 2.6964790229085338 0 2.6964790229085338 -0.0051276191697979812 0 0 0 0 0.5252620477451444 0.82137617914618488 0 0.82137617914618488 0.82292897139232934 0 0 0 0 -7.0452815074677346 -66.923622701564454 0 -66.923622701564454 65.645377565557283 0 0 0 0 -30.691923491507623 -26.685769175797759 0 -26.685769175797759 -40.894334709642862 0 0 0 0 33.883411941278951 -4.9744264547900912 0 -4.9744264547900912 -33.85843447377556 0 0 0 0 56.727210063059829 37.539824275794672 0 37.539824275794672 -112.68552210117923 0 0 0 0 -8.2795153670740547 13.978835260515552 0 13.978835260515552 3.9393230973291793 0 0 0 0 -2.0957779943128116 8.1717028192215366 0 8.1717028192215366 9.2372989164218779 0 0 0 0 4.8637361441164266 12.189183084203243 0 12.189183084203243 4.7016425563094515 0 0 0 0 15.282044707197201 11.158255894064496 0 11.158255894064496 4.4084791306559055 0 0 0 0 4.7875182600910193 10.705487637642364 0 10.705487637642364 9.2989636387901555 0 0 0 0 9.9165066666651001 15.201137157667745 0 15.201137157667745 5.4978432247953606 0 0 0 0 -8.570440320333411 8.8578326778423389 0 8.8578326778423389 5.4247001478765497 0 0 0 0 -2.0534864036076215 19.184110161178978 0 19.184110161178978 11.293058298702817 0 0 0 0 -1.7617606776072918 10.867000553855206 0 10.867000553855206 11.934263949870541 0 0 0 0 20.927144350096569 26.624424934845592 0 26.624424934845592 10.716937572422466 0 0 0 0 -3.9952731795510772 30.852782070076501 0 30.852782070076501 36.232919719841448 0 0 0 0 -4.1925442565989215 34.017449441198551 0 34.017449441198551 -9.1273362881875073 0 0 0 0 -2.8901011903890321 11.55259676426067 0 11.55259676426067 52.318754479789277 0 0 0 0 18.323481035800796 52.538102933907794 0 52.538102933907794 33.485298099580177 0 0 0 0 -13.345186414193389 3.8700412561897366 0 3.8700412561897366 6.0064257467689259 0 0 0 0 0.32256855387322503 16.815629292837002 0 16.815629292837002 13.868423796891875 0 0 0 0 -1.2237165300250226 8.4262729773207639 0 8.4262729773207639 1.8457194469340603 0 0 0 0 -5.8134463169517403 5.0719485131521651 0 5.0719485131521651 -2.7722107977861015 0 0 0 0 -0.30556071445971611 20.130437978048576 0 20.130437978048576 -32.393033395550447 0 0 0 0 -4.2467548813292524 8.8344465027585102 0 8.8344465027585102 -55.063693069641886 0 0 0 0 -0.98385688322518661 0.38092806005491298 0 0.38092806005491298 0.38201295633621157 0 0 0 0 -46.575022418650406 41.744796646551549 0 41.744796646551549 -0.075598165112751303 0 0 0 0 -35.780433439633271 48.804077012628113 0 48.804077012628113 -23.109681057903799 0 0 0 0 -13.91576361231273 26.214210244152127 0 26.214210244152127 -0.11877153081513825 0 0 0 0 -4.4438880847555993 20.803017207927041 0 20.803017207927041 -10.906930802922943 0 0 0 0 -15.722465964081493 18.253795823407927 0 18.253795823407927 -1.030424352560658 0 0 0 0 18.3060308440472 59.058033535155118 0 59.058033535155118 47.666598311916459 0 0 0 0 -0.73635682329614838 7.8784609764627476 0 7.8784609764627476 -8.4047347116866149 0 0 0 0 -9.2672284527252486 8.7503459382387518 0 8.7503459382387518 5.4338754951822921 0 0 0 0 -4.0868665659865542 7.8350098087750695 0 7.8350098087750695 1.9754471071898827 0 0 0 0 7.8578963053182491 10.180293550295431 0 10.180293550295431 3.2705951440140062 0 0 0 0 7.5211589238715533 16.294480202568593 0 16.294480202568593 3.2272287295163551 0 0 0 0 25.458011181162874 8.2024120519745338 0 8.2024120519745338 -16.603977806516923 0 0 0 0 42.972397195038866 35.367990537964943 0 35.367990537964943 19.774995827538078 0 0 0 0 104.82391952259059 71.444490807727561 0 71.444490807727561 0.68479424643373932 0 0 0 0 0.35657672242508198 0.59935881444118522 0 0.59935881444118522 -0.14721851159359289 0 0 0 0 -9.5660019307360926 17.038900281477254 0 17.038900281477254 50.059351142866944 0 0 0 0 4.3774587997384558 3.763312159010038 0 3.763312159010038 3.8372969773662362 0 0 0 0 1436.5979058080702 694.39865765604191 0 694.39865765604191 78.320573897130089 0 0 0 0 -4.9452500516417786 31.034164099746704 0 31.034164099746704 68.973871723686898 0 0 0 0 1887.7453994810821 842.15957392221753 0 842.15957392221753 311.28709811282897 0 0 0 0 2050.9173663936799 677.90270379899084 0 677.90270379899084 -832.24497884052835 0 0 0 0 1594.0812837437043 1045.6298822419285 0 1045.6298822419285 724.54476858147973 0 0 0 0 877.07451217376729 -433.59308562178921 0 -433.59308562178921 -148.70627672616047 0 0 0 0 8.3437881873711746 3.9603102169432418 0 3.9603102169432418 1.8432566176319529 0 0 0 0 2081.6924186377473 1765.1636994949022 0 1765.1636994949022 1549.5234818680692 0 0 0 0 2356.1949778222479 1453.9181845045714 0 1453.9181845045714 1897.0690155533157 0 0 0 0 0.25070197879540501 15.972054043235403 0 15.972054043235403 8.7088900225098769 0 0 0 0 9.1675365430750162 14.203790509661975 0 14.203790509661975 4.974728794411277 0 0 0 0 -42.210112874578044 188.1412442832343 0 188.1412442832343 366.18480883468874 0 0 0 0 2039.9025547947567 897.06232945510055 0 897.06232945510055 323.91828566135518 0 0 0 0 824.35866527209146 119.09240832902287 0 119.09240832902287 -57.781426053486939 0 0 0 0 510.58535622622003 175.61783338945497 0 175.61783338945497 83.736741769003856 0 0 0 0 335.58883473555397 -129.31537840590318 0 -129.31537840590318 -158.51212881111132 0 0 0 0 617.70108791370512 399.81807099667276 0 399.81807099667276 190.81373043646272 0 0 0 0 520.33412520968704 389.70422071839494 0 389.70422071839494 200.90815995116282 0 0 0 0 393.48273499872448 705.74547438948139 0 705.74547438948139 795.65856724581863 0 0 0 0 1149.6569825251127 910.47517187678568 0 910.47517187678568 601.239501075921 0 0 0 0 384.13317089952216 697.87857385263942 0 697.87857385263942 913.90869150353683 0 0 0 0 469.56370194522879 609.33897714902196 0 609.33897714902196 853.34533974958322 0 0 0 0 6.0024886111696958 10.486685040665407 0 10.486685040665407 -10.039361556104396 0 0 0 0 79.060263089304499 100.96965301225282 0 100.96965301225282 -262.62390845323898 0 0 0 0 406.01596021342993 -278.15239900709275 0 -278.15239900709275 -1165.1038206964076 0 0 0 0 1120.2901802510423 1598.3869297020137 0 1598.3869297020137 1886.4212453803775 0 0 0 0 -150.47909442604941 68.249524272639974 0 68.249524272639974 -202.95839302060267 0 0 0 0 4.2556188018926662 4.3792816959701497 0 4.3792816959701497 -3.4674761858066603 0 0 0 0 414.15054201352177 484.09518698634201 0 484.09518698634201 -0.27594529120324296 0 0 0 0 231.19485333806369 255.76457454919 0 255.76457454919 -282.17603290069565 0 0 0 0 35.470149541457431 274.76102054061266 0 274.76102054061266 -0.13246018778227153 0 0 0 0 96.313806990183366 271.62263247637929 0 271.62263247637929 -61.345510261897289 0 0 0 0 117.20958297633751 231.47892881128246 0 231.47892881128246 0.23422988690072089 0 0 0 0 45.355358921122388 105.5971775277867 0 105.5971775277867 18.161526596009935 0 0 0 0 184.63160170854462 297.15127034526813 0 297.15127034526813 64.070977511237288 0 0 0 0 178.83072417527728 417.51720160148943 0 417.51720160148943 360.86500095930387 0 0 0 0 472.64486863533602 427.14816936984425 0 427.14816936984425 0.061229696933878586 0 0 0 0 5.6294041406326869 165.84732198124038 0 165.84732198124038 426.42156439694372 0 0 0 0 120.70357730669366 256.21043042205565 0 256.21043042205565 180.56047362928075 0 0 0 0 30.015786317476795 66.450849301957305 0 66.450849301957305 101.58276604406274 0 0 0 0 179.97565393851983 394.71682111029804 0 394.71682111029804 452.62546067139556 0 0 0 0 -1.026431049365641 18.332906353324191 0 18.332906353324191 -16.949136870508369 0 0 0 0 -20.370582950527023 58.019102463662421 0 58.019102463662421 -11.124496886510315 0 0 0 0 104.77592062888652 79.069117017845201 0 79.069117017845201 -7.9252161148106097 0 0 0 0 2.5307472286167467 15.049336264007763 0 15.049336264007763 -14.042526715240527 0 0 0 0 31.902448492062831 113.15382446824333 0 113.15382446824333 39.449585631551599 0 0 0 0 20.832146136966912 140.43980510175243 0 140.43980510175243 231.1108606630296 0 0 0 0 251.14134637672396 314.6004367521291 0 314.6004367521291 337.4165645706089 0 0 0 0 281.34226442369982 462.32462739955918 0 462.32462739955918 644.21685053693 0 0 0 0 358.46852438813585 363.53040471538407 0 363.53040471538407 338.57297352036403 0 0 0 0 377.66914958133157 236.22458123478054 0 236.22458123478054 -22.285735929493967 0 0 0 0 401.242103190747 329.05997974086131 0 329.05997974086131 19.718183219923958 0 0 0 0 181.89948771666241 293.54518963130249 0 293.54518963130249 335.79593069859948 0 0 0 0 320.28406061778878 235.94512787285203 0 235.94512787285203 -161.76033491506678 0 0 0 0 307.758525810008 237.15325672709878 0 237.15325672709878 -30.017487799599621 0 0 0 0 147.52967891546496 283.9925580173026 0 283.9925580173026 153.08943481239112 0 0 0 0 -4.1696938956871179 22.549118257001979 0 22.549118257001979 -18.214249765352193 0 0 0 0 153.61994621608028 246.42161339983068 0 246.42161339983068 357.71836274073212 0 0 0 0 224.49889833371526 337.93785439155363 0 337.93785439155363 169.94420804386027 0 0 0 0 -71.281876107212156 221.33272115922591 0 221.33272115922591 153.22619936115007 0 0 0 0 528.04931048696744 279.8575746697461 0 279.8575746697461 63.583724289994279 0 0 0 0 252.8108654767384 447.56260740594371 0 447.56260740594371 -18.165908889212005 0 0 0 0 429.39428759255679 82.436840427835705 0 82.436840427835705 -20.585348748161778 0 0 0 0 1473.5376065544733 95.613969785688823 0 95.613969785688823 -828.45657538446903 0 0 0 0 137.4980780972619 610.52332401685635 0 610.52332401685635 -953.39650739216449 0 0 0 0 94.837088348504039 -476.30249542073943 0 -476.30249542073943 -1119.1216813831174 0 0 0 0 -188.49035360677954 275.78431338208611 0 275.78431338208611 -312.06318507346077 0 0 0 0 13.739281026242466 3.8083492258137355 0 3.8083492258137355 -1.6956869341275302 0 0 0 0 0.97048254519441457 8.2146224270707506 0 8.2146224270707506 -4.0742559433562064 0 0 0 0 10.906603763877911 13.412855662295485 0 13.412855662295485 -3.7296787200201904 0 0 0 0 300.48974053851089 247.06482243806977 0 247.06482243806977 -428.7154887788929 0 0 0 0 60.987529615362291 343.08770449487929 0 343.08770449487929 -302.98177459264843 0 0 0 0 496.91006018091684 288.03154949504369 0 288.03154949504369 -404.45161690254099 0 0 0 0 -610.77226750947375 -34.235161151616012 0 -34.235161151616012 -240.01563441514008 0 0 0 0 828.33089542176094 241.38611800746185 0 241.38611800746185 -1209.3720726890915 0 0 0 0 187.73467985556999 407.69664743464091 0 407.69664743464091 639.63183608668623 0 0 0 0 919.03283853055609 833.8732081819237 0 833.8732081819237 -101.543216482969 0 0 0 0 519.94852431483378 362.22874568435327 0 362.22874568435327 -63.873295681718446 0 0 0 0 404.31709254841189 393.19519732727167 0 393.19519732727167 61.448421840730589 0 0 0 0 167.66931866599043 284.75171747545392 0 284.75171747545392 22.877555027898779 0 0 0 0 112.8066573053693 156.64489504932135 0 156.64489504932135 -159.21282317882287 0 0 0 0 -3.8290662749386684 329.52633278115536 0 329.52633278115536 95.834570526076277 0 0 0 0 12.088949943052285 71.519258211003034 0 71.519258211003034 52.640768332959851 0 0 0 0 -1.7786168913455214 2.0914514681723659 0 2.0914514681723659 -3.7274759098712309 0 0 0 0 95.59714053953212 79.410903760996007 0 79.410903760996007 -297.41159254997183 0 0 0 0 20.615177163839689 -35.859022463762813 0 -35.859022463762813 -153.7265288851595 0 0 0 0 61.799039852747228 67.701151209283125 0 67.701151209283125 -85.188320918896352 0 0 0 0 36.789408809447195 61.042415459643962 0 61.042415459643962 -14.263513922996935 0 0 0 0 52.576973148316029 44.77324338498147 0 44.77324338498147 -65.053668367505452 0 0 0 0 62.15331606496693 69.867951986960179 0 69.867951986960179 -68.743457318269066 0 0 0 0 61.929718050025258 61.357394243819726 0 61.357394243819726 -124.24319807754364 0 0 0 0 42.973214439000003 26.199129536347755 0 26.199129536347755 -140.74328042195702 0 0 0 0 61.742749811288377 49.824844953072898 0 49.824844953072898 -157.88032270710391 0 0 0 0 49.100419354566839 23.451185051439097 0 23.451185051439097 -116.42163225256445 0 0 0 0 0.89201673300360085 0.18254480949502749 0 0.18254480949502749 -0.09908790912541221 0 0 0 0 66.720159897078702 2.4259019753881148 0 2.4259019753881148 -192.12853281117714 0 0 0 0 -10.023840029607527 114.40793446051248 0 114.40793446051248 178.66212562197325 0 0 0 0 57.353984365923679 172.48696190137707 0 172.48696190137707 82.885350875457561 0 0 0 0 27.532757414795924 78.141692910314305 0 78.141692910314305 85.952684227993359 0 0 0 0 -2.8027657351485686 -9.3285543372257962 0 -9.3285543372257962 95.371119118819479 0 0 0 0 89.490016269177431 105.35341337190766 0 105.35341337190766 -28.042199990497465 0 0 0 0 92.328768487983325 168.90575540904683 0 168.90575540904683 -8.4081140168127604 0 0 0 0 38.481553917954443 35.631894988648128 0 35.631894988648128 24.788827156080515 0 0 0 0 52.997590206854511 54.748138703114819 0 54.748138703114819 1.7635954023426166 0 0 0 0 11.405996231347672 38.265643309539882 0 38.265643309539882 70.446034803735529 0 0 0 0 25.715761693048989 67.051902081380831 0 67.051902081380831 68.701437702475232 0 0 0 0 40.256628078233916 66.727982307718776 0 66.727982307718776 65.769319532089867 0 0 0 0 133.56613710639067 115.23438909593824 0 115.23438909593824 39.878761422176467 0 0 0 0 183.33480499223879 106.89330017365137 0 106.89330017365137 -2.3477560675455607 0 0 0 0 102.57996662588266 96.026441427322425 0 96.026441427322425 28.100033658389293 0 0 0 0 330.08054770508716 148.5428322587577 0 148.5428322587577 -80.917821519236895 0 0 0 0 151.21560739905544 80.37643062609277 0 80.37643062609277 -22.522883207020641 0 0 0 0 314.72567172916024 148.27420282955791 0 148.27420282955791 -23.422771782161988 0 0 0 0 -4.3645431330678122 9.9130889330887726 0 9.9130889330887726 -7.9359343792431503 0 0 0 0 48.281658272229834 25.673767713626148 0 25.673767713626148 4.6898004783288343 0 0 0 0 6.2386593293922488 28.666354415880051 0 28.666354415880051 57.130428594216937 0 0 0 0 55.067850990981242 12.020714936648801 0 12.020714936648801 23.569950418008375 0 0 0 0 42.419229845392692 38.144752945234359 0 38.144752945234359 22.530714643381316 0 0 0 0 199.19045804167035 -0.4407288635520672 0 -0.4407288635520672 -84.474559330898046 0 0 0 0 42.903305098676356 49.42883766331579 0 49.42883766331579 -14.688765115770366 0 0 0 0 -2.9461716426292099 5.0061732869622446 0 5.0061732869622446 -0.34198827336726367 0 0 0 0 -93.740499208919573 -34.142997648244091 0 -34.142997648244091 62.197241969231982 0 0 0 0 82.151224269793602 -13.627669326073374 0 -13.627669326073374 -62.537790337799379 0 0 0 0 136.24976469827743 101.33845220735111 0 101.33845220735111 -21.889731995339389 0 0 0 0 678.47544949807525 294.12985663730069 0 294.12985663730069 -67.865563753955939 0 0 0 0 467.88487128994166 -2.4728730930983147 0 -2.4728730930983147 -108.08657601358937 0 0 0 0 520.695121123852 295.85062474663027 0 295.85062474663027 -15.171378181661566 0 0 0 0 507.40729168727194 452.02327392919506 0 452.02327392919506 261.40313032814265 0 0 0 0 519.23887034094514 403.42130752600315 0 403.42130752600315 -124.78003861438629 0 0 0 0 477.76735107304194 337.69868518428211 0 337.69868518428211 -51.423711474388256 0 0 0 0 500.61864842120121 277.46795269744689 0 277.46795269744689 -62.62352177230423 0 0 0 0 91.234777978759666 151.45896257003005 0 151.45896257003005 241.48909066151828 0 0 0 0 0.019535440733307041 8.627612350963318 0 8.627612350963318 8.8880814359581564 0 0 0 0 0.62451071567332406 3.948185489491209 0 3.948185489491209 9.4476280575838238 0 0 0 0 2.0113997551787151 4.5628566230513457 0 4.5628566230513457 -0.022831291637771756 0 0 0 0 216.06272892786001 277.23592790170187 0 277.23592790170187 368.17761878770762 0 0 0 0 7.4072482592920608 12.697834658105364 0 12.697834658105364 -0.068036410719715334 0 0 0 0 37.288588857154537 226.67726074326129 0 226.67726074326129 721.94045079389934 0 0 0 0 -71.712259036921751 131.71960680380107 0 131.71960680380107 -17.513660450422321 0 0 0 0 -129.94524672421176 73.712517462652613 0 73.712517462652613 -1.8582108862733548 0 0 0 0 477.46102245422662 298.50830817689894 0 298.50830817689894 189.05609923837346 0 0 0 0 -3.7730575892774851 4.1643458246301464 0 4.1643458246301464 12.908638446317042 0 0 0 0 1.0468771738123905 552.52712669621269 0 552.52712669621269 637.57802236851785 0 0 0 0 1167.0652779322809 1299.4057780823669 0 1299.4057780823669 -0.65870473546237918 0 0 0 0 -1.1461824877316431 2.4767821819098685 0 2.4767821819098685 3.3479258887549292 0 0 0 0 -834.59847977009304 285.73593507083842 0 285.73593507083842 -14.885746168354672 0 0 0 0 -381.59471881403442 629.36389670732751 0 629.36389670732751 -0.1395329505103291 0 0 0 0 -213.47811825893587 478.42392327301241 0 478.42392327301241 -27.911093455404625 0 0 0 0 -217.35916748932505 713.9718998307435 0 713.9718998307435 -98.497352447750018 0 0 0 0 -106.84606428736515 379.79787531435886 0 379.79787531435886 -598.66356183842436 0 0 0 0 188.61951640431653 469.52851964391448 0 469.52851964391448 -1397.4712104356804 0 0 0 0 1.827956228954406 5.0911460361876095 0 5.0911460361876095 0.24154236214297953 0 0 0 0 -175.28555110079833 285.11398743333302 0 285.11398743333302 -244.68688995725097 0 0 0 0 187.29368729041744 514.15020747481685 0 514.15020747481685 1233.1399577122388 0 0 0 0 5.0409339574324576 10.656407889535373 0 10.656407889535373 -0.38246141921959165 0 0 0 0 56.333900290468137 364.92371095210979 0 364.92371095210979 1064.0315662802241 0 0 0 0 189.47905548112976 503.11168901049132 0 503.11168901049132 1275.4096018065829 0 0 0 0 182.28845931520482 877.16552911539111 0 877.16552911539111 2450.0139238679435 0 0 0 0 416.05810724304865 1018.4399706238128 0 1018.4399706238128 1286.7543343816797 0 0 0 0 521.33061985671884 1185.2271178249084 0 1185.2271178249084 756.07741493518552 0 0 0 0 -151.34776416949444 936.1460899595977 0 936.1460899595977 674.45512488819077 0 0 0 0 129.43924900978163 1012.3618218369538 0 1012.3618218369538 409.84303861246735 0 0 0 0 110.32880452404788 788.33088163340108 0 788.33088163340108 -767.26075361560288 0 0 0 0 205.87164139596143 541.5368682957992 0 541.5368682957992 421.63142332215648 0 0 0 0 208.93773789887928 553.01107167593727 0 553.01107167593727 -116.31536313929064 0 0 0 0 -30.731160404582624 646.06213658135948 0 646.06213658135948 0.19816788165189791 0 0 0 0 517.3773205953039 515.57486963817428 0 515.57486963817428 -0.067883073083066847 0 0 0 0 497.40583470530692 500.336229447199 0 500.336229447199 189.00195759748613 0 0 0 0 777.19319237361924 432.83528204831964 0 432.83528204831964 198.77673727824094 0 0 0 0 1357.6819202287443 684.71082698342798 0 684.71082698342798 216.39263499870503 0 0 0 0 -176.50521762448625 -94.269697019397427 0 -94.269697019397427 399.43211118409818 0 0 0 0 0.44450587096621597 0.42459259180640174 0 0.42459259180640174 6.3538292548802247 0 0 0 0 251.77338886618236 650.66204716870834 0 650.66204716870834 954.10570581260981 0 0 0 0 248.49767949020315 607.15434181681849 0 607.15434181681849 344.25117644992133 0 0 0 0 -252.6206964886369 601.41951800701872 0 601.41951800701872 715.27718905584334 0 0 0 0 283.71686737936398 381.64282986763283 0 381.64282986763283 1190.9495107849798 0 0 0 0 -497.12147731278674 656.9461854965266 0 656.9461854965266 148.75975129646395 0 0 0 0 303.74904992726806 750.62386638946191 0 750.62386638946191 133.67481747909187 0 0 0 0 342.21174862768385 265.28328137379867 0 265.28328137379867 17.218406055613741 0 0 0 0 -1.9254548540242915 9.291064910760312 0 9.291064910760312 16.198362931393632 0 0 0 0 56.9392197431971 288.8898952915788 0 288.8898952915788 153.81649130182632 0 0 0 0 3.3814344173904658 3.2973344907214113 0 3.2973344907214113 -2.638111799179832 0 0 0 0 -176.9137945184666 186.81551604190827 0 186.81551604190827 149.46604540903354 0 0 0 0 43.085453845542361 526.72760838936665 0 526.72760838936665 -92.903820497362176 0 0 0 0 -782.4847244024495 479.7834131219679 0 479.7834131219679 149.79917836630193 0 0 0 0 -506.77763913742092 360.41666221208288 0 360.41666221208288 7.9855301802763279 0 0 0 0 -324.25081841967267 487.86394673875338 0 487.86394673875338 83.216052217336255 0 0 0 0 -318.52173417096492 406.88259658660536 0 406.88259658660536 -123.70428727989201 0 0 0 0 -373.43440789903252 346.57710864679029 0 346.57710864679029 -54.741631995879288 0 0 0 0 -270.06941065870706 262.40981621440369 0 262.40981621440369 35.654779106072965 0 0 0 0 -260.9308413600229 247.07014124887064 0 247.07014124887064 -92.519234434297459 0 0 0 0 -328.32562828552909 358.71956889866124 0 358.71956889866124 -97.82588310308347 0 0 0 0 2.0381788469273427 8.8555277313817982 0 8.8555277313817982 -17.823999300007742 0 0 0 0 -362.22775483068926 325.93739948880557 0 325.93739948880557 -126.48368184296123 0 0 0 0 -427.84880339927986 259.67623799899229 0 259.67623799899229 -155.21506488280465 0 0 0 0 0.45085749021796495 1.9033136262671917 0 1.9033136262671917 -6.3533172990558455 0 0 0 0 -1403.3272182159053 837.18698281682919 0 837.18698281682919 -127.30684761989687 0 0 0 0 -475.10385095809033 157.13711306358528 0 157.13711306358528 -215.77188255299552 0 0 0 0 -1229.6991251243162 500.01257098712085 0 500.01257098712085 -111.67594529081543 0 0 0 0 10.808696499309477 16.841019848481643 0 16.841019848481643 5.9156535268217754 0 0 0 0 -496.53399329904641 107.01611816078366 0 107.01611816078366 318.69540212364518 0 0 0 0 -61.496156377266743 393.45569694183723 0 393.45569694183723 -341.08126972590253 0 0 0 0 -627.44627157211653 960.43874964835413 0 960.43874964835413 -966.2639287714992 0 0 0 0 -346.96639039490037 185.4962711382077 0 185.4962711382077 -291.84869504376547 0 0 0 0 213.17207016864268 -269.48872186301742 0 -269.48872186301742 -689.56052119351807 0 0 0 0 34.937201101596401 27.390991965239284 0 27.390991965239284 11.164439549420422 0 0 0 0 13.201906878210139 -52.535896731315006 0 -52.535896731315006 -70.204598855994846 0 0 0 0 -34.552410133459489 143.62089285417096 0 143.62089285417096 -37.73727225814946 0 0 0 0 -55.716837302257773 36.7451569763507 0 36.7451569763507 -79.097387861002062 0 0 0 0 -35.530055190261919 167.51289620172611 0 167.51289620172611 39.430034679855453 0 0 0 0 -6.2498928861676859 -1.2695820465659011 0 -1.2695820465659011 5.6623964706194556 0 0 0 0 -450.66837667424443 341.36153816457818 0 341.36153816457818 -64.987303006608272 0 0 0 0 -124.69157609403919 328.26308555191645 0 328.26308555191645 -251.8188893520346 0 0 0 0 -247.4109136813131 265.31592572228874 0 265.31592572228874 -101.42037227335095 0 0 0 0 30.258168927620318 -12.002940269075225 0 -12.002940269075225 -9.2934262391718221 0 0 0 0 26.340377945401997 228.20508057888946 0 228.20508057888946 -112.72551113803252 0 0 0 0 37.792818355596921 23.456110544588302 0 23.456110544588302 13.836520754087758 0 0 0 0 -71.135410122427857 125.41160809448775 0 125.41160809448775 -25.080437154229912 0 0 0 0 89.658465684726252 132.61809841439754 0 132.61809841439754 -169.2625326090656 0 0 0 0 57.870718785110512 -3.4865251232404262 0 -3.4865251232404262 -119.93228376896514 0 0 0 0 73.104983526776778 36.01426654959505 0 36.01426654959505 -25.614818785485113 0 0 0 0 44.033860341896798 -2.1432259534467448 0 -2.1432259534467448 -10.161896790130413 0 0 0 0 13.429930718160904 43.65305196312147 0 43.65305196312147 84.338983951834962 0 0 0 0 -80.953100377639203 121.71611180099899 0 121.71611180099899 132.96080380277999 0 0 0 0 -35.648568282776978 -21.172811842348892 0 -21.172811842348892 -0.99844312812638236 0 0 0 0 77.954132196930004 100.49895363290489 0 100.49895363290489 -14.251424882411811 0 0 0 0 106.44505535758799 73.823248857966973 0 73.823248857966973 -32.712712044037744 0 0 0 0 174.58163549361052 55.667630235191609 0 55.667630235191609 -35.606866347888626 0 0 0 0 119.76180773678789 -21.702339617282632 0 -21.702339617282632 -17.848243358785112 0 0 0 0 2.2826843568501261 -0.55868105752809072 0 -0.55868105752809072 -0.33379832157804756 0 0 0 0 28.528690131468466 -116.55441139093455 0 -116.55441139093455 93.446612019979511 0 0 0 0 135.21548340886511 -131.10923000943149 0 -131.10923000943149 -74.118465640000068 0 0 0 0 -30.440234825000516 218.38537575388182 0 218.38537575388182 188.91310858960424 0 0 0 0 109.57890432134445 -14.56874591390806 0 -14.56874591390806 -172.16950942973199 0 0 0 0 36.437169041810321 23.698490678612341 0 23.698490678612341 9.596296971248961 0 0 0 0 66.854796290484956 53.020437407485588 0 53.020437407485588 -139.67538426827923 0 0 0 0 9.4517733297225277 75.221656263589466 0 75.221656263589466 19.410936946762376 0 0 0 0 0.098716290514857974 105.26402900040921 0 105.26402900040921 -25.905730136340026 0 0 0 0 38.413623158659902 20.878480433620098 0 20.878480433620098 12.498692976943858 0 0 0 0 52.298079985323056 42.81662205684006 0 42.81662205684006 -45.410609657570603 0 0 0 0 -44.473808121681941 61.736490339984812 0 61.736490339984812 -5.5012465343279473 0 0 0 0 -331.83640617066703 198.31589504658768 0 198.31589504658768 -16.471009109505758 0 0 0 0 -57.839516127409297 129.55738125798598 0 129.55738125798598 -44.958734532432572 0 0 0 0 -873.35899223459046 -1.5812218910466527 0 -1.5812218910466527 106.35729319510574 0 0 0 0 -345.66526539531515 47.984883067201736 0 47.984883067201736 108.95715251296497 0 0 0 0 -5.8673031234172299 2.3845934552872166 0 2.3845934552872166 1.3783580781864373 0 0 0 0 -8.2588581042767828 10.24202531272671 0 10.24202531272671 2.2200930148753173 0 0 0 0 454.90420900894242 612.66066715824854 0 612.66066715824854 905.08468669621288 0 0 0 0 213.56871832827164 349.85218047979288 0 349.85218047979288 1050.4055039433879 0 0 0 0 571.62455479503842 818.97745247382409 0 818.97745247382409 1267.3508096815931 0 0 0 0 546.7820804210769 861.60097406826571 0 861.60097406826571 1195.9941533100064 0 0 0 0 187.48616601418144 691.94252731036158 0 691.94252731036158 1167.595045532049 0 0 0 0 107.61305376423115 690.83546754306735 0 690.83546754306735 1191.2238655643505 0 0 0 0 16.882773445369821 688.90437013176052 0 688.90437013176052 1180.507831032759 0 0 0 0 266.53505481666434 526.49159800432517 0 526.49159800432517 1128.0896288463337 0 0 0 0 95.764797045159867 520.32349959610656 0 520.32349959610656 1142.325181098684 0 0 0 0 116.93465317189839 208.33653784465423 0 208.33653784465423 594.62437141229407 0 0 0 0 739.71086940559326 978.13481702376885 0 978.13481702376885 539.43093728426174 0 0 0 0 15.277326658971319 6.7991252615287863 0 6.7991252615287863 -8.421875379403474 0 0 0 0 1.9853432900788448 1.4854599822838885 0 1.4854599822838885 -1.0299628467118254 0 0 0 0 91.679631438644719 590.26186906953808 0 590.26186906953808 1533.0972756925439 0 0 0 0 19.148803372576367 22.394013878796613 0 22.394013878796613 -52.825982511305483 0 0 0 0 23.446928639414182 1.0811923457943067 0 1.0811923457943067 -16.812153984537872 0 0 0 0 6.2962782077266297 -0.68672573931910108 0 -0.68672573931910108 -3.8338949300115281 0 0 0 0 36.259794534205867 -23.744291750659613 0 -23.744291750659613 37.726175994197547 0 0 0 0 45.080663276399719 -5.4309749290850959 0 -5.4309749290850959 -83.691919098426297 0 0 0 0 7.5432899225670553 29.576096906632301 0 29.576096906632301 -19.807808017882053 0 0 0 0 98.603092616554932 73.016281615273328 0 73.016281615273328 -37.908160448689159 0 0 0 0 35.239292926758935 -16.661770370064914 0 -16.661770370064914 -148.32840259780642 0 0 0 0 34.90536577864259 27.586177094184677 0 27.586177094184677 -52.148026073002256 0 0 0 0 12.299927649900383 -31.010735983480572 0 -31.010735983480572 -91.516578356000537 0 0 0 0 -0.16258498854755032 3.9754626570802714 0 3.9754626570802714 0.089312122177915398 0 0 0 0 5.3469967604614794 -3.2377842452951882 0 -3.2377842452951882 -71.534615406351804 0 0 0 0 212.580509676367 453.84332785528204 0 453.84332785528204 933.11374948653975 0 0 0 0 2.747379156837269 -6.7969121016940335 0 -6.7969121016940335 23.868245261881384 0 0 0 0 26.148593187252118 18.753950389280362 0 18.753950389280362 -4.6737199848676028 0 0 0 0 14.859422234586759 8.6951127982169183 0 8.6951127982169183 0.0474764316442986 0 0 0 0 -29.644736831738555 -108.28118789183281 0 -108.28118789183281 -294.76790226070443 0 0 0 0 -1.7844548706316345 0.49135177877047909 0 0.49135177877047909 0.19859478908557548 0 0 0 0 -18.019549396325601 74.004064786244271 0 74.004064786244271 5.4319747048120917 0 0 0 0 -21.061181603930891 -23.700698131488025 0 -23.700698131488025 -86.616345542295676 0 0 0 0 -39.166753243218409 133.06114466470535 0 133.06114466470535 -123.56107037620677 0 0 0 0 0.06284765899181366 26.466396362357045 0 26.466396362357045 -55.660656037696754 0 0 0 0 -0.070130461950611789 19.724037560079523 0 19.724037560079523 -34.211707849841332 0 0 0 0 -13.305942866521946 28.674041564067011 0 28.674041564067011 -24.558103123577894 0 0 0 0 -12.645272821559047 18.610184669587397 0 18.610184669587397 -8.7440550816318137 0 0 0 0 4.6470585573717074 3.5193287072507928 0 3.5193287072507928 3.9991020952412519 0 0 0 0 0.65650653155898908 1109.0849589479294 0 1109.0849589479294 1770.7540772606735 0 0 0 0 -235.89344980136957 342.80737790487183 0 342.80737790487183 2994.1744718080918 0 0 0 0 9.0243390070099849 749.40462943574312 0 749.40462943574312 1382.2714701326213 0 0 0 0 -67.323536673182389 334.58814936890849 0 334.58814936890849 1252.5306855704875 0 0 0 0 158.80743717667065 857.80542132463597 0 857.80542132463597 1007.3059864183379 0 0 0 0 135.47017718260759 586.5193369712797 0 586.5193369712797 755.49944461259383 0 0 0 0 134.15749411548313 698.34043426164862 0 698.34043426164862 995.84637554325309 0 0 0 0 282.82231364501058 701.40709199129924 0 701.40709199129924 112.59604439263967 0 0 0 0 0.012641371482225543 1104.3463819872261 0 1104.3463819872261 900.27188396724523 0 0 0 0 -14.980634814826772 643.77000184600547 0 643.77000184600547 1467.4995783134873 0 0 0 0 -109.05376273730508 185.56275029666904 0 185.56275029666904 131.96125384330117 0 0 0 0 -93.597212352753559 135.62947243512281 0 135.62947243512281 180.12202343872514 0 0 0 0 -2.6916755336905283 1.6554857203835383 0 1.6554857203835383 0.068302797542528992 0 0 0 0 -28.257353533223977 67.539083459159656 0 67.539083459159656 172.11485051617274 0 0 0 0 110.74420900084806 111.20306854041701 0 111.20306854041701 102.48335385181235 0 0 0 0 5.9918534768803511 79.089466223093041 0 79.089466223093041 111.35182535854256 0 0 0 0 -43.578784332254145 125.15856391946727 0 125.15856391946727 97.80244859144841 0 0 0 0 -0.15979529250762425 124.35138497255502 0 124.35138497255502 82.969621726249898 0 0 0 0 -23.505788206100988 57.543100729202706 0 57.543100729202706 -9.1922846460838628 0 0 0 0 -75.90830234074383 32.831511212680198 0 32.831511212680198 -7.3091998868258088 0 0 0 0 -104.11167588323588 71.967736178232371 0 71.967736178232371 -43.960999322414864 0 0 0 0 0.049351878442394082 35.221163405745756 0 35.221163405745756 -223.38413949550159 0 0 0 0 -1.8469234936958401 88.133018542832929 0 88.133018542832929 -101.21894680811238 0 0 0 0 -26.901348573548603 120.70735772566331 0 120.70735772566331 -263.55356816506355 0 0 0 0 -4.349130775386584 28.054644487729092 0 28.054644487729092 -98.584769951368799 0 0 0 0 -50.620043790942873 115.44073042620948 0 115.44073042620948 -68.996806944167474 0 0 0 0 -16.387341326656497 123.94460515089054 0 123.94460515089054 36.96546193848917 0 0 0 0 32.287000241121859 116.45599366856277 0 116.45599366856277 -33.833276743651368 0 0 0 0 -2.8923777868476463 56.080890622088191 0 56.080890622088191 -1.4102627608881448 0 0 0 0 67.461641336602042 143.55344504834648 0 143.55344504834648 52.184076224762975 0 0 0 0 96.198695859908185 82.206324293703801 0 82.206324293703801 -24.636850507835334 0 0 0 0 38.39309882147063 79.741516121019231 0 79.741516121019231 48.354445743364295 0 0 0 0 43.438801029755268 43.869078680378152 0 43.869078680378152 -58.717570826325755 0 0 0 0 38.881900216758368 86.086356603904278 0 86.086356603904278 -14.041990435795014 0 0 0 0 74.211783058981382 43.121502128202337 0 43.121502128202337 -87.447863700108428 0 0 0 0 108.49223795898706 105.93028426131514 0 105.93028426131514 6.6485960273494129 0 0 0 0 59.828139339984773 70.079992107459475 0 70.079992107459475 -6.2857604236050975 0 0 0 0 103.77356709359447 66.890087874740857 0 66.890087874740857 -18.263323559043783 0 0 0 0 87.335912149030264 125.01003828968896 0 125.01003828968896 26.454608122723585 0 0 0 0 90.407986338002956 98.784979102299985 0 98.784979102299985 68.778128498503065 0 0 0 0 159.39650525159959 118.83779756413787 0 118.83779756413787 63.108077785877867 0 0 0 0 448.29263181512943 348.78856237671789 0 348.78856237671789 247.70590058386733 0 0 0 0 336.88472804040066 486.22049836988845 0 486.22049836988845 740.46635308141231 0 0 0 0 67.785667802512762 125.09136415303328 0 125.09136415303328 200.05465653562715 0 0 0 0 -7.5169267266727076 5.7444946524804692 0 5.7444946524804692 -2.1594511672924739 0 0 0 0 81.397259111803578 110.9490529583336 0 110.9490529583336 100.82262343967886 0 0 0 0 111.23204553067626 191.21300068953315 0 191.21300068953315 141.60630604447942 0 0 0 0 90.233468179372721 202.95261785722323 0 202.95261785722323 181.20545492826068 0 0 0 0 -1.4770170529514104 3.3661965017376758 0 3.3661965017376758 3.1587440171035723 0 0 0 0 -1211.96709418715 -81.708066555843288 0 -81.708066555843288 427.1358114759023 0 0 0 0 1284.3526701986011 620.36735285342365 0 620.36735285342365 216.51024664566285 0 0 0 0 -215.22933965743505 251.91693141900032 0 251.91693141900032 287.84135266219528 0 0 0 0 -481.88610695887473 16.673257781993016 0 16.673257781993016 227.37646533660018 0 0 0 0 -199.80043184602982 327.12567985784699 0 327.12567985784699 207.21195048595541 0 0 0 0 139.26013530424098 530.36523519697221 0 530.36523519697221 351.75546863427553 0 0 0 0 271.78027923042828 386.17563272608095 0 386.17563272608095 169.25425656247535 0 0 0 0 -155.72937214923149 153.07200030116655 0 153.07200030116655 409.96016013225562 0 0 0 0 -70.546356455321074 -151.85665424837316 0 -151.85665424837316 671.87913799857415 0 0 0 0 -2.1518716120481258 445.87332087424238 0 445.87332087424238 946.35008480811666 0 0 0 0 -873.32716939335296 373.64247045461525 0 373.64247045461525 422.14869089846616 0 0 0 0 -12.30326534807682 81.213325306574916 0 81.213325306574916 337.28493678782434 0 0 0 0 -428.26674223649024 126.01126562775971 0 126.01126562775971 417.74984231982307 0 0 0 0 -299.99515765943215 418.31887417481266 0 418.31887417481266 295.23567745408945 0 0 0 0 128.06765071526206 171.11924328670284 0 171.11924328670284 93.94161069735128 0 0 0 0 -13.486363583606845 10.056604911934173 0 10.056604911934173 -6.2901887363377256 0 0 0 0 99.110316667346069 157.00607640130988 0 157.00607640130988 105.00109535086449 0 0 0 0 -109.56931582243851 201.33935148192177 0 201.33935148192177 247.2759151516712 0 0 0 0 80.825012716959463 80.717645108725264 0 80.717645108725264 73.431627630112416 0 0 0 0 95.348556732016732 82.249537509453148 0 82.249537509453148 32.915335908372072 0 0 0 0 89.408705668560287 59.210069416072656 0 59.210069416072656 24.563401944949874 0 0 0 0 91.852008443187515 66.422836885018114 0 66.422836885018114 0.82579243952932302 0 0 0 0 73.479167340701679 100.73189315063064 0 100.73189315063064 56.079989712990937 0 0 0 0 -20.346568055999029 14.55060427685676 0 14.55060427685676 -9.2299407005764351 0 0 0 0 0.86954804438573774 4.9882176428054663 0 4.9882176428054663 68.865304267362262 0 0 0 0 81.012125093002396 97.506423377712053 0 97.506423377712053 57.455922597873723 0 0 0 0 0.4557092955336941 6.1785582871264069 0 6.1785582871264069 -3.2499371064675673 0 0 0 0 45.355241593017126 82.043634540095809 0 82.043634540095809 93.953018507709203 0 0 0 0 81.278706858603982 45.691546840916999 0 45.691546840916999 39.785776470671408 0 0 0 0 66.10245533275156 -31.690856616871315 0 -31.690856616871315 74.725882506519156 0 0 0 0 -31.437430195594061 25.606298600556329 0 25.606298600556329 219.76806432146986 0 0 0 0 30.240935739429915 47.879176254295089 0 47.879176254295089 90.786365719097375 0 0 0 0 -70.895419254004082 34.007905652935733 0 34.007905652935733 86.084716764467885 0 0 0 0 -42.57599573416519 41.093202861560712 0 41.093202861560712 53.879772809559654 0 0 0 0 -15.181780009923386 43.839240093095214 0 43.839240093095214 49.590509858018777 0 0 0 0 -4.3779704006956308 16.130584393460595 0 16.130584393460595 63.823749748175032 0 0 0 0 -18.504640495921194 63.307880222164385 0 63.307880222164385 20.580792058302904 0 0 0 0 -27.285485913671437 45.262641286441067 0 45.262641286441067 64.115490572427575 0 0 0 0 -22.860940165990542 54.372739913759688 0 54.372739913759688 25.929019629322283 0 0 0 0 -5.0692619485125761 50.618439541760381 0 50.618439541760381 -32.672251120238798 0 0 0 0 -30.019933425623861 18.934947708823245 0 18.934947708823245 7.3006229561996889 0 0 0 0 -18.709840221854392 43.278087355331081 0 43.278087355331081 13.36358897354512 0 0 0 0 -25.76180267062955 26.565082780431112 0 26.565082780431112 20.370480474353826 0 0 0 0 2.2346036057351313 12.389368367123087 0 12.389368367123087 11.888667919976889 0 0 0 0 9.4600278971047373 15.727038233326311 0 15.727038233326311 -0.7724190727168434 0 0 0 0 -47.15639844058569 14.181796279980972 0 14.181796279980972 16.462366055638995 0 0 0 0 3.8130473905407314 -5.4239891988574982 0 -5.4239891988574982 12.141806705556533 0 0 0 0 492.8997626289638 2.3558091786908335 0 2.3558091786908335 591.52270801871782 0 0 0 0 -86.860163909392213 -13.957783019093313 0 -13.957783019093313 39.612154402529995 0 0 0 0 1328.5478153181975 -130.38076477651703 0 -130.38076477651703 566.15360718773809 0 0 0 0 390.02572230514488 989.74492758607812 0 989.74492758607812 1403.3363083150962 0 0 0 0 327.32057770801657 989.56103576825535 0 989.56103576825535 1584.6020709226141 0 0 0 0 414.61896406506276 1056.4630278112763 0 1056.4630278112763 1488.9833072842594 0 0 0 0 1.6271790304373468 -2.5881012478850209 0 -2.5881012478850209 5.6574299010725468 0 0 0 0 289.52312791613622 901.5731963936496 0 901.5731963936496 1448.176188385929 0 0 0 0 36.1380429998826 -182.30697007700837 0 -182.30697007700837 218.94467287888983 0 0 0 0 24.30932380745071 -123.59013941700869 0 -123.59013941700869 -28.492696935216372 0 0 0 0 605.52752142469399 379.56744846789843 0 379.56744846789843 348.75210180748036 0 0 0 0 533.61142193069827 626.64996603459986 0 626.64996603459986 364.18924872467687 0 0 0 0 435.90948428245611 410.9658431860571 0 410.9658431860571 936.13345710862632 0 0 0 0 932.47982526255146 525.81961264544952 0 525.81961264544952 111.44751258682663 0 0 0 0 483.8483549782577 263.15014561706266 0 263.15014561706266 10.271397229880677 0 0 0 0 489.90789228344511 407.34217113097111 0 407.34217113097111 -74.085260435106534 0 0 0 0 175.79636399269657 300.13919855065251 0 300.13919855065251 39.35513023981548 0 0 0 0 746.63956150159356 485.68218383412204 0 485.68218383412204 -75.995542322729307 0 0 0 0 499.7590484591492 501.54880205374502 0 501.54880205374502 17.606939023338782 0 0 0 0 610.32187869948393 662.67321625334444 0 662.67321625334444 192.44306080407841 0 0 0 0 513.63549702195814 408.47602870035553 0 408.47602870035553 -103.44688270491679 0 0 0 0 574.11934801737516 429.9653082302757 0 429.9653082302757 -144.46140955916781 0 0 0 0 606.94283781105332 501.40602406947801 0 501.40602406947801 -142.27363968882128 0 0 0 0 234.25601659134554 471.6175411999393 0 471.6175411999393 -170.20150942276268 0 0 0 0 524.30833272092059 504.73233150518536 0 504.73233150518536 -203.30293977606198 0 0 0 0 479.52155376464725 427.65901408994432 0 427.65901408994432 -113.48182700300822 0 0 0 0 235.91926108201733 399.46098859776612 0 399.46098859776612 -105.5710377496971 0 0 0 0 170.76898522844567 490.61492124903452 0 490.61492124903452 -194.76229022054031 0 0 0 0 223.30814726716881 358.31746986653843 0 358.31746986653843 -245.4221372572938 0 0 0 0 625.35418493343604 505.33617975825473 0 505.33617975825473 -257.52792228172984 0 0 0 0 73.836828619937478 162.79437242169729 0 162.79437242169729 148.9589401646881 0 0 0 0 42.261590420245739 -47.974099445038973 0 -47.974099445038973 -600.03403229492687 0 0 0 0 -43.298419598766486 -179.27336539125099 0 -179.27336539125099 122.61133150231399 0 0 0 0 -0.86985099619050743 13.660493838355251 0 13.660493838355251 -26.209775464505583 0 0 0 0 42.016488943074364 5.1481661973484734 0 5.1481661973484734 11.228162876639544 0 0 0 0 6.0740306916751905 -4.9946686336620871 0 -4.9946686336620871 4.3179561971854667 0 0 0 0 716.9211784760264 342.70466274468708 0 342.70466274468708 90.696708435540131 0 0 0 0 1.3283770203637655 -0.36729462864357743 0 -0.36729462864357743 3.9060727482758608 0 0 0 0 654.29832756444057 233.05656449356104 0 233.05656449356104 -19.623087637886783 0 0 0 0 412.30152993465163 396.7253186666203 0 396.7253186666203 159.41899925144571 0 0 0 0 384.30843674305288 282.37813872348966 0 282.37813872348966 137.27739171587746 0 0 0 0 324.65361142378242 391.23474081753375 0 391.23474081753375 148.09221910367455 0 0 0 0 448.83654608635698 292.1187672410224 0 292.1187672410224 169.30854055020973 0 0 0 0 86.591033365310068 214.58421674731244 0 214.58421674731244 143.83366042471971 0 0 0 0 227.89222697984951 394.82593254511721 0 394.82593254511721 70.837807728232292 0 0 0 0 -97.758787381353613 362.11220876801235 0 362.11220876801235 107.99094144264745 0 0 0 0 290.03288154883194 303.87263327121218 0 303.87263327121218 22.089733736597736 0 0 0 0 406.52359393522056 473.76658780713842 0 473.76658780713842 -40.031728720121464 0 0 0 0 496.50472127426565 486.9810433490079 0 486.9810433490079 -38.23096276501019 0 0 0 0 231.44025287241539 435.51834611152003 0 435.51834611152003 35.491253058600705 0 0 0 0 240.77312758780317 517.55685209102376 0 517.55685209102376 187.08503421889327 0 0 0 0 -164.521516537352 276.6075845753694 0 276.6075845753694 190.49904469946341 0 0 0 0 -539.49171818009927 -107.44953368826555 0 -107.44953368826555 -107.22960390778462 0 0 0 0 -53.705452729354874 282.29643895219579 0 282.29643895219579 -46.345079370017629 0 0 0 0 324.78940126356247 252.08712294652832 0 252.08712294652832 287.36198982650603 0 0 0 0 717.42031275082263 418.97897393253515 0 418.97897393253515 40.735029286533972 0 0 0 0 422.77394516782806 169.85225729212652 0 169.85225729212652 108.1276758431668 0 0 0 0 -334.55397300570621 100.56654242182412 0 100.56654242182412 92.507964655760588 0 0 0 0 -4.0685692764252934 8.7882456108465732 0 8.7882456108465732 7.6141465975452718 0 0 0 0 143.53248095542949 192.41318626043631 0 192.41318626043631 18.915839797216904 0 0 0 0 293.68150387654532 320.42725368370702 0 320.42725368370702 138.61226913947786 0 0 0 0 94.063084388297284 182.76781699572348 0 182.76781699572348 146.14368923053917 0 0 0 0 -5.1453636996170289 10.582908300672017 0 10.582908300672017 9.6823773998688552 0 0 0 0 228.02490361015407 242.24666105736196 0 242.24666105736196 73.970127623761073 0 0 0 0 74.105120755877579 241.41997452343458 0 241.41997452343458 146.27192634081985 0 0 0 0 -68.911463607277256 142.21267245986019 0 142.21267245986019 59.710186163223625 0 0 0 0 -0.0062775637779850513 274.21148079495651 0 274.21148079495651 113.81113721811562 0 0 0 0 48.360935258104291 318.72045277287907 0 318.72045277287907 151.45820799186549 0 0 0 0 -0.063756650433788309 255.6100462666509 0 255.6100462666509 101.02517718535819 0 0 0 0 -95.978550514395465 224.26920026594598 0 224.26920026594598 134.77377559100569 0 0 0 0 -71.387081810225936 286.12239910055905 0 286.12239910055905 202.8499960967165 0 0 0 0 60.499362034286605 422.3980122780149 0 422.3980122780149 135.63472728848501 0 0 0 0 332.6608551606455 196.58583162056345 0 196.58583162056345 3.5234283084864728 0 0 0 0 -0.035197046242488178 221.85163056023237 0 221.85163056023237 -58.0221532716605 0 0 0 0 -54.397135661478387 165.67764108908523 0 165.67764108908523 -22.608596489491902 0 0 0 0 -8.1294109808893609 12.449942298266407 0 12.449942298266407 -7.4442201747058192 0 0 0 0 -4.8201006038366359 8.2848353533863701 0 8.2848353533863701 -27.823318207669217 0 0 0 0 76.872219438580942 67.764714756696776 0 67.764714756696776 -125.84218887225143 0 0 0 0 0.41281603745996875 5.1598565673374139 0 5.1598565673374139 -1.135013961670694 0 0 0 0 66.473748984193662 65.882571629350423 0 65.882571629350423 -124.86901039250006 0 0 0 0 63.917912022443488 30.948996549253934 0 30.948996549253934 -140.77197828742032 0 0 0 0 111.29573916141817 37.967067544788733 0 37.967067544788733 -140.69558222286287 0 0 0 0 123.40869387084467 29.35752998399721 0 29.35752998399721 33.679680217064742 0 0 0 0 -10.539415374478267 3.5312009961435251 0 3.5312009961435251 49.277848527417518 0 0 0 0 -39.960683124765637 68.760757311092675 0 68.760757311092675 -55.864263995026704 0 0 0 0 10.048859904320125 28.62291819260281 0 28.62291819260281 10.545728888295343 0 0 0 0 5.3735537799256576 10.32118803958565 0 10.32118803958565 -18.273667297300086 0 0 0 0 -46.206445046962472 118.06003628591861 0 118.06003628591861 26.653918439162226 0 0 0 0 9.0548631309338816 15.045655748293939 0 15.045655748293939 4.513261513569887 0 0 0 0 -0.14107218750569395 15.23861755784138 0 15.23861755784138 5.3765119716441916 0 0 0 0 29.044656076348474 26.482976972572942 0 26.482976972572942 7.9066169894795166 0 0 0 0 32.599998482127148 4.8502652877029959 0 4.8502652877029959 -5.1330477229566895 0 0 0 0 24.898113306535379 5.5050939484535775 0 5.5050939484535775 -5.0942353018210724 0 0 0 0 -62.490263035770113 -65.46863639020512 0 -65.46863639020512 218.55230542307982 0 0 0 0 -0.63634216669095167 0.80261009480791401 0 0.80261009480791401 -0.81511550723914894 0 0 0 0 -17.073942473318311 34.225172369311622 0 34.225172369311622 -27.527019538283639 0 0 0 0 -30.547085103477002 23.94962378249329 0 23.94962378249329 -33.309505187702598 0 0 0 0 -46.18992677355709 10.248959934284358 0 10.248959934284358 -17.198702135123312 0 0 0 0 -77.411694984668429 102.58221939696887 0 102.58221939696887 -85.229078273805499 0 0 0 0 -89.046195958100725 79.46193590285111 0 79.46193590285111 -34.769164442572219 0 0 0 0 -88.810813678566774 76.793005555009586 0 76.793005555009586 -63.644747881640797 0 0 0 0 -59.156871653503913 66.893429053663567 0 66.893429053663567 -91.98565483072889 0 0 0 0 -76.565069385434072 67.503688874550562 0 67.503688874550562 235.06891845507198 0 0 0 0 -52.509128066332778 55.21305158935138 0 55.21305158935138 -85.110847532065236 0 0 0 0 -29.953613724035677 20.00693521273206 0 20.00693521273206 -53.940596009022556 0 0 0 0 -38.601346862327773 34.880064571007097 0 34.880064571007097 -61.258709686837392 0 0 0 0 -28.993814801007829 22.576433822381659 0 22.576433822381659 -53.552512187685352 0 0 0 0 -63.320946650637779 31.945808332558954 0 31.945808332558954 -33.832252843030801 0 0 0 0 -39.786550343342242 19.764562553209544 0 19.764562553209544 -34.244332931411918 0 0 0 0 -52.182854477272485 36.009796803351492 0 36.009796803351492 -37.70591264666291 0 0 0 0 -49.61014191864524 36.561266493066796 0 36.561266493066796 -58.433835664465732 0 0 0 0 -102.06751156934479 37.139593963984225 0 37.139593963984225 -8.8442895871921792 0 0 0 0 -65.13357406153591 30.960870342558337 0 30.960870342558337 -17.133307859243359 0 0 0 0 -105.96276822920481 61.996305849701457 0 61.996305849701457 -15.212714462257281 0 0 0 0 -100.98985299035849 50.506520557210024 0 50.506520557210024 -3.8475487444811733 0 0 0 0 -81.711932070604234 56.658438756530813 0 56.658438756530813 -31.985129123728257 0 0 0 0 -84.404052818030095 54.548939276525857 0 54.548939276525857 -31.813715967393364 0 0 0 0 -84.255950369493803 50.080537126355921 0 50.080537126355921 -36.097076169768116 0 0 0 0 -73.997289673570776 60.228884126598132 0 60.228884126598132 -64.259889686014503 0 0 0 0 -82.42506787829916 64.399885941638786 0 64.399885941638786 -40.592218200632487 0 0 0 0 -102.71982063537507 90.662954902455567 0 90.662954902455567 -28.165312946526683 0 0 0 0 -111.97984236204866 58.593063261043426 0 58.593063261043426 -0.54576412870665081 0 0 0 0 -121.91713969385455 82.768806941829098 0 82.768806941829098 -0.50788325791654643 0 0 0 0 -147.79091286309267 90.953406031589111 0 90.953406031589111 5.7494906772481045 0 0 0 0 -140.5306076981251 77.933738965730299 0 77.933738965730299 26.087310225993861 0 0 0 0 -109.90448792847019 16.035452274674753 0 16.035452274674753 30.690707305766409 0 0 0 0 -161.83122355416708 59.00548261203221 0 59.00548261203221 10.782062227997812 0 0 0 0 -111.50888557933649 51.932356215773325 0 51.932356215773325 10.642463201817009 0 0 0 0 -76.396958659817756 20.852329205350543 0 20.852329205350543 -0.88031413019052707 0 0 0 0 -93.363928303631837 21.730510752066039 0 21.730510752066039 0.19100907602114603 0 0 0 0 -164.04840405121649 -53.90527523963101 0 -53.90527523963101 28.338672700821917 0 0 0 0 -140.05636766694442 13.281246491622369 0 13.281246491622369 48.221021090022987 0 0 0 0 -297.46820559462503 -1.4908337952219881 0 -1.4908337952219881 54.85578394838376 0 0 0 0 -193.59932827093144 28.404831652522262 0 28.404831652522262 46.97703829681268 0 0 0 0 -290.24420544353052 152.66044659374165 0 152.66044659374165 28.028306796346442 0 0 0 0 -161.02920937717499 114.13522250605092 0 114.13522250605092 30.711973522622429 0 0 0 0 -194.42431766873051 95.338471145892981 0 95.338471145892981 21.214576106773166 0 0 0 0 36.568931847970816 39.0604913408024 0 39.0604913408024 10.660546526218241 0 0 0 0 64.979418858150893 67.778176460029499 0 67.778176460029499 -6.9316279686463531 0 0 0 0 57.13864357467537 46.103129768191138 0 46.103129768191138 -30.937196335136832 0 0 0 0 -21.41512392819277 -1.0787197167883278 0 -1.0787197167883278 -17.854233228390513 0 0 0 0 -67.951241654689511 -6.4883250970287918 0 -6.4883250970287918 -16.24583209323464 0 0 0 0 -77.390508314347244 17.998782402628422 0 17.998782402628422 -8.882457616578904 0 0 0 0 -102.5710912555187 -69.336848772046324 0 -69.336848772046324 21.014879419308272 0 0 0 0 83.370357497798977 -19.654782436718961 0 -19.654782436718961 -20.237550441874191 0 0 0 0 46.091896536523564 -10.748492874708973 0 -10.748492874708973 -159.61906842657481 0 0 0 0 -20.04953842197483 -147.52896690149873 0 -147.52896690149873 -149.7144539574947 0 0 0 0 -27.095722598695787 10.861042235363193 0 10.861042235363193 -3.2064454256468373 0 0 0 0 -384.42452140237583 8.0930935237156518 0 8.0930935237156518 11.328855667448806 0 0 0 0 -3.3370614372230278 3.3660822129635406 0 3.3660822129635406 -4.1133709805734355 0 0 0 0 -638.02018625022902 317.26136408284947 0 317.26136408284947 -172.477454361946 0 0 0 0 -613.71488909360778 288.361864788807 0 288.361864788807 -34.165746688842773 0 0 0 0 -348.07828845312906 151.71087343301951 0 151.71087343301951 32.128616045505623 0 0 0 0 -463.7743454952797 594.32512212627626 0 594.32512212627626 -293.56313799159398 0 0 0 0 -85.44780268453178 176.2759777543688 0 176.2759777543688 319.15660691687117 0 0 0 0 17.427012325410033 9.576800228045613 0 9.576800228045613 153.75208830203337 0 0 0 0 43.482801878220926 124.78178747521088 0 124.78178747521088 1.2994372152825235 0 0 0 0 43.394834455782984 130.62301624013116 0 130.62301624013116 -121.41773678550089 0 0 0 0 12.262547182981507 86.949451097945712 0 86.949451097945712 122.66060239548096 0 0 0 0 48.578310548211448 65.637832521868404 0 65.637832521868404 -16.185681524420943 0 0 0 0 7.8783141016913305 -37.119382183910034 0 -37.119382183910034 366.10333707117388 0 0 0 0 -22.497267559177999 246.79589421234778 0 246.79589421234778 128.66329729089193 0 0 0 0 -18.706393467364251 203.47750753335276 0 203.47750753335276 133.58248357971661 0 0 0 0 6.8693164183059707 311.59241971135452 0 311.59241971135452 -194.28651614988485 0 0 0 0 -244.70472992611394 204.64945245340095 0 204.64945245340095 272.72728555710273 0 0 0 0 -15.337538726114701 8.1640961307175957 0 8.1640961307175957 -2.1359826196331539 0 0 0 0 -91.816076581941161 -8.8663212241790461 0 -8.8663212241790461 415.69657640062724 0 0 0 0 107.04925396384351 25.358450451540193 0 25.358450451540193 -263.81085394173715 0 0 0 0 63.198280613098177 95.538725458114641 0 95.538725458114641 -219.53969297523872 0 0 0 0 216.35061920425869 409.59699012855617 0 409.59699012855617 457.28834265577098 0 0 0 0 41.211147320791497 -17.801036273131103 0 -17.801036273131103 297.282572292439 0 0 0 0 1171.7175731520947 592.49399667165926 0 592.49399667165926 545.1762904390489 0 0 0 0 112.43549693745445 996.60232059279588 0 996.60232059279588 1724.0874259796233 0 0 0 0 535.64061012454295 759.27671785257644 0 759.27671785257644 125.14622107162722 0 0 0 0 89.121716296031082 345.98690725905544 0 345.98690725905544 715.28831429839192 0 0 0 0 -3.8668664560347707 3.6575683016002642 0 3.6575683016002642 -0.99134777414803565 0 0 0 0 361.59336564385194 313.2799690736083 0 313.2799690736083 438.37890542517925 0 0 0 0 9.3783895010565175 15.924433044368925 0 15.924433044368925 6.7276232252747832 0 0 0 0 673.01797847663693 421.51087867598835 0 421.51087867598835 273.08401876535208 0 0 0 0 422.2842914333587 525.34941205763425 0 525.34941205763425 560.08870158619538 0 0 0 0 10.275766414309714 4.9187603131342144 0 4.9187603131342144 -0.66647806969830015 0 0 0 0 423.2654444480213 565.56138428164195 0 565.56138428164195 973.28989459349032 0 0 0 0 354.5639325254524 977.54157605549153 0 977.54157605549153 898.70823740678679 0 0 0 0 240.86700689159261 789.16926544902526 0 789.16926544902526 914.94395259405883 0 0 0 0 758.99878316385002 950.1616289453159 0 950.1616289453159 454.04103039506299 0 0 0 0 1435.6758187900123 1004.6288982768092 0 1004.6288982768092 600.02643856950181 0 0 0 0 529.87819219744415 824.78692189026333 0 824.78692189026333 571.66696503939602 0 0 0 0 401.26378007042513 1071.4648282606036 0 1071.4648282606036 105.59760275998269 0 0 0 0 -0.4515052416242753 -0.75481874729885234 0 -0.75481874729885234 2.4209641541437321 0 0 0 0 -50.028795936566894 228.40791263659776 0 228.40791263659776 1211.7002373655037 0 0 0 0 668.93034006592643 1225.0435828741756 0 1225.0435828741756 1078.6628863681981 0 0 0 0 7.4382100165067868 8.529777572810664 0 8.529777572810664 12.818070629833841 0 0 0 0 108.20943270346197 -70.078730285412803 0 -70.078730285412803 38.087872097454238 0 0 0 0 282.56286487718899 29.89637324942305 0 29.89637324942305 -2.5126278436218854 0 0 0 0 1089.1500969945992 674.81374820379733 0 674.81374820379733 223.21947266091593 0 0 0 0 5.7208579438520246 -25.248617720317725 0 -25.248617720317725 -314.82966373729869 0 0 0 0 -43.519786413831753 137.96936273899337 0 137.96936273899337 -44.189893137689069 0 0 0 0 -40.83492717603076 82.855889471622504 0 82.855889471622504 505.09251578610929 0 0 0 0 38.252621303712658 1.6938685332097521 0 1.6938685332097521 6.5332613871723879 0 0 0 0 63.932997913179861 38.076183501703781 0 38.076183501703781 -18.494451261503855 0 0 0 0 0.63141445883304925 18.196220545474148 0 18.196220545474148 -13.906264564865651 0 0 0 0 28.734517911267176 17.076622238118944 0 17.076622238118944 28.577170734672109 0 0 0 0 6.9720422252066783 36.578716108051594 0 36.578716108051594 53.419072861594032 0 0 0 0 13.741985763444973 73.490649843568463 0 73.490649843568463 -31.145620085319024 0 0 0 0 60.879871078024735 107.73291729649645 0 107.73291729649645 56.794036174105713 0 0 0 0 -13.932469367478916 51.278645704413975 0 51.278645704413975 93.323379992638365 0 0 0 0 2.557794152586041 22.648618434590333 0 22.648618434590333 17.412507168754161 0 0 0 0 2.8488968491510605 42.909438502628291 0 42.909438502628291 17.18538818037996 0 0 0 0 0.41304650491420603 0.83998173825310829 0 0.83998173825310829 -4.5742000841528512 0 0 0 0 5.3601129807320547 15.773711580353066 0 15.773711580353066 -6.8910090639051376 0 0 0 0 9.1991813582280884 -0.97645571943394316 0 -0.97645571943394316 -7.2865443960763514 0 0 0 0 -11.945850189727935 8.8479898796458656 0 8.8479898796458656 -47.617061815511988 0 0 0 0 -130.05719694532308 12.470597981231549 0 12.470597981231549 140.21372521161175 0 0 0 0 166.79616198040094 319.35417696411969 0 319.35417696411969 -1.6275145968902507 0 0 0 0 38.812087146601698 25.955442412014236 0 25.955442412014236 55.565038209762861 0 0 0 0 14.824988681316228 27.276767316088854 0 27.276767316088854 27.930205557170339 0 0 0 0 -141.58684202956283 64.335047149024831 0 64.335047149024831 32.088097800351534 0 0 0 0 -34.279726110573392 26.017953978909645 0 26.017953978909645 21.228745283436183 0 0 0 0 -13.294465321284207 21.306011603801387 0 21.306011603801387 -0.38941980430285383 0 0 0 0 -142.25632602575206 -97.076789588245447 0 -97.076789588245447 -17.977567753769108 0 0 0 0 -343.71331256480335 90.140723844651802 0 90.140723844651802 67.456104780212627 0 0 0 0 -598.70760932783014 306.6231591376345 0 306.6231591376345 -21.627338420352316 0 0 0 0 -405.09685523396183 -142.91803113213246 0 -142.91803113213246 -25.583455079417035 0 0 0 0 -106.28036816543317 204.27606438896328 0 204.27606438896328 -3.4252083307910652 0 0 0 0 -159.52301094954601 265.24578717609984 0 265.24578717609984 -9.5494710079146898 0 0 0 0 -107.51597482213401 324.8270085666154 0 324.8270085666154 -229.45340763684362 0 0 0 0 3.255838828074971 -1.6280731387545302 0 -1.6280731387545302 -0.38152716772920314 0 0 0 0 -59.211803846279508 306.78457852533757 0 306.78457852533757 -695.17152881697984 0 0 0 0 -517.44215521897422 -738.66861777707527 0 -738.66861777707527 -1911.3285977034102 0 0 0 0 -498.25168079909054 270.69955844824108 0 270.69955844824108 -68.57604113855632 0 0 0 0 -168.09659581576852 606.3645597101422 0 606.3645597101422 -395.8796028470897 0 0 0 0 -754.26859394427447 -86.531549591585645 0 -86.531549591585645 -29.628910519972123 0 0 0 0 -1174.9893523493665 837.68050977250095 0 837.68050977250095 -349.50610454993148 0 0 0 0 -536.55987335913233 587.4288605900183 0 587.4288605900183 -600.91413418384036 0 0 0 0 -730.83912864141166 231.00287576970004 0 231.00287576970004 -71.149908278675866 0 0 0 0 -223.62004172556044 435.85922629819834 0 435.85922629819834 -531.63394775616325 0 0 0 0 -1130.810074751389 346.42400106699642 0 346.42400106699642 -258.47486026553088 0 0 0 0 -486.51662035103072 197.3621143958735 0 197.3621143958735 -243.17716614592609 0 0 0 0 -214.05497567872226 414.66278865193817 0 414.66278865193817 -492.5394704129294 0 0 0 0 -6.0690292209005179 5.0548795191834301 0 5.0548795191834301 -4.8839936233678145 0 0 0 0 -97.548779897202621 335.74324135468487 0 335.74324135468487 -707.89849998732825 0 0 0 0 42.108140744865523 156.14622233796035 0 156.14622233796035 -541.57049840694526 0 0 0 0 -34.06653269425442 -21.915078554986394 0 -21.915078554986394 81.259152600960533 0 0 0 0 -237.93212915512413 315.86056543611267 0 315.86056543611267 -227.89339086950349 0 0 0 0 -78.387282923313251 256.65670673749764 0 256.65670673749764 -342.70441860418214 0 0 0 0 -216.23735917509111 98.50339985892424 0 98.50339985892424 -36.80805640345352 0 0 0 0 -227.36654812644929 58.936268664683553 0 58.936268664683553 -116.61958231104654 0 0 0 0 21.159096637609764 0.41570062169375888 0 0.41570062169375888 -7.8675974364559806 0 0 0 0 -9.0543131825961609 -29.390823898200324 0 -29.390823898200324 -5.1554915435735893 0 0 0 0 -1.0415010826127968 1.448670473538872 0 1.448670473538872 2.6505689549894527 0 0 0 0 2.8414210716246373 3.6813867698980829 0 3.6813867698980829 -0.22235662069658702 0 0 0 0 -5.2482939882538631 -21.666520759579726 0 -21.666520759579726 14.663109145209205 0 0 0 0 -60.1502317428276 175.4941992148706 0 175.4941992148706 -265.69529432751369 0 0 0 0 -85.474606089303961 256.79026641191831 0 256.79026641191831 -185.6840344764787 0 0 0 0 -177.93736732492107 337.46839401657417 0 337.46839401657417 -235.20915443182457 0 0 0 0 -121.4597645124195 226.78706022956521 0 226.78706022956521 -176.49654241083044 0 0 0 0 -307.56802493380019 208.41522378854097 0 208.41522378854097 30.311816218887543 0 0 0 0 -153.79951854018145 263.83524861063779 0 263.83524861063779 -102.40838600748611 0 0 0 0 62.098402803603676 -102.30547085494618 0 -102.30547085494618 -13.940967318776529 0 0 0 0 31.598748737724236 -24.702443012898584 0 -24.702443012898584 116.94998771636529 0 0 0 0 -41.83026785886068 90.924978991818534 0 90.924978991818534 27.440197027870454 0 0 0 0 -2.9691299806768363 1.5912566971951563 0 1.5912566971951563 11.350757563025724 0 0 0 0 -1.854121827430447 12.688314733004681 0 12.688314733004681 -26.587463093654087 0 0 0 0 16.201622083237453 39.251915073222335 0 39.251915073222335 -19.577965848659005 0 0 0 0 41.791804166354268 2.795592297841722 0 2.795592297841722 -4.4765463674266357 0 0 0 0 25.707692726586174 12.435824758945273 0 12.435824758945273 -7.3148771472042426 0 0 0 0 18.101771058420127 30.131644723889622 0 30.131644723889622 -22.07526539558603 0 0 0 0 6.836000636110839 10.479601105080292 0 10.479601105080292 -6.9047747006516147 0 0 0 0 31.329690248188854 29.663721241839085 0 29.663721241839085 -26.135242080672469 0 0 0 0 7.0436544646520076 15.820601014376869 0 15.820601014376869 -3.2882805703759379 0 0 0 0 5.3994154050669749 15.833836189649446 0 15.833836189649446 -0.64615029700075866 0 0 0 0 -6.9794525238321512 36.159012297706795 0 36.159012297706795 -16.97863785350637 0 0 0 0 2.3348143917437483 19.850046702210875 0 19.850046702210875 3.1020310457752203 0 0 0 0 -3.2217434638579636 17.709007983431416 0 17.709007983431416 -0.97467196436525683 0 0 0 0 -2.7943518534104079 16.243967106013251 0 16.243967106013251 -4.3985025516957137 0 0 0 0 -4.0212259552572505 10.491903922527854 0 10.491903922527854 -26.437775529106148 0 0 0 0 -7.8688685088782222 6.5745426474240958 0 6.5745426474240958 -19.255625312587654 0 0 0 0 3.8953462935415644 16.646382341471174 0 16.646382341471174 -1.1572509428751592 0 0 0 0 2.6720714764344002 11.781656293065517 0 11.781656293065517 4.9136049466243179 0 0 0 0 -17.013551892621763 137.57668927881969 0 137.57668927881969 137.73881394806085 0 0 0 0 -7.856117473791528 7.7400937604652427 0 7.7400937604652427 -15.596198685336276 0 0 0 0 60.366012410122494 50.471289753229939 0 50.471289753229939 -21.298482431804587 0 0 0 0 133.31412436253595 195.73325255981763 0 195.73325255981763 63.325107578159077 0 0 0 0 5.8637805129019398 29.735238592780206 0 29.735238592780206 11.562570286754635 0 0 0 0 -2.8264759831762944 10.642873570340754 0 10.642873570340754 -3.1869937600074678 0 0 0 0 0.2124662388988412 3.0248967662487907 0 3.0248967662487907 3.6358098666999368 0 0 0 0 -22.19032968931424 20.797281250110245 0 20.797281250110245 28.48672759506735 0 0 0 0 -14.470573013808462 -2.8037993631442077 0 -2.8037993631442077 17.896157709630643 0 0 0 0 -13.838507439926616 -3.2343390289752278 0 -3.2343390289752278 17.924857851205161 0 0 0 0 -9.9073054951732047 -0.07097410529240733 0 -0.07097410529240733 17.047919709410053 0 0 0 0 -11.939851102542889 -3.0592785981243651 0 -3.0592785981243651 12.663524015137227 0 0 0 0 -10.974644275498576 1.2339913443211117 0 1.2339913443211117 19.70793799306557 0 0 0 0 -9.6530124060009257 7.8909134016939788 0 7.8909134016939788 21.051309980353835 0 0 0 0 1.0651807660287886 9.6930944512641872 0 9.6930944512641872 17.612026607126609 0 0 0 0 -11.436070654737705 1.0361738052379224 0 1.0361738052379224 19.623986242579122 0 0 0 0 -18.232316502600952 -5.5933676422901044 0 -5.5933676422901044 22.951633013071842 0 0 0 0 -17.793891031615203 -4.3155996582790976 0 -4.3155996582790976 24.193461985400063 0 0 0 0 -12.188065652931982 0.37923624842369463 0 0.37923624842369463 22.283456908146036 0 0 0 0 -16.062096447611111 -2.6930920874874573 0 -2.6930920874874573 24.748168694604828 0 0 0 0 -16.63118152930474 -5.3261883281184055 0 -5.3261883281184055 19.766093069629278 0 0 0 0 27.318828934599878 6.5670524561355705 0 6.5670524561355705 1.0671871068625478 0 0 0 0 0.23971537485831362 0.23120205854302611 0 0.23120205854302611 1.542549307575328 0 0 0 0 3.8728219657897256 5.2678231949245173 0 5.2678231949245173 -2.8995880416027049 0 0 0 0 16.074771934916498 25.309276581450831 0 25.309276581450831 26.291068176906265 0 0 0 0 -16.727430787244884 -8.2898926504121846 0 -8.2898926504121846 15.840186179397278 0 0 0 0 15.461367201209214 26.371452305986168 0 26.371452305986168 44.928960246419592 0 0 0 0 7.9429519867480849 28.282407075719675 0 28.282407075719675 66.935850137099578 0 0 0 0 -0.24324615163524754 1.3094825059673454 0 1.3094825059673454 -1.4320403228419067 0 0 0 0 -10.172001214254124 -7.0234100484740338 0 -7.0234100484740338 6.5134792918397579 0 0 0 0 -14.149136284788256 -3.9276541613871814 0 -3.9276541613871814 16.557185682904674 0 0 0 0 -7.5494710044440581 4.6687267445231555 0 4.6687267445231555 14.057377228557016 0 0 0 0 15.941567207504704 132.36497894846161 0 132.36497894846161 309.74714869000309 0 0 0 0 -2.7788836907784571 2.3295992272614967 0 2.3295992272614967 -5.5847303997579729 0 0 0 0 -0.69522138072352391 18.560539305137354 0 18.560539305137354 -14.396754299797976 0 0 0 0 -8.9540975009215984 14.543178250247237 0 14.543178250247237 10.483560661369921 0 0 0 0 -5.9855292725340092 9.7750633826463904 0 9.7750633826463904 1.4452875284240179 0 0 0 0 -4.3991621590830619 7.1093765934274415 0 7.1093765934274415 8.6146089241228765 0 0 0 0 -4.3171553447889437 14.664373501307949 0 14.664373501307949 5.4246231192019394 0 0 0 0 74.969611110635014 120.52962892017968 0 120.52962892017968 297.22914127387048 0 0 0 0 81.72942582566975 112.30629135163326 0 112.30629135163326 35.021047038381198 0 0 0 0 -9.8738071582884004 21.794085931032896 0 21.794085931032896 36.389546494363458 0 0 0 0 -6.5198214170771323 14.425963386706563 0 14.425963386706563 19.504656340636473 0 0 0 0 -8.3351594293053495 2.8337851915093779 0 2.8337851915093779 16.934284611008479 0 0 0 0 -6.2311043802685617 0.54926021581972861 0 0.54926021581972861 5.757380120966797 0 0 0 0 -4.479854346060165 3.4856328658243001 0 3.4856328658243001 16.280289776652353 0 0 0 0 -558.4893936805347 57.653454186111048 0 57.653454186111048 517.34986480050452 0 0 0 0 -134.22076489783285 -148.0497675134684 0 -148.0497675134684 526.89112793083405 0 0 0 0 -261.55338861454766 72.538825481675303 0 72.538825481675303 230.17839420557721 0 0 0 0 171.60411748548722 1.7014456159959082 0 1.7014456159959082 351.78190634132443 0 0 0 0 148.11990685818091 171.43938253710076 0 171.43938253710076 273.50939287044821 0 0 0 0 -389.17270746119175 429.72181387359524 0 429.72181387359524 150.65272732252924 0 0 0 0 717.27051870330615 577.1545749346642 0 577.1545749346642 -563.32936491101282 0 0 0 0 900.86714373231189 181.27453304966184 0 181.27453304966184 -364.76708445757686 0 0 0 0 -34.21858272690406 1054.8249121996241 0 1054.8249121996241 -764.2344487695409 0 0 0 0 -316.96283150243289 -528.6946192166215 0 -528.6946192166215 -610.14988951416308 0 0 0 0 -1432.0709504950319 206.82708183926297 0 206.82708183926297 219.49229304978599 0 0 0 0 -398.18550919056361 498.71352415688125 0 498.71352415688125 -643.96335114444389 0 0 0 0 -932.00449922854568 91.147590117709115 0 91.147590117709115 -41.11524821803323 0 0 0 0 -188.91540449706918 -651.66863373822162 0 -651.66863373822162 -138.18068892418887 0 0 0 0 -3.1103168323640702 4.2338687844245371 0 4.2338687844245371 -14.379420748212539 0 0 0 0 -0.059658447625022148 26.04201917818682 0 26.04201917818682 -33.247699891598089 0 0 0 0 -184.70826556824261 29.720663047753987 0 29.720663047753987 -20.602488134525629 0 0 0 0 -231.49150741395715 21.46744814315025 0 21.46744814315025 -15.839759566280918 0 0 0 0 -184.87612253148336 24.424812571272099 0 24.424812571272099 -20.448132966688718 0 0 0 0 -365.92191528495096 -34.135873358214667 0 -34.135873358214667 -29.657148353950106 0 0 0 0 -172.471666340909 191.00884131532985 0 191.00884131532985 -22.128369468669916 0 0 0 0 -539.16376620898245 317.19686138023553 0 317.19686138023553 -60.96739058928506 0 0 0 0 -297.90738411230632 162.37742231193079 0 162.37742231193079 12.246583896016091 0 0 0 0 -172.43676691889959 141.94913575158353 0 141.94913575158353 11.335952113622625 0 0 0 0 -159.28506429925073 128.27490631841738 0 128.27490631841738 4.3905111645144643 0 0 0 0 -208.73335711355503 73.117552399783563 0 73.117552399783563 21.00099767951906 0 0 0 0 -221.85154391305332 97.913403217611631 0 97.913403217611631 28.254064907625434 0 0 0 0 -308.98700117927342 51.467370386867515 0 51.467370386867515 22.971769731731911 0 0 0 0 -214.79186335160921 71.440424488777353 0 71.440424488777353 25.039945196127519 0 0 0 0 -190.67299426964382 37.37431183010267 0 37.37431183010267 -7.5104873187810881 0 0 0 0 -188.43888666018029 47.705334244470578 0 47.705334244470578 -6.204325919112307 0 0 0 0 -221.71411266497671 46.328066301379295 0 46.328066301379295 12.863971058504831 0 0 0 0 -68.620844892575406 12.375082677026512 0 12.375082677026512 -34.137248717772309 0 0 0 0 -159.79641541037745 17.433900098143567 0 17.433900098143567 -17.936012961203232 0 0 0 0 -178.64111996098654 47.634739912675286 0 47.634739912675286 0.28981659258715808 0 0 0 0 -129.33941923874954 27.266237843279669 0 27.266237843279669 -6.5262793874717318 0 0 0 0 -178.12137675128906 29.35537794526681 0 29.35537794526681 7.3985274721999303 0 0 0 0 -141.38298526244762 62.218415924640794 0 62.218415924640794 -20.335912244350766 0 0 0 0 -154.06841315783822 36.709638938773423 0 36.709638938773423 -9.2380863546623004 0 0 0 0 -185.16461553928093 39.443440219656623 0 39.443440219656623 3.7352601985603542 0 0 0 0 -167.23401234698031 50.703164974498577 0 50.703164974498577 2.2081872325506993 0 0 0 0 -168.15676578623243 56.911965162991692 0 56.911965162991692 0.39801982248900458 0 0 0 0 -189.79706920676108 58.875768625839555 0 58.875768625839555 16.252671746631677 0 0 0 0 -188.05812717054505 61.483556467050221 0 61.483556467050221 13.153941176049557 0 0 0 0 -193.57744393820394 80.105091386802087 0 80.105091386802087 22.357041073944856 0 0 0 0 -149.59792609385659 70.517091645928303 0 70.517091645928303 4.7131802114090533 0 0 0 0 8.7977006827481858 27.071892862079199 0 27.071892862079199 5.0751732680088892 0 0 0 0 -150.78124500395643 62.991301543101144 0 62.991301543101144 -4.8940100726831588 0 0 0 0 -174.0517870754411 70.757733711183391 0 70.757733711183391 16.774442564827041 0 0 0 0 -175.56242968311199 74.120298134181212 0 74.120298134181212 14.449616734706069 0 0 0 0 -178.34941380881355 83.11422360880988 0 83.11422360880988 27.169627108181885 0 0 0 0 -156.96521940971434 83.853311417282384 0 83.853311417282384 12.543868961911357 0 0 0 0 -166.39552615910907 91.746282302004147 0 91.746282302004147 5.9746627925305802 0 0 0 0 -172.91017191224819 90.417087740257557 0 90.417087740257557 21.895640114820708 0 0 0 0 -173.88697323037923 91.469470827731129 0 91.469470827731129 29.542930562325637 0 0 0 0 -139.43249121430199 105.57320760522998 0 105.57320760522998 21.463521069541457 0 0 0 0 -160.00131715815951 103.12415283142764 0 103.12415283142764 31.333361553548457 0 0 0 0 -162.96392302583081 92.116556066501289 0 92.116556066501289 27.594745571223029 0 0 0 0 -123.5708369156564 129.23381551481361 0 129.23381551481361 4.4073732397991989 0 0 0 0 -182.07665657994585 78.06163761137941 0 78.06163761137941 21.165464518569934 0 0 0 0 -183.71148509685736 102.85710242071946 0 102.85710242071946 28.888102475688356 0 0 0 0 -4.6426522733208344 5.1524109422178839 0 5.1524109422178839 -1.5474859490383865 0 0 0 0 2.7337102540586784 38.957544032240548 0 38.957544032240548 53.11156877202302 0 0 0 0 79.3549056722768 107.81957248955587 0 107.81957248955587 153.48447895082199 0 0 0 0 28.087909042038518 4.4178061698939928 0 4.4178061698939928 -9.2569141682180316 0 0 0 0 4.5503117499832726 7.5284934963694781 0 7.5284934963694781 -1.5333672570765131 0 0 0 0 0.84307512109602101 2.6005322663652706 0 2.6005322663652706 -0.249041211998136 0 0 0 0 12.493178771982457 102.88586079468473 0 102.88586079468473 44.49129563562019 0 0 0 0 230.42616929659471 13.228702118034562 0 13.228702118034562 4.5432838068663841 0 0 0 0 5.6045155787550698 19.338236899180615 0 19.338236899180615 -5.2006526601899825 0 0 0 0 -107.0102075018367 61.04940279524817 0 61.04940279524817 -28.736038090995862 0 0 0 0 188.74922797191539 27.619066950101114 0 27.619066950101114 117.89770046312333 0 0 0 0 -126.95078822151845 388.43561668190523 0 388.43561668190523 454.93215002873148 0 0 0 0 16.189967987434187 36.210777332101898 0 36.210777332101898 -17.598732374194931 0 0 0 0 19.531595121323335 36.263556443261677 0 36.263556443261677 19.083202093068394 0 0 0 0 -47.073675997668033 686.96175330237747 0 686.96175330237747 -37.515990261497791 0 0 0 0 248.36556611643755 368.64675246566549 0 368.64675246566549 -625.27842639868322 0 0 0 0 330.46183849526096 55.263344037499564 0 55.263344037499564 -603.11939595791046 0 0 0 0 328.36426173603104 61.265352057347627 0 61.265352057347627 -361.55803191531504 0 0 0 0 316.80148739011202 102.76609460554391 0 102.76609460554391 -374.65762165387423 0 0 0 0 235.78561015459491 31.794318621170532 0 31.794318621170532 -211.02502859564265 0 0 0 0 283.07166834078089 185.0318332379029 0 185.0318332379029 -229.43426715832538 0 0 0 0 268.00075419246423 202.06618514411457 0 202.06618514411457 12.150265634341849 0 0 0 0 564.28073666241107 178.75875325242851 0 178.75875325242851 -303.09558567202293 0 0 0 0 138.01282884582361 100.25340407421754 0 100.25340407421754 20.191255192250537 0 0 0 0 0.15438603725779387 2.4243982497006158 0 2.4243982497006158 -11.782985243572654 0 0 0 0 -332.96297544079789 156.67801890713599 0 156.67801890713599 -154.11670964643417 0 0 0 0 3.3664045763325703 -107.60212492019309 0 -107.60212492019309 -288.99815057945307 0 0 0 0 -343.20916904718979 389.43956580095983 0 389.43956580095983 -368.07388194574378 0 0 0 0 -337.12085358410695 179.93839316766753 0 179.93839316766753 -139.8769263204631 0 0 0 0 -410.36754887318239 426.40696223523992 0 426.40696223523992 -252.15147955568136 0 0 0 0 -42.809480044907104 343.94617725220814 0 343.94617725220814 -596.77457368371688 0 0 0 0 10.106582530701417 217.07252502986557 0 217.07252502986557 -385.85737798315677 0 0 0 0 -1.011895247509031 3.6284522741533465 0 3.6284522741533465 -1.9694383756088172 0 0 0 0 31.048162646973651 39.765860243776842 0 39.765860243776842 -63.85819203707797 0 0 0 0 -26.330379973596791 70.145636540136366 0 70.145636540136366 32.39905918689692 0 0 0 0 -216.71810216684935 430.42507874923922 0 430.42507874923922 -510.0492721572009 0 0 0 0 -345.72894405126135 -364.63985223490454 0 -364.63985223490454 -15.72619432328429 0 0 0 0 -19.342465476252983 -33.859924573680473 0 -33.859924573680473 20.797736142521899 0 0 0 0 -143.17470945551759 113.64958113758257 0 113.64958113758257 89.482795567906578 0 0 0 0 9.8365192117198603 93.362370976514285 0 93.362370976514285 -123.03542427754019 0 0 0 0 65.413612966127403 -16.135994620010024 0 -16.135994620010024 -42.64860982952996 0 0 0 0 -4.6375545132672471 5.1644386549284746 0 5.1644386549284746 -2.7056690327812731 0 0 0 0 -16.743622381660316 24.627948225713226 0 24.627948225713226 69.307601793894719 0 0 0 0 -32.547286279754189 -11.648337007901318 0 -11.648337007901318 75.335198262102494 0 0 0 0 23.326616564234428 23.165374877295108 0 23.165374877295108 66.691116340951339 0 0 0 0 13.703236014940558 -11.439808653248292 0 -11.439808653248292 73.824952365175704 0 0 0 0 -36.399935527975686 -9.6467574137404881 0 -9.6467574137404881 305.5855876379901 0 0 0 0 -5.7095286934860212 34.509660079696836 0 34.509660079696836 -9.6460524061715596 0 0 0 0 38.063464878512605 8.1770394462455442 0 8.1770394462455442 52.393327164414586 0 0 0 0 -57.565108428007079 89.561003685350443 0 89.561003685350443 233.80593123636572 0 0 0 0 50.415145986491552 -30.055084873060878 0 -30.055084873060878 123.94426321724131 0 0 0 0 1.5529090153196421 34.517954045357001 0 34.517954045357001 -8.1641193953510545 0 0 0 0 -172.5848932852241 92.190340202787411 0 92.190340202787411 566.78190843388802 0 0 0 0 57.61422484175273 -133.10541441988971 0 -133.10541441988971 14.8180892148157 0 0 0 0 -26.785538663374609 62.644169950754986 0 62.644169950754986 138.39959223814913 0 0 0 0 -4.0399101217211353 4.7639228602399228 0 4.7639228602399228 -0.34885108927822639 0 0 0 0 16.767543881684105 29.951886417298738 0 29.951886417298738 30.803363760830962 0 0 0 0 -23.574925558365067 29.464632530796734 0 29.464632530796734 -36.956802652665829 0 0 0 0 5.2060178263673151 10.221661943411164 0 10.221661943411164 -30.916806326800724 0 0 0 0 -5.967563693293414 22.890500492215324 0 22.890500492215324 -42.146514620842936 0 0 0 0 -0.45612326701302663 21.909485378736463 0 21.909485378736463 -45.57940218672411 0 0 0 0 -2.4976139283389784 29.062093223767079 0 29.062093223767079 -52.998021270577738 0 0 0 0 -0.80383897086922218 22.664111292455591 0 22.664111292455591 4.3850751888421202 0 0 0 0 -1.149537128439988 30.169642341083545 0 30.169642341083545 -26.76571015797947 0 0 0 0 -9.0802069739293074 26.14299453718786 0 26.14299453718786 -20.762634389095183 0 0 0 0 3.7093355052593324 24.82915970550107 0 24.82915970550107 -21.218964584197238 0 0 0 0 3.4377933457435574 25.553755482744918 0 25.553755482744918 -15.923767140606287 0 0 0 0 -32.361997246425744 51.770707273803055 0 51.770707273803055 -143.4407640224872 0 0 0 0 -29.822922301202198 12.299400954481825 0 12.299400954481825 -30.183549093042529 0 0 0 0 2.0026363014263922 18.009051441932932 0 18.009051441932932 -0.76389962893380225 0 0 0 0 -28.930590130505152 -22.119363078740207 0 -22.119363078740207 -71.932145861632307 0 0 0 0 14.285644181101816 -4.247791917900031 0 -4.247791917900031 -163.64806411111931 0 0 0 0 -72.907835208403412 -45.791127709038847 0 -45.791127709038847 -129.53613527835114 0 0 0 0 -105.66435840761551 34.257441862871929 0 34.257441862871929 -110.62484931245854 0 0 0 0 -1.734004782685723 8.1541084999305369 0 8.1541084999305369 -4.4076285866873661 0 0 0 0 -27.731886089852196 79.850935410462625 0 79.850935410462625 -104.2303214148742 0 0 0 0 11.320573848999629 -11.334785176115474 0 -11.334785176115474 -110.87253277596392 0 0 0 0 -4.5520134062771831 8.9525195435198839 0 8.9525195435198839 -84.762920489683893 0 0 0 0 -32.343041689229722 37.590192818157448 0 37.590192818157448 -32.627203020758316 0 0 0 0 7.8248647399450419 35.300199171069835 0 35.300199171069835 -138.85215073606923 0 0 0 0 -2.6279015437829116 3.8971136888490321 0 3.8971136888490321 -0.37162602624012653 0 0 0 0 -13.566255379261335 22.716855400650054 0 22.716855400650054 3.5248358048430619 0 0 0 0 -12.472342615408706 31.405959867261117 0 31.405959867261117 -36.535315715869729 0 0 0 0 -8.2111891318127164 26.074866999892947 0 26.074866999892947 -32.533646387956196 0 0 0 0 -13.665449555097439 24.892520456732427 0 24.892520456732427 -18.475072405495666 0 0 0 0 -14.917527337114734 28.342040898744926 0 28.342040898744926 -27.974841725193983 0 0 0 0 -19.451951970338996 22.192099286760822 0 22.192099286760822 -16.684756420874692 0 0 0 0 -22.26697910335497 33.77891569320218 0 33.77891569320218 -31.41021851127698 0 0 0 0 -30.031953459496435 31.672535907655401 0 31.672535907655401 -25.179128594947542 0 0 0 0 6.3297265138699004 20.574080210557895 0 20.574080210557895 -9.6403328527230769 0 0 0 0 8.3640045077043936 15.860171979765404 0 15.860171979765404 -19.602466578138028 0 0 0 0 3.5727698910995969 21.43987933259632 0 21.43987933259632 -8.8167898578085442 0 0 0 0 4.8562140567883034 20.272783567299484 0 20.272783567299484 -9.6997289334608467 0 0 0 0 -1.4228314808193971 9.1746036862478633 0 9.1746036862478633 -12.281709477269635 0 0 0 0 -0.045417484405334108 16.622296382646368 0 16.622296382646368 -2.0241509757934182 0 0 0 0 2.5879078057535061 11.20809893588207 0 11.20809893588207 -3.7068108013477463 0 0 0 0 -10.298949326035654 26.905080152492928 0 26.905080152492928 -12.372407299124461 0 0 0 0 -10.016854632358445 27.676556749786187 0 27.676556749786187 -17.747205469585424 0 0 0 0 -10.302086098556174 23.840651038205579 0 23.840651038205579 -17.553234183894347 0 0 0 0 0.98465247744388762 12.424892458453542 0 12.424892458453542 -6.2354968402210034 0 0 0 0 -5.5867167871256243 13.115919185279381 0 13.115919185279381 -5.9620964302725952 0 0 0 0 4.8138456144988595 28.25410438038125 0 28.25410438038125 -18.433293779708947 0 0 0 0 7.0546349935448234 33.306071647777571 0 33.306071647777571 -14.986259629031338 0 0 0 0 0.21236089147714665 32.045706250548392 0 32.045706250548392 -19.846025265882417 0 0 0 0 -2.9413406507810578 29.622325822446328 0 29.622325822446328 -21.60885722269154 0 0 0 0 -2.747072888094408 28.200334782278787 0 28.200334782278787 -17.091010214388007 0 0 0 0 6.6491244011122035 14.172451604457365 0 14.172451604457365 -10.777806308900495 0 0 0 0 -0.58430057359510101 29.141373350338654 0 29.141373350338654 -16.985209840747757 0 0 0 0 -4.9573855268245097 22.91857145767608 0 22.91857145767608 -9.4386004273787876 0 0 0 0 0.23718973385985009 28.781648946836867 0 28.781648946836867 -17.633304580762342 0 0 0 0 2.6562777349972748 23.316753884683749 0 23.316753884683749 -25.47766622241852 0 0 0 0 1.3425892339364509 26.065352613595223 0 26.065352613595223 -17.397753513773466 0 0 0 0 3.0736919474220485 25.300003190145162 0 25.300003190145162 -27.692642806275217 0 0 0 0 0.77722132683084055 29.764431137308065 0 29.764431137308065 -17.060495590412756 0 0 0 0 6.0341114636757993 30.246915110280042 0 30.246915110280042 -20.87699552426966 0 0 0 0 8.4266628452323857 19.249012857493653 0 19.249012857493653 -27.267512880706818 0 0 0 0 31.44109458471803 32.881098573429909 0 32.881098573429909 -33.021316711555301 0 0 0 0 31.256649096343608 29.701088926183729 0 29.701088926183729 -25.195978650409415 0 0 0 0 15.861291307875945 28.188754780912859 0 28.188754780912859 -23.563610523896386 0 0 0 0 22.897541455189639 39.767081783093545 0 39.767081783093545 -12.730555055020886 0 0 0 0 22.940460779318528 35.053974422728061 0 35.053974422728061 -7.2554902206648535 0 0 0 0 35.267228108448762 39.06818305375532 0 39.06818305375532 -29.563195301062478 0 0 0 0 48.423225076068775 57.286233689720575 0 57.286233689720575 -8.0828937227736048 0 0 0 0 69.164465271540394 92.537168445392126 0 92.537168445392126 -23.567523685256674 0 0 0 0 82.345777417656791 38.956275042652123 0 38.956275042652123 -58.298467103361418 0 0 0 0 25.436148165324994 66.803079175121411 0 66.803079175121411 -18.196007839793701 0 0 0 0 81.072896421035693 232.67197394568393 0 232.67197394568393 -93.724305257565902 0 0 0 0 140.16073580837838 201.4371155447443 0 201.4371155447443 -94.70910286587241 0 0 0 0 -249.15985211092084 73.820257394766031 0 73.820257394766031 163.40097269411126 0 0 0 0 -320.28057582589827 152.76076097315854 0 152.76076097315854 168.47505581614496 0 0 0 0 -56.872069004279183 524.81920180120778 0 524.81920180120778 626.01124279115174 0 0 0 0 -747.22201970664537 -105.82943032961884 0 -105.82943032961884 927.34850633271344 0 0 0 0 48.707518676043037 58.652929334953228 0 58.652929334953228 -18.419532229108881 0 0 0 0 22.487823854657012 49.422251455381932 0 49.422251455381932 18.97092661283034 0 0 0 0 44.865727784574119 64.336240351998185 0 64.336240351998185 -7.0412945190200844 0 0 0 0 -212.79761842065636 210.55224174393152 0 210.55224174393152 -155.03125508004814 0 0 0 0 -9.8783562536836982 10.049831904577402 0 10.049831904577402 3.3833571140962837 0 0 0 0 -270.94337183628522 -184.25741678388295 0 -184.25741678388295 -251.44284266070463 0 0 0 0 -133.0219704730589 185.72640805018455 0 185.72640805018455 -148.09267889976218 0 0 0 0 -418.97301289113602 147.6894137576237 0 147.6894137576237 -31.761566114786547 0 0 0 0 -272.56352024083571 84.051637257034599 0 84.051637257034599 -4.8812090006722428 0 0 0 0 -142.67519219076166 89.949482943841758 0 89.949482943841758 -5.916868041298585 0 0 0 0 -153.98256876507003 94.324222863102477 0 94.324222863102477 19.924368077103281 0 0 0 0 -178.02772432406437 99.487656582481577 0 99.487656582481577 23.83550361309608 0 0 0 0 -122.5460295651701 78.588460599034988 0 78.588460599034988 18.469608383486047 0 0 0 0 -53.445420960255433 13.69631106143197 0 13.69631106143197 -14.773755729438562 0 0 0 0 -59.877550689607233 106.7805204948063 0 106.7805204948063 -68.521395007106548 0 0 0 0 15.681741189990088 23.142135411748967 0 23.142135411748967 -8.4804827701751435 0 0 0 0 -171.00312404982196 109.48321949637011 0 109.48321949637011 8.6290605071844766 0 0 0 0 41.756675047443423 -46.952825672244217 0 -46.952825672244217 -20.755082201285404 0 0 0 0 117.11411929810129 -11.928434790490428 0 -11.928434790490428 -58.057612904834969 0 0 0 0 29.263642085448737 15.638054715282124 0 15.638054715282124 10.746268351911567 0 0 0 0 152.81988948758953 59.115661292236837 0 59.115661292236837 -13.93200320127653 0 0 0 0 84.114342886357917 52.676251244851301 0 52.676251244851301 -20.534529609636593 0 0 0 0 7.9580288306897273 10.4007227912698 0 10.4007227912698 -30.798325516568639 0 0 0 0 59.814753720558656 42.986904009027057 0 42.986904009027057 43.281388969233376 0 0 0 0 73.765431980425092 78.282762870401257 0 78.282762870401257 -3.0482343431831396 0 0 0 0 -18.475464977251249 15.365116142467741 0 15.365116142467741 -12.162662292925233 0 0 0 0 -21.036266624236305 5.1687196575767302 0 5.1687196575767302 1.9675193551952361 0 0 0 0 0.0046044596822909512 -0.93789986696350525 0 -0.93789986696350525 -0.58824509463495644 0 0 0 0 -12.03528676669157 9.0710040308795215 0 9.0710040308795215 -24.843925119672349 0 0 0 0 9.4616491487977328 83.741642810056874 0 83.741642810056874 3.120378233907104 0 0 0 0 62.481387926003663 45.915535803540479 0 45.915535803540479 -78.396646141669407 0 0 0 0 11.822401547539172 22.236824640844254 0 22.236824640844254 4.0726720585400633 0 0 0 0 13.564882782804489 33.173387038931423 0 33.173387038931423 -13.36309648079623 0 0 0 0 23.649182498476875 30.127881900937609 0 30.127881900937609 -15.915089086747685 0 0 0 0 21.786001035305105 31.584425428115409 0 31.584425428115409 6.0223766755696682 0 0 0 0 30.587225836825382 53.474416625948834 0 53.474416625948834 25.029231324790999 0 0 0 0 20.075764045643155 17.489571693105972 0 17.489571693105972 -71.208074175934598 0 0 0 0 24.6865193368576 -45.449833015329204 0 -45.449833015329204 -56.751243920899469 0 0 0 0 -1016.4637108997267 213.89646639541206 0 213.89646639541206 2032.447922281448 0 0 0 0 4.3628246697259954 2.5184300365119903 0 2.5184300365119903 2.367361996035684 0 0 0 0 24.686519336799392 81.895365206768474 0 81.895365206768474 32.177377291262928 0 0 0 0 293.75551007594913 -247.91704267724162 0 -247.91704267724162 1486.961128092873 0 0 0 0 433.68862764726509 859.99791470996206 0 859.99791470996206 1230.5645851618974 0 0 0 0 -238.36271204589502 544.46406541653869 0 544.46406541653869 390.82274699992195 0 0 0 0 -1.9016065968051095 3.9570186621618291 0 3.9570186621618291 5.3013323668672143 0 0 0 0 1320.7530409130759 970.77053768555197 0 970.77053768555197 424.18471686127305 0 0 0 0 -1503.4647331710185 34.227441716808244 0 34.227441716808244 1212.7804957481076 0 0 0 0 -540.18075289992703 -20.78242843951648 0 -20.78242843951648 -20.723953422466366 0 0 0 0 0.39251357714238111 691.22149760572484 0 691.22149760572484 887.92572800110975 0 0 0 0 -62.548109815179487 369.12666468933094 0 369.12666468933094 1.5123467579614953 0 0 0 0 -0.2411199119988133 311.64344555348896 0 311.64344555348896 -51.655079138938163 0 0 0 0 -424.69655052712551 229.05971546223464 0 229.05971546223464 77.77756518543174 0 0 0 0 -147.92162290422129 397.07248921700648 0 397.07248921700648 -67.300255061718417 0 0 0 0 -4.735619103870377 9.2814632684812608 0 9.2814632684812608 10.623662328500401 0 0 0 0 465.40432212864198 344.88991654520692 0 344.88991654520692 210.57713890771265 0 0 0 0 214.67364832860767 177.19841733591875 0 177.19841733591875 99.04421037051543 0 0 0 0 382.2121760031041 284.61235631398449 0 284.61235631398449 280.48338912952386 0 0 0 0 305.03716096846256 396.21939183591394 0 396.21939183591394 303.1619524058442 0 0 0 0 1009.2315584048702 600.27052363338225 0 600.27052363338225 413.6162056074063 0 0 0 0 12.998214072787704 6.1239709478901396 0 6.1239709478901396 1.861062083769518 0 0 0 0 47.33259114241082 147.57938706439927 0 147.57938706439927 544.80978615587765 0 0 0 0 506.76582620624322 846.84761696392161 0 846.84761696392161 1021.9162212779665 0 0 0 0 592.89180207847676 650.38795425163335 0 650.38795425163335 794.69463038238428 0 0 0 0 12.786050551016558 14.614652676330238 0 14.614652676330238 3.2805471681123652 0 0 0 0 4.6447077045842775 11.289879465186353 0 11.289879465186353 7.6886606978050054 0 0 0 0 112.83399139007088 157.69479322416919 0 157.69479322416919 101.35513662256562 0 0 0 0 111.40647510313261 82.909614215339147 0 82.909614215339147 376.74657263382323 0 0 0 0 0.92396736674709246 11.913138753079693 0 11.913138753079693 20.771705233997636 0 0 0 0 -8.3787306996538575 2.2140712407334462 0 2.2140712407334462 11.169764020941429 0 0 0 0 6.5807694281072031 14.332223736882952 0 14.332223736882952 13.157995405613732 0 0 0 0 1.2148158513518865 9.8192645860852252 0 9.8192645860852252 -2.0223550524251159 0 0 0 0 -16.685665505079669 12.822920089849504 0 12.822920089849504 -2.4877817527112711 0 0 0 0 18.977146663273743 17.050914867528263 0 17.050914867528263 30.621383861248432 0 0 0 0 -14.659298655211515 16.882704521874043 0 16.882704521874043 31.834463792569295 0 0 0 0 -29.212294345488772 39.847563126531895 0 39.847563126531895 0.86937933135777712 0 0 0 0 -22.335289887269028 22.955619149201084 0 22.955619149201084 33.175457668673516 0 0 0 0 -8.6445395549526438 30.121062444137351 0 30.121062444137351 -10.836458760459209 0 0 0 0 -8.7051231211225968 25.17049251271601 0 25.17049251271601 -0.65314744335773867 0 0 0 0 -33.350657690425578 41.439784733152919 0 41.439784733152919 6.8828492147513316 0 0 0 0 -14.678984319601369 -2.4980116272664077 0 -2.4980116272664077 44.559626004702295 0 0 0 0 -42.073781594475804 18.852205193917598 0 18.852205193917598 49.689709567363025 0 0 0 0 265.24223468552918 335.78261375832562 0 335.78261375832562 284.83012821767625 0 0 0 0 319.25532187863428 296.08766992802157 0 296.08766992802157 262.84118231606226 0 0 0 0 257.68980094492508 334.84906052178212 0 334.84906052178212 239.62683840308819 0 0 0 0 326.91993475056188 281.76506380787987 0 281.76506380787987 174.23383866930089 0 0 0 0 -6.679519418736021 -0.6079577775476821 0 -0.6079577775476821 9.3088406051313441 0 0 0 0 28.052827847830486 5.047992587535191 0 5.047992587535191 0.33237290490797022 0 0 0 0 -0.5573152997451416 -0.55667102141386948 0 -0.55667102141386948 0.74919167999835423 0 0 0 0 -1.8880569001713354 -0.96216876680956887 0 -0.96216876680956887 10.307073158494394 0 0 0 0 -8.6139696937461849 -14.045092625872712 0 -14.045092625872712 21.169696385568386 0 0 0 0 -0.35904750293426702 -6.294398320694242 0 -6.294398320694242 16.258601502385247 0 0 0 0 -4.2115143223687568 -1.4993651722715242 0 -1.4993651722715242 10.702357959411714 0 0 0 0 -6.9596273265779018 -5.1643842448302166 0 -5.1643842448302166 24.568848182404508 0 0 0 0 -23.438082336360822 -21.926495997207894 0 -21.926495997207894 78.911146936890873 0 0 0 0 7.3938133214614936 -24.12461502537758 0 -24.12461502537758 5.2010904553535511 0 0 0 0 -7.6495941949304154 5.2913039310366514 0 5.2913039310366514 2.2619017644574626 0 0 0 0 -8.2020760809828062 -16.215014826528204 0 -16.215014826528204 -1.5059855655581487 0 0 0 0 -4.7640668469274932 5.2198265698996096 0 5.2198265698996096 33.246715874762415 0 0 0 0 -34.492095701134531 5.5337266094229562 0 5.5337266094229562 124.20363072180771 0 0 0 0 -20.866120544080331 15.746702859018114 0 15.746702859018114 75.52848240752428 0 0 0 0 -10.866287033240951 10.20011270276882 0 10.20011270276882 25.736149818917056 0 0 0 0 -4.5316639536094954 13.582679692041893 0 13.582679692041893 22.212268214236246 0 0 0 0 -11.911236078115422 11.054913514658388 0 11.054913514658388 3.0716528223965724 0 0 0 0 9.2851822103748418 60.839660109657871 0 60.839660109657871 33.388724457130593 0 0 0 0 -2.5271814959924086 51.06153648882173 0 51.06153648882173 56.677881584045281 0 0 0 0 -14.866150929035939 18.10973172735612 0 18.10973172735612 28.825560005654552 0 0 0 0 -27.031392246644828 95.447931139208322 0 95.447931139208322 193.80562882180675 0 0 0 0 -12.243493315463382 34.617816883551569 0 34.617816883551569 -6.4254900617238597 0 0 0 0 -86.461435222066939 60.00348117051908 0 60.00348117051908 276.61295903295468 0 0 0 0 -94.239840055415698 126.44030662488512 0 126.44030662488512 324.17969890840141 0 0 0 0 -1.9075729101813934 14.901092661040764 0 14.901092661040764 -1.9033549269177144 0 0 0 0 -0.79430320060626514 2.0180761878138753 0 2.0180761878138753 -0.23280734720844309 0 0 0 0 101.2503725645729 47.223705680087733 0 47.223705680087733 -359.90205275899461 0 0 0 0 0.10278700175349798 0.86526637571381571 0 0.86526637571381571 3.7877458410691318 0 0 0 0 -0.3034519252744019 14.662936547730709 0 14.662936547730709 -1.6499164345105286 0 0 0 0 -38.040299754724401 25.178384817134429 0 25.178384817134429 25.773440360328095 0 0 0 0 -91.460498254949925 222.31791471124961 0 222.31791471124961 -122.30056118914581 0 0 0 0 93.890222167108732 38.540332077674975 0 38.540332077674975 -229.54998294577672 0 0 0 0 24.158117057224445 38.706349493040761 0 38.706349493040761 -94.549665913247736 0 0 0 0 19.328519765636884 -65.397137470296002 0 -65.397137470296002 -213.38621110986423 0 0 0 0 35.684037370680016 33.105332350489334 0 33.105332350489334 40.923808612147695 0 0 0 0 -0.11368364938843456 1.2464504616300545 0 1.2464504616300545 -3.9189755302812834 0 0 0 0 -39.636398861923226 -30.750446319603498 0 -30.750446319603498 139.59389440922314 0 0 0 0 -1.4286020056460984 18.888923187749242 0 18.888923187749242 -7.2991983017564053 0 0 0 0 -0.015601677248923806 16.171008162256157 0 16.171008162256157 -9.2679523844089999 0 0 0 0 5.6644400219229283 18.67283983139896 0 18.67283983139896 -8.9198077807901655 0 0 0 0 2.0036513170343824 19.486690168492714 0 19.486690168492714 -14.660853968728134 0 0 0 0 0.85668411261212896 18.560053482980038 0 18.560053482980038 -8.8980234592636407 0 0 0 0 1.0700826805950783 15.54317378216183 0 15.54317378216183 -4.1413682803358824 0 0 0 0 -4.35677181901967 9.5523571988625662 0 9.5523571988625662 -11.887182641988039 0 0 0 0 0.81232777543846169 19.650001658568726 0 19.650001658568726 -0.72075732624352895 0 0 0 0 -5.74439660696261 12.045925151762304 0 12.045925151762304 -8.2252521594034302 0 0 0 0 2.14645197275604 21.219618034083396 0 21.219618034083396 -0.14586247748229653 0 0 0 0 0.95270772928961378 17.034608032882034 0 17.034608032882034 -3.4271306783266482 0 0 0 0 -2.9723214151745196 15.615571609012477 0 15.615571609012477 -8.7839092500851166 0 0 0 0 0.4515707570099039 18.540729759748501 0 18.540729759748501 -7.1645617884782951 0 0 0 0 -3.2814219269221212 21.22186106371214 0 21.22186106371214 -10.260169703838983 0 0 0 0 -3.0254265344483429 19.721309111318078 0 19.721309111318078 -1.9084244680416305 0 0 0 0 -4.6110566071947687 22.030605751619078 0 22.030605751619078 1.8660951976080469 0 0 0 0 -4.2000144879566506 22.12094617362618 0 22.12094617362618 -5.9947629485322977 0 0 0 0 -1.9208895054616733 17.317570549013908 0 17.317570549013908 -0.016580356157646747 0 0 0 0 -1.1324541772337398 19.260424215794046 0 19.260424215794046 2.0575036359005026 0 0 0 0 0.44668077146963014 14.26050125876306 0 14.26050125876306 3.1900728365492537 0 0 0 0 -1.4929002046701498 18.224203244876662 0 18.224203244876662 -0.57867374977308828 0 0 0 0 -3.2240097831145249 16.555682483247438 0 16.555682483247438 10.823678847509655 0 0 0 0 -6.75617136877554 24.133880158731699 0 24.133880158731699 0.2372974678664832 0 0 0 0 -0.6957885908406638 3.0724262995541842 0 3.0724262995541842 -2.0175885493515668 0 0 0 0 -2.0638839743769495 11.959565235680202 0 11.959565235680202 35.366303590086318 0 0 0 0 -3.4580194984025496 14.581180688033321 0 14.581180688033321 -10.283686919540903 0 0 0 0 -4.3619097146074637 19.754048294426411 0 19.754048294426411 -18.710335726640551 0 0 0 0 -2.4384181965506286 17.144049659767006 0 17.144049659767006 -6.6173839799741927 0 0 0 0 -2.0012112302573115 14.536216706203135 0 14.536216706203135 -5.4566137358069184 0 0 0 0 21.974909388416563 43.769761982108321 0 43.769761982108321 17.147746197908418 0 0 0 0 -0.059612561552313537 0.60668053307453107 0 0.60668053307453107 0.22295586574715465 0 0 0 0 -29.569900775553833 26.045330679558901 0 26.045330679558901 136.23561951535339 0 0 0 0 30.434798254158522 22.167660903506658 0 22.167660903506658 -49.919619626041822 0 0 0 0 -15.811538212574249 17.492052166528687 0 17.492052166528687 84.53318245572882 0 0 0 0 40.225728636040003 51.146800998903927 0 51.146800998903927 87.903292579024765 0 0 0 0 -15.857424807168172 16.537250429727237 0 16.537250429727237 70.168905941856792 0 0 0 0 -15.936190743967217 44.256410843770631 0 44.256410843770631 69.403874533440103 0 0 0 0 -14.055602882137464 4.8132673466898268 0 4.8132673466898268 95.084924655635405 0 0 0 0 -15.410932267041062 24.45804523102197 0 24.45804523102197 90.708345856815868 0 0 0 0 36.932915540375689 38.49694425225789 0 38.49694425225789 13.730453106823916 0 0 0 0 -0.54666142035682697 2.5930835623321968 0 2.5930835623321968 0.3252057828860444 0 0 0 0 6.0171461962745525 4.7571953756705625 0 4.7571953756705625 -7.705340366155724 0 0 0 0 -8.4873006428897497 4.2821890975101269 0 4.2821890975101269 25.472641019860021 0 0 0 0 9.9183509930735454 41.905513755819811 0 41.905513755819811 34.41644082433595 0 0 0 0 39.034875249479228 28.509812131421768 0 28.509812131421768 -15.853086081733636 0 0 0 0 -12.385184247957923 6.1680384171661444 0 6.1680384171661444 9.5116845077729266 0 0 0 0 0.83127164850168356 1.5800250524168575 0 1.5800250524168575 3.3352675366880753 0 0 0 0 17.806367886096268 29.126322505692769 0 29.126322505692769 10.434651953441062 0 0 0 0 2.5008450613095192 28.966128317380935 0 28.966128317380935 36.652581687169913 0 0 0 0 -1.0191162807702501 3.7250026029271481 0 3.7250026029271481 0.67214769714622946 0 0 0 0 -15.536975540904677 5.1861478931023157 0 5.1861478931023157 64.539331967926046 0 0 0 0 44.448469964263495 48.221104102820391 0 48.221104102820391 23.604694142419248 0 0 0 0 3.0732455095567275 14.73191204487739 0 14.73191204487739 -31.660387837386224 0 0 0 0 2.1992976117908256 8.7011919275846594 0 8.7011919275846594 -3.5083327589054534 0 0 0 0 2.2527634998032884 9.5740592730523773 0 9.5740592730523773 -10.991019328651824 0 0 0 0 7.0759187394414766 12.72837921459012 0 12.72837921459012 -10.973825564735307 0 0 0 0 4.2409683520127146 17.411767323649656 0 17.411767323649656 1.3843131143494247 0 0 0 0 2.6276143503912568 8.6058378810787559 0 8.6058378810787559 -3.3829347275235335 0 0 0 0 -38.441578520054463 49.185286335436103 0 49.185286335436103 -19.435808197661572 0 0 0 0 13.290357480395471 7.9313047023239545 0 7.9313047023239545 -0.22096698311700713 0 0 0 0 8.567701772088185 12.351150033702652 0 12.351150033702652 -14.263398867503383 0 0 0 0 15.847179269602748 55.133789762333947 0 55.133789762333947 -69.84807997156895 0 0 0 0 6.3403349184185345 6.6133366844951755 0 6.6133366844951755 -3.2761776318280793 0 0 0 0 7.8339091127090796 9.777453257108391 0 9.777453257108391 -11.566062238918676 0 0 0 0 9.0313669067254523 11.637290552551349 0 11.637290552551349 -10.491856943099265 0 0 0 0 2.263760134064853 9.6842252726248645 0 9.6842252726248645 -3.4541610072729689 0 0 0 0 6.8733449631909025 11.204175286529789 0 11.204175286529789 -8.6592118317112181 0 0 0 0 8.2407731151251937 14.833354006290392 0 14.833354006290392 -15.009525818852126 0 0 0 0 0.33795373037401077 0.87628030850984828 0 0.87628030850984828 2.1297705639018254 0 0 0 0 6.7685063071889999 14.239131325071238 0 14.239131325071238 3.3870837278460781 0 0 0 0 3.5644650909671327 15.652269601423541 0 15.652269601423541 -1.0037957954737067 0 0 0 0 5.161791744070797 9.3822170197527157 0 9.3822170197527157 -5.4895563555510307 0 0 0 0 4.5650424949126318 11.86067469266527 0 11.86067469266527 -2.4382122754614102 0 0 0 0 1.0602218333442579 8.5044685267421301 0 8.5044685267421301 -5.013441217948639 0 0 0 0 7.2651775166123116 10.409657577512007 0 10.409657577512007 -7.5429908823971346 0 0 0 0 7.4907776663912955 13.676582957944902 0 13.676582957944902 -6.9889000962539285 0 0 0 0 24.788929372894927 29.757760445524582 0 29.757760445524582 -83.949550964991431 0 0 0 0 6.608051268026685 1.9505893499107292 0 1.9505893499107292 1.0255288225597923 0 0 0 0 18.586588464691886 23.694323369756603 0 23.694323369756603 -74.709350998976333 0 0 0 0 3.9156639250795706 -7.7793125916177814 0 -7.7793125916177814 -134.59606853043442 0 0 0 0 3.9663758078895626 4.1837200076970475 0 4.1837200076970475 2.0426736398803769 0 0 0 0 -0.62515605781565853 0.75217965985955004 0 0.75217965985955004 1.5663349663101691 0 0 0 0 0.010341156579670496 11.481772290945628 0 11.481772290945628 20.596231437164533 0 0 0 0 5.1982640960995923 14.372447697349344 0 14.372447697349344 4.8334620939785964 0 0 0 0 1.7554116207684274 16.810210506759176 0 16.810210506759176 24.576937550999901 0 0 0 0 0.19504557361761954 0.015667800168284174 0 0.015667800168284174 2.8819966859303232 0 0 0 0 -0.085220168589188461 0.16415836197245071 0 0.16415836197245071 0.071018985422490744 0 0 0 0 -2.4142859047269098 4.0474354627050531 0 4.0474354627050531 3.5087537044310864 0 0 0 0 -0.031678476021625102 63.798261898641613 0 63.798261898641613 17.56745938678614 0 0 0 0 -17.807580780921853 22.074773999214813 0 22.074773999214813 119.32219079411584 0 0 0 0 -11.068748828489007 0.81036813459711254 0 0.81036813459711254 14.748581034027055 0 0 0 0 13.324282181391027 53.653049588642716 0 53.653049588642716 35.659217861735669 0 0 0 0 1.763741655553531 21.649096203901649 0 21.649096203901649 33.891232040070463 0 0 0 0 -18.049027542823751 19.937151427033314 0 19.937151427033314 37.844725843008291 0 0 0 0 -0.18911365277017467 102.18046225106445 0 102.18046225106445 65.120139532629764 0 0 0 0 29.260751008987427 13.449840677057182 0 13.449840677057182 -91.745726586799719 0 0 0 0 -0.34270756084944765 -1.3923194142948887 0 -1.3923194142948887 0.15594990352632454 0 0 0 0 -2.3007441859099345 2.8250811010375685 0 2.8250811010375685 -5.4696127874009397 0 0 0 0 0.11470422285492532 86.737470660127201 0 86.737470660127201 25.041845558674595 0 0 0 0 -8.2130089763673908 10.770076416553188 0 10.770076416553188 -12.692915701853284 0 0 0 0 39.615671346065028 18.274170626871523 0 18.274170626871523 -19.453467010760505 0 0 0 0 0.026591768422804307 32.332908232885529 0 32.332908232885529 45.183640351704526 0 0 0 0 38.575532550905336 12.948309949413499 0 12.948309949413499 -42.251708096650873 0 0 0 0 -1.5161856937126288 0.13888045861828147 0 0.13888045861828147 1.1669695661555863 0 0 0 0 26.973609460888838 23.876480205190092 0 23.876480205190092 7.0330946624435455 0 0 0 0 6.6964545387454564 21.443676604062603 0 21.443676604062603 9.3269888833565346 0 0 0 0 -0.0066801617394958157 51.27175056459464 0 51.27175056459464 -57.219647490112948 0 0 0 0 21.623489172816335 50.07426010846757 0 50.07426010846757 -61.629270616129816 0 0 0 0 32.997522961348295 2.4728764035489803 0 2.4728764035489803 3.5937465066162986 0 0 0 0 28.153033268186846 52.275812074670739 0 52.275812074670739 9.4402050705284637 0 0 0 0 19.35710966937495 54.067887393813635 0 54.067887393813635 37.123759168611286 0 0 0 0 -1.7562550907551895 0.44231517406102228 0 0.44231517406102228 0.91796315443720999 0 0 0 0 -1.2152008755510906 -3.0644496655049807 0 -3.0644496655049807 7.8692345395929806 0 0 0 0 -2.7998771529528312 5.4706440998816106 0 5.4706440998816106 -26.499187543379776 0 0 0 0 29.360489839208185 40.037836186648519 0 40.037836186648519 -70.8580633318943 0 0 0 0 -26.435049457497371 55.357659756052271 0 55.357659756052271 62.482560617283525 0 0 0 0 -1.4401819133889546 0.21138890649390873 0 0.21138890649390873 0.96911315897667194 0 0 0 0 -24.754440912214704 53.534324749666894 0 53.534324749666894 10.198874004348909 0 0 0 0 0.52103378252915533 18.519428648852596 0 18.519428648852596 -10.125926591291922 0 0 0 0 -4.0244253013897833 23.392508064465318 0 23.392508064465318 -11.089092612301101 0 0 0 0 23.819294119930419 31.483107319696956 0 31.483107319696956 -9.0288741338226828 0 0 0 0 14.259226957394276 64.995659407473795 0 64.995659407473795 -73.324994892320319 0 0 0 0 1.9262845650082454 16.47101361105706 0 16.47101361105706 -3.6279017313363511 0 0 0 0 0.59610086168686394 17.336784065661959 0 17.336784065661959 -9.3619702691771636 0 0 0 0 -1.0497498065981716 20.226845258505385 0 20.226845258505385 -9.8907632833494752 0 0 0 0 -3.1339521624956026 18.183250695062114 0 18.183250695062114 -16.845701046837977 0 0 0 0 -57.018159141138312 39.476016654442901 0 39.476016654442901 0.49717180382140214 0 0 0 0 -36.183858042699285 62.157312605451807 0 62.157312605451807 3.6934153179099667 0 0 0 0 -23.209803121411824 48.254269674154784 0 48.254269674154784 -53.40436541832787 0 0 0 0 -5.2571166988445555 4.2995140006197978 0 4.2995140006197978 0.82846928717910373 0 0 0 0 -48.4945837307896 48.271922905012616 0 48.271922905012616 8.5935922656185539 0 0 0 0 6.6669136920754681 68.552558738252856 0 68.552558738252856 -8.242786156179136 0 0 0 0 1.5383013254396332 15.8489459893865 0 15.8489459893865 -14.050631318450767 0 0 0 0 -24.391150532175061 45.600878108970015 0 45.600878108970015 -308.9845054811401 0 0 0 0 64.295775217089613 10.33227839710483 0 10.33227839710483 -132.26173763746874 0 0 0 0 -37.737480400392087 185.77242920481979 0 185.77242920481979 -241.80961511446299 0 0 0 0 -4.9716900282058614 6.4311825984195252 0 6.4311825984195252 0.38065395251217016 0 0 0 0 156.8763202331611 30.787422719930191 0 30.787422719930191 -308.7951384683563 0 0 0 0 -15.137585035996921 19.863703318630556 0 19.863703318630556 -19.548401812881771 0 0 0 0 -83.330463544123631 -328.55632459702019 0 -328.55632459702019 -812.23642394078115 0 0 0 0 263.78071146957518 -14.83077658541697 0 -14.83077658541697 -887.42804742041062 0 0 0 0 335.49944293237786 380.27793584977508 0 380.27793584977508 -612.44655360158322 0 0 0 0 -9.1985162653581938 315.36228152307217 0 315.36228152307217 -437.1311764374426 0 0 0 0 40.397542073224031 143.4012443601296 0 143.4012443601296 -413.78451136022454 0 0 0 0 -144.04515416538197 280.23897128499846 0 280.23897128499846 -243.58086111176675 0 0 0 0 1.5723007919004885 281.78367741801742 0 281.78367741801742 -372.46849234087176 0 0 0 0 -106.65283391131379 236.97803194660287 0 236.97803194660287 -244.37120743456501 0 0 0 0 -94.263588363493909 111.59945908710796 0 111.59945908710796 -90.700225551409858 0 0 0 0 -74.638121003521519 -65.535438846085171 0 -65.535438846085171 108.3923337676265 0 0 0 0 3.4322894431967086 3.4294968875146559 0 3.4294968875146559 3.6309550509675952 0 0 0 0 31.296911785746488 96.802269517946399 0 96.802269517946399 -126.3562926294403 0 0 0 0 -1.774910487314628 45.362479475820805 0 45.362479475820805 -45.085120194696543 0 0 0 0 -69.961005113797 133.80223049911012 0 133.80223049911012 -15.943686221525468 0 0 0 0 0.8800809476597351 97.344749515724516 0 97.344749515724516 -145.7207061994493 0 0 0 0 -42.696142834982311 66.82594703594404 0 66.82594703594404 5.4101642635047238 0 0 0 0 -84.917256277534761 5.5200634855859789 0 5.5200634855859789 1.0285385161792533 0 0 0 0 -30.401191419128736 -0.11572682004702983 0 -0.11572682004702983 15.972245395177197 0 0 0 0 6.9464492856856879 9.1866718501760545 0 9.1866718501760545 0.67901574926537478 0 0 0 0 -3.8230553486610006 19.567480056678505 0 19.567480056678505 -3.6602008235604444 0 0 0 0 -2.1252409018379694 24.554830260374388 0 24.554830260374388 -5.2505348208751457 0 0 0 0 -8.3268339009354975 15.925462626687477 0 15.925462626687477 -9.4935086585505246 0 0 0 0 1.6214621703372529 12.410640352534994 0 12.410640352534994 -1.370674410725341 0 0 0 0 0.023709808192506898 21.866508622092624 0 21.866508622092624 -20.613087452195032 0 0 0 0 -0.63216918033039349 0.37734208765580135 0 0.37734208765580135 -0.47485663831705066 0 0 0 0 0.32777057733983384 16.610605677386729 0 16.610605677386729 49.270845715425764 0 0 0 0 29.463634928913962 35.448932832960864 0 35.448932832960864 -115.5381531994268 0 0 0 0 31.240380234536133 61.179846545792273 0 61.179846545792273 -98.182114076842026 0 0 0 0 -9.3935633047003648 15.806841893334649 0 15.806841893334649 -72.332500655876089 0 0 0 0 -10.624481956343516 9.3133643943307902 0 9.3133643943307902 -33.882191416558612 0 0 0 0 -0.74824354038538843 11.37486366437466 0 11.37486366437466 1.1347554249945739 0 0 0 0 8.9722599951783195 4.1731162705425504 0 4.1731162705425504 19.364042295844399 0 0 0 0 -0.3159492355225666 16.8441754542323 0 16.8441754542323 -4.4799039746590097 0 0 0 0 -1.3841187251618976 13.032744008308953 0 13.032744008308953 -5.7674506411767652 0 0 0 0 -0.038855293014890435 9.8662762919332714 0 9.8662762919332714 4.5120867050493771 0 0 0 0 -0.064829623101104517 15.747546451620565 0 15.747546451620565 -10.941405702250449 0 0 0 0 -1.8845749213082428 0.64968871880354051 0 0.64968871880354051 2.929056451473611 0 0 0 0 -3.2905207717067242 9.3796474370139009 0 9.3796474370139009 38.781577399938158 0 0 0 0 -20.558379515474371 18.525616826007795 0 18.525616826007795 -3.6081750533388117 0 0 0 0 0.81531496292518568 9.3380938966142253 0 9.3380938966142253 -18.323072771528416 0 0 0 0 -26.871098083218385 34.958303457491269 0 34.958303457491269 -25.19550586875031 0 0 0 0 -20.234752952899726 40.113706807131251 0 40.113706807131251 -44.664507064174266 0 0 0 0 -23.117825391818769 30.216285316832568 0 30.216285316832568 -28.671356184398014 0 0 0 0 -189.71236657167901 115.56106630160275 0 115.56106630160275 25.536106216396178 0 0 0 0 23.086546099779298 26.014726912925667 0 26.014726912925667 -241.01136467959441 0 0 0 0 0.99542297102395594 1.5244526604640498 0 1.5244526604640498 1.3782739620331634 0 0 0 0 -15.791984699779277 41.246445623840557 0 41.246445623840557 -58.791510532644935 0 0 0 0 -59.048164243451538 -78.368328407110354 0 -78.368328407110354 74.856324878066431 0 0 0 0 54.552724259814568 82.798757295740529 0 82.798757295740529 -227.96671897476563 0 0 0 0 -241.20981502942959 116.86273707499811 0 116.86273707499811 -203.72254662415719 0 0 0 0 -174.42159560317589 387.09803603437302 0 387.09803603437302 -805.28193200740725 0 0 0 0 -179.06897044627112 303.50304206865178 0 303.50304206865178 -338.65397406724247 0 0 0 0 -16.008979677448224 152.83416149583331 0 152.83416149583331 -497.45673868853521 0 0 0 0 -21.156624054289296 77.537987868544079 0 77.537987868544079 -205.80700416684402 0 0 0 0 -62.544061697057259 257.45085291875665 0 257.45085291875665 -286.24561622944691 0 0 0 0 -74.247624086267024 239.43244638371499 0 239.43244638371499 -313.13068788680425 0 0 0 0 -121.48062434444637 271.05594461809557 0 271.05594461809557 -163.61525496875402 0 0 0 0 -193.10735978376761 271.72846884657599 0 271.72846884657599 -127.52081383284366 0 0 0 0 -192.4485169106847 213.92426212201892 0 213.92426212201892 -61.779692505989487 0 0 0 0 -262.92999737602076 277.35437122892245 0 277.35437122892245 -114.16945842738085 0 0 0 0 -296.19000038962258 281.33805317888215 0 281.33805317888215 -106.48223800925285 0 0 0 0 -212.5695957198659 356.0333684040092 0 356.0333684040092 -240.96798186386627 0 0 0 0 -715.0038910578005 563.96116538438719 0 563.96116538438719 -275.24779227917656 0 0 0 0 -808.23709789436543 93.88569498039169 0 93.88569498039169 17.617077899974049 0 0 0 0 -518.60828030228731 51.59907978867119 0 51.59907978867119 107.40760079209986 0 0 0 0 -285.62559625488211 -74.959270607199528 0 -74.959270607199528 57.99574296480364 0 0 0 0 -302.7361433807564 299.58633178990038 0 299.58633178990038 -156.06440886378891 0 0 0 0 -452.15358508320787 302.03695349585814 0 302.03695349585814 -62.380267647015103 0 0 0 0 -284.18216946461962 188.1899865299971 0 188.1899865299971 7.4562517630181446 0 0 0 0 -218.10693181119859 99.63611131013306 0 99.63611131013306 1.7082679749961471 0 0 0 0 -222.48419195714632 55.205068293765336 0 55.205068293765336 24.01539561513232 0 0 0 0 -253.94813783509744 175.34874400743888 0 175.34874400743888 -29.669940305555542 0 0 0 0 -6.2009302863890383 8.3040187551807705 0 8.3040187551807705 -11.862247594503556 0 0 0 0 70.520163558850982 95.927663708943598 0 95.927663708943598 -39.868146770611361 0 0 0 0 122.88742503886897 219.61875414235374 0 219.61875414235374 126.27961454726346 0 0 0 0 -51.639830575277301 47.977380937539976 0 47.977380937539976 20.097509415189847 0 0 0 0 -91.208504974434618 103.35695080445441 0 103.35695080445441 -4.0796760862998411 0 0 0 0 -2.1754937646812067 3.3774376092932883 0 3.3774376092932883 -5.5254509185244221 0 0 0 0 177.74209928022901 -43.471567290033818 0 -43.471567290033818 -312.65100668048035 0 0 0 0 -87.878268494925578 92.135654325461473 0 92.135654325461473 314.39061757571289 0 0 0 0 -40.171498898784193 -79.8962843303878 0 -79.8962843303878 -36.948169322937019 0 0 0 0 -190.61791645400808 -150.42418245869885 0 -150.42418245869885 294.59910790485549 0 0 0 0 117.85074436287687 44.160296288329732 0 44.160296288329732 -408.97981389480537 0 0 0 0 175.99764554925773 257.71177765262456 0 257.71177765262456 -661.52556247536359 0 0 0 0 -103.38868614000239 411.80737053925577 0 411.80737053925577 -478.97395949501379 0 0 0 0 -111.83108517431901 402.23529672319893 0 402.23529672319893 -488.51802039049653 0 0 0 0 -346.97510366844654 713.31196002621755 0 713.31196002621755 -737.05515837312885 0 0 0 0 -668.27642135518909 325.0749624694688 0 325.0749624694688 -267.73144459072569 0 0 0 0 -350.84682169242296 211.94207814060087 0 211.94207814060087 -229.60566296686289 0 0 0 0 -285.17547139136877 -22.210821675024533 0 -22.210821675024533 -575.09572849744518 0 0 0 0 -102.18207977188285 433.8029795344101 0 433.8029795344101 -510.30731052282772 0 0 0 0 -102.18621479738431 420.79743081116288 0 420.79743081116288 -450.60235150653898 0 0 0 0 -630.71356698447198 436.61914387978447 0 436.61914387978447 -238.32620712487642 0 0 0 0 -86.163140778742672 425.66295499019895 0 425.66295499019895 -492.46078688250054 0 0 0 0 -211.53139927663506 602.63647513510841 0 602.63647513510841 -609.73408441818401 0 0 0 0 1256.2911564502929 40.527597246458043 0 40.527597246458043 -587.83287212905043 0 0 0 0 0.26409129631369055 1.1301987009009906 0 1.1301987009009906 -0.53534211582714963 0 0 0 0 432.35885218139811 654.97094274467804 0 654.97094274467804 -4.0139995637907759 0 0 0 0 -10.161726004873344 -39.822930085337248 0 -39.822930085337248 -61.294770351206388 0 0 0 0 -304.16948075878463 180.72739250757331 0 180.72739250757331 -56.095338930524576 0 0 0 0 -112.8573368795478 423.38690322906541 0 423.38690322906541 -492.62489413959497 0 0 0 0 -37.581225580637692 -189.85481080884301 0 -189.85481080884301 -37.171550811273846 0 0 0 0 -107.95495578158443 144.89321556990194 0 144.89321556990194 -38.201523607482613 0 0 0 0 -0.13621609441554483 0.81966861577793537 0 0.81966861577793537 -0.6280125756288184 0 0 0 0 1.1748401109555573 5.045191843952658 0 5.045191843952658 1.5282117719809305 0 0 0 0 -42.458180119676399 77.539818263159759 0 77.539818263159759 58.139511543628942 0 0 0 0 33.677347045042552 36.41747508167191 0 36.41747508167191 -58.136363717225095 0 0 0 0 119.15659341520222 52.966682980350924 0 52.966682980350924 22.996517677963311 0 0 0 0 -22.886136214816361 -20.551118353288928 0 -20.551118353288928 1.652043890871937 0 0 0 0 10.067444942578732 35.989826728513435 0 35.989826728513435 30.479081810089156 0 0 0 0 12.73050872751628 26.383870461847891 0 26.383870461847891 59.668553972594054 0 0 0 0 -0.40904482174279622 11.188862057468185 0 11.188862057468185 17.920483418100595 0 0 0 0 6.959306820990605 10.237287868895798 0 10.237287868895798 21.477910473482723 0 0 0 0 -7.4311067890157574 25.600037876087981 0 25.600037876087981 45.273391711440127 0 0 0 0 0.27581761372795555 4.675653140329203 0 4.675653140329203 4.0474896247840313 0 0 0 0 14.746551665724837 4.0857383531622418 0 4.0857383531622418 14.394899973541214 0 0 0 0 821.70725219047563 461.02275671115552 0 461.02275671115552 19.408371842140696 0 0 0 0 494.59052387277916 335.49873582494808 0 335.49873582494808 374.10697915816945 0 0 0 0 318.99877985716739 532.21216070840956 0 532.21216070840956 172.88806661719616 0 0 0 0 138.87934449116437 438.34021776833254 0 438.34021776833254 401.70957819719297 0 0 0 0 292.29222594540624 441.29860849496299 0 441.29860849496299 427.42144217364876 0 0 0 0 5.2225700081487787 3.5536157974826494 0 3.5536157974826494 0.95953908340425631 0 0 0 0 27.142213005965459 15.863638922039939 0 15.863638922039939 -25.536762504615353 0 0 0 0 306.37109443275767 427.09416087446817 0 427.09416087446817 402.23734608100222 0 0 0 0 7.9452528709643957 108.83065513966089 0 108.83065513966089 18.439039873992101 0 0 0 0 39.32195058313664 93.151683248806307 0 93.151683248806307 -8.3323534239866603 0 0 0 0 0.34727158005989622 469.19397705016735 0 469.19397705016735 713.52993962225116 0 0 0 0 138.91486186966358 291.11953216594384 0 291.11953216594384 481.83997424876293 0 0 0 0 169.95402918431319 506.70963178948148 0 506.70963178948148 16.165559033904628 0 0 0 0 0.31507238584890729 517.38441819980528 0 517.38441819980528 420.10494324827602 0 0 0 0 198.7622274202804 247.32684726861976 0 247.32684726861976 -203.20858054724636 0 0 0 0 -1.8721672858664533 684.63819283041289 0 684.63819283041289 -518.08190556873751 0 0 0 0 127.70985851710429 386.41374336132458 0 386.41374336132458 149.05600817063998 0 0 0 0 377.92968454898437 363.60105074127614 0 363.60105074127614 -628.31128599947465 0 0 0 0 39.708722743429462 -647.8671349558208 0 -647.8671349558208 -2005.3466318076848 0 0 0 0 99.894442680109933 67.43847568237743 0 67.43847568237743 -5.1020268915583529 0 0 0 0 49.349867629556684 62.226307690781596 0 62.226307690781596 9.2429885156057026 0 0 0 0 55.136821943116047 41.406375325860154 0 41.406375325860154 -18.441753427450749 0 0 0 0 101.17422939653011 87.161642405536497 0 87.161642405536497 46.831149461312634 0 0 0 0 128.32591125137697 45.255515567364 0 45.255515567364 1.9916786992373545 0 0 0 0 102.98743837021175 59.300236239049013 0 59.300236239049013 -5.7516855691389992 0 0 0 0 133.68657959466873 31.641767862714858 0 31.641767862714858 -33.753958751784694 0 0 0 0 30.801377596617385 75.645956346167395 0 75.645956346167395 -21.507206330671579 0 0 0 0 -2.9254646369081456 22.328844941422403 0 22.328844941422403 -9.5772316976268712 0 0 0 0 101.79502699982822 52.454877608965319 0 52.454877608965319 -20.483159497145607 0 0 0 0 -2.5149119966044964 29.240322359387903 0 29.240322359387903 -32.053287018528408 0 0 0 0 -31.333660217538636 42.820664681967173 0 42.820664681967173 21.456785315696834 0 0 0 0 -26.432847094889439 11.128199710034096 0 11.128199710034096 -19.938628242257892 0 0 0 0 -20.147111564697155 29.841359127885998 0 29.841359127885998 -23.305517000501819 0 0 0 0 -3.3169777729053749 38.158946959425521 0 38.158946959425521 -42.330650155581338 0 0 0 0 -2.6006745165286702 30.830002848042113 0 30.830002848042113 -1.3347330475294257 0 0 0 0 -4.6852491023346374 41.355641172658238 0 41.355641172658238 -46.754052442874126 0 0 0 0 10.273786611096511 83.835499635708345 0 83.835499635708345 33.33018954337922 0 0 0 0 81.073506912558514 40.8807657426064 0 40.8807657426064 -23.893399529424414 0 0 0 0 15.385750286425409 35.694182738477814 0 35.694182738477814 -25.763580890616055 0 0 0 0 -74.827846758882515 73.541955215584039 0 73.541955215584039 9.5785295243904329 0 0 0 0 -30.597735305820606 98.47195282102814 0 98.47195282102814 21.643254441662975 0 0 0 0 103.1056872798008 115.45265674196526 0 115.45265674196526 -207.36858700036237 0 0 0 0 22.591256385475734 40.989418299001798 0 40.989418299001798 -2.5184635239409356 0 0 0 0 107.54498655024508 110.97546760845626 0 110.97546760845626 -16.262093191317263 0 0 0 0 132.61390577997372 61.233834331664184 0 61.233834331664184 -49.558848467941516 0 0 0 0 45.062884444829251 39.416290692397979 0 39.416290692397979 65.957370999405384 0 0 0 0 173.01071867885184 93.358274612038144 0 93.358274612038144 8.3040836094796759 0 0 0 0 63.905471301823127 71.803155180492013 0 71.803155180492013 23.821349539432049 0 0 0 0 85.730818849402567 128.65560870107072 0 128.65560870107072 145.46469433569837 0 0 0 0 20.947629150188732 38.90924602821201 0 38.90924602821201 21.136017270782304 0 0 0 0 119.12046180300968 87.762965035834213 0 87.762965035834213 34.423565618681891 0 0 0 0 0.89009317206111405 -0.56797964392518452 0 -0.56797964392518452 0.10466098925406264 0 0 0 0 5.3630077207853901 28.80371563772087 0 28.80371563772087 -31.278528682075716 0 0 0 0 53.705255634646164 -15.745679703812925 0 -15.745679703812925 -95.841186595762338 0 0 0 0 2.4723962757212519 -0.20244816448264302 0 -0.20244816448264302 0.35521228495909996 0 0 0 0 10.670081629563356 12.827040132223374 0 12.827040132223374 -69.968363539177631 0 0 0 0 8.4100983784810524 25.578142285566173 0 25.578142285566173 -57.77327348127892 0 0 0 0 -11.837387379691791 15.092771254726529 0 15.092771254726529 -42.898790829071004 0 0 0 0 0.79190276956903283 0.79502659564376899 0 0.79502659564376899 -0.1053166663410039 0 0 0 0 4.8971065281730262 16.828449409992572 0 16.828449409992572 -51.011186039190761 0 0 0 0 1.1572510378937295 23.722528133387186 0 23.722528133387186 -26.94131827610363 0 0 0 0 4.864765658543547 16.254992176337595 0 16.254992176337595 -20.862930078865247 0 0 0 0 9.2176629920795676 12.784121908648331 0 12.784121908648331 -14.771228449683349 0 0 0 0 23.723071825327224 3.770636205725765 0 3.770636205725765 -44.235899950236671 0 0 0 0 8.6988812746526918 2.054224459010781 0 2.054224459010781 -2.5177639490573314 0 0 0 0 3.3653254043437499 5.0284365300068323 0 5.0284365300068323 3.0703830320871779 0 0 0 0 3.9400314610174973 6.3139196843933405 0 6.3139196843933405 -2.2879597926278166 0 0 0 0 3.5398722974641714 7.4884638612372783 0 7.4884638612372783 -3.9141405305390435 0 0 0 0 51.075388420358649 22.723698362221512 0 22.723698362221512 6.4374980210496915 0 0 0 0 2.8292187563060001 3.3080573935223612 0 3.3080573935223612 0.36494078431022992 0 0 0 0 -8.5371586506007588 7.3144172645843355 0 7.3144172645843355 23.5394401736703 0 0 0 0 -3.0404203085199697 11.58163804647802 0 11.58163804647802 -7.3979088374567255 0 0 0 0 -4.2970600617554737 13.189573298597679 0 13.189573298597679 -9.455340089267338 0 0 0 0 -6.3683645903547585 14.150280566687798 0 14.150280566687798 -7.3086186766704486 0 0 0 0 13.30834169919035 11.948722060916452 0 11.948722060916452 -20.382733250727142 0 0 0 0 6.2952941320315077 8.28109529325247 0 8.28109529325247 -7.646513938900636 0 0 0 0 -3.2490460992751906 8.0712797001521643 0 8.0712797001521643 1.6841457929064199 0 0 0 0 -1.2518075762200169 5.4204494799391796 0 5.4204494799391796 2.7224040641640386 0 0 0 0 2.6950547194142196 5.4729862258108 0 5.4729862258108 -1.9649410966055409 0 0 0 0 4.0514541999564244 8.5402923031447244 0 8.5402923031447244 -2.4236598220618362 0 0 0 0 1.1676650199538301 4.6753263865025723 0 4.6753263865025723 2.3875534341334204 0 0 0 0 -3.3188046275172383 -2.4072336450233252 0 -2.4072336450233252 10.995819710581685 0 0 0 0 6.4054951965954388 5.0029579254344583 0 5.0029579254344583 -6.6626850621355231 0 0 0 0 -0.45059265945614868 5.0609916808283817 0 5.0609916808283817 0.47415232289575338 0 0 0 0 -7.1222705313557526 -1.1988997981375462 0 -1.1988997981375462 14.530513700337863 0 0 0 0 -18.264624689116317 18.65110806804897 0 18.65110806804897 -4.2156220592067655 0 0 0 0 -16.207347610124998 11.962691886175961 0 11.962691886175961 -22.479522302579824 0 0 0 0 7.5567879660702602 2.3047192189317798 0 2.3047192189317798 0.48090696033966651 0 0 0 0 0.041669083824672271 0.73566761453904661 0 0.73566761453904661 1.7807975108295295 0 0 0 0 -19.912291792294127 30.66389146225211 0 30.66389146225211 0.49327063267625704 0 0 0 0 -11.916842234619253 63.222024023949331 0 63.222024023949331 -57.494846380214334 0 0 0 0 -1.3752611245836306 20.028438676150373 0 20.028438676150373 -48.353498217914705 0 0 0 0 131.09698490236769 70.845322638792055 0 70.845322638792055 46.341527688990936 0 0 0 0 -0.3170630360202864 0.90298522169025475 0 0.90298522169025475 1.3659623594188863 0 0 0 0 65.051504035736798 -8.4734019701561465 0 -8.4734019701561465 -11.548843100496015 0 0 0 0 14.989028450982005 9.2187882215170589 0 9.2187882215170589 -5.8978655141789034 0 0 0 0 0.8487157886963459 1.3458061885824151 0 1.3458061885824151 -0.59996510800902247 0 0 0 0 -9.7060769537638407 9.2118929435427503 0 9.2118929435427503 15.058984322711467 0 0 0 0 14.640580786446662 15.935091932038617 0 15.935091932038617 -10.722246119294226 0 0 0 0 0.72466560519381051 4.0343534084506629 0 4.0343534084506629 5.309924239917831 0 0 0 0 120.60180369528462 46.788551745372956 0 46.788551745372956 2.4722708289640423 0 0 0 0 132.06495787377207 38.396379053519638 0 38.396379053519638 7.7042298052648448 0 0 0 0 242.24216902081957 18.883832268225188 0 18.883832268225188 -30.321752908482836 0 0 0 0 0.47206789976772345 2.7980171193149843 0 2.7980171193149843 2.0779719022081093 0 0 0 0 -58.322314674351219 46.249007527735742 0 46.249007527735742 -26.177629037396954 0 0 0 0 -39.75885833625216 24.202614769927777 0 24.202614769927777 -1.784455503308223 0 0 0 0 -31.449744643516169 43.169292766870285 0 43.169292766870285 -68.354309247120199 0 0 0 0 7.6400051272503333 -5.1444039154712868 0 -5.1444039154712868 -2.3892527864086617 0 0 0 0 0.12748776404306739 0.41938860987062299 0 0.41938860987062299 0.37298409948379146 0 0 0 0 -6.1582230852145585 48.697379351988019 0 48.697379351988019 -21.793044540451888 0 0 0 0 -35.909195256084786 30.297769867373688 0 30.297769867373688 -29.240719881411877 0 0 0 0 24.674317783003062 106.239884917149 0 106.239884917149 -155.09187006884696 0 0 0 0 -53.401306872132409 147.24468012818249 0 147.24468012818249 -123.84676945367295 0 0 0 0 -79.259060601027159 246.10144460761481 0 246.10144460761481 -222.11491526895125 0 0 0 0 -5.9368395065121149 177.51768090383138 0 177.51768090383138 -203.98698751494476 0 0 0 0 -69.944652351663535 176.11904811324763 0 176.11904811324763 -163.01730333084589 0 0 0 0 -61.185886342653248 193.66165809054607 0 193.66165809054607 -148.4588536133993 0 0 0 0 -104.16007529664512 213.544884115282 0 213.544884115282 -157.63455977721986 0 0 0 0 -115.73378602066441 229.50744741669166 0 229.50744741669166 -141.18189890601724 0 0 0 0 -91.461097696121215 179.00832809962534 0 179.00832809962534 -108.96507423314614 0 0 0 0 -110.07649791361473 244.65400948125898 0 244.65400948125898 -148.14636024068241 0 0 0 0 -122.09942760084618 262.41827456089999 0 262.41827456089999 -164.30469832122816 0 0 0 0 0.25165017576143356 1.2117085287260778 0 1.2117085287260778 0.30863865235382903 0 0 0 0 403.7678549935963 41.635051434087607 0 41.635051434087607 -76.036556291822052 0 0 0 0 -89.724171626268799 81.462759891491231 0 81.462759891491231 -51.818813406473801 0 0 0 0 -195.53476538744144 138.69839399504448 0 138.69839399504448 -82.681141978993139 0 0 0 0 -144.38111610218402 247.33890928436284 0 247.33890928436284 -24.661437856370203 0 0 0 0 -257.64070882964006 192.31487780518748 0 192.31487780518748 -47.935259508118932 0 0 0 0 171.31317666964605 160.01464856774197 0 160.01464856774197 9.7190916276180133 0 0 0 0 142.11705319125394 8.6769272467322196 0 8.6769272467322196 2.9569529827172403 0 0 0 0 -2.7564332957744071 2.9520221453114104 0 2.9520221453114104 -1.4296467217729625 0 0 0 0 9.0106093446011073 9.7639195888746144 0 9.7639195888746144 0.5516727491869915 0 0 0 0 7.9916856477493639 6.3340555131971144 0 6.3340555131971144 -7.6121234455587228 0 0 0 0 8.2371845178802374 4.6521230393279893 0 4.6521230393279893 -5.1928958667359932 0 0 0 0 -1.0629340743218876 6.5187206283844219 0 6.5187206283844219 -8.9995634231704624 0 0 0 0 5.1914611023767065 12.098786582279274 0 12.098786582279274 -3.3837539960070444 0 0 0 0 31.023785369016878 -13.041171131910232 0 -13.041171131910232 15.516077455739378 0 0 0 0 83.4944006984515 86.225234704519096 0 86.225234704519096 13.211950049382668 0 0 0 0 234.69831772622274 -22.556035185074023 0 -22.556035185074023 26.800984075105305 0 0 0 0 128.14104836722981 53.275573410760387 0 53.275573410760387 24.846629585476165 0 0 0 0 122.88954303592345 36.383629448241315 0 36.383629448241315 -24.819340687948227 0 0 0 0 -7.0512570715256686 3.7381024801976039 0 3.7381024801976039 -1.6778480892678598 0 0 0 0 45.96143732170458 29.855484582921292 0 29.855484582921292 -3.1662403285035907 0 0 0 0 115.7251672119819 65.508739994765676 0 65.508739994765676 -52.786179461045322 0 0 0 0 67.117948897224778 129.99720363647839 0 129.99720363647839 38.020738358394738 0 0 0 0 -45.248594386768673 43.845276546371608 0 43.845276546371608 -32.746228454845181 0 0 0 0 -23.135526401925802 26.89732383632424 0 26.89732383632424 -18.005204036440453 0 0 0 0 28.508584398992753 67.987970222435479 0 67.987970222435479 -12.350160036648049 0 0 0 0 40.846323154350102 48.757334922036989 0 48.757334922036989 -6.3136010687921953 0 0 0 0 57.551396493903667 47.258847600569311 0 47.258847600569311 -57.865284007386435 0 0 0 0 59.87416688522535 17.362179518057701 0 17.362179518057701 -90.960994638465991 0 0 0 0 45.172015087779073 24.453236134696908 0 24.453236134696908 -48.327782919765468 0 0 0 0 4.4609173794183423 16.210230800413761 0 16.210230800413761 -10.245497429751989 0 0 0 0 293.5141253429465 6.7440999293893356 0 6.7440999293893356 -35.631706189189117 0 0 0 0 34.155485881348923 -8.1454140952146812 0 -8.1454140952146812 -0.98546980610062551 0 0 0 0 94.507316851188989 280.04303975535601 0 280.04303975535601 394.12437706011906 0 0 0 0 610.02503545183527 887.75314917604419 0 887.75314917604419 678.36874312690998 0 0 0 0 321.36913545826155 445.95434480456089 0 445.95434480456089 577.26659559045515 0 0 0 0 407.23103783746046 550.82247536160662 0 550.82247536160662 646.08659561288459 0 0 0 0 23.918962060674595 -5.5315624371924779 0 -5.5315624371924779 0.27995819978890069 0 0 0 0 483.08804743293513 317.02316208667889 0 317.02316208667889 213.49384908952607 0 0 0 0 133.7545963149023 -47.697441516761955 0 -47.697441516761955 -249.30541581916714 0 0 0 0 301.41633053526198 131.31164554706749 0 131.31164554706749 232.44561220629566 0 0 0 0 325.13856903911801 460.7662768237833 0 460.7662768237833 325.93758674568528 0 0 0 0 3.4948013159542839 3.9387800107415476 0 3.9387800107415476 -4.4569973672779879 0 0 0 0 174.62980443637025 547.45703722008943 0 547.45703722008943 568.11795331686335 0 0 0 0 602.63615039849992 268.74461635536511 0 268.74461635536511 356.61834024926293 0 0 0 0 913.2372745606117 466.37414425079896 0 466.37414425079896 406.49381856756406 0 0 0 0 174.26948594505393 -6.8702917142005617 0 -6.8702917142005617 573.31612373225562 0 0 0 0 83.802730773248186 347.82885546479633 0 347.82885546479633 377.2328053131605 0 0 0 0 -324.71381925234891 339.63131708923947 0 339.63131708923947 625.7237367799778 0 0 0 0 -485.35168645161411 719.09445971181594 0 719.09445971181594 394.47184792946064 0 0 0 0 9.8226007015904599 -1.0940711920814419 0 -1.0940711920814419 -0.33083161382191051 0 0 0 0 697.45387982985994 760.83302286283242 0 760.83302286283242 746.43416267522275 0 0 0 0 499.8850628817745 -80.41538224827309 0 -80.41538224827309 -108.68911829856006 0 0 0 0 -539.44592504590037 312.3709986031181 0 312.3709986031181 -72.645762062665199 0 0 0 0 310.20341126798667 632.96162334911332 0 632.96162334911332 -39.315793950615443 0 0 0 0 39.012805715577088 9.3894411569890508 0 9.3894411569890508 -82.556832642280824 0 0 0 0 110.03801232517981 -247.91924379654415 0 -247.91924379654415 -83.451282053223849 0 0 0 0 -2.9501670221470704 -18.45545030678386 0 -18.45545030678386 -12.340449630879448 0 0 0 0 232.84992282839085 70.759264440579045 0 70.759264440579045 -87.67144297200403 0 0 0 0 146.56911623406631 -141.68198017333316 0 -141.68198017333316 88.999358354970354 0 0 0 0 529.69154213484671 -346.83862835779701 0 -346.83862835779701 266.43042790429263 0 0 0 0 -2.913786609678283 3.6896967721367275 0 3.6896967721367275 1.0959661226599273 0 0 0 0 261.38211663247057 134.99679892961967 0 134.99679892961967 -32.387344457463769 0 0 0 0 -296.40698979129229 195.62093384929676 0 195.62093384929676 324.93174278768623 0 0 0 0 -257.09552995958074 585.82072262476095 0 585.82072262476095 -75.290714474839206 0 0 0 0 124.44638843912617 89.644221192736495 0 89.644221192736495 138.0864625426475 0 0 0 0 27.045885056110819 293.43003630415353 0 293.43003630415353 -118.61155533276178 0 0 0 0 151.70884509891766 71.312701784444471 0 71.312701784444471 172.35334401028467 0 0 0 0 155.36205015024916 45.33482704264577 0 45.33482704264577 -61.012278463753319 0 0 0 0 90.22335580102299 159.40338386370604 0 159.40338386370604 -235.39676467162144 0 0 0 0 47.830140350471993 161.67218712739668 0 161.67218712739668 -180.45459081001081 0 0 0 0 -71.066082808349165 412.39100289612679 0 412.39100289612679 -327.91031519372382 0 0 0 0 -239.99365567786845 265.53932364442198 0 265.53932364442198 -80.38662939067035 0 0 0 0 -469.06271802259835 275.89129916970489 0 275.89129916970489 -127.76226837545983 0 0 0 0 -410.03114518880466 471.51332126952866 0 471.51332126952866 -281.50866262337786 0 0 0 0 41.523413835215251 281.00194181714528 0 281.00194181714528 -181.08352378425843 0 0 0 0 7.0359757674814318 344.53085422565482 0 344.53085422565482 -284.50559059185116 0 0 0 0 113.1137752096256 314.68764135369838 0 314.68764135369838 -197.18133989824923 0 0 0 0 -11.154916488898834 239.16619490399131 0 239.16619490399131 -232.68972136094544 0 0 0 0 37.363073147873365 70.33610906188278 0 70.33610906188278 -75.457978130418951 0 0 0 0 -27.966565119048028 172.4923086271645 0 172.4923086271645 2.8200799120922966 0 0 0 0 29.992869679474097 52.345003032939985 0 52.345003032939985 -119.99550597809139 0 0 0 0 -113.25032823753827 -118.55602805809372 0 -118.55602805809372 282.9811417407891 0 0 0 0 -31.986055648689216 204.69604954393481 0 204.69604954393481 -63.425512899728574 0 0 0 0 -591.68105615956665 169.66670746900809 0 169.66670746900809 320.85481476505993 0 0 0 0 -678.8601201797992 417.42299174978098 0 417.42299174978098 -218.76971381455178 0 0 0 0 6.112547167136448 4.0976020451068358 0 4.0976020451068358 3.6297822978278136 0 0 0 0 9.832177036363646 56.028490422066398 0 56.028490422066398 29.375599436733751 0 0 0 0 -3.5898495635447034 90.953767319757617 0 90.953767319757617 13.267054622725936 0 0 0 0 27.038601278911301 77.491645578854786 0 77.491645578854786 15.120568584718967 0 0 0 0 28.532916604988714 41.248851609866961 0 41.248851609866961 4.6499395205293013 0 0 0 0 84.441082182909668 0.71717292014739087 0 0.71717292014739087 7.3662561595533589 0 0 0 0 -140.91927026254416 303.62229649734945 0 303.62229649734945 -348.67805526604161 0 0 0 0 228.04271293288912 -117.46064992165657 0 -117.46064992165657 -703.94468086911013 0 0 0 0 73.239197894455174 -53.13563065646278 0 -53.13563065646278 -5.8290338410402001 0 0 0 0 44.912968252479914 -725.59701735990348 0 -725.59701735990348 1506.8549058310819 0 0 0 0 7.4481110592335611 -2.3991067239999246 0 -2.3991067239999246 5.3714666176424544 0 0 0 0 102.84165731910252 979.77260905326239 0 979.77260905326239 -1241.9969300058892 0 0 0 0 -1.7898909121093389 3.2805940185701061 0 3.2805940185701061 -6.8059264714747254 0 0 0 0 127.09075473579196 -17.138676597708468 0 -17.138676597708468 -381.30801677257841 0 0 0 0 106.54858050839539 373.05197082517225 0 373.05197082517225 -623.31809188910256 0 0 0 0 731.21379795897883 271.32218465368624 0 271.32218465368624 181.56535556498056 0 0 0 0 -10.012594497274881 1.673068207052701 0 1.673068207052701 2.7225113405778458 0 0 0 0 732.60913958551578 284.00786741859793 0 284.00786741859793 179.67620295717097 0 0 0 0 743.11543406845067 214.91106358770088 0 214.91106358770088 53.916246824967857 0 0 0 0 610.49166116506967 360.86180218705522 0 360.86180218705522 44.47142763786178 0 0 0 0 504.69355787721361 75.666825972446986 0 75.666825972446986 24.228252860172461 0 0 0 0 -46.543846214988662 76.108164678733374 0 76.108164678733374 83.441991763897022 0 0 0 0 -31.291098556132056 78.874857407477975 0 78.874857407477975 82.401034150432679 0 0 0 0 -57.679780103898736 30.411282868538652 0 30.411282868538652 38.400841384692725 0 0 0 0 196.84642181453091 345.59051156341775 0 345.59051156341775 220.19178775041451 0 0 0 0 -62.096018459687912 -29.446518517578625 0 -29.446518517578625 172.96135527969091 0 0 0 0 483.7116178783981 57.483465352454004 0 57.483465352454004 275.21597186164979 0 0 0 0 728.79435399062095 235.4767720007203 0 235.4767720007203 277.19655196433996 0 0 0 0 949.72301125988452 106.15167993252544 0 106.15167993252544 101.23511446633938 0 0 0 0 999.366235284293 70.116814558676197 0 70.116814558676197 109.43978393524594 0 0 0 0 1079.049623857356 124.40189807025945 0 124.40189807025945 85.245255769234063 0 0 0 0 831.03508628575582 164.68307348396502 0 164.68307348396502 164.00893059884038 0 0 0 0 841.07266102292306 250.45920040763303 0 250.45920040763303 189.55131162782163 0 0 0 0 1230.7848411959044 -78.652509188492786 0 -78.652509188492786 20.276412031511427 0 0 0 0 1308.1427642902831 -2.1823488728732627 0 -2.1823488728732627 24.797078579940717 0 0 0 0 10.516120679278973 36.79572276647761 0 36.79572276647761 32.56347151748966 0 0 0 0 -611.05320126250626 835.56245740065765 0 835.56245740065765 116.26791591356505 0 0 0 0 1015.2778377039904 -141.49473305802348 0 -141.49473305802348 74.263069198575977 0 0 0 0 1211.2726191623963 15.80334687396487 0 15.80334687396487 241.98022948154539 0 0 0 0 1246.6024304878915 132.05459647838347 0 132.05459647838347 67.886988740599918 0 0 0 0 1341.2633273011452 -164.56911834586981 0 -164.56911834586981 285.9917339896781 0 0 0 0 1090.1756800769945 498.07685984592899 0 498.07685984592899 -770.81487105951601 0 0 0 0 1088.6690496604679 221.57180782679006 0 221.57180782679006 107.9511540352496 0 0 0 0 1126.2585833043322 70.634435602282792 0 70.634435602282792 101.55817290524556 0 0 0 0 1316.5533475911852 222.02490921711387 0 222.02490921711387 -56.032095030019264 0 0 0 0 1423.7566339822661 -70.730517144747409 0 -70.730517144747409 141.89544315922285 0 0 0 0 959.9352135288209 203.10651169180392 0 203.10651169180392 157.12316232484045 0 0 0 0 965.16147815666409 264.32252352153682 0 264.32252352153682 26.864717697267224 0 0 0 0 1834.0815886815171 291.7276557946891 0 291.7276557946891 -135.31468136630951 0 0 0 0 1129.3831265450003 251.74913613250891 0 251.74913613250891 -363.41197946990633 0 0 0 0 818.17151977521826 -90.332133001564216 0 -90.332133001564216 43.056280634412815 0 0 0 0 1156.4001122424379 50.516908919969865 0 50.516908919969865 53.822488184197027 0 0 0 0 -1152.3378699616496 418.99931679154747 0 418.99931679154747 2.8941442011455365 0 0 0 0 7.8155299300256029 25.425970233752778 0 25.425970233752778 22.235372719580432 0 0 0 0 2084.2869495161967 -155.92908428857788 0 -155.92908428857788 -177.60714752995261 0 0 0 0 -629.39499882044129 -72.763404214774027 0 -72.763404214774027 63.668172552918804 0 0 0 0 -597.21652487610118 109.29553657614224 0 109.29553657614224 -333.17490241311771 0 0 0 0 -533.77287836454798 472.32379605965446 0 472.32379605965446 -414.23398440755227 0 0 0 0 1678.128030224203 -330.41455773599137 0 -330.41455773599137 269.28550107484824 0 0 0 0 1137.4221091557392 298.21084397355207 0 298.21084397355207 254.87969249293064 0 0 0 0 -606.28127783984019 432.16929623518536 0 432.16929623518536 432.60548121116426 0 0 0 0 212.93096400174545 -99.105026519697503 0 -99.105026519697503 117.71293397110776 0 0 0 0 1086.6407929096913 615.34035008152944 0 615.34035008152944 76.926864750364075 0 0 0 0 0.92685292842850231 50.986997331464373 0 50.986997331464373 64.495919341869126 0 0 0 0 485.98686463346166 431.23564991538456 0 431.23564991538456 -115.48052384962864 0 0 0 0 -90.044455195768023 159.37978989392076 0 159.37978989392076 -38.200983336544141 0 0 0 0 7.0348106400711892 9.5009179932165821 0 9.5009179932165821 8.5527061790822518 0 0 0 0 -24.337720916626495 76.268103010881532 0 76.268103010881532 73.834271644584078 0 0 0 0 17.526021562658116 76.293165307617073 0 76.293165307617073 59.592135161125043 0 0 0 0 -26.987413709088287 79.827800075517189 0 79.827800075517189 69.053943035665725 0 0 0 0 13.484274098238659 54.091217602481983 0 54.091217602481983 76.394024254551042 0 0 0 0 324.36447947349916 182.24609799311816 0 182.24609799311816 -140.92914684975085 0 0 0 0 339.30405599440019 69.472765762081508 0 69.472765762081508 566.13374629305417 0 0 0 0 37.592763163662312 -194.88723696946408 0 -194.88723696946408 139.37047229622976 0 0 0 0 -488.96094172418998 -148.25682586449693 0 -148.25682586449693 385.7584464874044 0 0 0 0 158.98094195148951 307.39980497537931 0 307.39980497537931 169.87439227350569 0 0 0 0 -261.8051244356684 52.55658164801207 0 52.55658164801207 46.828294645004917 0 0 0 0 11.100323574578411 50.632574532494026 0 50.632574532494026 82.264522529190387 0 0 0 0 -680.10468139938348 48.043057915108193 0 48.043057915108193 360.89877356332909 0 0 0 0 47.352879914605865 69.51130970340364 0 69.51130970340364 69.619313468389009 0 0 0 0 3.4887251311039815 9.0854529713460686 0 9.0854529713460686 6.8906066297443633 0 0 0 0 -1853.4264118604679 842.44863606487866 0 842.44863606487866 355.78582585869299 0 0 0 0 3472.6789479678937 367.59392310974954 0 367.59392310974954 -363.14088659216122 0 0 0 0 1124.0861353042737 1120.9179850258861 0 1120.9179850258861 937.25851048325785 0 0 0 0 1305.3886004992746 506.8932534318019 0 506.8932534318019 166.78795766444637 0 0 0 0 495.31604010977753 10.157387130436746 0 10.157387130436746 365.16368562935418 0 0 0 0 612.56465563019083 366.67917389425384 0 366.67917389425384 75.66678129502543 0 0 0 0 697.71784995033067 560.76769268013015 0 560.76769268013015 258.26179373649575 0 0 0 0 668.45030309083813 229.0323460989639 0 229.0323460989639 747.68400929012205 0 0 0 0 -222.72723231513373 986.66117024703908 0 986.66117024703908 83.791788805289343 0 0 0 0 52.374178075264354 469.67148195188884 0 469.67148195188884 63.635388952548965 0 0 0 0 965.48128359126258 711.6876421733898 0 711.6876421733898 99.028736038735587 0 0 0 0 2.1005362914871171 2.3156880221829041 0 2.3156880221829041 -2.1399103608416956 0 0 0 0 532.30788774215034 738.10598894580608 0 738.10598894580608 528.8649973885822 0 0 0 0 258.42593385839427 414.59399906265321 0 414.59399906265321 636.64903376043435 0 0 0 0 -164.88815718812839 -121.89878184872896 0 -121.89878184872896 141.99973573811621 0 0 0 0 159.43486892934015 107.58212342241677 0 107.58212342241677 124.41418771769486 0 0 0 0 230.64043262202904 72.590184578137496 0 72.590184578137496 112.84638167901539 0 0 0 0 347.01937911053028 342.25713508220997 0 342.25713508220997 276.23917154973424 0 0 0 0 374.24265930825175 -20.390399792176865 0 -20.390399792176865 -156.74031818562707 0 0 0 0 155.42926061523394 -0.12388523606637136 0 -0.12388523606637136 30.875764446608628 0 0 0 0 -12.502217005532657 -34.470041450456847 0 -34.470041450456847 139.9515706522875 0 0 0 0 186.75155336773969 91.881988024367047 0 91.881988024367047 365.34794787096598 0 0 0 0 77.310937011080568 185.02181304156136 0 185.02181304156136 300.51643014134288 0 0 0 0 47.359074844394399 48.87395996045143 0 48.87395996045143 86.023461152391974 0 0 0 0 -145.89968870759185 -124.09173254685743 0 -124.09173254685743 85.421106078116736 0 0 0 0 17.195230768615716 52.923750303316815 0 52.923750303316815 80.698735617986969 0 0 0 0 -284.40917550193626 87.831641254911574 0 87.831641254911574 132.96693301359846 0 0 0 0 -14.001046466472673 -1.2686929257319051 0 -1.2686929257319051 8.8594596955046256 0 0 0 0 -210.08277349357195 161.53917975468858 0 161.53917975468858 10.413173643485607 0 0 0 0 -116.65874548290594 -26.176281550119256 0 -26.176281550119256 91.564771651838271 0 0 0 0 -41.13953994845815 14.514153812095515 0 14.514153812095515 65.141522469711617 0 0 0 0 -144.63297565485027 49.601992304493308 0 49.601992304493308 12.241173229403103 0 0 0 0 -102.20112952303316 20.186252523112216 0 20.186252523112216 29.897858530915755 0 0 0 0 -85.823074655083474 51.88943626453738 0 51.88943626453738 -36.944494457518886 0 0 0 0 -45.399601746521512 21.026598594072766 0 21.026598594072766 -14.690471782096211 0 0 0 0 -3.6608552594827373 37.349519623430254 0 37.349519623430254 50.467090430254927 0 0 0 0 -30.208507112330722 32.8177774081596 0 32.8177774081596 30.033202795588295 0 0 0 0 -6.1506071844285986 26.795232982006784 0 26.795232982006784 27.752716190116953 0 0 0 0 1.2357985841135815 55.0340000798642 0 55.0340000798642 110.91749903378877 0 0 0 0 17.149857917434019 41.622269884631351 0 41.622269884631351 100.41132623432168 0 0 0 0 8.8998354963950987 29.044700951060804 0 29.044700951060804 77.535096936811897 0 0 0 0 18.625917714320167 47.01442881174421 0 47.01442881174421 42.523310236418183 0 0 0 0 -9.9601300007707323 32.27923687555176 0 32.27923687555176 97.378213774725737 0 0 0 0 -12.23056127862624 9.1787513931369915 0 9.1787513931369915 7.0899631179708464 0 0 0 0 203.4237339360925 -20.634035648127792 0 -20.634035648127792 -178.80597050254073 0 0 0 0 -258.90993873935622 197.82357577750008 0 197.82357577750008 351.59637653061509 0 0 0 0 -208.32345325568531 712.64847243939948 0 712.64847243939948 728.52095777598879 0 0 0 0 114.60385153932293 525.55946192557712 0 525.55946192557712 -40.165771021791443 0 0 0 0 -5.294105005845573 0.29589135990919146 0 0.29589135990919146 -1.2201985798016359 0 0 0 0 -8.60514014551336 116.5178854493488 0 116.5178854493488 -24.940163236274202 0 0 0 0 -70.734851210279885 97.272046870228223 0 97.272046870228223 47.810233841747504 0 0 0 0 -225.76702135701657 154.98094729938498 0 154.98094729938498 52.362855828223474 0 0 0 0 -244.04067772867643 80.842536260236102 0 80.842536260236102 97.71137703459317 0 0 0 0 -90.603026599737859 119.79777668522365 0 119.79777668522365 53.556399489698379 0 0 0 0 -18.943911837503038 86.527211125942813 0 86.527211125942813 52.112462228184995 0 0 0 0 -26.546687702917552 80.187658772094437 0 80.187658772094437 78.056332421921979 0 0 0 0 16.894124984621158 49.659436535588611 0 49.659436535588611 62.631162649610815 0 0 0 0 -69.309130561030543 82.787584826224702 0 82.787584826224702 62.27779832986289 0 0 0 0 -18.164277684872104 96.067910608507191 0 96.067910608507191 38.046782882032858 0 0 0 0 114.78530569895702 242.42369070080167 0 242.42369070080167 327.30097481879784 0 0 0 0 68.17278430015358 212.29157841869164 0 212.29157841869164 319.22203644188266 0 0 0 0 4.5583254316115926 227.07880327957173 0 227.07880327957173 310.25496614147414 0 0 0 0 52.956033337432018 248.17919163096303 0 248.17919163096303 302.81291499055988 0 0 0 0 24.122807298504995 258.2275934250265 0 258.2275934250265 294.15394124377053 0 0 0 0 112.4639522727266 231.90189610025845 0 231.90189610025845 323.66283481691789 0 0 0 0 44.487464179288509 210.36398674897282 0 210.36398674897282 297.00222224363097 0 0 0 0 112.54041254081312 241.03178304676476 0 241.03178304676476 293.11299251842684 0 0 0 0 123.12228651542591 199.71665132692488 0 199.71665132692488 246.36013256907609 0 0 0 0 37.292312847668654 251.59303615924364 0 251.59303615924364 282.08256176641589 0 0 0 0 162.61532567806651 194.62960299330985 0 194.62960299330985 190.03259193067788 0 0 0 0 29.952111648191931 208.99757570752627 0 208.99757570752627 252.03377843995167 0 0 0 0 32.318495472339464 226.28224856051725 0 226.28224856051725 234.2500949414316 0 0 0 0 3.142852754712294 200.79518534134331 0 200.79518534134331 262.6241267829173 0 0 0 0 -65.70292245532255 263.15937431584825 0 263.15937431584825 283.54680446382463 0 0 0 0 -167.64371335538817 265.95495516746178 0 265.95495516746178 268.59866488780972 0 0 0 0 -79.902918972827138 240.1153339335724 0 240.1153339335724 265.93874199139827 0 0 0 0 -152.6347017818548 329.78291527337797 0 329.78291527337797 295.70071169971925 0 0 0 0 -160.43440804787679 271.20587850732409 0 271.20587850732409 305.07368412028882 0 0 0 0 -97.448012676909457 323.37620005120516 0 323.37620005120516 264.25150202627992 0 0 0 0 -43.91444528476859 230.54901191919998 0 230.54901191919998 295.8944713182791 0 0 0 0 -67.819509820230451 286.43437284091488 0 286.43437284091488 293.47511715383371 0 0 0 0 -71.878704692517204 265.40105355359265 0 265.40105355359265 307.94530435063825 0 0 0 0 -12.871489281966205 234.10665757245079 0 234.10665757245079 302.17509289136251 0 0 0 0 -27.64785833683527 275.97062365113561 0 275.97062365113561 290.498455976478 0 0 0 0 -64.669994100528129 265.89053300005253 0 265.89053300005253 273.3325375182435 0 0 0 0 -140.55210366826577 296.18348941093791 0 296.18348941093791 243.23906143509225 0 0 0 0 -150.30957414587829 369.7055705425264 0 369.7055705425264 233.5814334969516 0 0 0 0 -135.93496063318889 316.20635635590224 0 316.20635635590224 303.7630255460208 0 0 0 0 -162.02085633999741 389.53830635641498 0 389.53830635641498 299.38365231467469 0 0 0 0 -228.27750796327018 298.65880537461817 0 298.65880537461817 301.68940754681171 0 0 0 0 -230.6054326300353 391.57493012591488 0 391.57493012591488 322.05305554395454 0 0 0 0 -312.2082888861878 365.7508422347928 0 365.7508422347928 320.39997702678738 0 0 0 0 -221.68566348757849 522.70376822888102 0 522.70376822888102 352.76512144480876 0 0 0 0 -125.37653857156693 553.05028682166449 0 553.05028682166449 352.24439841980569 0 0 0 0 -291.7652968149232 465.0598987325684 0 465.0598987325684 497.18052999565225 0 0 0 0 -164.80983709262136 426.60238369321405 0 426.60238369321405 112.50211164662323 0 0 0 0 -112.89863005731786 167.8922734118587 0 167.8922734118587 -202.12189559380022 0 0 0 0 -93.484823604558187 330.88031842445162 0 330.88031842445162 206.85163896831 0 0 0 0 -333.51523017490672 121.86880267652396 0 121.86880267652396 214.62087485012307 0 0 0 0 -252.85031342178445 69.192967542984661 0 69.192967542984661 83.648860798504757 0 0 0 0 -132.2573359196158 292.50010538527749 0 292.50010538527749 169.15941002027103 0 0 0 0 -323.17172364433463 134.03488299582568 0 134.03488299582568 71.794165514005726 0 0 0 0 -18.051057474460322 364.50891932845116 0 364.50891932845116 386.87497663792783 0 0 0 0 -226.50050370096142 294.87139972161094 0 294.87139972161094 366.15576574237275 0 0 0 0 -43.400823459633102 237.68267652410577 0 237.68267652410577 221.76547573112475 0 0 0 0 -107.95352219153574 321.26067791941205 0 321.26067791941205 247.04657717614828 0 0 0 0 2.7154807456099661 234.95966078452693 0 234.95966078452693 271.32618484986051 0 0 0 0 -55.24731542216432 278.07155634012088 0 278.07155634012088 287.70708212501631 0 0 0 0 21.269378991295525 248.66459525579194 0 248.66459525579194 297.36167402650608 0 0 0 0 -3.0357806605761652 214.98794866549679 0 214.98794866549679 327.11381666208035 0 0 0 0 43.941963490080525 209.58387729999959 0 209.58387729999959 304.69370022943986 0 0 0 0 -54.459658833988215 235.53087203439009 0 235.53087203439009 312.34201017493615 0 0 0 0 24.054547485712192 202.89508384117698 0 202.89508384117698 324.3772137092019 0 0 0 0 16.209572366151406 231.06207602396171 0 231.06207602396171 296.69583495744519 0 0 0 0 34.489490513939018 212.19064664445978 0 212.19064664445978 332.65558353346933 0 0 0 0 50.573269797747344 180.10738945428238 0 180.10738945428238 337.18230289985877 0 0 0 0 8.5311867762770817 197.1382161232068 0 197.1382161232068 339.84014252710767 0 0 0 0 42.496779918663378 193.50983833205828 0 193.50983833205828 325.09433359129252 0 0 0 0 83.552836895512883 196.83941443346521 0 196.83941443346521 327.09866672790304 0 0 0 0 42.503055209260992 194.9074496560379 0 194.9074496560379 358.02855308283324 0 0 0 0 51.823795082080323 163.02087449019564 0 163.02087449019564 340.38703614614951 0 0 0 0 54.53780028559413 206.86133522190903 0 206.86133522190903 370.32994050625348 0 0 0 0 83.514570588951756 197.35032575638252 0 197.35032575638252 361.42560633732501 0 0 0 0 132.87825038411756 227.20605424197629 0 227.20605424197629 347.72242873998766 0 0 0 0 95.499938870954793 210.80415877241103 0 210.80415877241103 351.10086577725087 0 0 0 0 148.58089019347972 206.4701579273742 0 206.4701579273742 333.38458194096893 0 0 0 0 42.250926816555875 204.62765323774147 0 204.62765323774147 352.55270813548486 0 0 0 0 37.925874794840638 210.94124523278879 0 210.94124523278879 323.24522904438345 0 0 0 0 70.613339280811488 234.94541702133938 0 234.94541702133938 327.55792460470548 0 0 0 0 148.21165714086783 228.56309706628235 0 228.56309706628235 326.86470023186848 0 0 0 0 100.71422990291467 202.87718864377894 0 202.87718864377894 329.14503482666441 0 0 0 0 94.3196378331304 204.20804334305285 0 204.20804334305285 318.29666807466856 0 0 0 0 -24.201687347796906 103.08487033196616 0 103.08487033196616 232.59983504444517 0 0 0 0 46.761653341140118 99.727677490816859 0 99.727677490816859 226.60841317968152 0 0 0 0 53.462143049875522 174.12053612978707 0 174.12053612978707 309.26375530607766 0 0 0 0 27.572325423348957 139.01558034441405 0 139.01558034441405 326.10338843170666 0 0 0 0 140.18769937921752 114.37334544264377 0 114.37334544264377 114.6791020385208 0 0 0 0 51.219164315711168 113.32160921399372 0 113.32160921399372 201.63307927560527 0 0 0 0 82.618927984378388 162.31719665571291 0 162.31719665571291 269.9291913000925 0 0 0 0 143.56381644167413 218.64230105292881 0 218.64230105292881 312.74080297547334 0 0 0 0 227.64858578141866 203.09003682740149 0 203.09003682740149 210.04089987928455 0 0 0 0 196.97212647469132 157.25894499270544 0 157.25894499270544 141.89246462752635 0 0 0 0 -305.20378978553663 91.29315783264974 0 91.29315783264974 -30.280637463787571 0 0 0 0 13.532748748037193 17.068258803705248 0 17.068258803705248 171.62990883121984 0 0 0 0 -7.7008794901756055 4.5587122486941229 0 4.5587122486941229 -0.87111950394825044 0 0 0 0 -338.45563162319013 -135.50226548087994 0 -135.50226548087994 -217.76618855646666 0 0 0 0 -0.46818471085098423 0.30345715339944945 0 0.30345715339944945 1.0853806516816533 0 0 0 0 -479.80542984645308 228.1960465358934 0 228.1960465358934 -66.574677099975816 0 0 0 0 -345.96793344362231 -430.05189096297545 0 -430.05189096297545 33.288473753083963 0 0 0 0 -3.1403055963870159 1.7421298700869983 0 1.7421298700869983 0.69760860234368494 0 0 0 0 176.5598267525711 384.78177879372925 0 384.78177879372925 322.41739133236842 0 0 0 0 -725.5595346867276 -176.08969695792439 0 -176.08969695792439 197.07767385500847 0 0 0 0 -55.283011184260431 -280.09817941107212 0 -280.09817941107212 212.1743605050624 0 0 0 0 -214.25862415334132 66.98319974446531 0 66.98319974446531 111.76684930750343 0 0 0 0 -249.96453767875028 124.2183683516655 0 124.2183683516655 -7.052812083507888 0 0 0 0 -1.2807252879585747 0.94046312189259851 0 0.94046312189259851 3.7213813399218623 0 0 0 0 -245.89431272918227 93.309583877915429 0 93.309583877915429 22.175656655355851 0 0 0 0 -236.65160457723869 103.16936936983438 0 103.16936936983438 -13.511580032351503 0 0 0 0 -201.45818077492459 113.77463235388677 0 113.77463235388677 -22.011764976221457 0 0 0 0 -243.08246121362924 77.216892586622976 0 77.216892586622976 -53.766945512954408 0 0 0 0 -42.863261636870448 -66.423909509839177 0 -66.423909509839177 8.2392596409517864 0 0 0 0 -218.69381268547545 59.061628758699953 0 59.061628758699953 29.976000647071487 0 0 0 0 -12.812187289483518 55.868397497048136 0 55.868397497048136 0.34741082216439167 0 0 0 0 -7.4752085678653017 9.7724947015047601 0 9.7724947015047601 -2.4487763114073928 0 0 0 0 -50.376878853314338 83.754610086565663 0 83.754610086565663 76.449467158883635 0 0 0 0 -64.517623260671826 98.619747766426372 0 98.619747766426372 70.114850502041008 0 0 0 0 -26.83743473677896 80.762894727345156 0 80.762894727345156 71.771664039038114 0 0 0 0 -29.1492911051173 90.445153966145881 0 90.445153966145881 58.084842077776557 0 0 0 0 -35.885170647282393 86.689379992326394 0 86.689379992326394 70.580229929128109 0 0 0 0 -41.900575388213838 96.607547420586343 0 96.607547420586343 58.724374187446301 0 0 0 0 -77.762793798730854 78.371832186488973 0 78.371832186488973 64.284173813550296 0 0 0 0 -185.07995108721843 88.678475219503525 0 88.678475219503525 91.564075851276357 0 0 0 0 -190.28736370612387 50.10956225150494 0 50.10956225150494 97.009396741595992 0 0 0 0 -167.20697299492895 35.588205956615639 0 35.588205956615639 132.18724916490646 0 0 0 0 -91.48576228415277 44.595341786870449 0 44.595341786870449 68.708680064992222 0 0 0 0 -149.38765120847711 88.141868920021807 0 88.141868920021807 88.910628206227557 0 0 0 0 -4.8632725372067398 74.567724582055234 0 74.567724582055234 64.132870426474256 0 0 0 0 -234.75342747178547 25.780017062375919 0 25.780017062375919 131.93840241313859 0 0 0 0 -102.93066168336645 -54.694156597735855 0 -54.694156597735855 12.867193388890882 0 0 0 0 -276.61558396940927 371.37351343094269 0 371.37351343094269 96.464425619214808 0 0 0 0 -45.464511419609153 23.446896027954608 0 23.446896027954608 175.84891937671273 0 0 0 0 -35.09813974345343 88.682262805990831 0 88.682262805990831 73.877598050620236 0 0 0 0 -38.975961987996925 102.20989157314489 0 102.20989157314489 118.90408362865492 0 0 0 0 -37.904072395886033 93.22380986191547 0 93.22380986191547 86.070676962410289 0 0 0 0 -45.196486723623821 82.607036228427205 0 82.607036228427205 101.68670856191966 0 0 0 0 -44.529627951422299 30.520264649633646 0 30.520264649633646 57.92025482664576 0 0 0 0 -62.325319457089407 39.972850955198425 0 39.972850955198425 22.707958291653149 0 0 0 0 -18.501108729416956 140.83985122614013 0 140.83985122614013 -4.1588254227244761 0 0 0 0 84.678283990995908 47.068668757371178 0 47.068668757371178 6.8638236341386687 0 0 0 0 67.717615114626824 62.775082399117309 0 62.775082399117309 -3.1745926016010344 0 0 0 0 61.672756528258105 24.352283661428373 0 24.352283661428373 -164.88438494817092 0 0 0 0 11.082385145335138 154.1729509850411 0 154.1729509850411 -15.043443780476082 0 0 0 0 -223.57730518080643 174.31901702421601 0 174.31901702421601 94.860508696358011 0 0 0 0 3.1373880268947687 199.81563826338243 0 199.81563826338243 -259.86264292673422 0 0 0 0 61.492080723146501 29.973036500672606 0 29.973036500672606 -223.55405995723413 0 0 0 0 12.125232619676012 8.2653103630627562 0 8.2653103630627562 3.0734694984270732 0 0 0 0 -91.997212003036111 -15.890744215310406 0 -15.890744215310406 -16.4771768760329 0 0 0 0 -4.6912203803238555 5.6431282876059683 0 5.6431282876059683 3.852994918403418 0 0 0 0 -132.68682084619286 190.23164990198893 0 190.23164990198893 2.9918893947215111 0 0 0 0 -32.249963328886224 14.418484609493134 0 14.418484609493134 -189.16649567459172 0 0 0 0 -83.754147118920628 220.56217441945046 0 220.56217441945046 -253.86382223122564 0 0 0 0 -226.72172786221654 71.957958732727093 0 71.957958732727093 43.515776655189256 0 0 0 0 -0.3893510037009662 1.5778254138185304 0 1.5778254138185304 3.4930096810351046 0 0 0 0 -122.93912607585298 2.4919642469594692 0 2.4919642469594692 20.725226242455392 0 0 0 0 40.396307012375473 -11.188798053159189 0 -11.188798053159189 -56.943633548351499 0 0 0 0 -178.47731023251981 100.32880553395444 0 100.32880553395444 3.4416959905920521 0 0 0 0 -402.01408693080248 257.43786402566229 0 257.43786402566229 -74.749393337926449 0 0 0 0 31.333652287396035 -126.78081723189007 0 -126.78081723189007 68.815413232379797 0 0 0 0 0.79954363954957941 1.0028455777497527 0 1.0028455777497527 0.56209552304578381 0 0 0 0 -224.36712986966813 214.50275695315941 0 214.50275695315941 -199.54910153269884 0 0 0 0 -58.488356181453128 21.86399003466795 0 21.86399003466795 171.44573404025141 0 0 0 0 -59.301185534819524 -17.210553092832924 0 -17.210553092832924 36.175258405914064 0 0 0 0 -41.396635179942677 112.4527567275145 0 112.4527567275145 23.6280895951204 0 0 0 0 -213.42020613354907 49.422939780713023 0 49.422939780713023 70.269590469128161 0 0 0 0 -32.092629983411371 62.259741725176355 0 62.259741725176355 86.76031789740955 0 0 0 0 -280.84505751888355 24.827325068385107 0 24.827325068385107 12.654934300619061 0 0 0 0 -290.78147307568906 176.43653162275587 0 176.43653162275587 8.7255187087160948 0 0 0 0 -250.7112195584632 193.76944710355383 0 193.76944710355383 26.022467106655313 0 0 0 0 -407.4379556265867 42.298043482857793 0 42.298043482857793 -22.652719209407223 0 0 0 0 -370.43766797947319 253.92847720870122 0 253.92847720870122 31.203874663755414 0 0 0 0 -17.247653737045766 65.622170340333469 0 65.622170340333469 30.031768593344168 0 0 0 0 31.110665106391025 134.30512033384366 0 134.30512033384366 39.237214574673999 0 0 0 0 22.627883639675929 140.05456012738068 0 140.05456012738068 135.11822828920913 0 0 0 0 -18.739671789541184 13.454153294210258 0 13.454153294210258 -12.818589453229471 0 0 0 0 -2.5032212103056963 52.938467466702832 0 52.938467466702832 75.021415010203782 0 0 0 0 7.1267145648341739 77.03275919388534 0 77.03275919388534 25.897484609246021 0 0 0 0 92.679686963062522 121.69489004017169 0 121.69489004017169 -3.6327711891644867 0 0 0 0 79.210523067603845 163.92817744450235 0 163.92817744450235 13.717859664346179 0 0 0 0 -3.588673498409662 62.166802450750765 0 62.166802450750765 108.41760897251152 0 0 0 0 32.559153344318474 41.148985871019249 0 41.148985871019249 93.593246837092067 0 0 0 0 41.093453574529121 84.646886423837714 0 84.646886423837714 85.150848582652543 0 0 0 0 7.9050751903512797 11.968943396884463 0 11.968943396884463 8.5029171230196141 0 0 0 0 1.122094364325676 -12.416081485054747 0 -12.416081485054747 -1.3183800877686735 0 0 0 0 -35.74599611069516 55.211968976292155 0 55.211968976292155 -0.91945900736027397 0 0 0 0 -129.99887126423528 10.71682697221695 0 10.71682697221695 21.390735461412532 0 0 0 0 8.2959145041680706 8.5389305989495696 0 8.5389305989495696 7.714688413782909 0 0 0 0 -17.076500804737407 -1.8647174087072926 0 -1.8647174087072926 -10.741137461925064 0 0 0 0 -62.055029524127804 36.179689750296347 0 36.179689750296347 10.570338391247788 0 0 0 0 -0.80355321090610232 98.677241209052227 0 98.677241209052227 -69.424054951086873 0 0 0 0 -143.56527151929674 106.71939466105448 0 106.71939466105448 8.6189020532656286 0 0 0 0 -244.18094992783881 5.2075185034900642 0 5.2075185034900642 -101.83393271239402 0 0 0 0 -288.36227860928011 151.11384864144748 0 151.11384864144748 -1.8303343669595051 0 0 0 0 -708.03408633513482 151.57145382597264 0 151.57145382597264 103.56367194674749 0 0 0 0 -0.42799352742967844 1.6858242121216591 0 1.6858242121216591 -2.398789324737109 0 0 0 0 99.431891508365595 29.062782012081243 0 29.062782012081243 -38.494121942792844 0 0 0 0 17.071333181345835 33.250037391690057 0 33.250037391690057 -14.737664613929155 0 0 0 0 -13.606156984065819 -1.7184259355526592 0 -1.7184259355526592 18.654411070754577 0 0 0 0 -20.586921392333466 36.294215600567441 0 36.294215600567441 10.319408052233484 0 0 0 0 5.8529262504140966 7.3428817358254861 0 7.3428817358254861 7.7390447827742008 0 0 0 0 -329.92641593915778 390.73164353272659 0 390.73164353272659 -202.50055230658836 0 0 0 0 -315.3863031268736 333.84118896425434 0 333.84118896425434 -292.08555394005816 0 0 0 0 -245.9915251626353 454.07628848729291 0 454.07628848729291 -138.80112752200876 0 0 0 0 -192.21366295786447 351.49611978612666 0 351.49611978612666 -366.26598699510942 0 0 0 0 -170.41232102888353 258.12232036571368 0 258.12232036571368 -252.54970977602716 0 0 0 0 -357.31548624458082 287.59026794798046 0 287.59026794798046 37.264212068759662 0 0 0 0 -161.63436024724433 236.84520516153725 0 236.84520516153725 -91.125925449545321 0 0 0 0 -373.25064065095421 354.7459236781674 0 354.7459236781674 -87.34179577402756 0 0 0 0 -399.54713482540956 254.04373206741366 0 254.04373206741366 -74.383887861466064 0 0 0 0 -312.69685473265054 324.50036059142803 0 324.50036059142803 -105.82400667751426 0 0 0 0 -471.17463816934651 344.36431069116406 0 344.36431069116406 -147.4383292891423 0 0 0 0 -588.98384374763464 219.12165794029625 0 219.12165794029625 -90.500518760927662 0 0 0 0 -442.02101924876843 285.52982292026354 0 285.52982292026354 -155.3379458450072 0 0 0 0 -432.16113916639961 256.59045025087335 0 256.59045025087335 -87.484376547006832 0 0 0 0 2.4806855841239575 6.3387698029134398 0 6.3387698029134398 6.2136263827174503 0 0 0 0 -214.98555683148811 207.5066905186668 0 207.5066905186668 -22.470873975333234 0 0 0 0 0.78882461800167003 3.7984573707558269 0 3.7984573707558269 -7.7555025920729435 0 0 0 0 -168.6383003362007 184.53178843102796 0 184.53178843102796 -82.775256442007958 0 0 0 0 796.88268558872369 50.461379545555246 0 50.461379545555246 -78.57329601807578 0 0 0 0 443.22796031962616 -143.70987008697466 0 -143.70987008697466 -539.84619722866046 0 0 0 0 396.65496811957109 44.996252135750183 0 44.996252135750183 -4.4614328077223036 0 0 0 0 0.16129032877008198 2.065636863963018 0 2.065636863963018 -2.221866553454916 0 0 0 0 -752.93339698988711 324.57698323542354 0 324.57698323542354 -114.72710075399664 0 0 0 0 0.23258925905012617 2.2752611237955733 0 2.2752611237955733 -1.1185216236250568 0 0 0 0 -475.3324647416423 141.89509322941194 0 141.89509322941194 -112.83309220549563 0 0 0 0 -459.35032877207641 128.10534944841174 0 128.10534944841174 -301.25090896954498 0 0 0 0 -554.38505494300443 99.36461235706156 0 99.36461235706156 -255.64470208671082 0 0 0 0 -500.85820766883444 222.72496709605366 0 222.72496709605366 -152.58248485170975 0 0 0 0 -531.81174056809687 310.99858140595825 0 310.99858140595825 -348.39169332673555 0 0 0 0 -271.97325013776572 201.56935586731015 0 201.56935586731015 -141.23552412723302 0 0 0 0 -353.1088812583821 315.55800835528953 0 315.55800835528953 -206.73869894277959 0 0 0 0 -194.72943670457971 392.26605992677651 0 392.26605992677651 -345.04429347695418 0 0 0 0 -595.75598814353725 213.26338131303783 0 213.26338131303783 -165.03111141000409 0 0 0 0 -208.36065899867754 152.20070847578097 0 152.20070847578097 -171.03887775941985 0 0 0 0 -45.190269123724192 158.55489860328544 0 158.55489860328544 -225.17872745645582 0 0 0 0 -123.53403108640487 121.17312261254483 0 121.17312261254483 -199.61112712118756 0 0 0 0 -189.72505292461938 280.4244299676302 0 280.4244299676302 -144.32102444428165 0 0 0 0 69.810362723607795 47.476135939550659 0 47.476135939550659 -185.84428530891819 0 0 0 0 -45.019486288952066 296.02561409372902 0 296.02561409372902 -108.47664964627802 0 0 0 0 51.42059140278991 72.6900933882971 0 72.6900933882971 -73.045482017063478 0 0 0 0 5.3671159540174358 115.18377336649201 0 115.18377336649201 82.15694652059392 0 0 0 0 -5.9331537337052183 5.4602622628912805 0 5.4602622628912805 -4.5906687470402829 0 0 0 0 -345.10112562188442 52.582506768123494 0 52.582506768123494 124.83429267877364 0 0 0 0 -707.55825127191201 49.287221942016913 0 49.287221942016913 137.70614666321399 0 0 0 0 -164.907011071944 333.98290386857479 0 333.98290386857479 39.222956373123452 0 0 0 0 -371.37714891886571 347.58769080910861 0 347.58769080910861 84.341604903369443 0 0 0 0 -426.36172077330957 -316.01073583600373 0 -316.01073583600373 -274.36379273938292 0 0 0 0 -600.74204793550234 570.89090739150379 0 570.89090739150379 101.33082064193877 0 0 0 0 7.7700324856123189 -193.53769579727305 0 -193.53769579727305 304.28613495802892 0 0 0 0 -12.570955539869828 -30.974211312615807 0 -30.974211312615807 -959.51110412119306 0 0 0 0 19.869907939568293 667.68438478514508 0 667.68438478514508 59.107114078782615 0 0 0 0 48.302353097072228 157.38441334155141 0 157.38441334155141 -344.25536679305878 0 0 0 0 -56.410166375493645 354.30257429414996 0 354.30257429414996 -340.34254553120752 0 0 0 0 -171.87794793798912 264.22984723916306 0 264.22984723916306 -81.565634831854368 0 0 0 0 -193.99877787166952 162.04973734416853 0 162.04973734416853 -261.15291215181333 0 0 0 0 -537.8465333301283 178.73194477223478 0 178.73194477223478 -99.156058898650372 0 0 0 0 47.167401864898238 97.910073119057415 0 97.910073119057415 -244.34464578141342 0 0 0 0 421.267346903423 51.684579533623037 0 51.684579533623037 -213.22044105328678 0 0 0 0 -436.99014872727321 496.60716335036341 0 496.60716335036341 -209.0896079932354 0 0 0 0 0.47325995161806844 1.1889935633358029 0 1.1889935633358029 0.15981714580853179 0 0 0 0 -28.749455397605971 249.45413488250369 0 249.45413488250369 -257.25599656032136 0 0 0 0 136.68502972454394 265.26076490266951 0 265.26076490266951 -45.75010502684745 0 0 0 0 40.100337633741105 116.50475463269686 0 116.50475463269686 -251.37368781625264 0 0 0 0 -272.08553196907906 211.34248263332665 0 211.34248263332665 -79.100110078761645 0 0 0 0 345.74286083224797 218.87510571538587 0 218.87510571538587 -220.29258867749195 0 0 0 0 381.79264253096585 275.42949879966363 0 275.42949879966363 -148.90212083511506 0 0 0 0 287.76999003489266 205.24969678366597 0 205.24969678366597 -89.756539058005728 0 0 0 0 252.69645212459091 150.56010366385453 0 150.56010366385453 -157.42782642778729 0 0 0 0 500.27336192236021 246.63103064649295 0 246.63103064649295 -94.631474724141299 0 0 0 0 371.83654897760925 441.47008131905022 0 441.47008131905022 357.15132432069004 0 0 0 0 138.15245764055044 196.93407855035184 0 196.93407855035184 120.39497064790157 0 0 0 0 140.05313380012535 192.03080719817081 0 192.03080719817081 87.513563186686952 0 0 0 0 654.64289085287851 -1076.9038040994674 0 -1076.9038040994674 298.28350056519776 0 0 0 0 1801.9936679515754 -42.548454866569955 0 -42.548454866569955 -410.97445325460467 0 0 0 0 1122.0121411581199 865.30539310826862 0 865.30539310826862 319.32476828094877 0 0 0 0 574.58182865303399 290.38873581852386 0 290.38873581852386 -54.419481603785243 0 0 0 0 684.23011231422731 27.907566137158938 0 27.907566137158938 -194.76105321755858 0 0 0 0 530.96960538918847 288.60094626766113 0 288.60094626766113 -54.451932481948688 0 0 0 0 587.23847980508003 -20.436263416384463 0 -20.436263416384463 -217.97568118472191 0 0 0 0 608.90859345677165 -64.986350149226837 0 -64.986350149226837 -241.00928025030225 0 0 0 0 446.25473418089416 -150.59918216665119 0 -150.59918216665119 -219.85621572100354 0 0 0 0 427.65500949223042 150.75610383812455 0 150.75610383812455 -75.447893855822144 0 0 0 0 551.44159588392495 -5.0425009809259791 0 -5.0425009809259791 -82.224010234400339 0 0 0 0 480.71048656703863 158.42750593614892 0 158.42750593614892 -119.87201014944367 0 0 0 0 488.02649855387062 97.223045302601349 0 97.223045302601349 -59.374742363426776 0 0 0 0 276.10598083433439 157.12427925051088 0 157.12427925051088 -73.428230510930007 0 0 0 0 191.15811133180927 -48.985919841798477 0 -48.985919841798477 31.846067464459338 0 0 0 0 389.36228469034205 -96.469455008048499 0 -96.469455008048499 37.192596980086819 0 0 0 0 -6.4596791128421955 16.268058457310122 0 16.268058457310122 19.230297223219367 0 0 0 0 171.14230445460453 -84.780343173377332 0 -84.780343173377332 82.077173610830869 0 0 0 0 68.388825091595209 44.422769469504601 0 44.422769469504601 33.471572201855452 0 0 0 0 83.988971521668645 65.464965396848129 0 65.464965396848129 61.544628028608713 0 0 0 0 177.28414612573215 -48.862823845351159 0 -48.862823845351159 47.301496713254892 0 0 0 0 8.4560298355726911 35.110609821784074 0 35.110609821784074 29.104624666421046 0 0 0 0 -11.860255300060134 8.3910437905471298 0 8.3910437905471298 5.3265122320416722 0 0 0 0 -82.367006335968384 47.653711087465126 0 47.653711087465126 82.489732449490475 0 0 0 0 -20.509048705829628 158.80596342940044 0 158.80596342940044 -341.81757536030636 0 0 0 0 -16.822123066409404 90.283500430416098 0 90.283500430416098 -38.898804572334484 0 0 0 0 230.57520119643414 55.338276143839721 0 55.338276143839721 -93.409618280751602 0 0 0 0 46.90444282979297 86.058472122384046 0 86.058472122384046 -5.9782597880421235 0 0 0 0 55.226833337990684 163.10848386703174 0 163.10848386703174 -90.327987838936679 0 0 0 0 -9.1269931536280637 165.34927343795425 0 165.34927343795425 -21.259887895019347 0 0 0 0 -163.59050156796729 180.16424880042723 0 180.16424880042723 -27.977237594735925 0 0 0 0 -71.134944186069333 259.94690618045934 0 259.94690618045934 -104.87463841820136 0 0 0 0 67.870219811941297 136.03485285983243 0 136.03485285983243 -195.816049136949 0 0 0 0 -49.468388512636011 179.69322278477557 0 179.69322278477557 -55.600438271016174 0 0 0 0 -79.308146815670625 196.59820382261114 0 196.59820382261114 -26.979132003540144 0 0 0 0 14.65700314051719 222.64803299493906 0 222.64803299493906 -50.589013957005591 0 0 0 0 4.8833982057603862 231.03961412269473 0 231.03961412269473 32.209398653780227 0 0 0 0 184.25719532219728 361.79092875641254 0 361.79092875641254 -157.63438322680304 0 0 0 0 119.62933338347557 99.693436213533687 0 99.693436213533687 -32.438098195612838 0 0 0 0 17.218227959197975 165.57617312987168 0 165.57617312987168 -56.510958239447973 0 0 0 0 -84.715006986229128 114.52622335653359 0 114.52622335653359 20.31478307731868 0 0 0 0 -63.55799152995678 90.288729345536922 0 90.288729345536922 7.5153837020297942 0 0 0 0 -58.428270761636668 -55.275870689818476 0 -55.275870689818476 206.92735024982176 0 0 0 0 -99.780637031679362 176.82106449903222 0 176.82106449903222 15.236517313424883 0 0 0 0 -319.03694683936919 80.016067511354777 0 80.016067511354777 188.17841029277361 0 0 0 0 -257.68760598509834 381.80511568979455 0 381.80511568979455 -48.467832543328768 0 0 0 0 249.46397456647355 10.855637270280567 0 10.855637270280567 -374.67900675962483 0 0 0 0 9.8469242088845697 37.65173654485114 0 37.65173654485114 42.494582563841128 0 0 0 0 -682.27602992334459 -180.74586347517288 0 -180.74586347517288 344.62338790113427 0 0 0 0 -271.67477817372855 250.5612510299834 0 250.5612510299834 4.0097046554828921 0 0 0 0 -1080.1732002605349 -13.318980257686235 0 -13.318980257686235 250.64878275227511 0 0 0 0 -2.4737046560589473 4.5072235603096402 0 4.5072235603096402 -2.2739052000739974 0 0 0 0 611.34579373159795 247.26978981421053 0 247.26978981421053 -144.85263164013577 0 0 0 0 -659.47675915287618 48.954574834750019 0 48.954574834750019 90.813617865440392 0 0 0 0 -4.964150254961055 9.3481024593143474 0 9.3481024593143474 -9.2532994781321065 0 0 0 0 11.14454531893586 43.411054357188306 0 43.411054357188306 45.872701136169511 0 0 0 0 -52.42869840883759 75.879926580954816 0 75.879926580954816 -49.533794329447119 0 0 0 0 -82.492932349536204 25.703112951818639 0 25.703112951818639 -25.477680026426242 0 0 0 0 -134.2886163650146 105.19460528187483 0 105.19460528187483 21.788992406931357 0 0 0 0 58.562176271660064 61.7963658904564 0 61.7963658904564 -35.490736096475302 0 0 0 0 233.37959686487011 82.07348618017113 0 82.07348618017113 58.931773857339067 0 0 0 0 213.20351103301437 257.19685574183313 0 257.19685574183313 69.767279079892091 0 0 0 0 110.290243030493 180.80296986296707 0 180.80296986296707 0.37382537087614764 0 0 0 0 309.23457950880311 261.59660683996708 0 261.59660683996708 5.8518442712265824 0 0 0 0 211.38900902165187 247.46214096245058 0 247.46214096245058 93.518250057324622 0 0 0 0 186.49797258963372 307.2560899213604 0 307.2560899213604 -48.15015165958539 0 0 0 0 220.83083071186411 135.13143058538662 0 135.13143058538662 -107.88171369808788 0 0 0 0 154.53298847466249 181.98736426261803 0 181.98736426261803 -6.1902030597193516 0 0 0 0 223.33185627520288 518.82216619291557 0 518.82216619291557 353.23265615316996 0 0 0 0 803.8838855141621 412.03454034170863 0 412.03454034170863 -646.1578106641291 0 0 0 0 -168.19782527127063 -195.57341774227916 0 -195.57341774227916 -327.71847773186892 0 0 0 0 297.51273584719638 412.87228483207127 0 412.87228483207127 56.19711309908962 0 0 0 0 8.8740114223078237 9.1642474270939154 0 9.1642474270939154 -3.4662860653767851 0 0 0 0 224.71612496434318 90.244814867314744 0 90.244814867314744 -44.493915231550091 0 0 0 0 25.589026935027505 110.42592028219588 0 110.42592028219588 410.62615778335305 0 0 0 0 -0.79556938577476011 16.991174696086645 0 16.991174696086645 -15.80286305849711 0 0 0 0 -9.8902424606858403 13.885958632468828 0 13.885958632468828 148.07465953101905 0 0 0 0 1.5122377019639863 14.765207815542674 0 14.765207815542674 -21.974809046767255 0 0 0 0 -349.27565392342876 168.61986195361214 0 168.61986195361214 -90.93580193100388 0 0 0 0 -181.89350834598736 74.586445024354362 0 74.586445024354362 -44.861527121174731 0 0 0 0 138.53712937974342 136.97342808377198 0 136.97342808377198 -253.8416339206351 0 0 0 0 -308.00079476941937 148.62567179549887 0 148.62567179549887 63.153501178620445 0 0 0 0 -264.79655427775288 178.06893270383227 0 178.06893270383227 -17.887689006103074 0 0 0 0 -218.46287780219836 107.66281619724998 0 107.66281619724998 -37.393686709391659 0 0 0 0 -304.96276208327799 91.305312444803803 0 91.305312444803803 8.1397788545918957 0 0 0 0 14.177765972210935 17.478235351041334 0 17.478235351041334 7.0615884477333681 0 0 0 0 -242.60308954222819 145.99068224116263 0 145.99068224116263 -53.631621359618293 0 0 0 0 -242.31917169164717 149.60358183905927 0 149.60358183905927 -65.75656305286293 0 0 0 0 836.62590971052759 2.3900412842249352 0 2.3900412842249352 89.622230191245762 0 0 0 0 11.816925597467838 42.343141060281141 0 42.343141060281141 39.15784707038604 0 0 0 0 907.93570080650079 128.03118614996401 0 128.03118614996401 -351.12050384385657 0 0 0 0 776.07515663637355 140.1259392139259 0 140.1259392139259 -143.48800352286344 0 0 0 0 832.09361486449825 -41.062512737283441 0 -41.062512737283441 -305.38335215512416 0 0 0 0 876.2092362162648 77.548226488202999 0 77.548226488202999 -171.26908342994466 0 0 0 0 919.19715683031791 107.8981806770571 0 107.8981806770571 -152.48384501754663 0 0 0 0 797.95774489942403 -3.4126504069388375 0 -3.4126504069388375 33.246188155324489 0 0 0 0 789.05036256056542 76.371178161644366 0 76.371178161644366 4.8499487498738745 0 0 0 0 227.55262981860142 288.40032765756587 0 288.40032765756587 -58.821000549019118 0 0 0 0 567.50989627058334 253.43930967886126 0 253.43930967886126 43.182134226222843 0 0 0 0 318.21440123342109 -37.661186031215038 0 -37.661186031215038 -19.606204594693736 0 0 0 0 249.24582749192632 157.38539701057198 0 157.38539701057198 20.564232414637445 0 0 0 0 21.373920179663401 266.33973178406814 0 266.33973178406814 219.24817732919473 0 0 0 0 59.197528386894191 27.868401072760662 0 27.868401072760662 -295.41573740415333 0 0 0 0 121.81237951814546 183.05472259480484 0 183.05472259480484 -1.6054612984946743 0 0 0 0 421.59634759090477 119.94331816399608 0 119.94331816399608 -152.66274181635981 0 0 0 0 298.12834378779098 -21.14398770108528 0 -21.14398770108528 29.97960689278807 0 0 0 0 15.616227526697905 12.332831143312529 0 12.332831143312529 3.5454649788676349 0 0 0 0 43.14184847164271 32.334263669041569 0 32.334263669041569 12.224428102882541 0 0 0 0 33.583979010351868 87.090885126650392 0 87.090885126650392 -15.13603591323772 0 0 0 0 62.764557672252067 8.1752016598984483 0 8.1752016598984483 21.385286418142641 0 0 0 0 -12.177216223773431 31.78232872302361 0 31.78232872302361 -14.826754557833624 0 0 0 0 42.251655277461396 -0.26040708392247325 0 -0.26040708392247325 174.14365858486781 0 0 0 0 30.789405606617265 -16.612750345298991 0 -16.612750345298991 294.11576632534275 0 0 0 0 109.57680055111223 59.348920955084395 0 59.348920955084395 -6.4718206930156157 0 0 0 0 18.019616975284748 8.9739786890521103 0 8.9739786890521103 6.0848546368301868 0 0 0 0 97.08723869989754 469.02917830537081 0 469.02917830537081 870.49070931552706 0 0 0 0 1998.3648805170417 -740.63396377696517 0 -740.63396377696517 39.374970347402268 0 0 0 0 1485.026808968661 1343.6291820804254 0 1343.6291820804254 576.87493807259648 0 0 0 0 1377.960761379099 144.00269268067132 0 144.00269268067132 -362.60396270667388 0 0 0 0 -408.38576110259356 478.38441224763756 0 478.38441224763756 481.56651137401059 0 0 0 0 809.39842657928216 -246.0835283030101 0 -246.0835283030101 38.74409980530254 0 0 0 0 
</DataArray>
<DataArray type="Float64" Name="cross_section_updated" format="ascii">
1 1 1 1 1 1 1 1 1 1 1 1 1 1 0.0094740530362313318 1 1 1 0.0076764052549826 0.0086162957024568717 1 1 1 1 1 1 1 1 1 1 1 1 1 1 1 1 1 1 1 1 1 1 1 1 1 1 1 1 1 1 1 1 1 1 1 1 1 1 1 1 0.0088782830807727781 1 1 1 1 1 1 1 1 1 1 1 1 1 1 1 1 0.013282221708660422 1 1 1 1 1 1 1 1 1 0.0094285291776131964 0.0100956240958151 1 1 1 1 1 1 1 1 1 1 1 1 1 1 1 1 0.007062517606411611 1 0.011600964150163635 1 0.0084451258278879643 1 1 0.00661794963352565 1 1 0.010069704837878139 1 1 1 1 1 1 1 1 1 0.011489688599636309 1 1 1 1 1 1 1 1 1 1 1 1 1 1 1 1 1 1 1 1 1 1 1 1 1 0.012402825489736796 1 1 1 1 1 0.013000421191340181 0.0092329743280562884 1 0.01000729557724751 1 0.0098882406545954434 1 1 1 1 1 1 1 1 1 0.010291828595331341 1 1 1 1 0.011813856485032472 1 1 1 0.010695694463652487 1 1 1 1 1 1 1 1 0.015934603870545169 0.012570331652849966 1 0.010794070909707682 1 0.0099388431470864048 1 1 1 1 1 1 0.004627089375756805 1 1 0.0053153674737013695 0.0097836332643448827 1 1 1 1 1 1 1 1 1 0.016171389093649194 1 1 1 1 1 1 1 1 1 1 1 0.010061742923707873 1 0.0065875615974833462 1 1 1 1 1 1 0.0086339261287283753 1 1 0.011932727975593688 1 1 0.0045467718022155264 1 1 1 1 1 1 0.0090349149057220024 1 1 0.009191378060797905 0.010999592546680037 1 1 1 0.010831517892784274 1 0.0095482550556898801 1 1 0.0093873853076778205 0.0097292937494078864 0.0099968298140144969 1 1 1 1 1 1 1 1 1 1 1 1 1 1 1 1 1 1 1 1 1 1 1 1 1 1 1 1 1 1 1 0.0098550159126704218 1 1 1 0.010441444928758734 1 1 1 0.010706725756055809 1 1 1 1 1 1 1 1 1 0.010924680703365715 1 1 1 1 1 1 1 1 1 1 1 1 0.0096798894437756834 1 1 1 1 1 1 1 1 1 0.0091247144258512335 0.0097023148595177036 1 1 1 1 1 1 1 1 1 1 1 1 1 1 1 0.0093676746108475994 1 1 1 0.0096743198300631959 1 1 1 1 1 1 1 1 0.0096653597513298908 1 1 1 1 1 1 1 1 1 1 0.0090707502627277656 1 1 1 1 1 1 1 1 0.0092030709954639377 0.0046565166860630834 1 1 1 1 1 1 1 0.0042308636685227516 0.0097407625720945558 1 1 0.0087460591704527878 1 1 1 1 1 1 0.0096170554336590906 1 1 1 1 1 1 0.0093551983515007004 1 1 1 1 1 0.0041374391315962804 1 1 1 1 1 1 1 1 1 1 1 1 1 1 1 1 1 1 1 1 1 1 1 1 1 1 1 1 1 1 1 1 1 0.012631166796624895 1 1 1 1 0.016571945247192778 1 1 1 0.0099974395120725427 1 1 1 1 0.013993966069110478 1 1 1 1 1 1 1 1 1 1 1 1 1 1 1 1 1 1 1 1 1 0.0088103330479533948 1 1 1 0.0079926018777225945 1 1 1 1 1 1 1 1 0.016789975629400225 1 1 1 1 1 0.017173872885501047 1 1 0.01120299257593917 0.0077191649973674774 1 0.010062611522718709 1 1 0.007754561043690808 1 1 0.0094525452536338515 1 1 1 0.0086173204722059873 0.0099385733109354588 1 1 1 0.0085522528746443324 1 1 0.011838512364847766 0.0096961033755688306 1 1 1 1 1 0.010097534467638706 1 1 1 1 0.013238616817916984 1 1 1 0.007565973369516552 1 1 1 1 1 1 1 0.0092712825741467376 1 1 1 1 1 1 1 1 1 1 1 1 1 1 1 1 0.01051923242735201 1 1 1 1 1 1 1 1 1 1 1 1 1 1 1 1 1 0.011214248497823778 1 1 1 1 1 1 0.012009920199615776 1 1 0.013868707924904975 1 1 1 1 1 0.013690745097713458 1 1 0.0083385231586528743 1 1 1 1 1 0.010003168998684607 0.010002072582735118 1 1 1 0.0090031102014891812 1 1 1 0.0099989417117599295 1 0.011958073318404868 1 1 0.014036730398764517 0.0085771488360744299 1 1 0.0083748989961722788 0.0097180067918173092 0.0078172087609571644 1 0.0059941993091219906 1 1 0.0097609132897912478 0.013609526832820721 1 1 1 1 0.01165049879466927 1 1 1 1 0.0099746488591697831 1 0.0098249449821746059 1 0.010254776139941463 1 0.0099249794399432923 1 0.0077993328542353326 1 1 1 0.008149535717093705 1 1 1 1 1 0.0097307690845500824 1 1 1 1 1 0.012236202862960869 1 1 0.010069734299540691 1 1 0.016153632166483807 1 1 1 1 0.014246414591863335 1 1 1 1 1 0.011607622420443654 1 1 1 1 1 1 1 1 1 1 1 1 1 1 1 1 1 1 1 1 1 1 1 1 1 1 1 1 1 1 1 1 1 1 1 1 1 1 1 1 1 1 1 1 1 1 1 1 1 1 1 1 1 1 1 1 1 1 1 1 1 1 1 1 1 1 1 1 1 1 1 1 1 1 1 1 1 1 1 1 1 1 1 1 1 1 1 0.009376792507392314 1 1 1 1 1 1 1 1 1 1 1 1 1 1 1 1 1 1 1 1 1 1 0.0069702766821587818 0.0075326011942312846 0.0091542631875983285 0.0099779995145643716 1 1 1 1 0.0099981603218791664 1 0.0069177941542428976 1 0.0074870514540462205 1 1 1 1 0.0067904118799530216 1 1 1 0.0062564963391298347 1 1 1 1 1 1 1 1 1 1 1 1 1 0.0096278300121525502 1 1 1 1 1 1 1 1 1 1 1 1 1 0.0098933128554285019 1 1 0.0096862496908517969 1 1 0.0050147920048115935 1 1 1 1 1 0.0074571883743181615 1 1 0.009814699481448478 1 1 1 1 0.0092647756821369175 1 0.0070257773909583971 1 1 1 0.0098318940752118219 0.007647832851824801 0.0080483111412357009 1 1 1 1 1 1 1 1 0.0085800562177060398 1 1 1 1 1 1 1 1 1 1 1 0.0094152809991339056 1 1 1 1 1 1 1 1 1 1 1 1 0.0062000101825310473 1 1 1 0.0060199270608456206 1 1 1 1 1 1 0.0054883587965737675 1 0.0056024366606787553 1 1 0.0051853790615471636 1 1 1 1 1 1 1 1 1 1 1 1 1 1 1 0.009530984034654532 1 1 0.0073384300388382234 1 1 1 1 1 0.01001400318213307 0.0031924180509725359 1 1 1 1 1 0.0090863440570290808 1 0.0098492777502670655 1 1 1 1 1 1 1 1 1 1 1 1 1 1 1 1 1 1 1 1 1 1 0.011781049674418134 1 1 1 1 1 1 1 0.0094034081056969081 1 1 1 1 1 1 1 0.010638090603171465 1 0.0087603149934349939 1 1 1 1 0.0093569068877380791 1 1 1 1 1 1 1 1 1 0.0095658879374165926 1 1 1 0.0050550391888565683 1 1 1 0.0044028371692485394 1 1 1 1 1 1 1 1 1 1 1 1 1 1 1 1 0.012224546776310314 1 1 1 1 1 1 1 1 1 1 1 0.0097184704079256931 0.010017653909480423 1 1 1 1 1 1 0.009889228767604662 1 1 1 1 1 1 1 1 1 1 1 0.0099574339871236275 1 1 1 1 1 1 1 1 1 1 1 1 1 1 1 1 1 1 1 1 1 1 1 0.010053680077681834 1 1 1 1 1 1 1 1 1 1 1 1 1 1 1 1 1 1 1 1 1 1 1 1 1 1 1 1 1 1 1 1 0.0099391277351627075 1 0.009826326424315808 1 1 1 1 1 0.010010824067887465 1 1 1 1 1 0.012475892631449379 1 0.0099734945442211207 0.011815900967103431 1 0.011423617874347583 1 1 0.010068117166373347 1 1 1 1 0.0099977434439048121 1 1 1 1 1 1 1 1 1 1 1 1 1 1 1 1 1 0.014480943612099135 1 1 1 0.010132362967903812 1 1 0.01190689679205551 1 1 1 1 1 1 0.010008938730605843 1 1 1 1 1 1 1 0.0078240396820334138 1 1 0.013164112478758502 1 0.010024151272396238 0.009819834667350761 1 1 1 1 1 1 1 1 1 0.010017404364497943 1 1 0.01012688378767674 1 1 1 1 1 1 1 1 1 1 1 1 1 1 1 1 1 1 1 1 1 1 1 1 1 1 1 1 1 1 1 1 1 1 1 1 1 1 1 1 1 1 1 1 1 1 1 1 1 1 1 1 1 1 1 1 1 0.0098516475637275298 1 1 1 0.0099204718315046847 1 0.013245737039704273 1 1 1 0.0089911163886891403 1 1 1 1 1 1 0.010156013128896347 1 1 0.013252979650596436 1 1 1 1 1 1 1 1 1 1 1 1 1 1 1 1 1 1 1 1 0.0078560042874843937 0.0086839916629602529 1 1 1 1 1 1 1 1 1 1 0.009718999109564334 1 1 1 0.013500723344789646 1 1 1 0.012048359663990696 1 1 1 0.00975307590082072 1 0.0099672867172757862 1 1 1 1 1 1 1 0.010779814475066313 1 1 1 1 1 1 1 1 1 1 1 1 1 1 1 1 1 1 1 1 1 1 1 1 1 1 1 1 1 1 1 1 1 1 1 1 1 1 1 0.012942114064020346 1 1 1 1 1 1 1 1 1 1 0.013038145639949724 1 1 1 0.0099430509990068566 1 1 1 1 1 1 1 1 1 1 1 1 1 1 1 1 1 1 1 1 1 1 1 1 1 1 1 1 1 1 1 0.010463551916188408 1 1 1 1 0.0077216594896449137 1 1 1 1 1 1 1 1 1 1 1 1 1 1 1 1 0.012425509881612125 1 1 1 1 1 0.010253722190770448 1 1 1 1 1 0.012897409574767378 1 1 1 1 1 1 1 0.010510408270581348 1 1 1 0.012665005865101156 1 1 1 1 1 1 1 1 1 1 1 1 1 1 1 1 1 1 1 1 1 1 1 1 1 1 1 1 1 1 1 1 1 1 1 1 1 1 0.010090492641762077 1 0.011942470176245694 1 1 1 1 1 1 1 1 1 1 1 1 1 1 1 1 1 1 1 1 0.010730968164585492 1 1 1 1 1 1 1 1 1 1 1 1 1 1 1 1 1 1 1 1 1 1 0.016823950279432884 1 0.0097046279779132334 1 1 0.014557604207692847 1 1 1 1 0.015063827056249566 0.008742993323154884 1 1 1 1 1 1 1 0.011629605359454565 1 1 1 1 1 1 1 0.01155438486164765 1 1 1 1 1 0.014253877329689526 1 1 0.014376961453997276 1 0.0078112946142005939 1 1 1 1 1 0.0061753880091848486 1 1 1 1 1 1 0.0089794620588700535 1 1 0.010608245508868235 1 1 1 1 1 1 1 1 1 1 1 0.01563256216075308 1 1 1 0.0032840090608985029 0.00306489120276648 1 0.0099893006012273123 0.012660396360017052 1 1 1 1 1 1 1 1 1 0.01175706538224398 1 0.011073408990894689 1 1 0.0098688315218617827 1 0.010153245077684697 1 1 1 1 1 1 1 1 1 1 1 1 1 1 1 1 1 1 0.010843730853696134 1 0.0089194405102046258 1 1 1 1 0.0099337469298156934 1 1 1 0.0099881695264271587 0.012693711983435673 1 0.0099763760501723649 1 1 1 1 0.010277790502802642 1 1 1 0.00032573065969361418 1 1 1 1 1 0.0044666790099906692 1 1 1 1 1 1 1 1 0.0048119938575638642 1 1 1 1 1 0.0091145076108589632 1 1 1 0.0092809911993882062 1 1 1 0.0097504716295218098 1 1 1 0.0016111738127644057 1 1 1 1 1 1 1 1 1 1 0.0096762512519497166 1 1 1 1 1 1 1 1 1 1 1 1 1 1 0.010039970156585629 1 1 1 1 1 1 1 1 1 1 0.010322903020148147 1 1 1 1 1 1 1 0.009739234093698864 1 1 1 1 1 1 0.010204963489968985 1 1 0.0099951739961582145 1 1 1 0.0095966284617789097 1 1 1 1 1 1 1 1 1 1 1 1 1 1 0.010045720854201778 1 1 1 0.010117939530179162 1 1 1 0.010049673142493205 1 0.0099696826896011163 1 1 1 1 1 1 1 1 1 0.010190760709918296 1 1 1 1 0.01060856156256719 1 1 0.0097150953438772322 1 1 0.010491759533911115 1 1 0.0095400554892179426 1 1 1 0.0096929447129620577 1 1 1 1 1 1 0.0095475584597384637 1 1 1 1 1 1 1 0.0093440131133004627 0.010083223889654278 1 1 1 1 0.0097587991338391258 1 1 1 1 1 1 0.009867685368762898 1 0.0096281491804347322 1 0.012481524550326984 1 1 1 1 1 1 1 1 1 1 0.010395144088362784 1 1 1 0.010437546609155437 1 1 1 1 1 0.01021476809626754 1 1 0.0095360425403269791 1 1 1 1 1 1 1 1 1 1 1 1 1 1 0.0098668982386988825 1 1 1 1 1 1 1 1 1 1 1 0.0093588612142374208 1 1 1 1 1 1 1 1 0.013647542903449402 1 1 1 0.0094814412341784771 1 0.010025705435082315 1 1 1 1 1 1 1 1 1 1 1 1 1 1 1 1 0.0098194370631145729 1 1 1 1 1 0.010119292892028391 1 1 1 1 1 1 0.010266186439131689 1 1 1 1 1 1 1 1 1 1 1 1 1 1 0.010277495331050232 1 1 0.010292526188428398 1 1 1 1 1 1 1 1 1 1 1 1 1 1 1 1 1 1 1 1 1 1 1 1 1 1 1 1 1 1 1 0.0099532188680221158 1 1 1 1 1 1 1 1 1 1 1 1 0.013060596660666408 1 1 1 1 1 1 1 1 1 1 1 1 1 1 0.0098221247768537565 1 1 1 1 1 1 1 1 1 1 0.007751197457120898 1 1 1 1 1 1 1 1 1 0.009091068124322782 1 1 1 0.013753296807623657 1 1 1 1 1 1 1 1 1 1 1 1 1 1 1 1 1 1 1 1 1 1 1 1 1 1 1 1 1 1 0.0093613572273567661 1 1 1 1 1 1 0.0072377909075694389 0.0086924087273214743 1 1 1 1 0.0094669052917513118 1 1 1 1 1 0.011558394123735504 0.010034797282081891 1 0.0099485032054173628 0.010944353913066083 0.0095357804644569388 1 1 1 1 1 1 1 1 0.010603466096906308 1 1 0.009990891205325942 1 1 1 1 1 1 1 1 1 1 1 1 1 1 1 1 1 1 1 1 1 1 1 1 1 1 1 1 1 1 1 1 1 1 1 1 1 1 1 1 1 1 1 1 1 1 1 0.010132957035147848 1 1 1 1 1 0.0099883440802619426 1 0.010126204705598753 1 1 0.010283403263987453 1 1 1 1 1 0.010161507128805553 1 1 1 1 0.010413888669484318 1 1 0.010073692554486256 1 1 1 1 1 1 1 1 1 1 1 1 1 1 1 1 1 1 1 0.010252381540678769 1 1 1 1 1 1 1 1 0.0098289273335534534 1 1 1 1 1 1 1 1 1 1 1 1 0.011183535189474653 1 1 0.012394188604912777 1 1 0.010515722457424888 1 0.0085096444712906526 1 1 1 0.013075899512813035 1 1 1 0.0093741976813475191 1 1 1 1 1 1 1 1 1 1 1 1 1 1 1 0.0095212296718764668 1 1 1 1 1 1 1 1 1 1 1 1 1 1 1 1 1 1 1 0.013249537616938938 1 1 1 1 1 1 1 1 1 1 1 1 1 1 1 0.0074556383829991078 1 1 1 0.006816291605094821 1 1 1 1 1 0.010280498043299606 1 1 1 1 1 1 1 1 0.008265359317792988 1 1 1 1 1 1 0.010851385845710507 1 1 1 1 1 1 1 1 1 0.012336029410573551 1 0.013474950854633131 1 1 1 1 0.014429960652350294 1 1 1 1 1 0.010583965516128731 1 1 1 1 1 1 0.010054782538262391 1 1 1 1 1 1 1 1 1 1 1 1 0.010221906314675438 1 1 1 1 1 1 1 1 1 1 1 1 1 0.010757335632518596 1 1 1 1 1 1 1 1 1 1 1 1 1 1 1 1 1 1 1 1 1 1 1 1 0.010467370756764221 1 1 0.0088162610860714544 1 1 1 1 1 1 0.0095881971271044326 1 1 1 1 1 1 1 0.0099871672312273445 1 1 1 1 1 1 1 1 1 1 1 1 1 1 1 1 1 1 1 1 1 1 1 0.010265280827297066 1 1 1 1 1 1 1 1 1 1 1 1 1 1 1 1 1 1 1 1 1 1 1 1 1 1 1 1 1 1 1 1 1 1 1 1 1 0.010540638135425809 1 1 1 1 0.0096079833041613858 1 1 0.011493421468480551 1 1 0.0089872823997216404 1 1 1 0.011044465353756874 1 0.010952783333054746 1 1 1 1 1 1 1 1 1 1 1 1 1 1 1 1 1 1 1 1 1 1 1 1 1 1 1 1 1 1 1 1 1 1 1 1 1 1 1 1 1 0.011748585537230955 1 1 1 1 0.010615461176274326 1 1 1 1 1 0.010011901837498833 1 1 1 1 1 1 0.010038785392741443 1 0.0090744769737743126 0.0088593003277571934 1 1 1 1 1 0.0099589870979019633 1 0.0099662195429474423 1 0.0099684610207710234 1 1 1 1 1 1 1 1 1 1 0.010182241687536418 1 1 0.010467994828026999 1 1 1 1 1 1 1 1 1 1 1 0.010197121875145983 1 1 1 0.010594678193211391 1 0.013401174997960862 1 1 1 1 1 0.010987699240020077 1 1 1 1 1 1 1 1 1 1 1 1 0.012324092915354424 1 1 1 1 1 1 1 1 0.015775913542049047 1 1 1 0.01077398557486299 1 1 0.009931720164039412 1 1 1 1 1 1 1 1 1 1 0.0094642999572102839 1 1 1 1 1 1 1 1 0.010348495107564455 1 1 1 1 1 1 1 1 1 1 1 1 1 1 1 1 1 1 0.0083211092924333156 1 0.009363292894735557 1 1 1 1 0.0097913487119520304 1 1 1 1 0.0076286855687037842 1 1 1 1 1 1 1 1 1 1 1 1 1 1 1 1 1 0.0071214684897425318 1 0.0093292676757264527 1 1 1 0.010005169216406817 1 1 1 0.011131229880845467 1 1 0.010436478410649087 1 1 0.0088325906714471769 0.0067121944862140008 1 1 1 1 1 1 1 0.011413490032544452 1 1 0.010070171338193235 1 1 0.013054202198675187 1 1 1 1 1 1 0.0090228971262017819 1 1 1 1 1 1 0.0095802100627977189 1 1 1 1 1 1 1 1 1 1 1 1 0.0072519458602414936 1 1 1 1 1 1 1 1 1 1 1 1 1 1 0.0093736521747437764 1 1 1 0.0059023225949800841 1 1 1 1 1 0.011598843689790254 1 0.012450290261095202 1 0.0099813157547677719 1 1 1 0.015048354206966702 1 1 1 0.018090718098408384 1 0.010771747315981375 1 1 1 1 1 1 1 1 1 1 1 1 1 1 1 1 1 1 1 1 1 1 1 1 1 1 1 1 1 1 1 1 1 1 1 1 1 1 0.016320370009420271 1 1 0.010188149821621839 1 1 1 0.0098796037888313707 1 1 1 0.006310477430990594 0.009981920072598037 1 1 1 1 1 0.0067071117977475815 1 0.01083564851014856 1 1 1 1 1 1 0.010456095512396455 1 1 0.0086429868130275308 1 1 1 1 1 0.0074641847130351296 1 1 1 1 1 1 1 1 1 1 1 1 1 1 1 1 1 1 1 1 1 1 1 1 0.010264147825268573 1 1 1 1 1 1 1 1 1 1 1 1 1 0.01056059662959497 1 1 1 1 1 0.0096530680731376512 1 1 1 1 1 0.0097626810618489969 1 1 1 1 1 1 1 1 1 0.011934424302367543 1 1 1 0.010414468424471716 1 0.010115257661935063 1 1 1 1 0.010229483896119041 1 1 0.010611198787514431 1 1 1 1 1 1 1 1 0.009243029222859897 1 1 1 1 1 1 1 1 1 0.0080588894194392018 1 1 0.011935905156986594 1 0.011175506117654601 0.0090585466650230234 1 1 1 1 1 1 1 1 0.012746704022005593 0.010143082371189787 1 1 1 1 1 1 1 1 1 1 1 1 1 1 0.011465328285260205 1 1 1 1 1 1 0.009991908269867962 0.0099955394238779773 1 0.011113113813946283 0.0091198963168199181 1 1 1 1 1 0.009042596759926096 0.0099927961219199515 0.0090790349333123178 1 0.011443872368580679 1 1 1 1 1 1 1 1 1 0.0077040856563636659 1 1 1 1 1 1 0.013836285016069061 1 1 1 1 1 1 1 1 1 1 1 1 1 1 1 1 1 1 0.0098920806731668722 1 1 1 1 1 0.0099862351720767326 1 0.0083243552049580439 1 1 1 1 1 1 1 0.011367773974826561 1 1 1 0.0088002474815992004 1 1 1 1 1 1 0.011155034577130955 1 1 1 1 1 0.0097771685551028796 1 1 1 1 1 1 1 0.010971666402072262 1 1 1 1 1 1 1 1 1 1 1 0.010281457230253041 1 0.010659146947513121 1 0.010725233584949303 1 0.010864905729490296 1 1 1 1 0.0093559127968786023 1 0.010906697279227854 1 1 1 1 1 1 0.010696325750761257 1 0.010050994804212728 1 1 1 1 1 1 1 1 1 1 1 1 1 1 1 1 1 1 1 1 0.010178384012135845 1 1 1 1 0.010524969063244339 0.01078230725090056 1 1 1 0.010300979453329501 1 1 1 1 0.01044002782076122 1 1 1 1 1 1 0.0068289429363801984 1 1 1 1 1 1 1 1 1 1 0.0064834369114576806 0.016126925584755931 1 0.0072318566061788363 1 1 1 1 1 1 1 1 1 1 1 1 0.0066327624461532553 1 1 1 1 1 1 1 1 1 1 1 1 0.0092643670450479037 1 1 1 1 1 1 1 1 1 1 1 0.013664309468397659 1 1 1 1 1 1 1 0.010381264672768229 1 1 1 1 1 1 1 1 0.0077893874079790499 1 1 1 1 0.0067880445317016584 1 1 1 1 1 1 1 1 1 1 1 1 1 0.011131088162434978 1 1 0.0090948723185736886 1 1 0.0084298563245013471 1 1 1 1 1 1 1 0.010226101711976337 1 1 1 0.010500602636764781 1 1 1 1 0.0098484832612199778 1 1 1 1 1 1 1 1 1 1 1 1 1 1 1 1 1 1 1 1 1 1 1 1 1 0.0097028134336641283 1 1 1 1 0.0090561154718622507 1 1 1 1 1 1 1 1 1 1 1 1 1 1 1 1 1 1 0.010097729532123303 1 0.010183607965568355 1 1 1 1 1 1 0.0099830278845113637 1 0.01008587843344505 1 0.009265508585623989 1 1 1 1 1 1 1 1 0.0098443794974084134 1 1 1 1 1 1 1 1 1 1 1 1 1 1 1 1 1 0.011592412199671664 1 1 1 1 1 1 1 1 1 1 1 1 1 1 1 1 1 1 1 1 1 1 1 1 1 1 1 1 1 1 1 1 1 1 1 1 1 1 1 1 1 1 1 1 1 1 1 1 1 1 1 1 1 1 1 1 1 1 1 1 1 1 1 1 1 1 1 0.008686204969940263 1 1 1 1 1 1 1 1 1 0.0085637888668740197 1 1 1 0.0088199426570258008 1 1 1 1 1 1 1 1 1 1 1 1 1 1 1 1 1 1 1 1 1 1 0.010349619383031531 1 1 1 0.010760026355166485 1 1 1 1 1 1 1 1 1 1 1 1 1 1 1 1 1 1 1 1 1 0.0092292402919884244 1 1 1 1 1 1 1 1 1 1 1 1 1 1 1 1 1 1 1 1 1 1 1 1 1 1 1 1 1 1 1 1 1 1 1 1 1 1 1 0.01089538899005742 1 1 1 1 1 0.0099655060299737794 1 1 0.013287874982337026 1 1 1 1 1 1 1 1 1 1 1 1 1 1 1 0.0086601827537953896 1 1 1 1 0.010576638355457836 1 1 0.0099720461812717667 1 1 1 1 1 1 1 1 1 1 1 1 1 1 0.01067079530929603 1 1 0.011583826134712811 1 1 1 1 1 1 1 1 1 1 1 1 0.01173743106524686 1 1 1 0.011231369181163565 1 0.011473115793713391 1 1 1 1 1 1 1 1 1 1 1 1 1 1 1 0.0096338662762327359 1 0.0093395304071378655 1 1 1 1 1 1 1 1 0.0098340386129471182 1 1 1 1 1 1 1 1 1 1 1 1 1 1 1 1 1 1 1 1 1 1 1 1 0.011082366835971224 1 1 1 0.010500586715192665 1 1 1 1 1 1 1 1 1 1 1 1 1 1 1 1 1 1 0.0097098139541673244 1 1 1 1 0.0091544261178057064 1 1 1 0.010687474089139882 1 0.0084964054171092502 1 0.011649089901533977 1 1 1 0.0089327122644485071 1 1 1 0.011172170259625698 1 1 1 1 1 1 1 1 1 1 1 1 1 0.010429416739134646 1 1 1 1 0.0095840960355177435 1 1 1 1 1 1 1 1 1 1 1 1 1 1 1 1 1 1 1 1 1 1 1 1 1 1 1 0.006792627202893543 1 1 1 1 0.0076733100459952033 1 1 1 1 1 1 1 1 1 1 1 0.008091771669094798 1 1 1 1 0.0065398877860477194 1 1 1 1 1 1 0.0049158707099081732 1 1 1 1 0.0070324656585246548 0.011965145820464072 1 1 1 0.018074692031358225 1 1 0.015890684297442878 1 1 1 1 1 1 0.009728631469569933 1 1 1 1 1 1 0.0093866961265997948 0.0094221032620712807 1 1 1 1 1 1 0.0096580646570298568 1 1 1 1 1 1 1 1 1 1 1 1 0.01134892974321413 1 1 1 1 1 1 1 1 1 1 1 1 1 1 1 0.010202845474638149 1 1 1 1 1 0.01031559007945467 1 0.010153765164000895 1 1 1 1 1 1 1 1 1 1 1 1 0.013736751303061446 1 1 1 1 1 1 1 1 1 1 1 1 1 1 1 1 0.009007486719430368 1 1 1 1 1 1 1 1 1 1 1 1 0.0099659501139668337 1 1 0.010158319398316533 1 1 1 1 1 1 1 0.0097224151171349839 1 0.010395601729394485 1 1 1 1 1 1 1 1 1 1 1 1 1 0.0095622937572983346 1 1 1 1 1 1 1 1 1 1 1 1 1 1 1 1 1 0.0099171305575049395 1 1 1 1 1 1 0.0099608031629259321 1 1 1 1 1 1 1 1 1 1 1 1 1 1 1 1 1 1 1 1 1 0.010433748771665131 1 1 1 0.010184387496349338 1 1 1 1 1 1 1 1 1 1 0.0099731480093794306 1 0.0097882593912343944 0.0099730550078507337 1 1 1 1 0.010227849494798786 1 1 1 1 1 0.0104593898429379 1 0.010013917243027887 1 1 1 1 1 1 0.0099892118690586267 0.010884774939968197 1 1 1 0.010564672631560787 1 1 1 1 0.011305064373858415 1 1 1 1 1 1 0.010305009067781919 1 1 1 0.010110696683053651 1 1 1 1 1 0.0091499786991988616 1 1 1 1 1 1 1 1 0.010098238376025134 1 1 1 1 1 1 1 0.009790798329526066 1 1 1 1 1 1 0.010417050162508181 1 1 1 0.0088756698306103401 1 0.0084569283776085233 1 1 1 1 0.0073394295195955642 1 1 1 1 1 1 0.010708336363825868 1 1 1 1 0.0082107124252078483 1 1 1 1 0.012194103138066615 1 0.011113892881176105 1 1 0.0082763861786676086 1 1 0.0092585548915008562 1 0.00818793647711164 1 1 1 1 1 1 1 1 1 1 1 1 1 1 1 1 1 1 1 1 1 1 1 0.010357261011634306 1 1 1 1 1 0.010551573396362569 1 1 1 1 1 1 1 0.011363028932209559 1 1 1 1 0.010622637189911938 1 1 1 1 1 1 1 1 1 1 1 1 1 1 1 1 1 1 1 1 1 1 1 1 1 1 1 1 1 0.01213333523670624 1 1 1 1 1 0.011147825097196492 1 1 1 1 1 1 1 1 1 1 1 1 1 0.01027135418915846 1 1 1 1 0.010017478192998081 1 1 1 1 1 0.011827346882488097 1 1 1 0.012320636075525377 1 1 1 1 1 1 0.011545565357672071 1 1 1 1 0.0089819210689842579 1 1 1 1 1 1 1 1 1 1 0.010657887399903856 1 1 1 1 1 1 1 0.010019857111365191 1 1 1 1 1 1 1 1 1 1 1 1 0.0098534270549354326 1 1 1 0.0091437070118721743 1 1 1 0.010614206279953735 1 1 1 1 0.0096409660675165227 1 1 1 1 1 1 1 1 1 1 1 0.010217521348673118 1 0.0092855757907117989 1 1 1 0.0087341869819508103 1 0.010101331268255243 1 1 1 1 1 1 1 1 1 1 1 1 0.0080944385376467923 1 1 0.012694897718096534 1 1 1 1 1 1 1 1 1 0.0099634969102122706 1 1 1 1 1 1 1 1 1 0.010990046150544892 1 1 1 1 1 1 1 1 1 1 1 1 1 1 1 1 1 1 1 1 1 1 1 1 1 1 1 1 1 1 1 1 1 1 1 1 1 1 1 1 1 1 1 1 1 1 0.0088584528613897869 1 1 1 1 1 1 1 1 1 1 1 1 1 1 1 1 1 1 1 1 1 1 0.0069708788232094917 0.010065433339332507 1 1 1 1 1 1 1 1 1 0.0096850850269025752 1 1 1 1 1 1 1 1 1 1 1 1 1 1 1 1 1 1 1 1 1 1 1 1 1 1 1 1 1 1 1 1 1 1 1 1 1 1 1 1 1 1 1 1 1 1 1 1 1 1 1 1 1 1 1 1 1 1 1 1 1 1 1 1 1 1 1 1 1 1 1 1 1 1 1 1 1 1 1 1 1 1 1 1 1 1 1 1 1 0.012680395924799697 1 1 1 1 1 1 1 1 1 1 1 1 1 1 0.010607780875706191 1 1 1 1 0.017256091827757218 1 0.011273798655025627 1 1 1 1 1 1 1 1 0.013439538740582813 1 1 1 1 0.013464364992267837 1 0.0096080873889398 0.011376475591622812 1 1 1 1 1 1 1 1 1 1 1 1 1 1 1 1 1 0.012882447809475443 1 1 1 1 1 0.011209981959335331 1 1 1 1 1 1 1 1 1 0.010589440264123661 1 0.0098546610031562849 1 1 1 1 1 1 1 1 1 1 1 1 1 1 1 1 1 1 1 1 0.0071097816290727877 1 0.010751407881941823 1 1 1 1 1 1 1 1 0.010082444289971983 1 1 1 1 1 1 1 1 1 1 1 0.01330304352996144 1 0.01207896186165686 1 1 1 1 1 1 1 1 1 1 1 1 0.014845878465262691 1 1 1 1 0.010760011208288804 1 1 1 0.0093343351457472919 1 1 0.0099842447814626235 1 1 0.013078684250088304 1 1 1 0.015609764751280317 1 1 0.0096242001587922114 1 1 1 1 1 1 1 1 1 1 1 1 1 1 1 1 1 1 1 1 0.01307400357246883 1 0.010489028011366947 1 1 0.0097875234466489082 1 1 1 1 0.013898348436856483 1 1 1 1 1 1 1 1 1 1 1 0.011206384854840004 1 1 1 1 1 1 1 1 1 1 1 1 1 1 0.009101558116046838 1 1 1 1 1 1 1 1 1 1 1 1 1 1 1 1 1 1 1 1 1 1 1 1 1 1 1 1 1 1 1 1 1 1 0.010609059132365248 1 1 1 1 1 1 0.0095017272625958701 1 1 1 1 1 1 0.010015538865381906 1 1 0.0098918104667152576 1 0.01200603057321498 1 1 1 1 1 1 1 1 1 1 1 1 1 0.01171936689602567 1 1 1 1 1 1 1 1 1 1 1 1 1 0.0098716579069008763 0.0099923397936702556 1 1 1 1 1 1 1 1 1 1 1 1 1 0.010745747260447627 1 1 1 1 1 1 1 0.0096407171784430555 1 1 1 1 1 1 1 1 0.01177009845135147 1 1 0.0078263699550975632 1 1 1 0.010462852481469408 0.0077844248309235625 1 1 1 1 1 1 1 1 1 0.0088324640495819791 1 1 0.010071504429326349 1 1 1 1 1 1 1 1 1 1 1 1 1 1 1 1 1 1 0.010085935327389944 1 1 1 1 1 1 1 1 1 0.010521777066150709 1 1 1 1 1 0.01010887262982775 1 1 0.010179962687461786 1 1 1 1 1 1 1 1 1 1 1 1 1 1 1 1 1 1 1 1 1 1 1 1 0.0097464452390249295 1 1 1 1 1 1 1 1 0.011801214440497058 1 1 0.0099030159844361067 1 1 1 0.011319799105169667 1 1 1 1 1 1 0.0090381137979979771 1 1 1 1 1 1 1 1 0.0099827135572540162 1 1 1 1 0.0040409299839089018 1 0.007924121022186429 1 1 1 1 0.0086361555495079768 1 1 0.007410116790819897 1 1 1 1 1 1 1 1 0.0082069203793456759 1 1 1 1 1 1 1 1 1 1 1 0.0087267783839757446 1 1 1 1 1 1 1 1 1 0.0099359324573509104 1 1 1 1 1 1 0.010018376747322897 1 1 1 1 1 0.0095146450484709048 1 1 1 1 1 1 1 1 1 1 1 1 1 1 1 0.0099986230672577461 1 1 1 1 1 1 1 1 1 1 0.0025820390385319844 0.016463004680647538 1 1 1 1 1 1 0.0015219813526790105 1 1 1 1 1 1 1 0.01840832694281885 1 1 1 1 1 1 1 1 1 1 1 1 1 1 1 0.01979201069974295 1 1 0.010410294048404729 1 1 1 1 1 1 0.0099622444133300025 1 1 1 1 1 1 1 1 1 1 1 1 0.0099181275627031069 1 1 1 1 1 0.00085588943987668139 1 1 0.0069608770209545357 1 1 1 0.0057568450536005927 0.01049281547955818 1 1 1 1 1 1 1 1 1 1 1 1 1 1 1 1 1 1 0.009421898040945266 1 1 1 1 1 1 1 1 1 1 1 1 1 1 1 1 1 1 1 1 1 1 1 1 1 1 1 1 1 1 1 1 1 1 1 1 1 1 1 1 1 1 1 1 1 1 1 1 1 1 1 1 1 1 1 1 1 1 1 1 1 1 1 1 1 1 1 1 1 1 1 1 1 1 1 1 1 1 1 0.0065850101031981554 1 1 0.0085660371390723147 1 1 1 0.010057741022821608 1 1 1 1 1 1 1 1 1 1 1 1 1 1 0.01018453627642942 1 1 1 1 1 0.010301033155073332 1 0.0085373118862979974 1 1 1 1 1 1 1 1 1 1 1 1 1 1 1 1 1 1 1 1 1 1 1 1 1 1 1 1 1 1 1 1 1 1 1 1 1 1 1 1 1 1 1 1 1 1 1 1 1 1 1 1 1 1 1 0.010588432921922058 1 1 1 1 1 1 1 1 1 1 1 1 1 1 1 1 1 1 1 1 1 0.011472522439989048 1 1 1 1 1 1 1 1 1 1 1 1 1 1 1 1 1 1 1 1 1 1 1 1 1 1 1 1 1 1 1 1 1 1 1 1 1 1 0.0095045246345566749 1 1 1 1 1 1 1 1 1 1 1 1 1 0.0090085610027364291 1 1 1.0408340855860843e-17 1 1 1 1 1 0.0094581197315310415 1 0.0099412809053892326 1 0.010355332553797784 1 1 0.0099881817315597421 1 1 0.008123653071315691 1 1 1 1 1 1 1 1 1 1 1 1 1 1 1 1 1 1 1 0.0091288104426573043 1 1 1 0.0082033285798181008 1 1 1 0.0099936198798422134 0.0092057812103953831 1 1 1 0.010595227990429081 0.0041189442085517161 1 0.0084944117855502797 1 1 1 1 1 1 1 1 1 1 1 1 1 1 1 1 1 0.0098967990286010221 0.0097293548097619892 1 1 1 1 1 1 1 1 1 5.2041704279304213e-18 1 1 1 1 1 1 1 1 1 1 1 1 1 1 1 0.01016962452348793 1 1 1 1 1 1 1 1 1 1 1 1 1 1 1 1 1 1 1 1 1 1 1 1 0.01094092231386015 0.010061997696512455 1 1 1 0.009994065929580305 1 1 1 1 1 1 1 1 1 1 1 1 1 1 1 0.0059199804294366495 1 1 1 1 1 1 1 1 1 1 1 1 1 1 1 1 1 1 1 1 1 1 1 1 1 1 1 1 1 1 1 1 1 1 1 1 1 1 1 1 1 1 1 1 1 0.010625377302510166 1 1 1 1 1 1 1 1 1 1 1 1 1 1 1 1 1 1 1 1 1 1 1 1 1 1 1 1 1 1 1 1 1 1 1 1 1 1 1 1 1 1 1 1 1 1 1 1 1 1 1 1 1 1 1 1 1 1 1 1 0.0047000398760766388 1 1 1 0.0049980345687752571 1 1 1 1 1 1 1 1 1 1 1 1 1 1 1 1 1 1 1 0.0085431562998197937 1 0.0099415841951364728 1 1 1 1 1 1 1 1 0.011114674686226123 1 0.0045323322557483036 1 1 0.010416359663816918 1 1 1 1 1 1 0.0089583560017173196 1 0.0094538313671606467 1 1 1 1 1 1 1 1 1 1 1 1 1 1 0.0092160135178391816 1 1 1 1 1 1 1 1 1 1 1 1 1 1 1 1 1 0.0097896326634543725 0.010114657187584775 1 1 1 1 1 1 1 1 1 1 1 1 1 1 1 1 1 1 1 1 1 1 1 1 1 1 1 1 1 1 1 1 1 1 1 1 1 1 1 1 1 1 1 0.010284858744259702 1 1 1 1 0.010170201556674927 1 1 1 1 1 1 1 1 1 1 1 0.0025952425126489565 1 0.0095724609615248854 1 1 1 1 1 0.0092596855083572401 1 1 1 1 1 1 0.0072922156226697364 1 1 1 1 1 1 1 1 1 1 0.0097037266149282587 1 1 1 1 1 1 1 1 1 1 1 1 1 1 1 1 1 1 1 1 1 1 1 1 1 1 1 1 1 1 1 1 1 1 1 1 1 1 1 1 1 0.010316371976363089 1 1 1 1 1 1 1 1 1 1 1 1 1 1 1 1 1 1 1 1 1 1 1 1 1 1 1 1 1 1 1 1 1 1 1 1 1 1 1 1 1 1 0.010183881706218355 1 1 1 1 1 1 1 1 1 1 1 0.01054152113341655 1 1 1 1 0.010695067916115519 1 1 0.0098097848039533884 1 1 1 1 1 1 1 1 1 0.0095164227432697583 0.0097036938217849172 1 1 1 1 1 1 1 1 1 1 1 1 1 1 1 0.0098939090178315221 1 1 1 1 1 1 1 1 1 1 1 1 1 1 1 1 1 1 1 1 1 1 1 1 1 1 1 1 1 1 1 1 1 1 1 1 1 1 1 1 1 1 1 1 1 1 1 1 1 1 1 1 1 1 1 1 1 1 1 1 1 1 1 1 1 1 1 1 1 1 1 1 1 1 1 1 1 1 1 1 1 1 1 1 1 1 1 1 1 0.010337428488917326 1 1 1 1 1 1 1 1 1 1 1 0.0087891395101458367 1 1 1 1 1 1 0.0067542906918072777 0.010714237499254584 1 1 1 1 1 1 0.010258146784272759 1 1 1 1 1 1 1 1 1 1 1 1 1 1 1 1 1 1 1 1 1 1 1 1 1 1 1 1 1 0.0098955113935397434 1 1 1 1 1 0.010219931746096844 1 1 1 1 1 1 1 1 1 1 1 1 1 1 1 1 1 1 1 0.010375842140704576 1 1 1 0.010151752245138746 1 1 1 1 1 1 1 0.01002108338304563 1 1 1 1 0.0094421694475153081 1 1 1 1 1 1 1 1 0.0053159710682180693 1 1 1 1 1 0.01021006111509651 1 1 0.0074317276552653393 1 1 1 1 1 0.0077966688952945829 0.0099499761519119337 1 1 1 0.0099369939805771853 1 1 1 1 1 0.0059754919032880219 1 1 0.010718544769728004 1 1 1 1 1 0.010274151476641855 1 1 0.010652127325515712 1 1 1 0.0097812347870255036 1 0.01014922082373707 0.01124345030647724 1 1 1 1 1 1 1 1 0.0096940484879464404 1 0.013390113477575641 1 1 1 0.0090505194111733175 1 1 1 1 1 1 1 1 1 1 1 1 1 1 1 1 1 1 1 1 1 1 0.0098777917708008072 0.0096247761598069921 1 1 1 0.0045061366108569544 1 1 1 1 1 0.005068067064313805 0.010000781071778478 0.008897771242723505 1 1 1 0.014966578654007119 1 0.0095063086693428136 1 1 1 1 1 1 0.014828406180748537 0.013803005006424108 1 1 1 1 1 1 1 1 1 1 1 1 1 1 1 0.012702359086918476 1 1 1 1 1 1 1 0.011643891507497544 1 1 1 1 1 1 1 1 1 1 1 1 1 1 1 1 1 1 1 1 1 1 1 1 1 0.0098339243334141929 1 1 1 1 1 0.013991902124083726 1 0.0094876025457969037 1 1 1 1 0.010031556821459944 1 1 1 1 1 1 1 1 0.010692608183501566 0.010240888798864346 1 1 1 0.0012794059163991969 1 1 1 1 0.0099913672947232607 1 1 1 1 1 1 0.014016151696785053 1 1 1 1 1 1 1 0.014628554548851196 1 1 2.1684043449710089e-18 1 3.4694469519536142e-18 1 1 1 0.010347766714328018 1 1 1 1 1 1 1 1 1 1 1 0.010017562185408562 1 1 1 1 1 1 1 1 1 1 1 3.903127820947816e-18 1 1 1 1 1 1 1 1 1 1 1 0.010089800812557951 1 1 0.00011921791972335262 1 1 1 1 1 1 1 1 8.0952816168151746e-05 1 1 1 1 1 1 1 1 1 1 1 1 1 1 1 1 1 1 1 1 1 1 1 1 1 1 1 1 1 1 1 1 1 1 1 1 1 1 1 1 1 1 1 1 0.01027048012231515 1 1 1 1 0.010070799817066659 1 1 1 1 1 1 1 1 1 1 1 1 1 1 1 0.009283438948052225 1 1 1 1 1 1 1 1 1 1 1 1 1 1 1 1 1 1 1 1 1 1 1 1 1 1 1 1 0.010530422586646753 1 1 1 1 1 0.0092027668254573286 1 1 1 1 1 1 1 1 1 1 1 1 1 1 1 1 1 0.0092338650249609733 0.010391376052487739 1 1 1 1 1 0.0097074358377607813 1 0.0099544854263723948 1 1 1 1 1 1 0.010526328524535085 1 1 1 1 1 0.010220726941950069 1 1 1 1 1 1 1 1 1 1 1 0.011441013034432521 1 1 0.0080523994782115468 1 0.010356124568464808 1 1 1 1 1 1 1 1 1 1 1 0.0098860215101857548 1 1 1 1 1 1 1 1 1 1 1 1 1 1 1 1 0.010505326493362492 1 1 1 1 1 1 1 1 0.010003716398032665 1 1 1 0.010001778614240965 0.010717489622420398 1 1 1 1 1 1 1 1 1 0.009152519474271802 1 0.011412076473173324 1 1 1 1 0.010395425311562574 0.0096076006743757957 1 1 1 0.0088838024861427074 0.010855406675889183 1 1 1 1 1 1 1 1 1 1 1 1 1 1 1 0.01069264884482727 1 1 0.0097712711958311601 1 0.010009202198279686 1 1 1 1 1 1 0.010336456557803094 1 1 1 0.0098758743047180735 1 1 1 1 1 1 1 1 1 1 1 1 1 1 1 1 1 1 1 1 1 1 1 1 0.0093458975450077877 1 1 0.0087025021750874385 1 1 0.0077985108026908233 1 1 0.0089915394643695808 1 1 1 1 1 1 1 1 0.01255397093201667 1 1 0.012336904399897947 1 1 0.010072423477644392 1 1 1 1 1 1 1 1 1 1 1 1 1 1 0.012139376253565946 1 1 0.012349019882832454 1 1 1 1 0.010200442359733592 1 1 0.01018306502482003 1 1 1 0.012132789821725925 1 1 1 1 1 1 1 1 1 1 0.010037176042213592 1 1 1 1 1 0.010019613856805035 1 1 1 1 1 1 1 1 1 1 1 1 1 1 1 1 1 0.011242808782806809 1 1 0.012237523658767057 1 1 1 0.011343922766446626 1 0.010410567659070979 1 1 1 1 1 1 1 1 1 1 0.0091867008952107344 1 1 1 1 0.0088218101939177961 0.0093547551941378787 1 1 1 1 1 1 1 1 1 1 1 1 1 0.0097178334653736601 1 1 1 1 1 1 1 1 1 0.010503421268313851 1 0.0095056898196008745 1 1 1 1 1 1 1 1 1 1 1 1 1 1 1 1 0.0097382783892555978 1 1 1 1 0.0097391701405996241 1 1 1 1 1 1 0.0075671702846710496 1 1 1 1 1 1 1 1 0.011560081552276539 1 1 1 1 1 1 1 1 0.010475481710350025 1 1 1 1 1 0.0097878563542272076 1 1 1 1 1 1 1 0.011311107623075198 1 1 1 1 1 1 0.011691047884501236 1 1 1 0.011438543104401303 1 1 1 1 1 1 1 1 1 1 1 0.0098746507088950976 1 1 1 1 1 1 0.010054274996595447 1 1 1 1 1 0.0088059881310140441 1 1 1 0.010429688459159342 1 1 1 1 1 1 1 0.012968303515848064 1 1 1 1 1 1 1 1 0.010004850897297286 1 1 1 0.0068791749878560557 1 0.012774656069534734 0.0081505886305171388 1 1 1 0.0079746740392406361 1 1 0.00762103646513956 1 1 1 1 1 1 0.0086462762316137382 1 1 1 1 1 1 0.010481130556324535 1 1 0.011540874617055059 1 1 1 1 1 1 1 1 1 1 1 1 1 0.0095821496412481534 1 1 1 1 1 1 1 1 1 1 1 1 1 0.0098969002618099159 1 1 1 1 1 0.010092602781361669 1 1 1 0.0073083375876226118 1 1 1 0.0091494255172051772 1 0.008457779920862829 1 1 1 1 1 1 0.0077690269899333541 1 1 1 1 1 0.010871615287854035 0.010285940062201045 1 1 1 1 1 0.010723460224980325 1 1 1 0.011554136659079055 1 1 1 1 1 1 1 1 1 0.0098055807367475045 1 1 0.011487963219831044 1 1 1 1 1 1 1 0.0069814879261027758 1 1 1 1 1 1 1 1 1 1 1 1 1 1 1 0.0096899989406584817 1 1 1 1 0.0090832068734915845 1 1 1 1 1 0.010012183202134489 1 1 0.0097504542326358728 0.0090813317661710136 1 0.0083757018429336059 1 1 1 1 1 1 1 1 1 1 1 1 1 0.0093495580456667005 1 1 1 1 0.0099332954079655155 1 0.0097910003806374948 1 1 1 1 1 0.010591094769847875 1 1 1 1 1 1 0.010954248069797326 1 1 1 1 1 1 1 1 0.0099570635851145839 1 0.010207445826650221 1 1 1 1 0.0099854176930955982 1 1 1 1 1 1 1 1 1 1 1 1 1 1 1 1 1 1 1 1 1 1 0.0094833590629077001 1 1 0.0098617182005252373 1 1 0.009658578430439593 1 1 0.006603750283427876 1 1 1 1 1 1 1 1 1 0.0099664681846966374 1 1 0.011492618921168863 1 0.011400393843745417 1 1 1 1 1 1 1 1 0.010898201541431788 1 1 1 1 1 1 1 1 1 1 1 1 1 1 1 1 1 1 1 0.0099652560711808967 1 1 1 0.010171229836097861 1 1 1 1 1 1 1 1 1 1 1 1 1 1 1 1 1 1 1 1 1 1 1 1 1 1 1 1 1 1 1 1 1 1 1 1 0.010130268209382714 1 1 1 1 1 1 0.0089390365192604099 1 1 1 1 0.0073927903210725798 1 1 1 1 1 1 1 1 1 1 1 1 0.0099700452171170746 1 0.010426808691000548 1 1 0.0076373126112243396 1 1 0.0090923975527534198 1 1 1 1 1 1 1 1 1 1 1 1 1 1 1 1 1 1 0.0098110693274022776 1 1 1 1 0.010016256457675173 1 0.0094622329444953544 1 1 1 1 1 1 0.014070227107835814 1 0.0058032533253876972 0.010005091341933855 0.011927163191984913 1 1 1 1 1 1 1 1 1 0.0092060783916548868 1 1 1 0.013053282385759419 1 1 1 1 1 1 1 1 1 0.012690914800333047 1 1 1 0.012593954729256793 1 1 1 1 1 1 1 1 1 1 1 1 1 1 1 1 1 1 1 1 1 0.0097196458954308205 1 1 1 1 1 1 1 1 1 1 1 1 0.012106722650583317 1 1 0.0096704378368615059 1 1 1 1 1 1 1 1 1 1 0.009759903621036365 1 0.010244965494755592 1 1 1 0.010828824217889173 1 0.010583485396699567 1 1 1 0.010794859900257549 1 1 1 1 1 1 1 1 1 1 1 1 0.010272047302805955 1 1 1 1 1 1 1 1 1 1 1 1 1 1 1 1 1 0.0094264900323608302 1 1 1 1 1 0.0082880290583536211 1 1 1 1 1 1 1 1 1 1 1 1 1 1 1 1 1 1 1 1 1 0.010253569971088264 1 1 1 1 1 1 0.010303712933779413 1 1 1 1 1 1 1 1 1 1 1 1 1 1 1 1 1 1 1 0.010498836760256034 1 1 1 1 1 1 1 1 0.010240042603131636 1 1 1 1 1 1 1 1 0.010195123826476618 1 1 1 1 1 1 1 1 0.0097311587539481159 1 1 1 1 0.0092646340787367783 1 1 1 1 1 1 1 1 0.0093736027703683993 1 1 1 0.0089070780951570581 1 1 1 1 1 1 1 1 1 1 1 1 1 1 1 1 1 1 1 0.010344013923397807 1 1 1 0.0099419414097391551 0.0082776477834110851 1 1 1 0.007533022449224493 1 1 1 1 1 1 1 0.0090186002360445605 1 1 1 1 1 1 1 1 1 1 1 1 1 1 1 1 1 1 1 1 1 1 1 1 1 1 1 0.010104740290559501 1 0.010349929209667718 1 0.0075642306634233492 1 1 1 0.0072533729127756659 1 1 0.0076951377519600753 1 1 1 1 0.0091795431882791979 1 1 1 1 1 1 1 1 1 1 1 0.0087496301472320577 1 1 1 0.0087595020910230057 1 1 1 1 1 1 0.0095031933247044214 1 1 1 1 1 1 1 1 1 1 1 1 1 1 1 1 0.0094933213809134682 1 1 1 1 1 1 1 1 1 1 1 1 1 1 0.01073695367145033 1 1 1 1 1 1 1 1 1 1 1 1 1 1 1 1 1 1 1 1 1 1 1 0.0091782666815636953 1 1 1 0.0076874113617740013 1 1 1 1 1 1 1 1 1 1 1 1 1 1 1 1 1 1 1 1 1 1 1 1 1 1 1 1 1 1 1 1 1 0.007111849098874524 1 1 1 0.0093442733094442725 1 1 1 1 1 1 1 0.0099979272340813413 1 1 0.0080963092545253759 0.011928564574663965 1 1 1 1 1 1 0.0099105872667632038 1 1 1 1 1 1 1 0.0098842152536461388 1 1 1 1 0.0099736279868829318 1 1 1 1 1 1 1 1 1 1 1 1 1 0.0093532481866609764 1 1 1 1 1 1 1 1 1 1 1 1 1 1 0.010168685373119992 1 1 0.010267010312521085 1 1 1 1 1 1 1 1 1 1 1 1 1 1 1 0.0099716458920189911 1 1 1 1 1 0.0095168371619803599 1 1 1 1 0.0087583935257107975 1 1 0.0081949832214958974 1 1 1 1 1 1 0.010011532432891978 1 1 1 1 1 0.00996754328230255 1 0.010000335012500319 1 1 1 1 1 1 0.0092860607622037104 1 1 1 1 0.010143017506655201 1 1 1 1 0.0097894149730303262 1 1 1 1 1 1 1 1 1 1 1 1 1 1 1 1 1 1 1 0.011354410808024355 1 1 1 1 1 1 1 0.0096710031896248359 1 1 1 1 1 1 0.0099972980107091852 1 0.0098912109166148163 1 1 1 1 1 1 1 1 1 1 1 1 1 1 1 1 1 1 1 0.0098331395038855473 1 1 1 1 1 1 1 1 0.0099419285872707295 1 1 1 1 1 1 1 0.011402242725524503 1 1 1 1 1 1 1 0.013821196071122119 1 1 1 0.0084016954148679133 1 1 1 1 1 1 1 1 1 1 1 0.010278591694677836 1 0.0099933603656843697 1 0.0088917421808382049 0.010079380515006035 1 0.005475653687319542 1 1 1 1 1 1 1 0.0099352514889821976 0.011982271584512195 0.0054018294153601416 1 1 1 1 1 1 0.0089525355455156719 1 1 1 1 1 1 1 1 1 1 1 1 0.01002474928301021 1 1 1 1 1 1 1 1 1 1 1 1 1 1 1 1 1 1 0.0068185795423055043 1 1 1 0.010704459233204901 1 1 1 1 1 1 1 1 1 1 1 1 1 1 1 1 1 1 1 1 1 1 1 1 1 1 0.010205791282594575 1 0.011840664261041656 1 0.010693959464347392 1 1 1 1 1 1 1 1 1 1 0.010107949023461134 0.0090173015558502427 1 1 1 1 0.0082397098904536167 1 1 0.011582040742827194 1 1 1 1 0.012566976633073702 1 1 1 0.011534813373844339 0.0092382733155294966 1 1 1 0.010044562821878671 1 1 1 0.012225885918366788 1 1 1 1 1 1 1 1 0.0096475729431029257 1 0.010016688963884402 1 0.0068263945671453458 1 1 0.0072358599567433762 1 1 0.01007618550457084 1 1 1 1 1 1 1 1 1 1 0.010218794477090209 1 1 1 1 1 1 1 1 1 1 1 1 1 1 1 1 0.0076636960929605709 1 1 1 1 0.0099988161665654288 1 1 1 1 0.009613084693324829 0.0099292224846898626 1 1 1 1 1 1 0.0088532667947876283 1 1 1 1 1 1 1 1 1 1 1 1 1 1 1 1 1 1 0.010107387806006781 1 1 1 1 1 1 0.010817996707025268 1 1 1 0.0090257828283339253 1 0.011474811140621745 1 1 1 1 1 0.00933763901717489 1 0.010036248063301362 1 1 1 0.0099383255802843393 1 1 1 1 1 1 1 1 0.0097415747647126016 0.010970260415747928 1 1 1 1 0.010003410332438289 1 0.010574777582353329 1 1 1 1 1 1 0.010902066588043019 1 1 1 0.011232854050196053 1 1 1 1 1 1 1 1 1 1 1 0.0094598173655009964 1 1 1 1 0.0099294524704219931 1 1 1 1 1 1 1 1 1 1 1 1 1 0.008138760000408635 1 1 0.0087415229153271039 1 1 1 1 1 1 1 1 1 1 1 0.0075274458711676456 1 1 1 1 1 1 1 1 1 1 0.01135603160381826 0.0090060135761836201 0.011029636795035594 1 1 1 1 1 1 1 1 1 1 1 1 1 0.0095074007231049761 1 1 1 1 1 1 1 1 1 1 0.010083652725840955 1 1 1 1 1 1 1 1 1 1 1 1 1 1 1 1 1 1 0.008381363433032871 1 1 1 1 1 1 0.0099327755592510981 1 1 1 1 1 1 1 1 1 1 1 1 0.010016684095044297 0.0097073600643349696 1 0.010579556391625788 1 1 1 1 0.010760820404775565 1 1 0.010097142426678125 1 1 1 1 1 1 0.010118725760625485 1 1 0.010369167358739087 1 1 1 1 1 1 1 1 1 1 1 1 1 1 1 1 0.010637193394487187 1 1 1 1 1 1 1 0.011810114772430741 1 0.0099606361117912916 1 1 1 1 1 1 1 1 1 1 0.0084492801926424853 1 1 0.0094178984582800884 1 1 1 0.011004930485441879 1 1 1 1 1 0.015235872651781031 1 1 1 1 0.010005001058175984 1 1 1 1 1 0.015129975780291103 1 1 1 1 1 1 1 1 1 1 1 1 0.01019470736967093 1 1 1 1 0.014904907743474501 1 1 1 1 1 1 1 1 1 1 0.00949406660270667 0.0086168608988565348 1 1 1 1 1 1 1 1 1 1 1 0.0098148289331923978 0.010225294135346379 1 1 1 0.010559123353202941 1 1 1 1 1 1 1 0.0096002902730217103 1 1 1 1 0.011773324169371465 1 0.0098596717688501471 1 1 1 1 1 1 1 0.010603645567024712 1 1 1 1 1 1 1 1 1 1 1 1 0.0096841256687409654 1 1 1 1 1 1 1 1 1 1 1 1 1 1 1 1 1 1 1 1 1 1 1 1 1 1 1 1 1 1 1 0.0089075224735276556 1 1 1 0.010136697782365055 1 1 1 1 1 1 1 1 1 1 1 1 1 1 1 0.0079623153717428164 1 1 1 1 1 1 1 0.0069982258254395399 1 1 0.010017614175493917 1 1 1 1 1 1 1 1 1 1 1 1 1 0.0069147892565828342 1 1 0.011812099263204227 1 1 0.011371297490906571 1 1 1 1 1 1 0.010638128145778161 1 1 1 1 1 1 1 1 1 1 1 1 1 1 1 1 1 1 1 1 1 1 1 1 1 1 1 1 0.011012312302092311 1 0.010385226240290653 1 1 1 1 1 1 1 1 1 1 1 1 1 1 1 1 1 1 1 1 0.010295946807278895 1 1 1 0.01040353155419927 1 1 1 1 1 1 1 1 1 1 1 1 0.0080209415781771348 1 1 0.010010211354115849 1 1 1 1 1 1 1 0.0087146720321397662 1 1 0.010888819780697296 1 1 1 1 0.010005281015356315 1 1 1 1 1 1 1 1 1 1 1 1 1 1 1 1 1 1 1 1 1 1 1 1 1 1 1 1 1 1 1 1 1 1 1 1 1 1 1 1 1 1 1 1 1 1 1 1 1 1 1 1 0.0069922450846923861 1 0.0093170224049657236 1 1 1 1 1 1 1 1 1 1 1 1 1 1 1 0.0082279316404545687 1 1 1 1 1 1 1 1 1 0.0094974893414517363 1 1 1 1 0.0099469684878402322 1 1 1 1 1 1 1 0.0099938358585161032 1 1 0.011902863905552424 1 1 1 1 1 1 1 1 0.0078095291052258792 1 1 1 1 1 0.013367667588981905 1 0.010044044322839526 0.0089386866994995151 1 1 1 1 1 0.014941875189295777 1 1 0.0070896528985964248 1 1 1 1 1 1 1 0.010294372482732744 1 1 1 1 1 1 1 1 1 1 1 1 0.0089516890785605752 1 1 1 1 1 1 1 1 1 0.010260162956930026 0.009906718119477945 1 1 1 1 1 1 1 1 1 1 0.011152411466603517 0.0068555389686357666 1 1 1 1 1 1 0.010758435305346875 1 1 1 0.010316489841187507 0.0082026713546427578 1 1 0.010446598637053267 0.010765712423462621 1 1 1 1 1 0.0088185115335880204 0.010409871272014067 1 1 1 1 1 1 1 1 1 1 1 1 1 1 1 0.010102491320579081 0.0097931631179667186 1 1 1 1 0.010058881569834484 1 1 1 1 1 1 0.0091551490508744726 0.010597724161666678 1 0.009043140865726761 1 1 1 0.011644649723016567 1 0.0093791315070303506 1 1 1 1 1 1 1 1 1 1 1 1 1 1 1 0.0084560473768900777 0.0052492812243658399 1 1 1 1 1 1 1 1 1 1 1 1 1 1 1 1 1 1 1 1 1 1 1 1 1 1 1 1 1 1 0.012015554308495498 1 1 1 1 1 1 1 1 1 1 1 1 1 1 0.0094757131887760315 1 1 1 0.0093592319037236298 0.01005307644013686 1 1 0.01000708531050919 1 1 1 0.010556619070891712 1 1 1 1 1 1 1 1 1 1 1 0.0089053781976456154 1 1 1 1 1 1 1 0.0097182985835575254 1 1 1 1 1 1 1 1 0.0092996465814449598 1 1 1 1 1 0.0084712089386934919 1 1 1 0.0091860516416978465 1 1 1 0.0095408056938953469 1 1 1 1 1 1 0.010359148165328727 1 1 1 1 1 1 0.010543122499288351 1 1 1 1 0.0099980979990908977 1 1 1 1 1 0.0096917815653187623 0.0090949678488148333 1 1 1 1 1 1 1 1 0.0090557950031702489 1 1 0.0086202234945502304 1 0.010251239595070035 1 1 1 1 1 1 1 1 1 1 1 1 1 1 1 1 1 1 1 1 1 1 1 1 1 1 1 1 1 1 1 1 1 1 1 1 1 0.01435887133893779 1 1 0.0092172395695493663 1 1 1 1 1 1 1 1 1 1 0.010451309865965482 1 1 1 1 1 1 1 1 1 1 1 0.01003083484715479 1 1 1 0.011601564656240187 1 1 0.012769778788300171 1 1 1 1 0.010497128757385159 1 1 1 1 0.010309844604560005 1 1 1 1 1 1 1 1 0.010554127133845429 1 1 1 1 1 0.011437418123556597 1 1 1 0.011635120618529757 0.010159485366469375 1 1 1 0.0099820664198743431 0.0095780891366061306 0.0098448495213824868 1 1 1 1 1 1 1 1 1 1 1 1 1 1 0.010244032123655537 1 0.0099791166831901222 0.0099327348101914074 1 0.011543735324083865 0.010522573129568875 1 1 1 0.009041569450147913 1 0.013373810713730894 1 1 1 1 0.008533436666329608 1 1 1 1 0.0078336881332461243 1 1 0.0099896759757526002 0.0098968309454638102 1 0.0099938274339986689 0.010249651014058473 1 1 1 1 1 1 0.010009006770964031 1 1 1 1 1 1 1 0.0084040415081321675 1 0.0082005364060675177 1 1 1 1 1 1 1 1 1 1 0.010863878731002823 1 1 1 0.0099974359817380735 1 0.0087619008439047425 1 1 0.0089402213565195968 1 0.010009954676506786 1 1 1 1 1 1 1 1 1 0.010012808256600584 1 1 1 1 0.0093119000294708473 0.010044460676505449 1 1 0.010039133604701433 1 1 1 1 0.0088311841254212157 1 1 0.0095982182561104284 1 0.011656678753117992 1 1 0.010769712395899451 1 1 0.009623177429372156 1 1 0.0099998218878082478 0.010990903410167284 1 1 1 1 1 1 1 0.010722152825016028 1 1 1 0.0099791132798269181 1 1 1 0.010023255185484315 0.010001969208004259 0.0096700599781057543 1 1 0.010186929320988591 1 1 1 1 1 0.010005030821614734 0.0093948067230199307 1 0.0080066452200156374 1 1 1 0.009957457933622179 1 1 1 1 1 1 1 0.0099028048400042114 1 1 1 1 0.0099452873975017717 1 0.0088504630572169962 1 1 1 1 1 0.011429482984392647 0.0081814272814577909 1 1 1 0.010001683669147745 1 1 0.0081236780014717243 1 1 1 0.0099892432640419099 1 0.0064553208537114944 1 1 1 1 1 1 1 1 1 1 0.010646288838374171 1 1 1 1 1 1 1 0.011334673971689562 1 1 0.0076194918308749929 0.010829303671039955 1 0.0099310948575434422 1 1 1 1 1 0.010576019510208041 1 1 1 0.010585472494084428 1 0.0098044303253930001 1 1 1 1 1 1 1 1 0.010241697338982156 1 1 1 1 1 1 1 1 1 1 1 1 1 1 1 1 1 1 1 1 1 1 1 1 1 1 0.0082300567390322637 1 1 1 1 0.0092380584210230328 1 1 1 1 1 1 1 1 1 1 1 1 1 1 1 1 1 1 0.0099204241412554038 1 1 1 1 1 1 0.009906846864262471 0.0097040371262780995 1 1 1 1 1 1 0.011495618549597431 1 1 0.010286596953561145 1 1 1 1 1 1 0.010129494864879055 1 1 1 1 1 1 1 1 1 1 1 1 1 1 1 1 1 1 1 1 1 1 1 1 1 1 0.0051088012646921038 1 1 1 1 1 0.0094530364316701247 1 1 1 0.011934405019853569 1 1 1 1 1 1 1 1 0.010097247443864688 1 1 0.010249091507682937 1 1 1 0.0099992427989356591 1 1 1 1 1 0.010831795330477385 0.010614653458262043 1 1 1 0.010076714636216887 1 1 1 1 1 0.0097611443015028811 0.0095543510291312972 1 0.010118511422497532 1 0.010388073361643562 1 1 0.010245259179336916 1 1 1 1 1 1 1 1 1 0.010033012339332674 1 1 0.010019623653605233 1 1 0.010577349459510998 1 1 1 0.010240506733810007 1 1 1 1 0.010055397984887344 1 1 1 1 1 1 1 1 1 1 1 1 1 0.010045255658532206 1 1 1 1 1 1 1 0.0095596874273026627 1 1 0.010200909441309542 0.0087353675634794792 1 1 1 1 1 1 0.0099519107240426709 1 1 1 1 0.0056771459222916933 1 1 1 1 1 0.0096306661323144038 1 0.013384133261654423 1 1 1 1 0.012374870690319735 1 1 1 1 0.0097266565209139979 1 1 1 1 1 1 1 0.010874117374027607 1 1 1 1 1 1 1 1 1 1 0.010265563021871382 1 1 1 1 1 1 1 1 1 1 1 1 1 1 1 1 1 1 1 1 1 1 1 1 0.01091371772063849 1 1 1 1 1 1 1 1 1 0.010805622818912133 1 0.0091880497700755192 1 1 1 0.010293826538315402 1 1 1 1 1 1 0.006834818678821652 1 1 1 1 1 1 1 1 1 1 1 0.014259594423572658 1 1 1 1 1 1 1 1 1 1 1 1 1 1 1 1 1 0.01291847550894683 1 1 1 1 1 1 1 1 1 0.017684795353101735 1 1 0.0098550746485167578 1 1 1 0.018957871090963974 1 1 1 1 1 1 0.019438763160735908 1 1 0.010941015337346907 1 1 1 1 1 1 1 1 1 1 1 0.0098578249990522119 1 1 1 1 1 1 1 1 1 1 1 1 1 0.019356411442731473 1 0.0096215997307435713 1 1 1 1 1 1 1 0.0160883533346474 1 0.013423526352641935 1 1 1 1 1 0.0084113458061719649 1 1 1 1 0.0095107935818863568 1 1 1 1 1 1 1 1 1 1 1 1 1 1 1 1 1 1 1 1 1 1 1 1 1 1 1 1 1 1 1 1 1 1 1 1 1 1 1 1 1 1 1 1 1 1 1 1 1 1 1 1 1 1 1 1 1 1 1 1 1 1 1 1 1 1 1 1 1 1 1 1 1 1 1 1 1 1 1 1 1 1 1 1 1 1 1 1 1 1 1 1 1 1 1 0.0091978507863170137 1 0.010082957509126734 1 1 0.0097480667452382336 1 1 1 1 1 0.010286281289061696 1 1 1 1 1 1 1 0.008601586647888123 1 1 1 1 1 1 1 1 1 1 1 1 1 1 1 1 1 1 1 1 1 1 0.0047832967158514782 1 0.020165334508034496 1 1 1 1 1 1 0.0098697282896775523 1 0.010384798596367302 1 1 1 1 0.010363606985967702 1 1 1 1 1 0.010160283206032737 1 1 1 1 1 1 1 1 1 1 1 1 1 1 0.0070515247848180196 1 1 1 1 1 1 1 0.011979516203012993 1 1 1 0.011613639287380084 1 1 1 1 1 1 1 0.0097720086254635512 1 1 1 1 0.011411564993219655 1 1 1 1 1 1 1 1 1 1 1 1 1 1 0.011095478264551413 1 0.0092517251884752186 1 1 1 1 0.0097923753593553205 1 0.010155942605821301 1 1 1 1 1 1 1 1 1 1 1 1 1 1 1 1 1 0.0089236852396223851 1 1 1 1 1 1 1 1 1 1 1 1 1 1 1 1 1 0.010098324939401094 1 1 1 1 1 1 1 1 1 1 1 1 1 1 1 1 1 1 1 1 1 1 1 1 1 1 1 1 0.011814904482776323 1 1 1 1 0.013868571861504548 0.010222128451002076 1 1 1 1 1 1 1 1 1 1 1 1 1 1 1 1 1 1 1 1 1 1 1 1 0.015255114698631488 1 1 1 0.0095435831932986562 1 1 0.008631867849882003 0.015752799625139396 1 1 1 1 1 1 1 1 1 1 1 1 1 1 1 1 0.011294904496625282 1 1 0.0076642481787322194 1 0.0072175460425859669 1 1 1 1 1 1 1 0.012845579935973045 1 1 1 0.015066197298490305 1 1 1 1 1 1 1 1 1 1 1 1 1 1 1 1 0.0098025331783612116 0.01630044310700238 1 1 0.0055079850761611052 1 1 1 0.012231173197608809 1 1 1 1 1 1 
</DataArray>
</CellData>
</Piece>
</UnstructuredGrid>
</VTKFile>
