<?xml version="1.0"?>
<VTKFile type="UnstructuredGrid" version="0.1" byte_order="LittleEndian">
<UnstructuredGrid>
<Piece NumberOfPoints="31364" NumberOfCells="10963">
<Points>
<DataArray type="Float64" NumberOfComponents="3" format="ascii">
-0.5 -0.5 0 -0.47923561459112152 -0.44443574669253838 0 -0.5 -0.40184768675683319 0 -0.5 -0.5 0 -0.46012471450501102 -0.46780108282305249 0 -0.47923561459112152 -0.44443574669253838 0 -0.5 -0.5 0 -0.44174741682060992 -0.48083562005243102 0 -0.40748061551896958 -0.5 0 -0.5 -0.5 0 -0.44174741682060992 -0.48083562005243102 0 -0.46012471450501102 -0.46780108282305249 0 -0.44174741682060992 -0.48083562005243102 0 -0.46012471450501102 -0.46780108282305249 0 -0.43236737799726033 -0.45966166965137317 0 -0.44826723710970118 -0.45199458572407242 0 -0.46119552876922271 -0.44018491488949402 0 -0.4364097597143915 -0.43618808862509217 0 -0.44826723710970118 -0.45199458572407242 0 -0.4364097597143915 -0.43618808862509217 0 -0.43236737799726033 -0.45966166965137317 0 -0.44826723710970118 -0.45199458572407242 0 -0.4364097597143915 -0.43618808862509217 0 -0.44826723710970118 -0.45199458572407242 0 -0.46012471450501102 -0.46780108282305249 0 -0.43236737799726033 -0.45966166965137317 0 -0.44826723710970118 -0.45199458572407242 0 -0.46012471450501102 -0.46780108282305249 0 -0.44826723710970118 -0.45199458572407242 0 -0.46012471450501102 -0.46780108282305249 0 -0.46119552876922271 -0.44018491488949402 0 -0.46012471450501102 -0.46780108282305249 0 -0.46119552876922271 -0.44018491488949402 0 -0.47923561459112152 -0.44443574669253838 0 -0.47923561459112152 -0.44443574669253838 0 -0.4734472738674676 -0.41189007714261022 0 -0.5 -0.40184768675683319 0 -0.46119552876922271 -0.44018491488949402 0 -0.47923561459112152 -0.44443574669253838 0 -0.4734472738674676 -0.41189007714261022 0 -0.48518733011659848 -0.38506416976922292 0 -0.5 -0.40184768675683319 0 -0.48407733713093642 -0.36224817451159441 0 -0.4734472738674676 -0.41189007714261022 0 -0.5 -0.40184768675683319 0 -0.49196603094400598 -0.39974107140136972 0 -0.48518733011659848 -0.38506416976922292 0 -0.5 -0.40184768675683319 0 -0.49196603094400598 -0.39974107140136972 0 -0.48518733011659848 -0.38506416976922292 0 -0.49196603094400598 -0.39974107140136972 0 -0.47685174507506672 -0.39765484536907908 0 -0.4734472738674676 -0.41189007714261022 0 -0.49196603094400598 -0.39974107140136972 0 -0.47685174507506672 -0.39765484536907908 0 -0.4734472738674676 -0.41189007714261022 0 -0.49196603094400598 -0.39974107140136972 0 -0.4734472738674676 -0.41189007714261022 0 -0.47685174507506672 -0.39765484536907908 0 -0.45844589060966062 -0.40086057772148542 0 -0.48518733011659848 -0.38506416976922292 0 -0.46920744949757692 -0.38740384469278488 0 -0.46750842263902792 -0.37228425141029542 0 -0.48518733011659848 -0.38506416976922292 0 -0.47685174507506672 -0.39765484536907908 0 -0.46920744949757692 -0.38740384469278488 0 -0.46920744949757692 -0.38740384469278488 0 -0.45470384220908622 -0.3815417340125149 0 -0.45844589060966062 -0.40086057772148542 0 -0.46920744949757692 -0.38740384469278488 0 -0.45470384220908622 -0.3815417340125149 0 -0.46750842263902792 -0.37228425141029542 0 -0.47685174507506672 -0.39765484536907908 0 -0.46920744949757692 -0.38740384469278488 0 -0.45844589060966062 -0.40086057772148542 0 -0.45470384220908622 -0.3815417340125149 0 -0.45844589060966062 -0.40086057772148542 0 -0.44007732661823112 -0.39111384719816639 0 -0.45844589060966062 -0.40086057772148542 0 -0.44007732661823112 -0.39111384719816639 0 -0.43951315129474572 -0.41118031471198407 0 -0.45470384220908622 -0.3815417340125149 0 -0.44007732661823112 -0.39111384719816639 0 -0.4379103329822206 -0.37308902279941408 0 -0.46119552876922271 -0.44018491488949402 0 -0.4734472738674676 -0.41189007714261022 0 -0.45492851679092922 -0.42403908288385062 0 -0.4734472738674676 -0.41189007714261022 0 -0.45844589060966062 -0.40086057772148542 0 -0.45492851679092922 -0.42403908288385062 0 -0.4734472738674676 -0.41189007714261022 0 -0.45492851679092922 -0.42403908288385062 0 -0.45844589060966062 -0.40086057772148542 0 -0.45492851679092922 -0.42403908288385062 0 -0.43951315129474572 -0.41118031471198407 0 -0.46119552876922271 -0.44018491488949402 0 -0.45492851679092922 -0.42403908288385062 0 -0.4364097597143915 -0.43618808862509217 0 -0.45492851679092922 -0.42403908288385062 0 -0.4364097597143915 -0.43618808862509217 0 -0.45492851679092922 -0.42403908288385062 0 -0.43951315129474572 -0.41118031471198407 0 -0.4364097597143915 -0.43618808862509217 0 -0.4364097597143915 -0.43618808862509217 0 -0.41902722362035227 -0.41301646474731651 0 -0.41973426710848538 -0.43059808026916357 0 -0.4364097597143915 -0.43618808862509217 0 -0.41902722362035227 -0.41301646474731651 0 -0.43951315129474572 -0.41118031471198407 0 -0.41902722362035227 -0.41301646474731651 0 -0.42688961785318807 -0.39799734463124692 0 -0.43951315129474572 -0.41118031471198407 0 -0.4364097597143915 -0.43618808862509217 0 -0.41902722362035227 -0.41301646474731651 0 -0.41902722362035227 -0.41301646474731651 0 -0.39931438752054038 -0.40356587878924738 0 -0.40322753768877378 -0.4134355993345547 0 -0.41902722362035227 -0.41301646474731651 0 -0.41110160916373939 -0.42271259208851952 0 -0.40322753768877378 -0.4134355993345547 0 -0.41110160916373939 -0.42271259208851952 0 -0.41053167651649131 -0.43436760493744669 0 -0.40054609476145547 -0.42214176313073309 0 -0.41110160916373939 -0.42271259208851952 0 -0.41053167651649131 -0.43436760493744669 0 -0.41973426710848538 -0.43059808026916357 0 -0.41053167651649131 -0.43436760493744669 0 -0.41973426710848538 -0.43059808026916357 0 -0.42038044346588288 -0.44670392693575173 0 -0.41902722362035227 -0.41301646474731651 0 -0.41110160916373939 -0.42271259208851952 0 -0.41973426710848538 -0.43059808026916357 0 -0.44007732661823112 -0.39111384719816639 0 -0.42190409334729168 -0.38180158975939521 0 -0.4379103329822206 -0.37308902279941408 0 -0.44007732661823112 -0.39111384719816639 0 -0.42190409334729168 -0.38180158975939521 0 -0.42688961785318807 -0.39799734463124692 0 -0.44007732661823112 -0.39111384719816639 0 -0.43951315129474572 -0.41118031471198407 0 -0.42688961785318807 -0.39799734463124692 0 -0.41902722362035227 -0.41301646474731651 0 -0.40164468752631333 -0.3898448408695408 0 -0.41902722362035227 -0.41301646474731651 0 -0.42688961785318807 -0.39799734463124692 0 -0.41588964973809889 -0.393022640911173 0 -0.42190409334729168 -0.38180158975939521 0 -0.42688961785318807 -0.39799734463124692 0 -0.41588964973809889 -0.393022640911173 0 -0.41902722362035227 -0.41301646474731651 0 -0.40164468752631333 -0.3898448408695408 0 -0.39931438752054038 -0.40356587878924738 0 -0.41902722362035227 -0.41301646474731651 0 -0.41588964973809889 -0.393022640911173 0 -0.40164468752631333 -0.3898448408695408 0 -0.42190409334729168 -0.38180158975939521 0 -0.41588964973809889 -0.393022640911173 0 -0.40905564308123771 -0.38256147179756722 0 -0.41588964973809889 -0.393022640911173 0 -0.40905564308123771 -0.38256147179756722 0 -0.40164468752631333 -0.3898448408695408 0 -0.42190409334729168 -0.38180158975939521 0 -0.40905564308123771 -0.38256147179756722 0 -0.40708191026735863 -0.37005123040099891 0 -0.39875787452712569 -0.37808705704672813 0 -0.38920413716619873 -0.38567415539685779 0 -0.38587601133240879 -0.36241209401787738 0 -0.40905564308123771 -0.38256147179756722 0 -0.39875787452712569 -0.37808705704672813 0 -0.40708191026735863 -0.37005123040099891 0 -0.40905564308123771 -0.38256147179756722 0 -0.39875787452712569 -0.37808705704672813 0 -0.40164468752631333 -0.3898448408695408 0 -0.39875787452712569 -0.37808705704672813 0 -0.40164468752631333 -0.3898448408695408 0 -0.38920413716619873 -0.38567415539685779 0 -0.39931438752054038 -0.40356587878924738 0 -0.38920413716619873 -0.38567415539685779 0 -0.39253226299999161 -0.40893621677583791 0 -0.40164468752631333 -0.3898448408695408 0 -0.39931438752054038 -0.40356587878924738 0 -0.38920413716619873 -0.38567415539685779 0 -0.38920413716619873 -0.38567415539685779 0 -0.39253226299999161 -0.40893621677583791 0 -0.38314814314964168 -0.40378743179418708 0 -0.37734110255115211 -0.39748869041215379 0 -0.38920413716619873 -0.38567415539685779 0 -0.38314814314964168 -0.40378743179418708 0 -0.38920413716619873 -0.38567415539685779 0 -0.39253226299999161 -0.40893621677583791 0 -0.38314814314964168 -0.40378743179418708 0 -0.37734110255115211 -0.39748869041215379 0 -0.37270150913827438 -0.40629795572893979 0 -0.37658995856295657 -0.38657385581986459 0 -0.38587601133240879 -0.36241209401787738 0 -0.36581332631384972 -0.37995636686610401 0 -0.38920413716619873 -0.38567415539685779 0 -0.37658995856295657 -0.38657385581986459 0 -0.38587601133240879 -0.36241209401787738 0 -0.37734110255115211 -0.39748869041215379 0 -0.38920413716619873 -0.38567415539685779 0 -0.37658995856295657 -0.38657385581986459 0 -0.39348358264628303 -0.42601102118616252 0 -0.39739403950095109 -0.43501083691664061 0 -0.40054609476145547 -0.42214176313073309 0 -0.39348358264628303 -0.42601102118616252 0 -0.40054609476145547 -0.42214176313073309 0 -0.3944916053609237 -0.41880146558125181 0 -0.39348358264628303 -0.42601102118616252 0 -0.39739403950095109 -0.43501083691664061 0 -0.38671421965396019 -0.43255210866021482 0 -0.41053167651649131 -0.43436760493744669 0 -0.39739403950095109 -0.43501083691664061 0 -0.40054609476145547 -0.42214176313073309 0 -0.40054609476145547 -0.42214176313073309 0 -0.40322753768877378 -0.4134355993345547 0 -0.39759071182071271 -0.41502243956528728 0 -0.41110160916373939 -0.42271259208851952 0 -0.40054609476145547 -0.42214176313073309 0 -0.40322753768877378 -0.4134355993345547 0 -0.39931438752054038 -0.40356587878924738 0 -0.40322753768877378 -0.4134355993345547 0 -0.39692366940308182 -0.41017286207349157 0 -0.40322753768877378 -0.4134355993345547 0 -0.39692366940308182 -0.41017286207349157 0 -0.39759071182071271 -0.41502243956528728 0 -0.39276465188932819 -0.41056050770640551 0 -0.39253226299999161 -0.40893621677583791 0 -0.38845621677183251 -0.42033944141239538 0 -0.39931438752054038 -0.40356587878924738 0 -0.39253226299999161 -0.40893621677583791 0 -0.39931438752054038 -0.40356587878924738 0 -0.39692366940308182 -0.41017286207349157 0 -0.39253226299999161 -0.40893621677583791 0 -0.39692366940308182 -0.41017286207349157 0 -0.39276465188932819 -0.41056050770640551 0 -0.39759071182071271 -0.41502243956528728 0 -0.39692366940308182 -0.41017286207349157 0 -0.39276465188932819 -0.41056050770640551 0 -0.39253226299999161 -0.40893621677583791 0 -0.39276465188932819 -0.41056050770640551 0 -0.39253226299999161 -0.40893621677583791 0 -0.39276465188932819 -0.41056050770640551 0 -0.39759071182071271 -0.41502243956528728 0 -0.3944916053609237 -0.41880146558125181 0 -0.39276465188932819 -0.41056050770640551 0 -0.3944916053609237 -0.41880146558125181 0 -0.38845621677183251 -0.42033944141239538 0 -0.40054609476145547 -0.42214176313073309 0 -0.39759071182071271 -0.41502243956528728 0 -0.3944916053609237 -0.41880146558125181 0 -0.39348358264628303 -0.42601102118616252 0 -0.3944916053609237 -0.41880146558125181 0 -0.38845621677183251 -0.42033944141239538 0 -0.39253226299999161 -0.40893621677583791 0 -0.38845621677183251 -0.42033944141239538 0 -0.37259581749562137 -0.42472263448099368 0 -0.39253226299999161 -0.40893621677583791 0 -0.37259581749562137 -0.42472263448099368 0 -0.39253226299999161 -0.40893621677583791 0 -0.37790358185114742 -0.41187606795758031 0 -0.37259581749562137 -0.42472263448099368 0 -0.38314814314964168 -0.40378743179418708 0 -0.39253226299999161 -0.40893621677583791 0 -0.37790358185114742 -0.41187606795758031 0 -0.38314814314964168 -0.40378743179418708 0 -0.37790358185114742 -0.41187606795758031 0 -0.37270150913827438 -0.40629795572893979 0 -0.38845621677183251 -0.42033944141239538 0 -0.38671421965396019 -0.43255210866021482 0 -0.37259581749562137 -0.42472263448099368 0 -0.39348358264628303 -0.42601102118616252 0 -0.38845621677183251 -0.42033944141239538 0 -0.38671421965396019 -0.43255210866021482 0 -0.38671421965396019 -0.43255210866021482 0 -0.37802410117383278 -0.44029102242635232 0 -0.37259581749562137 -0.42472263448099368 0 -0.38671421965396019 -0.43255210866021482 0 -0.37802410117383278 -0.44029102242635232 0 -0.39033156033524102 -0.44893769553874469 0 -0.38759267533556718 -0.47559526880853242 0 -0.40748061551896958 -0.5 0 -0.34098199040941901 -0.5 0 -0.37802410117383278 -0.44029102242635232 0 -0.39033156033524102 -0.44893769553874469 0 -0.37513886376503969 -0.454883812589926 0 -0.39739403950095109 -0.43501083691664061 0 -0.39033156033524102 -0.44893769553874469 0 -0.40459776940718828 -0.4444479659149993 0 -0.39739403950095109 -0.43501083691664061 0 -0.38671421965396019 -0.43255210866021482 0 -0.39033156033524102 -0.44893769553874469 0 -0.39033156033524102 -0.44893769553874469 0 -0.40459776940718828 -0.4444479659149993 0 -0.40435112721737509 -0.45721976524641239 0 -0.41053167651649131 -0.43436760493744669 0 -0.39739403950095109 -0.43501083691664061 0 -0.40459776940718828 -0.4444479659149993 0 -0.39033156033524102 -0.44893769553874469 0 -0.40435112721737509 -0.45721976524641239 0 -0.38759267533556718 -0.47559526880853242 0 -0.39033156033524102 -0.44893769553874469 0 -0.37513886376503969 -0.454883812589926 0 -0.38759267533556718 -0.47559526880853242 0 -0.38759267533556718 -0.47559526880853242 0 -0.41470784257795651 -0.47466246475174978 0 -0.40748061551896958 -0.5 0 -0.40435112721737509 -0.45721976524641239 0 -0.38759267533556718 -0.47559526880853242 0 -0.41470784257795651 -0.47466246475174978 0 -0.44174741682060992 -0.48083562005243102 0 -0.41470784257795651 -0.47466246475174978 0 -0.40748061551896958 -0.5 0 -0.44174741682060992 -0.48083562005243102 0 -0.41470784257795651 -0.47466246475174978 0 -0.43236737799726033 -0.45966166965137317 0 -0.4364097597143915 -0.43618808862509217 0 -0.43236737799726033 -0.45966166965137317 0 -0.42038044346588288 -0.44670392693575173 0 -0.4364097597143915 -0.43618808862509217 0 -0.41973426710848538 -0.43059808026916357 0 -0.42038044346588288 -0.44670392693575173 0 -0.4364097597143915 -0.43618808862509217 0 -0.42038044346588288 -0.44670392693575173 0 -0.40459776940718828 -0.4444479659149993 0 -0.40435112721737509 -0.45721976524641239 0 -0.42038044346588288 -0.44670392693575173 0 -0.40435112721737509 -0.45721976524641239 0 -0.42038044346588288 -0.44670392693575173 0 -0.41053167651649131 -0.43436760493744669 0 -0.40459776940718828 -0.4444479659149993 0 -0.42038044346588288 -0.44670392693575173 0 -0.40435112721737509 -0.45721976524641239 0 -0.43236737799726033 -0.45966166965137317 0 -0.42038044346588288 -0.44670392693575173 0 -0.40435112721737509 -0.45721976524641239 0 -0.41470784257795651 -0.47466246475174978 0 -0.43236737799726033 -0.45966166965137317 0 -0.44919654988559637 -0.26231446499954891 0 -0.42882862824786411 -0.25215583988111961 0 -0.45645277741734702 -0.2411318597008231 0 -0.44919654988559637 -0.26231446499954891 0 -0.45646980406034082 -0.28006410516255742 0 -0.4327043970020254 -0.27535023003423592 0 -0.45646980406034082 -0.28006410516255742 0 -0.47024296673703608 -0.26214578800260963 0 -0.47574550089000178 -0.28730500482323551 0 -0.44919654988559637 -0.26231446499954891 0 -0.45646980406034082 -0.28006410516255742 0 -0.47024296673703608 -0.26214578800260963 0 -0.44919654988559637 -0.26231446499954891 0 -0.47024296673703608 -0.26214578800260963 0 -0.45645277741734702 -0.2411318597008231 0 -0.47024296673703608 -0.26214578800260963 0 -0.5 -0.27385615966996801 0 -0.47514940566521352 -0.23326952014714999 0 -0.47024296673703608 -0.26214578800260963 0 -0.5 -0.27385615966996801 0 -0.47574550089000178 -0.28730500482323551 0 -0.5 -0.27385615966996801 0 -0.49155390927168918 -0.30153753991075571 0 -0.5 -0.30810319010446852 0 -0.5 -0.27385615966996801 0 -0.47574550089000178 -0.28730500482323551 0 -0.49155390927168918 -0.30153753991075571 0 -0.5 -0.30810319010446852 0 -0.47134800769380769 -0.30850957961881409 0 -0.48326515779251089 -0.32077123544154651 0 -0.5 -0.30810319010446852 0 -0.47134800769380769 -0.30850957961881409 0 -0.49155390927168918 -0.30153753991075571 0 -0.5 -0.30810319010446852 0 -0.47134800769380769 -0.30850957961881409 0 -0.49155390927168918 -0.30153753991075571 0 -0.47134800769380769 -0.30850957961881409 0 -0.47574550089000178 -0.28730500482323551 0 -0.49155390927168918 -0.30153753991075571 0 -0.47134800769380769 -0.30850957961881409 0 -0.47134800769380769 -0.30850957961881409 0 -0.44410245992548142 -0.30890533805811188 0 -0.47134800769380769 -0.30850957961881409 0 -0.44410245992548142 -0.30890533805811188 0 -0.44914797714501098 -0.31616969287383578 0 -0.47134800769380769 -0.30850957961881409 0 -0.45842731532698672 -0.29555583937867053 0 -0.44410245992548142 -0.30890533805811188 0 -0.47574550089000178 -0.28730500482323551 0 -0.47134800769380769 -0.30850957961881409 0 -0.45842731532698672 -0.29555583937867053 0 -0.47134800769380769 -0.30850957961881409 0 -0.44914797714501098 -0.31616969287383578 0 -0.45646980406034082 -0.28006410516255742 0 -0.47574550089000178 -0.28730500482323551 0 -0.45842731532698672 -0.29555583937867053 0 -0.45646980406034082 -0.28006410516255742 0 -0.45842731532698672 -0.29555583937867053 0 -0.44447080406530182 -0.29299516923063368 0 -0.45646980406034082 -0.28006410516255742 0 -0.44447080406530182 -0.29299516923063368 0 -0.4327043970020254 -0.27535023003423592 0 -0.44447080406530182 -0.29299516923063368 0 -0.44410245992548142 -0.30890533805811188 0 -0.4332501760214057 -0.30087153143357381 0 -0.45842731532698672 -0.29555583937867053 0 -0.44447080406530182 -0.29299516923063368 0 -0.44410245992548142 -0.30890533805811188 0 -0.5 -0.40184768675683319 0 -0.5 -0.32845345739505039 0 -0.48407733713093642 -0.36224817451159441 0 -0.44410245992548142 -0.30890533805811188 0 -0.44914797714501098 -0.31616969287383578 0 -0.4269479465962136 -0.32382980612885598 0 -0.44914797714501098 -0.31616969287383578 0 -0.4269479465962136 -0.32382980612885598 0 -0.44914797714501098 -0.31616969287383578 0 -0.440434673554296 -0.3295571925662576 0 -0.45665078417540439 -0.33022523871135728 0 -0.44914797714501098 -0.31616969287383578 0 -0.440434673554296 -0.3295571925662576 0 -0.4269479465962136 -0.32382980612885598 0 -0.44366949960342977 -0.34088416873678229 0 -0.440434673554296 -0.3295571925662576 0 -0.45665078417540439 -0.33022523871135728 0 -0.44366949960342977 -0.34088416873678229 0 -0.45665078417540439 -0.33022523871135728 0 -0.46019187667193001 -0.35155790459510372 0 -0.45665078417540439 -0.33022523871135728 0 -0.47564287011294298 -0.33535989505504898 0 -0.46019187667193001 -0.35155790459510372 0 -0.45665078417540439 -0.33022523871135728 0 -0.47000947120506409 -0.32343005503435041 0 -0.47564287011294298 -0.33535989505504898 0 -0.47134800769380769 -0.30850957961881409 0 -0.44914797714501098 -0.31616969287383578 0 -0.46178906005482168 -0.31958364155958929 0 -0.45665078417540439 -0.33022523871135728 0 -0.46178906005482168 -0.31958364155958929 0 -0.47000947120506409 -0.32343005503435041 0 -0.44914797714501098 -0.31616969287383578 0 -0.45665078417540439 -0.33022523871135728 0 -0.46178906005482168 -0.31958364155958929 0 -0.47134800769380769 -0.30850957961881409 0 -0.46178906005482168 -0.31958364155958929 0 -0.47000947120506409 -0.32343005503435041 0 -0.5 -0.32845345739505039 0 -0.47564287011294298 -0.33535989505504898 0 -0.48407733713093642 -0.36224817451159441 0 -0.47134800769380769 -0.30850957961881409 0 -0.47000947120506409 -0.32343005503435041 0 -0.48326515779251089 -0.32077123544154651 0 -0.47000947120506409 -0.32343005503435041 0 -0.48326515779251089 -0.32077123544154651 0 -0.47564287011294298 -0.33535989505504898 0 -0.5 -0.30810319010446852 0 -0.48326515779251089 -0.32077123544154651 0 -0.5 -0.32845345739505039 0 -0.48326515779251089 -0.32077123544154651 0 -0.5 -0.32845345739505039 0 -0.47564287011294298 -0.33535989505504898 0 -0.47564287011294298 -0.33535989505504898 0 -0.48407733713093642 -0.36224817451159441 0 -0.46019187667193001 -0.35155790459510372 0 -0.48407733713093642 -0.36224817451159441 0 -0.46750842263902792 -0.37228425141029542 0 -0.46019187667193001 -0.35155790459510372 0 -0.48518733011659848 -0.38506416976922292 0 -0.48407733713093642 -0.36224817451159441 0 -0.46750842263902792 -0.37228425141029542 0 -0.45470384220908622 -0.3815417340125149 0 -0.46750842263902792 -0.37228425141029542 0 -0.45168270020803991 -0.36588968088055202 0 -0.46750842263902792 -0.37228425141029542 0 -0.46019187667193001 -0.35155790459510372 0 -0.45168270020803991 -0.36588968088055202 0 -0.44366949960342977 -0.34088416873678229 0 -0.46019187667193001 -0.35155790459510372 0 -0.43872059213396919 -0.3554047434877039 0 -0.46019187667193001 -0.35155790459510372 0 -0.43872059213396919 -0.3554047434877039 0 -0.45168270020803991 -0.36588968088055202 0 -0.45470384220908622 -0.3815417340125149 0 -0.4379103329822206 -0.37308902279941408 0 -0.45168270020803991 -0.36588968088055202 0 -0.43872059213396919 -0.3554047434877039 0 -0.4379103329822206 -0.37308902279941408 0 -0.45168270020803991 -0.36588968088055202 0 -0.43872059213396919 -0.3554047434877039 0 -0.4379103329822206 -0.37308902279941408 0 -0.42216570575384849 -0.36262434959359291 0 -0.42190409334729168 -0.38180158975939521 0 -0.4379103329822206 -0.37308902279941408 0 -0.42216570575384849 -0.36262434959359291 0 -0.44366949960342977 -0.34088416873678229 0 -0.43872059213396919 -0.3554047434877039 0 -0.42570126035492051 -0.34179591915936808 0 -0.43872059213396919 -0.3554047434877039 0 -0.42216570575384849 -0.36262434959359291 0 -0.42570126035492051 -0.34179591915936808 0 -0.42216570575384849 -0.36262434959359291 0 -0.40434917853282909 -0.35157736358343078 0 -0.42570126035492051 -0.34179591915936808 0 -0.42190409334729168 -0.38180158975939521 0 -0.42216570575384849 -0.36262434959359291 0 -0.40708191026735863 -0.37005123040099891 0 -0.42216570575384849 -0.36262434959359291 0 -0.40708191026735863 -0.37005123040099891 0 -0.40434917853282909 -0.35157736358343078 0 -0.39875787452712569 -0.37808705704672813 0 -0.40708191026735863 -0.37005123040099891 0 -0.38587601133240879 -0.36241209401787738 0 -0.40708191026735863 -0.37005123040099891 0 -0.38587601133240879 -0.36241209401787738 0 -0.40434917853282909 -0.35157736358343078 0 -0.38920413716619873 -0.38567415539685779 0 -0.38587601133240879 -0.36241209401787738 0 -0.38587601133240879 -0.36241209401787738 0 -0.38254788549861879 -0.33915003263889681 0 -0.37126441836838858 -0.35831088099670722 0 -0.38587601133240879 -0.36241209401787738 0 -0.38254788549861879 -0.33915003263889681 0 -0.38587601133240879 -0.36241209401787738 0 -0.40434917853282909 -0.35157736358343078 0 -0.38254788549861879 -0.33915003263889681 0 -0.40474791604741611 -0.33148991938387629 0 -0.38254788549861879 -0.33915003263889681 0 -0.40474791604741611 -0.33148991938387629 0 -0.38254788549861879 -0.33915003263889681 0 -0.39237192854864161 -0.32319861932332061 0 -0.40434917853282909 -0.35157736358343078 0 -0.40474791604741611 -0.33148991938387629 0 -0.38254788549861879 -0.33915003263889681 0 -0.38254788549861879 -0.33915003263889681 0 -0.37955177908716492 -0.31820863356870771 0 -0.38254788549861879 -0.33915003263889681 0 -0.37955177908716492 -0.31820863356870771 0 -0.39237192854864161 -0.32319861932332061 0 -0.37955177908716492 -0.31820863356870771 0 -0.38961136438882871 -0.30969685493671062 0 -0.36236581662050238 -0.31009261337601002 0 -0.38254788549861879 -0.33915003263889681 0 -0.37955177908716492 -0.31820863356870771 0 -0.36641377361202621 -0.32593256985010838 0 -0.37955177908716492 -0.31820863356870771 0 -0.39237192854864161 -0.32319861932332061 0 -0.38961136438882871 -0.30969685493671062 0 -0.39237192854864161 -0.32319861932332061 0 -0.40610721354765111 -0.319503259254035 0 -0.38961136438882871 -0.30969685493671062 0 -0.40610721354765111 -0.319503259254035 0 -0.41685691215715509 -0.30930109649741128 0 -0.38961136438882871 -0.30969685493671062 0 -0.40474791604741611 -0.33148991938387629 0 -0.39237192854864161 -0.32319861932332061 0 -0.40610721354765111 -0.319503259254035 0 -0.40474791604741611 -0.33148991938387629 0 -0.4269479465962136 -0.32382980612885598 0 -0.40474791604741611 -0.33148991938387629 0 -0.40610721354765111 -0.319503259254035 0 -0.4269479465962136 -0.32382980612885598 0 -0.40610721354765111 -0.319503259254035 0 -0.4269479465962136 -0.32382980612885598 0 -0.41685691215715509 -0.30930109649741128 0 -0.40434917853282909 -0.35157736358343078 0 -0.40474791604741611 -0.33148991938387629 0 -0.42570126035492051 -0.34179591915936808 0 -0.40474791604741611 -0.33148991938387629 0 -0.42570126035492051 -0.34179591915936808 0 -0.4269479465962136 -0.32382980612885598 0 -0.44366949960342977 -0.34088416873678229 0 -0.440434673554296 -0.3295571925662576 0 -0.42570126035492051 -0.34179591915936808 0 -0.440434673554296 -0.3295571925662576 0 -0.42570126035492051 -0.34179591915936808 0 -0.4269479465962136 -0.32382980612885598 0 -0.44410245992548142 -0.30890533805811188 0 -0.4269479465962136 -0.32382980612885598 0 -0.41685691215715509 -0.30930109649741128 0 -0.44410245992548142 -0.30890533805811188 0 -0.41685691215715509 -0.30930109649741128 0 -0.44410245992548142 -0.30890533805811188 0 -0.4332501760214057 -0.30087153143357381 0 -0.41685691215715509 -0.30930109649741128 0 -0.4332501760214057 -0.30087153143357381 0 -0.42757052793768469 -0.29228452194813848 0 -0.41685691215715509 -0.30930109649741128 0 -0.42757052793768469 -0.29228452194813848 0 -0.4178961798388654 -0.28298229200717562 0 -0.4327043970020254 -0.27535023003423592 0 -0.44447080406530182 -0.29299516923063368 0 -0.4332501760214057 -0.30087153143357381 0 -0.42757052793768469 -0.29228452194813848 0 -0.44447080406530182 -0.29299516923063368 0 -0.42757052793768469 -0.29228452194813848 0 -0.4327043970020254 -0.27535023003423592 0 -0.42757052793768469 -0.29228452194813848 0 -0.41419815221053669 -0.29381049012426219 0 -0.4178961798388654 -0.28298229200717562 0 -0.41419815221053669 -0.29381049012426219 0 -0.4178961798388654 -0.28298229200717562 0 -0.40422095645208378 -0.28639001424183402 0 -0.41419815221053669 -0.29381049012426219 0 -0.40326216481768179 -0.29887417181451648 0 -0.40422095645208378 -0.28639001424183402 0 -0.41419815221053669 -0.29381049012426219 0 -0.41685691215715509 -0.30930109649741128 0 -0.40326216481768179 -0.29887417181451648 0 -0.42757052793768469 -0.29228452194813848 0 -0.41419815221053669 -0.29381049012426219 0 -0.41685691215715509 -0.30930109649741128 0 -0.41685691215715509 -0.30930109649741128 0 -0.40326216481768179 -0.29887417181451648 0 -0.38961136438882871 -0.30969685493671062 0 -0.41685691215715509 -0.30930109649741128 0 -0.38961136438882871 -0.30969685493671062 0 -0.40326216481768179 -0.29887417181451648 0 -0.38961136438882871 -0.30969685493671062 0 -0.3899742320834817 -0.29426019742795068 0 -0.38961136438882871 -0.30969685493671062 0 -0.37601421243779298 -0.29880438855279179 0 -0.36236581662050238 -0.31009261337601002 0 -0.38961136438882871 -0.30969685493671062 0 -0.36236581662050238 -0.31009261337601002 0 -0.38961136438882871 -0.30969685493671062 0 -0.37601421243779298 -0.29880438855279179 0 -0.3899742320834817 -0.29426019742795068 0 -0.37601421243779298 -0.29880438855279179 0 -0.37561185424272958 -0.28395874694458728 0 -0.3899742320834817 -0.29426019742795068 0 -0.37561185424272958 -0.28395874694458728 0 -0.3899742320834817 -0.29426019742795068 0 -0.39067471267408982 -0.27943615650090597 0 -0.3899742320834817 -0.29426019742795068 0 -0.40422095645208378 -0.28639001424183402 0 -0.39067471267408982 -0.27943615650090597 0 -0.40326216481768179 -0.29887417181451648 0 -0.3899742320834817 -0.29426019742795068 0 -0.40422095645208378 -0.28639001424183402 0 -0.39067471267408982 -0.27943615650090597 0 -0.38796331349011443 -0.26301535694688227 0 -0.4107868655919964 -0.26707620368740748 0 -0.40422095645208378 -0.28639001424183402 0 -0.39067471267408982 -0.27943615650090597 0 -0.4107868655919964 -0.26707620368740748 0 -0.37561185424272958 -0.28395874694458728 0 -0.39067471267408982 -0.27943615650090597 0 -0.38796331349011443 -0.26301535694688227 0 -0.37561185424272958 -0.28395874694458728 0 -0.38796331349011443 -0.26301535694688227 0 -0.36732279919872213 -0.2654413245954525 0 -0.38796331349011443 -0.26301535694688227 0 -0.36732279919872213 -0.2654413245954525 0 -0.37841784177742749 -0.23980971929564329 0 -0.38796331349011443 -0.26301535694688227 0 -0.4107868655919964 -0.26707620368740748 0 -0.40532124195949121 -0.24504659159658509 0 -0.4107868655919964 -0.26707620368740748 0 -0.42882862824786411 -0.25215583988111961 0 -0.40532124195949121 -0.24504659159658509 0 -0.4178961798388654 -0.28298229200717562 0 -0.4107868655919964 -0.26707620368740748 0 -0.4327043970020254 -0.27535023003423592 0 -0.4178961798388654 -0.28298229200717562 0 -0.40422095645208378 -0.28639001424183402 0 -0.4107868655919964 -0.26707620368740748 0 -0.4107868655919964 -0.26707620368740748 0 -0.4327043970020254 -0.27535023003423592 0 -0.42882862824786411 -0.25215583988111961 0 -0.44919654988559637 -0.26231446499954891 0 -0.4327043970020254 -0.27535023003423592 0 -0.42882862824786411 -0.25215583988111961 0 -0.33388220215066899 -0.26938809641676248 0 -0.32984033196924661 -0.25079586296346412 0 -0.31218064994829509 -0.26915533526918489 0 -0.32984033196924661 -0.25079586296346412 0 -0.31218064994829509 -0.26915533526918489 0 -0.30719362811525203 -0.24701180601075259 0 -0.33388220215066899 -0.26938809641676248 0 -0.32112075870607748 -0.28475026382318519 0 -0.31218064994829509 -0.26915533526918489 0 -0.33388220215066899 -0.26938809641676248 0 -0.35057898406518961 -0.27052893686032198 0 -0.34054397082749721 -0.28382160779524851 0 -0.33388220215066899 -0.26938809641676248 0 -0.34054397082749721 -0.28382160779524851 0 -0.32112075870607748 -0.28475026382318519 0 -0.33388220215066899 -0.26938809641676248 0 -0.32984033196924661 -0.25079586296346412 0 -0.35074909256490078 -0.2544265487002364 0 -0.35074909256490078 -0.2544265487002364 0 -0.36732279919872213 -0.2654413245954525 0 -0.35057898406518961 -0.27052893686032198 0 -0.33388220215066899 -0.26938809641676248 0 -0.35074909256490078 -0.2544265487002364 0 -0.35057898406518961 -0.27052893686032198 0 -0.35074909256490078 -0.2544265487002364 0 -0.36732279919872213 -0.2654413245954525 0 -0.37841784177742749 -0.23980971929564329 0 -0.37561185424272958 -0.28395874694458728 0 -0.36732279919872213 -0.2654413245954525 0 -0.35929186609741992 -0.28193151482998391 0 -0.36732279919872213 -0.2654413245954525 0 -0.35057898406518961 -0.27052893686032198 0 -0.35929186609741992 -0.28193151482998391 0 -0.35057898406518961 -0.27052893686032198 0 -0.35929186609741992 -0.28193151482998391 0 -0.34054397082749721 -0.28382160779524851 0 -0.34903458605534948 -0.29616185398948891 0 -0.35929186609741992 -0.28193151482998391 0 -0.34054397082749721 -0.28382160779524851 0 -0.34903458605534948 -0.29616185398948891 0 -0.35929186609741992 -0.28193151482998391 0 -0.36310522101906723 -0.2955013232492244 0 -0.37561185424272958 -0.28395874694458728 0 -0.35929186609741992 -0.28193151482998391 0 -0.36310522101906723 -0.2955013232492244 0 -0.37601421243779298 -0.29880438855279179 0 -0.37561185424272958 -0.28395874694458728 0 -0.36310522101906723 -0.2955013232492244 0 -0.37601421243779298 -0.29880438855279179 0 -0.36310522101906723 -0.2955013232492244 0 -0.36236581662050238 -0.31009261337601002 0 -0.34903458605534948 -0.29616185398948891 0 -0.36236581662050238 -0.31009261337601002 0 -0.33512026885217611 -0.31048837181530942 0 -0.36236581662050238 -0.31009261337601002 0 -0.34769919406273581 -0.31143936243172371 0 -0.33512026885217611 -0.31048837181530942 0 -0.36236581662050238 -0.31009261337601002 0 -0.33512026885217611 -0.31048837181530942 0 -0.34903458605534948 -0.29616185398948891 0 -0.36310522101906723 -0.2955013232492244 0 -0.36236581662050238 -0.31009261337601002 0 -0.34903458605534948 -0.29616185398948891 0 -0.33512026885217611 -0.31048837181530942 0 -0.33232400177456378 -0.29561073047331288 0 -0.33232400177456378 -0.29561073047331288 0 -0.34054397082749721 -0.28382160779524851 0 -0.32112075870607748 -0.28475026382318519 0 -0.34903458605534948 -0.29616185398948891 0 -0.33232400177456378 -0.29561073047331288 0 -0.34054397082749721 -0.28382160779524851 0 -0.33232400177456378 -0.29561073047331288 0 -0.32112075870607748 -0.28475026382318519 0 -0.30787472108384972 -0.31088413025460881 0 -0.33512026885217611 -0.31048837181530942 0 -0.30787472108384972 -0.31088413025460881 0 -0.33512026885217611 -0.31048837181530942 0 -0.33232400177456378 -0.29561073047331288 0 -0.30787472108384972 -0.31088413025460881 0 -0.33512026885217611 -0.31048837181530942 0 -0.32163636198306178 -0.32024639559854812 0 -0.30787472108384972 -0.31088413025460881 0 -0.32163636198306178 -0.32024639559854812 0 -0.31355728913290831 -0.33603886095343888 0 -0.30787472108384972 -0.31088413025460881 0 -0.32163636198306178 -0.32024639559854812 0 -0.3217915825688924 -0.33028857235237691 0 -0.33148268432408778 -0.32127107221978018 0 -0.31355728913290831 -0.33603886095343888 0 -0.33116601415357277 -0.33389265890094261 0 -0.3146328342444098 -0.3563459553701615 0 -0.31355728913290831 -0.33603886095343888 0 -0.3217915825688924 -0.33028857235237691 0 -0.33116601415357277 -0.33389265890094261 0 -0.32163636198306178 -0.32024639559854812 0 -0.31355728913290831 -0.33603886095343888 0 -0.3217915825688924 -0.33028857235237691 0 -0.3217915825688924 -0.33028857235237691 0 -0.33116601415357277 -0.33389265890094261 0 -0.33148268432408778 -0.32127107221978018 0 -0.33116601415357277 -0.33389265890094261 0 -0.33788176694242672 -0.33783194617508178 0 -0.3297568272425534 -0.35103994892808282 0 -0.33788176694242672 -0.33783194617508178 0 -0.34375779874313928 -0.33308924293559911 0 -0.34935892082742248 -0.34060338741810448 0 -0.33788176694242672 -0.33783194617508178 0 -0.34935892082742248 -0.34060338741810448 0 -0.34317087225446768 -0.35273705813562339 0 -0.33116601415357277 -0.33389265890094261 0 -0.33788176694242672 -0.33783194617508178 0 -0.34375779874313928 -0.33308924293559911 0 -0.33116601415357277 -0.33389265890094261 0 -0.34657827200387681 -0.32553674475895789 0 -0.34375779874313928 -0.33308924293559911 0 -0.34769919406273581 -0.31143936243172371 0 -0.33512026885217611 -0.31048837181530942 0 -0.33148268432408778 -0.32127107221978018 0 -0.34769919406273581 -0.31143936243172371 0 -0.33116601415357277 -0.33389265890094261 0 -0.34657827200387681 -0.32553674475895789 0 -0.34769919406273581 -0.31143936243172371 0 -0.33116601415357277 -0.33389265890094261 0 -0.33148268432408778 -0.32127107221978018 0 -0.34769919406273581 -0.31143936243172371 0 -0.33116601415357277 -0.33389265890094261 0 -0.33512026885217611 -0.31048837181530942 0 -0.32163636198306178 -0.32024639559854812 0 -0.33148268432408778 -0.32127107221978018 0 -0.34769919406273581 -0.31143936243172371 0 -0.34657827200387681 -0.32553674475895789 0 -0.35556912750832392 -0.3201030008425767 0 -0.34657827200387681 -0.32553674475895789 0 -0.35556912750832392 -0.3201030008425767 0 -0.35460986986074522 -0.33080520357181142 0 -0.35556912750832392 -0.3201030008425767 0 -0.36641377361202621 -0.32593256985010838 0 -0.35460986986074522 -0.33080520357181142 0 -0.36236581662050238 -0.31009261337601002 0 -0.34769919406273581 -0.31143936243172371 0 -0.35556912750832392 -0.3201030008425767 0 -0.37955177908716492 -0.31820863356870771 0 -0.36236581662050238 -0.31009261337601002 0 -0.36641377361202621 -0.32593256985010838 0 -0.36236581662050238 -0.31009261337601002 0 -0.35556912750832392 -0.3201030008425767 0 -0.36641377361202621 -0.32593256985010838 0 -0.36641377361202621 -0.32593256985010838 0 -0.35460986986074522 -0.33080520357181142 0 -0.36285937887654318 -0.34594354538726002 0 -0.38254788549861879 -0.33915003263889681 0 -0.36285937887654318 -0.34594354538726002 0 -0.38254788549861879 -0.33915003263889681 0 -0.36641377361202621 -0.32593256985010838 0 -0.36285937887654318 -0.34594354538726002 0 -0.35460986986074522 -0.33080520357181142 0 -0.34935892082742248 -0.34060338741810448 0 -0.36285937887654318 -0.34594354538726002 0 -0.35460986986074522 -0.33080520357181142 0 -0.34375779874313928 -0.33308924293559911 0 -0.34935892082742248 -0.34060338741810448 0 -0.34657827200387681 -0.32553674475895789 0 -0.35460986986074522 -0.33080520357181142 0 -0.34375779874313928 -0.33308924293559911 0 -0.36285937887654318 -0.34594354538726002 0 -0.35922548982052238 -0.36409236607339762 0 -0.35103083868427831 -0.35945179300877728 0 -0.36285937887654318 -0.34594354538726002 0 -0.34317087225446768 -0.35273705813562339 0 -0.34935892082742248 -0.34060338741810448 0 -0.36285937887654318 -0.34594354538726002 0 -0.34317087225446768 -0.35273705813562339 0 -0.36285937887654318 -0.34594354538726002 0 -0.35103083868427831 -0.35945179300877728 0 -0.34317087225446768 -0.35273705813562339 0 -0.35103083868427831 -0.35945179300877728 0 -0.3392415273444972 -0.36319295202807 0 -0.34317087225446768 -0.35273705813562339 0 -0.38254788549861879 -0.33915003263889681 0 -0.36285937887654318 -0.34594354538726002 0 -0.37126441836838858 -0.35831088099670722 0 -0.36285937887654318 -0.34594354538726002 0 -0.37126441836838858 -0.35831088099670722 0 -0.35922548982052238 -0.36409236607339762 0 -0.37126441836838858 -0.35831088099670722 0 -0.35922548982052238 -0.36409236607339762 0 -0.36581332631384972 -0.37995636686610401 0 -0.38587601133240879 -0.36241209401787738 0 -0.37126441836838858 -0.35831088099670722 0 -0.36581332631384972 -0.37995636686610401 0 -0.35922548982052238 -0.36409236607339762 0 -0.35065692512536112 -0.3712930434195354 0 -0.36581332631384972 -0.37995636686610401 0 -0.35922548982052238 -0.36409236607339762 0 -0.35103083868427831 -0.35945179300877728 0 -0.35065692512536112 -0.3712930434195354 0 -0.35103083868427831 -0.35945179300877728 0 -0.35065692512536112 -0.3712930434195354 0 -0.3392415273444972 -0.36319295202807 0 -0.35065692512536112 -0.3712930434195354 0 -0.3392415273444972 -0.36319295202807 0 -0.34060128774656773 -0.38855395788105829 0 -0.3392415273444972 -0.36319295202807 0 -0.3263621833259317 -0.36216242319537972 0 -0.32181754447226668 -0.3780708364552049 0 -0.33788176694242672 -0.33783194617508178 0 -0.3392415273444972 -0.36319295202807 0 -0.33788176694242672 -0.33783194617508178 0 -0.3392415273444972 -0.36319295202807 0 -0.3297568272425534 -0.35103994892808282 0 -0.33788176694242672 -0.33783194617508178 0 -0.3392415273444972 -0.36319295202807 0 -0.34317087225446768 -0.35273705813562339 0 -0.3392415273444972 -0.36319295202807 0 -0.3297568272425534 -0.35103994892808282 0 -0.3263621833259317 -0.36216242319537972 0 -0.3297568272425534 -0.35103994892808282 0 -0.3146328342444098 -0.3563459553701615 0 -0.3263621833259317 -0.36216242319537972 0 -0.33116601415357277 -0.33389265890094261 0 -0.3146328342444098 -0.3563459553701615 0 -0.33116601415357277 -0.33389265890094261 0 -0.3297568272425534 -0.35103994892808282 0 -0.3146328342444098 -0.3563459553701615 0 -0.3146328342444098 -0.3563459553701615 0 -0.3263621833259317 -0.36216242319537972 0 -0.32181754447226668 -0.3780708364552049 0 -0.3146328342444098 -0.3563459553701615 0 -0.29607839423882271 -0.3545489812385032 0 -0.29809965433524688 -0.3787992518393804 0 -0.3146328342444098 -0.3563459553701615 0 -0.29809965433524688 -0.3787992518393804 0 -0.3146328342444098 -0.3563459553701615 0 -0.32181754447226668 -0.3780708364552049 0 -0.29809965433524688 -0.3787992518393804 0 -0.31355728913290831 -0.33603886095343888 0 -0.3146328342444098 -0.3563459553701615 0 -0.29607839423882271 -0.3545489812385032 0 -0.29607839423882271 -0.3545489812385032 0 -0.28155525099076062 -0.36358541887296453 0 -0.28079857886493342 -0.34637354705590762 0 -0.29607839423882271 -0.3545489812385032 0 -0.28079857886493342 -0.34637354705590762 0 -0.29357876790270931 -0.33126777857739992 0 -0.28155525099076062 -0.36358541887296453 0 -0.29809965433524688 -0.3787992518393804 0 -0.27383786267576338 -0.37723989406079328 0 -0.29607839423882271 -0.3545489812385032 0 -0.28155525099076062 -0.36358541887296453 0 -0.29809965433524688 -0.3787992518393804 0 -0.28155525099076062 -0.36358541887296453 0 -0.26749330375595309 -0.36574792493667641 0 -0.27383786267576338 -0.37723989406079328 0 -0.28155525099076062 -0.36358541887296453 0 -0.26749330375595309 -0.36574792493667641 0 -0.27136251501539588 -0.35516938163789369 0 -0.26749330375595309 -0.36574792493667641 0 -0.25956752822520718 -0.35768893958524112 0 -0.27136251501539588 -0.35516938163789369 0 -0.26749330375595309 -0.36574792493667641 0 -0.27383786267576338 -0.37723989406079328 0 -0.26087154130867102 -0.37528427971471501 0 -0.26749330375595309 -0.36574792493667641 0 -0.25678206908687751 -0.36504934985239412 0 -0.26087154130867102 -0.37528427971471501 0 -0.26749330375595309 -0.36574792493667641 0 -0.25678206908687751 -0.36504934985239412 0 -0.25956752822520718 -0.35768893958524112 0 -0.25678206908687751 -0.36504934985239412 0 -0.25026491295981063 -0.3591533028701196 0 -0.24729727552769459 -0.36636066369430792 0 -0.25678206908687751 -0.36504934985239412 0 -0.25026491295981063 -0.3591533028701196 0 -0.25956752822520718 -0.35768893958524112 0 -0.25678206908687751 -0.36504934985239412 0 -0.26087154130867102 -0.37528427971471501 0 -0.24729727552769459 -0.36636066369430792 0 -0.25956752822520718 -0.35768893958524112 0 -0.26457490749728863 -0.34281434295660618 0 -0.24892009194236051 -0.34920057363171508 0 -0.25026491295981063 -0.3591533028701196 0 -0.25956752822520718 -0.35768893958524112 0 -0.24892009194236051 -0.34920057363171508 0 -0.25956752822520718 -0.35768893958524112 0 -0.27136251501539588 -0.35516938163789369 0 -0.26457490749728863 -0.34281434295660618 0 -0.28155525099076062 -0.36358541887296453 0 -0.28079857886493342 -0.34637354705590762 0 -0.27136251501539588 -0.35516938163789369 0 -0.28079857886493342 -0.34637354705590762 0 -0.27136251501539588 -0.35516938163789369 0 -0.26457490749728863 -0.34281434295660618 0 -0.27764163754462362 -0.33085537905207829 0 -0.26457490749728863 -0.34281434295660618 0 -0.26166413941430922 -0.32692630432673292 0 -0.28079857886493342 -0.34637354705590762 0 -0.27764163754462362 -0.33085537905207829 0 -0.26457490749728863 -0.34281434295660618 0 -0.26457490749728863 -0.34281434295660618 0 -0.26166413941430922 -0.32692630432673292 0 -0.2478142613430229 -0.33633621555486087 0 -0.26166413941430922 -0.32692630432673292 0 -0.2478142613430229 -0.33633621555486087 0 -0.24142044924060299 -0.32458422323193992 0 -0.26457490749728863 -0.34281434295660618 0 -0.24892009194236051 -0.34920057363171508 0 -0.2478142613430229 -0.33633621555486087 0 -0.26166413941430922 -0.32692630432673292 0 -0.25338362554719701 -0.31167564713320761 0 -0.24142044924060299 -0.32458422323193992 0 -0.26166413941430922 -0.32692630432673292 0 -0.28062917331552328 -0.31127988869390821 0 -0.25338362554719701 -0.31167564713320761 0 -0.27764163754462362 -0.33085537905207829 0 -0.26166413941430922 -0.32692630432673292 0 -0.28062917331552328 -0.31127988869390821 0 -0.29357876790270931 -0.33126777857739992 0 -0.30787472108384972 -0.31088413025460881 0 -0.28062917331552328 -0.31127988869390821 0 -0.27764163754462362 -0.33085537905207829 0 -0.29357876790270931 -0.33126777857739992 0 -0.28062917331552328 -0.31127988869390821 0 -0.28079857886493342 -0.34637354705590762 0 -0.27764163754462362 -0.33085537905207829 0 -0.29357876790270931 -0.33126777857739992 0 -0.31355728913290831 -0.33603886095343888 0 -0.29607839423882271 -0.3545489812385032 0 -0.29357876790270931 -0.33126777857739992 0 -0.31355728913290831 -0.33603886095343888 0 -0.29357876790270931 -0.33126777857739992 0 -0.30787472108384972 -0.31088413025460881 0 -0.32112075870607748 -0.28475026382318519 0 -0.30787472108384972 -0.31088413025460881 0 -0.29898647704673642 -0.28936424762456497 0 -0.29898647704673642 -0.28936424762456497 0 -0.28062917331552328 -0.31127988869390821 0 -0.27796384121231688 -0.28253747763899267 0 -0.30787472108384972 -0.31088413025460881 0 -0.28062917331552328 -0.31127988869390821 0 -0.30787472108384972 -0.31088413025460881 0 -0.29898647704673642 -0.28936424762456497 0 -0.28062917331552328 -0.31127988869390821 0 -0.28062917331552328 -0.31127988869390821 0 -0.25338362554719701 -0.31167564713320761 0 -0.28062917331552328 -0.31127988869390821 0 -0.25338362554719701 -0.31167564713320761 0 -0.26439216560968543 -0.29665932923510169 0 -0.25338362554719701 -0.31167564713320761 0 -0.26439216560968543 -0.29665932923510169 0 -0.2434535477117922 -0.29604589628799077 0 -0.26439216560968543 -0.29665932923510169 0 -0.25360365773395499 -0.27985881362419779 0 -0.2434535477117922 -0.29604589628799077 0 -0.26439216560968543 -0.29665932923510169 0 -0.27796384121231688 -0.28253747763899267 0 -0.25360365773395499 -0.27985881362419779 0 -0.28062917331552328 -0.31127988869390821 0 -0.26439216560968543 -0.29665932923510169 0 -0.27796384121231688 -0.28253747763899267 0 -0.27796384121231688 -0.28253747763899267 0 -0.2684958022756625 -0.26238831904624688 0 -0.29029076740386378 -0.26554591655984211 0 -0.27796384121231688 -0.28253747763899267 0 -0.25360365773395499 -0.27985881362419779 0 -0.2684958022756625 -0.26238831904624688 0 -0.25360365773395499 -0.27985881362419779 0 -0.2524625491404241 -0.26148940870638571 0 -0.2684958022756625 -0.26238831904624688 0 -0.2524625491404241 -0.26148940870638571 0 -0.2684958022756625 -0.26238831904624688 0 -0.25723666982714699 -0.23820841720532429 0 -0.2524625491404241 -0.26148940870638571 0 -0.24130044097179529 -0.25564058872725781 0 -0.25723666982714699 -0.23820841720532429 0 -0.2684958022756625 -0.26238831904624688 0 -0.29029076740386378 -0.26554591655984211 0 -0.28246916049422771 -0.24363196748454599 0 -0.29029076740386378 -0.26554591655984211 0 -0.30719362811525203 -0.24701180601075259 0 -0.28246916049422771 -0.24363196748454599 0 -0.29898647704673642 -0.28936424762456497 0 -0.27796384121231688 -0.28253747763899267 0 -0.29029076740386378 -0.26554591655984211 0 -0.32112075870607748 -0.28475026382318519 0 -0.29898647704673642 -0.28936424762456497 0 -0.31218064994829509 -0.26915533526918489 0 -0.29898647704673642 -0.28936424762456497 0 -0.29029076740386378 -0.26554591655984211 0 -0.31218064994829509 -0.26915533526918489 0 -0.29029076740386378 -0.26554591655984211 0 -0.31218064994829509 -0.26915533526918489 0 -0.30719362811525203 -0.24701180601075259 0 -0.3360496584152256 -0.46609633961326868 0 -0.34466838681126372 -0.47729461484920249 0 -0.34866387940125732 -0.45890183351767561 0 -0.33847577795391359 -0.45174014852098099 0 -0.32639545128290848 -0.44518076140751339 0 -0.32429218391657699 -0.46297124485581381 0 -0.33847577795391359 -0.45174014852098099 0 -0.32429218391657699 -0.46297124485581381 0 -0.3360496584152256 -0.46609633961326868 0 -0.33847577795391359 -0.45174014852098099 0 -0.32429218391657699 -0.46297124485581381 0 -0.3360496584152256 -0.46609633961326868 0 -0.33847577795391359 -0.45174014852098099 0 -0.34866387940125732 -0.45890183351767561 0 -0.33847577795391359 -0.45174014852098099 0 -0.33883933262238752 -0.43916582003835247 0 -0.35265937199125041 -0.44050905218614861 0 -0.33883933262238752 -0.43916582003835247 0 -0.32639545128290848 -0.44518076140751339 0 -0.3316925784917612 -0.4299361554316431 0 -0.33847577795391359 -0.45174014852098099 0 -0.33883933262238752 -0.43916582003835247 0 -0.32639545128290848 -0.44518076140751339 0 -0.32639545128290848 -0.44518076140751339 0 -0.31219063069865949 -0.43024503353025367 0 -0.30919822363189808 -0.45152240856312681 0 -0.32639545128290848 -0.44518076140751339 0 -0.32429218391657699 -0.46297124485581381 0 -0.30919822363189808 -0.45152240856312681 0 -0.32429218391657699 -0.46297124485581381 0 -0.30919822363189808 -0.45152240856312681 0 -0.30468036048384167 -0.47262618343166463 0 -0.32414806399311608 -0.47957385632267069 0 -0.34098199040941901 -0.5 0 -0.29318389804380351 -0.5 0 -0.32429218391657699 -0.46297124485581381 0 -0.32414806399311608 -0.47957385632267069 0 -0.30468036048384167 -0.47262618343166463 0 -0.32414806399311608 -0.47957385632267069 0 -0.34098199040941901 -0.5 0 -0.34466838681126372 -0.47729461484920249 0 -0.3360496584152256 -0.46609633961326868 0 -0.32414806399311608 -0.47957385632267069 0 -0.34466838681126372 -0.47729461484920249 0 -0.3360496584152256 -0.46609633961326868 0 -0.32429218391657699 -0.46297124485581381 0 -0.32414806399311608 -0.47957385632267069 0 -0.34466838681126372 -0.47729461484920249 0 -0.36213163233952028 -0.47093163540063759 0 -0.34866387940125732 -0.45890183351767561 0 -0.34098199040941901 -0.5 0 -0.34466838681126372 -0.47729461484920249 0 -0.36213163233952028 -0.47093163540063759 0 -0.38759267533556718 -0.47559526880853242 0 -0.34098199040941901 -0.5 0 -0.36213163233952028 -0.47093163540063759 0 -0.37513886376503969 -0.454883812589926 0 -0.36213163233952028 -0.47093163540063759 0 -0.36090849313365653 -0.45293890079502708 0 -0.37513886376503969 -0.454883812589926 0 -0.38759267533556718 -0.47559526880853242 0 -0.36213163233952028 -0.47093163540063759 0 -0.36213163233952028 -0.47093163540063759 0 -0.34866387940125732 -0.45890183351767561 0 -0.36090849313365653 -0.45293890079502708 0 -0.34466838681126372 -0.47729461484920249 0 -0.34866387940125732 -0.45890183351767561 0 -0.34866387940125732 -0.45890183351767561 0 -0.35265937199125041 -0.44050905218614861 0 -0.34866387940125732 -0.45890183351767561 0 -0.35265937199125041 -0.44050905218614861 0 -0.36090849313365653 -0.45293890079502708 0 -0.33847577795391359 -0.45174014852098099 0 -0.34866387940125732 -0.45890183351767561 0 -0.35265937199125041 -0.44050905218614861 0 -0.33847577795391359 -0.45174014852098099 0 -0.35265937199125041 -0.44050905218614861 0 -0.35265937199125041 -0.44050905218614861 0 -0.36090849313365653 -0.45293890079502708 0 -0.36731772627169001 -0.44175453757713468 0 -0.37802410117383278 -0.44029102242635232 0 -0.37513886376503969 -0.454883812589926 0 -0.36731772627169001 -0.44175453757713468 0 -0.37513886376503969 -0.454883812589926 0 -0.36090849313365653 -0.45293890079502708 0 -0.36731772627169001 -0.44175453757713468 0 -0.37802410117383278 -0.44029102242635232 0 -0.36731772627169001 -0.44175453757713468 0 -0.37259581749562137 -0.42472263448099368 0 -0.35265937199125041 -0.44050905218614861 0 -0.37259581749562137 -0.42472263448099368 0 -0.35704402343211711 -0.42032482374613378 0 -0.35265937199125041 -0.44050905218614861 0 -0.36731772627169001 -0.44175453757713468 0 -0.37259581749562137 -0.42472263448099368 0 -0.35265937199125041 -0.44050905218614861 0 -0.37259581749562137 -0.42472263448099368 0 -0.37790358185114742 -0.41187606795758031 0 -0.37259581749562137 -0.42472263448099368 0 -0.36755312332697798 -0.41352947444553873 0 -0.36755312332697798 -0.41352947444553873 0 -0.35704402343211711 -0.42032482374613378 0 -0.36142867487298341 -0.40014059530611878 0 -0.37790358185114742 -0.41187606795758031 0 -0.37270150913827438 -0.40629795572893979 0 -0.36755312332697798 -0.41352947444553873 0 -0.37270150913827438 -0.40629795572893979 0 -0.36755312332697798 -0.41352947444553873 0 -0.36142867487298341 -0.40014059530611878 0 -0.37259581749562137 -0.42472263448099368 0 -0.36755312332697798 -0.41352947444553873 0 -0.35704402343211711 -0.42032482374613378 0 -0.35704402343211711 -0.42032482374613378 0 -0.36142867487298341 -0.40014059530611878 0 -0.3419610481486382 -0.41391496373404651 0 -0.35704402343211711 -0.42032482374613378 0 -0.36142867487298341 -0.40014059530611878 0 -0.35704402343211711 -0.42032482374613378 0 -0.34497348339210349 -0.42846298264547611 0 -0.3419610481486382 -0.41391496373404651 0 -0.35265937199125041 -0.44050905218614861 0 -0.35704402343211711 -0.42032482374613378 0 -0.34497348339210349 -0.42846298264547611 0 -0.35265937199125041 -0.44050905218614861 0 -0.35704402343211711 -0.42032482374613378 0 -0.33883933262238752 -0.43916582003835247 0 -0.35265937199125041 -0.44050905218614861 0 -0.34497348339210349 -0.42846298264547611 0 -0.36581332631384972 -0.37995636686610401 0 -0.36142867487298341 -0.40014059530611878 0 -0.37658995856295657 -0.38657385581986459 0 -0.36581332631384972 -0.37995636686610401 0 -0.36142867487298341 -0.40014059530611878 0 -0.37734110255115211 -0.39748869041215379 0 -0.37658995856295657 -0.38657385581986459 0 -0.36142867487298341 -0.40014059530611878 0 -0.37734110255115211 -0.39748869041215379 0 -0.37270150913827438 -0.40629795572893979 0 -0.36142867487298341 -0.40014059530611878 0 -0.36142867487298341 -0.40014059530611878 0 -0.34060128774656773 -0.38855395788105829 0 -0.3419610481486382 -0.41391496373404651 0 -0.35065692512536112 -0.3712930434195354 0 -0.36581332631384972 -0.37995636686610401 0 -0.34060128774656773 -0.38855395788105829 0 -0.36581332631384972 -0.37995636686610401 0 -0.36142867487298341 -0.40014059530611878 0 -0.34060128774656773 -0.38855395788105829 0 -0.3392415273444972 -0.36319295202807 0 -0.34060128774656773 -0.38855395788105829 0 -0.34060128774656773 -0.38855395788105829 0 -0.33145686060527141 -0.40307904428564723 0 -0.32181754447226668 -0.3780708364552049 0 -0.3392415273444972 -0.36319295202807 0 -0.34060128774656773 -0.38855395788105829 0 -0.32181754447226668 -0.3780708364552049 0 -0.34060128774656773 -0.38855395788105829 0 -0.3419610481486382 -0.41391496373404651 0 -0.34060128774656773 -0.38855395788105829 0 -0.33145686060527141 -0.40307904428564723 0 -0.3419610481486382 -0.41391496373404651 0 -0.33145686060527141 -0.40307904428564723 0 -0.31637389431742879 -0.40256989381845759 0 -0.32181754447226668 -0.3780708364552049 0 -0.31637389431742879 -0.40256989381845759 0 -0.32181754447226668 -0.3780708364552049 0 -0.29975986692871948 -0.39643262120846567 0 -0.34497348339210349 -0.42846298264547611 0 -0.3316925784917612 -0.4299361554316431 0 -0.3419610481486382 -0.41391496373404651 0 -0.33883933262238752 -0.43916582003835247 0 -0.34497348339210349 -0.42846298264547611 0 -0.3316925784917612 -0.4299361554316431 0 -0.33145686060527141 -0.40307904428564723 0 -0.3419610481486382 -0.41391496373404651 0 -0.3247124036686253 -0.41639931136354003 0 -0.3316925784917612 -0.4299361554316431 0 -0.3419610481486382 -0.41391496373404651 0 -0.3247124036686253 -0.41639931136354003 0 -0.33145686060527141 -0.40307904428564723 0 -0.31637389431742879 -0.40256989381845759 0 -0.3247124036686253 -0.41639931136354003 0 -0.31637389431742879 -0.40256989381845759 0 -0.3247124036686253 -0.41639931136354003 0 -0.31052480311807762 -0.41496050068559659 0 -0.3247124036686253 -0.41639931136354003 0 -0.31219063069865949 -0.43024503353025367 0 -0.31052480311807762 -0.41496050068559659 0 -0.32639545128290848 -0.44518076140751339 0 -0.3316925784917612 -0.4299361554316431 0 -0.31219063069865949 -0.43024503353025367 0 -0.3316925784917612 -0.4299361554316431 0 -0.3247124036686253 -0.41639931136354003 0 -0.31219063069865949 -0.43024503353025367 0 -0.31219063069865949 -0.43024503353025367 0 -0.29303660088812938 -0.41567663997153809 0 -0.29399508199164609 -0.43906628826587718 0 -0.31052480311807762 -0.41496050068559659 0 -0.29303660088812938 -0.41567663997153809 0 -0.29975986692871948 -0.39643262120846567 0 -0.31219063069865949 -0.43024503353025367 0 -0.31052480311807762 -0.41496050068559659 0 -0.29303660088812938 -0.41567663997153809 0 -0.29303660088812938 -0.41567663997153809 0 -0.27823815338127478 -0.4306671931060877 0 -0.29399508199164609 -0.43906628826587718 0 -0.32181754447226668 -0.3780708364552049 0 -0.29809965433524688 -0.3787992518393804 0 -0.29975986692871948 -0.39643262120846567 0 -0.31637389431742879 -0.40256989381845759 0 -0.31052480311807762 -0.41496050068559659 0 -0.29975986692871948 -0.39643262120846567 0 -0.29303660088812938 -0.41567663997153809 0 -0.29975986692871948 -0.39643262120846567 0 -0.27757273357882162 -0.39352423687199051 0 -0.29809965433524688 -0.3787992518393804 0 -0.29975986692871948 -0.39643262120846567 0 -0.27757273357882162 -0.39352423687199051 0 -0.29809965433524688 -0.3787992518393804 0 -0.27383786267576338 -0.37723989406079328 0 -0.27757273357882162 -0.39352423687199051 0 -0.27383786267576338 -0.37723989406079328 0 -0.27757273357882162 -0.39352423687199051 0 -0.25449735385820349 -0.38372889264791998 0 -0.27757273357882162 -0.39352423687199051 0 -0.25449735385820349 -0.38372889264791998 0 -0.27757273357882162 -0.39352423687199051 0 -0.27185334156219793 -0.41507660983590938 0 -0.25430814362330401 -0.40911952683226133 0 -0.27757273357882162 -0.39352423687199051 0 -0.25120937307449159 -0.39573472274994997 0 -0.25430814362330401 -0.40911952683226133 0 -0.27757273357882162 -0.39352423687199051 0 -0.25120937307449159 -0.39573472274994997 0 -0.25449735385820349 -0.38372889264791998 0 -0.27383786267576338 -0.37723989406079328 0 -0.25449735385820349 -0.38372889264791998 0 -0.26087154130867102 -0.37528427971471501 0 -0.27823815338127478 -0.4306671931060877 0 -0.25611107633945979 -0.42639545239766968 0 -0.27298784726515368 -0.44815848930390251 0 -0.27823815338127478 -0.4306671931060877 0 -0.25611107633945979 -0.42639545239766968 0 -0.27823815338127478 -0.4306671931060877 0 -0.27185334156219793 -0.41507660983590938 0 -0.25611107633945979 -0.42639545239766968 0 -0.29303660088812938 -0.41567663997153809 0 -0.27757273357882162 -0.39352423687199051 0 -0.27185334156219793 -0.41507660983590938 0 -0.29303660088812938 -0.41567663997153809 0 -0.27823815338127478 -0.4306671931060877 0 -0.27185334156219793 -0.41507660983590938 0 -0.27185334156219793 -0.41507660983590938 0 -0.25430814362330401 -0.40911952683226133 0 -0.25611107633945979 -0.42639545239766968 0 -0.26050370710005849 -0.46308578193529998 0 -0.27298784726515368 -0.44815848930390251 0 -0.24655895640252171 -0.44608312833632618 0 -0.25611107633945979 -0.42639545239766968 0 -0.27298784726515368 -0.44815848930390251 0 -0.24655895640252171 -0.44608312833632618 0 -0.26050370710005849 -0.46308578193529998 0 -0.27298784726515368 -0.44815848930390251 0 -0.27772552916503429 -0.47524520285804561 0 -0.27823815338127478 -0.4306671931060877 0 -0.27298784726515368 -0.44815848930390251 0 -0.29399508199164609 -0.43906628826587718 0 -0.27298784726515368 -0.44815848930390251 0 -0.29399508199164609 -0.43906628826587718 0 -0.29363563341775578 -0.45904493988763773 0 -0.27298784726515368 -0.44815848930390251 0 -0.29363563341775578 -0.45904493988763773 0 -0.27772552916503429 -0.47524520285804561 0 -0.29363563341775578 -0.45904493988763773 0 -0.30919822363189808 -0.45152240856312681 0 -0.30468036048384167 -0.47262618343166463 0 -0.31219063069865949 -0.43024503353025367 0 -0.29399508199164609 -0.43906628826587718 0 -0.30919822363189808 -0.45152240856312681 0 -0.29399508199164609 -0.43906628826587718 0 -0.29363563341775578 -0.45904493988763773 0 -0.30919822363189808 -0.45152240856312681 0 -0.32414806399311608 -0.47957385632267069 0 -0.30468036048384167 -0.47262618343166463 0 -0.29318389804380351 -0.5 0 -0.29363563341775578 -0.45904493988763773 0 -0.30468036048384167 -0.47262618343166463 0 -0.27772552916503429 -0.47524520285804561 0 -0.30468036048384167 -0.47262618343166463 0 -0.29318389804380351 -0.5 0 -0.27772552916503429 -0.47524520285804561 0 -0.29318389804380351 -0.5 0 -0.27772552916503429 -0.47524520285804561 0 -0.25882561554991551 -0.5 0 -0.26050370710005849 -0.46308578193529998 0 -0.27772552916503429 -0.47524520285804561 0 -0.25378798349788151 -0.48023301639570842 0 -0.26050370710005849 -0.46308578193529998 0 -0.25378798349788151 -0.48023301639570842 0 -0.2375601964997095 -0.47036315076924351 0 -0.27772552916503429 -0.47524520285804561 0 -0.25378798349788151 -0.48023301639570842 0 -0.25882561554991551 -0.5 0 -0.25882561554991551 -0.5 0 -0.23286891464354079 -0.5 0 -0.23432486917469 -0.49247094641595268 0 -0.25378798349788151 -0.48023301639570842 0 -0.25882561554991551 -0.5 0 -0.23432486917469 -0.49247094641595268 0 -0.25882561554991551 -0.5 0 -0.23432486917469 -0.49247094641595268 0 -0.25378798349788151 -0.48023301639570842 0 -0.2375601964997095 -0.47036315076924351 0 -0.23432486917469 -0.49247094641595268 0 -0.2375601964997095 -0.47036315076924351 0 -0.2129328262352585 -0.46352025284240211 0 -0.20982412279946461 -0.48494189283190531 0 -0.2375601964997095 -0.47036315076924351 0 -0.23432486917469 -0.49247094641595268 0 -0.20982412279946461 -0.48494189283190531 0 -0.23432486917469 -0.49247094641595268 0 -0.20982412279946461 -0.48494189283190531 0 -0.23286891464354079 -0.5 0 -0.23432486917469 -0.49247094641595268 0 -0.20982412279946461 -0.48494189283190531 0 -0.2375601964997095 -0.47036315076924351 0 -0.24655895640252171 -0.44608312833632618 0 -0.23141223475870479 -0.45483723961351891 0 -0.26050370710005849 -0.46308578193529998 0 -0.2375601964997095 -0.47036315076924351 0 -0.24655895640252171 -0.44608312833632618 0 -0.2375601964997095 -0.47036315076924351 0 -0.23141223475870479 -0.45483723961351891 0 -0.2129328262352585 -0.46352025284240211 0 -0.24655895640252171 -0.44608312833632618 0 -0.23141223475870479 -0.45483723961351891 0 -0.22288989310954821 -0.43929297992095367 0 -0.23141223475870479 -0.45483723961351891 0 -0.22288989310954821 -0.43929297992095367 0 -0.2129328262352585 -0.46352025284240211 0 -0.22288989310954821 -0.43929297992095367 0 -0.2129328262352585 -0.46352025284240211 0 -0.2030124069786316 -0.43770559373650741 0 -0.2129328262352585 -0.46352025284240211 0 -0.19416789170143481 -0.45755921649218229 0 -0.2030124069786316 -0.43770559373650741 0 -0.2129328262352585 -0.46352025284240211 0 -0.19416789170143481 -0.45755921649218229 0 -0.18532337642423921 -0.47741283924785771 0 -0.19416789170143481 -0.45755921649218229 0 -0.18532337642423921 -0.47741283924785771 0 -0.19416789170143481 -0.45755921649218229 0 -0.2030124069786316 -0.43770559373650741 0 -0.17768692149640239 -0.43846214753236129 0 -0.19416789170143481 -0.45755921649218229 0 -0.2030124069786316 -0.43770559373650741 0 -0.23286891464354079 -0.5 0 -0.20982412279946461 -0.48494189283190531 0 -0.2069122137371662 -0.50000000000000211 0 -0.20982412279946461 -0.48494189283190531 0 -0.1808515328719367 -0.48745095802850752 0 -0.18532337642423921 -0.47741283924785771 0 -0.20982412279946461 -0.48494189283190531 0 -0.18532337642423921 -0.47741283924785771 0 -0.2129328262352585 -0.46352025284240211 0 -0.20982412279946461 -0.48494189283190531 0 -0.18532337642423921 -0.47741283924785771 0 -0.20982412279946461 -0.48494189283190531 0 -0.2069122137371662 -0.50000000000000211 0 -0.1808515328719367 -0.48745095802850752 0 -0.2069122137371662 -0.50000000000000211 0 -0.19108666069280339 -0.5 0 -0.1808515328719367 -0.48745095802850752 0 -0.2069122137371662 -0.50000000000000211 0 -0.1808515328719367 -0.48745095802850752 0 -0.19108666069280339 -0.5 0 -0.1808515328719367 -0.48745095802850752 0 -0.17526110764844061 -0.50000000000000366 0 -0.1808515328719367 -0.48745095802850752 0 -0.17526110764844061 -0.50000000000000366 0 -0.1808515328719367 -0.48745095802850752 0 -0.17526110764844061 -0.50000000000000366 0 -0.16567779141247579 -0.49134063859783861 0 -0.17526110764844061 -0.50000000000000366 0 -0.16567779141247579 -0.49134063859783861 0 -0.1551343834230656 -0.49999999999999689 0 -0.1808515328719367 -0.48745095802850752 0 -0.16567779141247579 -0.49134063859783861 0 -0.16424314294032191 -0.47945349305786289 0 -0.16567779141247579 -0.49134063859783861 0 -0.16424314294032191 -0.47945349305786289 0 -0.1552030103868699 -0.48582255634916099 0 -0.16567779141247579 -0.49134063859783861 0 -0.1551343834230656 -0.49999999999999689 0 -0.1552030103868699 -0.48582255634916099 0 -0.16716270666720501 -0.47183208453823139 0 -0.1490020369101708 -0.46625132982860501 0 -0.16424314294032191 -0.47945349305786289 0 -0.16716270666720501 -0.47183208453823139 0 -0.14763475300870679 -0.47145602808721898 0 -0.16424314294032191 -0.47945349305786289 0 -0.16716270666720501 -0.47183208453823139 0 -0.1746562736699073 -0.47907258429009908 0 -0.16716270666720501 -0.47183208453823139 0 -0.1746562736699073 -0.47907258429009908 0 -0.18532337642423921 -0.47741283924785771 0 -0.16716270666720501 -0.47183208453823139 0 -0.18532337642423921 -0.47741283924785771 0 -0.17716636074153619 -0.46064321481433712 0 -0.1808515328719367 -0.48745095802850752 0 -0.16424314294032191 -0.47945349305786289 0 -0.1808515328719367 -0.48745095802850752 0 -0.16424314294032191 -0.47945349305786289 0 -0.1746562736699073 -0.47907258429009908 0 -0.16716270666720501 -0.47183208453823139 0 -0.18532337642423921 -0.47741283924785771 0 -0.1808515328719367 -0.48745095802850752 0 -0.18532337642423921 -0.47741283924785771 0 -0.1808515328719367 -0.48745095802850752 0 -0.1746562736699073 -0.47907258429009908 0 -0.18532337642423921 -0.47741283924785771 0 -0.19416789170143481 -0.45755921649218229 0 -0.18532337642423921 -0.47741283924785771 0 -0.17716636074153619 -0.46064321481433712 0 -0.17716636074153619 -0.46064321481433712 0 -0.17768692149640239 -0.43846214753236129 0 -0.1643670374547235 -0.45579052835019862 0 -0.19416789170143481 -0.45755921649218229 0 -0.17716636074153619 -0.46064321481433712 0 -0.17768692149640239 -0.43846214753236129 0 -0.17768692149640239 -0.43846214753236129 0 -0.1643670374547235 -0.45579052835019862 0 -0.15656942153094891 -0.43744534921574912 0 -0.1643670374547235 -0.45579052835019862 0 -0.1490020369101708 -0.46625132982860501 0 -0.15656942153094891 -0.43744534921574912 0 -0.16716270666720501 -0.47183208453823139 0 -0.1643670374547235 -0.45579052835019862 0 -0.1490020369101708 -0.46625132982860501 0 -0.16716270666720501 -0.47183208453823139 0 -0.17716636074153619 -0.46064321481433712 0 -0.1643670374547235 -0.45579052835019862 0 -0.1490020369101708 -0.46625132982860501 0 -0.1444321259694156 -0.46484700100448151 0 -0.13863583712557359 -0.45100965005262039 0 -0.1490020369101708 -0.46625132982860501 0 -0.1444321259694156 -0.46484700100448151 0 -0.1490020369101708 -0.46625132982860501 0 -0.1444321259694156 -0.46484700100448151 0 -0.14763475300870679 -0.47145602808721898 0 -0.13863583712557359 -0.45100965005262039 0 -0.13597205919020769 -0.43317169848901388 0 -0.15656942153094891 -0.43744534921574912 0 -0.1490020369101708 -0.46625132982860501 0 -0.15656942153094891 -0.43744534921574912 0 -0.1490020369101708 -0.46625132982860501 0 -0.13863583712557359 -0.45100965005262039 0 -0.15656942153094891 -0.43744534921574912 0 -0.13863583712557359 -0.45100965005262039 0 -0.13597205919020769 -0.43317169848901388 0 -0.1209273657791242 -0.44176315549154482 0 -0.13863583712557359 -0.45100965005262039 0 -0.12267335500042589 -0.45943632557472242 0 -0.1209273657791242 -0.44176315549154482 0 -0.1444321259694156 -0.46484700100448151 0 -0.14763475300870679 -0.47145602808721898 0 -0.12267335500042589 -0.45943632557472242 0 -0.1444321259694156 -0.46484700100448151 0 -0.13863583712557359 -0.45100965005262039 0 -0.12267335500042589 -0.45943632557472242 0 -0.14763475300870679 -0.47145602808721898 0 -0.12267335500042589 -0.45943632557472242 0 -0.13220195266968959 -0.47624020067167439 0 -0.14763475300870679 -0.47145602808721898 0 -0.12267335500042589 -0.45943632557472242 0 -0.13220195266968959 -0.47624020067167439 0 -0.132049685895923 -0.49061749654175812 0 -0.14380502702649939 -0.48603425001254003 0 -0.132049685895923 -0.49061749654175812 0 -0.12521349417258831 -0.5 0 -0.1551343834230656 -0.49999999999999689 0 -0.132049685895923 -0.49061749654175812 0 -0.14380502702649939 -0.48603425001254003 0 -0.1551343834230656 -0.49999999999999689 0 -0.132049685895923 -0.49061749654175812 0 -0.1551343834230656 -0.49999999999999689 0 -0.14380502702649939 -0.48603425001254003 0 -0.1551343834230656 -0.49999999999999689 0 -0.1552030103868699 -0.48582255634916099 0 -0.16424314294032191 -0.47945349305786289 0 -0.1552030103868699 -0.48582255634916099 0 -0.14763475300870679 -0.47145602808721898 0 -0.16716270666720501 -0.47183208453823139 0 -0.1490020369101708 -0.46625132982860501 0 -0.14763475300870679 -0.47145602808721898 0 -0.16424314294032191 -0.47945349305786289 0 -0.14763475300870679 -0.47145602808721898 0 -0.14380502702649939 -0.48603425001254003 0 -0.1552030103868699 -0.48582255634916099 0 -0.14763475300870679 -0.47145602808721898 0 -0.1490020369101708 -0.46625132982860501 0 -0.14763475300870679 -0.47145602808721898 0 -0.13220195266968959 -0.47624020067167439 0 -0.14380502702649939 -0.48603425001254003 0 -0.14763475300870679 -0.47145602808721898 0 -0.14380502702649939 -0.48603425001254003 0 -0.14763475300870679 -0.47145602808721898 0 -0.1478566347697238 -0.40549640169853751 0 -0.13157646338772311 -0.40235343479418412 0 -0.1433795595138814 -0.4088446964869718 0 -0.1478566347697238 -0.40549640169853751 0 -0.16413680615172441 -0.40863936860289241 0 -0.1563041080976531 -0.40041677887246108 0 -0.14094318667963651 -0.39702679905488719 0 -0.1487514623514366 -0.39684104476334497 0 -0.14454190130698741 -0.38824429098035751 0 -0.14094318667963651 -0.39702679905488719 0 -0.1478566347697238 -0.40549640169853751 0 -0.1487514623514366 -0.39684104476334497 0 -0.1478566347697238 -0.40549640169853751 0 -0.1487514623514366 -0.39684104476334497 0 -0.1563041080976531 -0.40041677887246108 0 -0.15468326663986309 -0.39108982713781049 0 -0.1487514623514366 -0.39684104476334497 0 -0.14454190130698741 -0.38824429098035751 0 -0.15468326663986309 -0.39108982713781049 0 -0.1487514623514366 -0.39684104476334497 0 -0.1563041080976531 -0.40041677887246108 0 -0.15468326663986309 -0.39108982713781049 0 -0.1542241429844993 -0.37603136075650478 0 -0.14454190130698741 -0.38824429098035751 0 -0.1542241429844993 -0.37603136075650478 0 -0.14454190130698741 -0.38824429098035751 0 -0.13461971533546691 -0.37204108600685931 0 -0.13092027878879889 -0.38880123511953929 0 -0.13461971533546691 -0.37204108600685931 0 -0.12108740855967071 -0.38114056776092681 0 -0.14454190130698741 -0.38824429098035751 0 -0.13092027878879889 -0.38880123511953929 0 -0.13461971533546691 -0.37204108600685931 0 -0.13092027878879889 -0.38880123511953929 0 -0.13157646338772311 -0.40235343479418412 0 -0.1127529974633094 -0.3920012321200208 0 -0.1478566347697238 -0.40549640169853751 0 -0.13157646338772311 -0.40235343479418412 0 -0.14094318667963651 -0.39702679905488719 0 -0.1478566347697238 -0.40549640169853751 0 -0.13157646338772311 -0.40235343479418412 0 -0.14094318667963651 -0.39702679905488719 0 -0.14454190130698741 -0.38824429098035751 0 -0.13092027878879889 -0.38880123511953929 0 -0.14094318667963651 -0.39702679905488719 0 -0.13092027878879889 -0.38880123511953929 0 -0.13157646338772311 -0.40235343479418412 0 -0.13157646338772311 -0.40235343479418412 0 -0.1433795595138814 -0.4088446964869718 0 -0.1307621202024957 -0.41939643977350932 0 -0.13422061498826829 -0.41082833263137691 0 -0.120923414606757 -0.4101805087101501 0 -0.13157646338772311 -0.40235343479418412 0 -0.13422061498826829 -0.41082833263137691 0 -0.120923414606757 -0.4101805087101501 0 -0.1307621202024957 -0.41939643977350932 0 -0.140321810202479 -0.41912945357891618 0 -0.13422061498826829 -0.41082833263137691 0 -0.13157646338772311 -0.40235343479418412 0 -0.13422061498826829 -0.41082833263137691 0 -0.1433795595138814 -0.4088446964869718 0 -0.140321810202479 -0.41912945357891618 0 -0.13422061498826829 -0.41082833263137691 0 -0.1433795595138814 -0.4088446964869718 0 -0.13597205919020769 -0.43317169848901388 0 -0.1209273657791242 -0.44176315549154482 0 -0.1216473709369055 -0.42684453866736272 0 -0.1307621202024957 -0.41939643977350932 0 -0.13597205919020769 -0.43317169848901388 0 -0.1216473709369055 -0.42684453866736272 0 -0.1307621202024957 -0.41939643977350932 0 -0.140321810202479 -0.41912945357891618 0 -0.13597205919020769 -0.43317169848901388 0 -0.14627201156164599 -0.42604562485589248 0 -0.15132449575837489 -0.416489929236733 0 -0.15656942153094891 -0.43744534921574912 0 -0.13597205919020769 -0.43317169848901388 0 -0.14627201156164599 -0.42604562485589248 0 -0.15656942153094891 -0.43744534921574912 0 -0.140321810202479 -0.41912945357891618 0 -0.13597205919020769 -0.43317169848901388 0 -0.14627201156164599 -0.42604562485589248 0 -0.1478566347697238 -0.40549640169853751 0 -0.15132449575837489 -0.416489929236733 0 -0.16413680615172441 -0.40863936860289241 0 -0.1478566347697238 -0.40549640169853751 0 -0.16413680615172441 -0.40863936860289241 0 -0.1478566347697238 -0.40549640169853751 0 -0.1433795595138814 -0.4088446964869718 0 -0.15132449575837489 -0.416489929236733 0 -0.140321810202479 -0.41912945357891618 0 -0.14627201156164599 -0.42604562485589248 0 -0.15132449575837489 -0.416489929236733 0 -0.140321810202479 -0.41912945357891618 0 -0.1433795595138814 -0.4088446964869718 0 -0.15132449575837489 -0.416489929236733 0 -0.15132449575837489 -0.416489929236733 0 -0.16413680615172441 -0.40863936860289241 0 -0.15656942153094891 -0.43744534921574912 0 -0.17768692149640239 -0.43846214753236129 0 -0.16413680615172441 -0.40863936860289241 0 -0.15656942153094891 -0.43744534921574912 0 -0.16413680615172441 -0.40863936860289241 0 -0.15656942153094891 -0.43744534921574912 0 -0.17768692149640239 -0.43846214753236129 0 -0.16413680615172441 -0.40863936860289241 0 -0.18799686420377729 -0.41324566979186261 0 -0.16413680615172441 -0.40863936860289241 0 -0.17719685395536389 -0.40129308706876238 0 -0.18799686420377729 -0.41324566979186261 0 -0.16413680615172441 -0.40863936860289241 0 -0.18799686420377729 -0.41324566979186261 0 -0.17719685395536389 -0.40129308706876238 0 -0.1688369421115844 -0.39074784701090032 0 -0.18781680335436921 -0.39253946286939467 0 -0.17719685395536389 -0.40129308706876238 0 -0.18781680335436921 -0.39253946286939467 0 -0.18799686420377729 -0.41324566979186261 0 -0.16413680615172441 -0.40863936860289241 0 -0.1688369421115844 -0.39074784701090032 0 -0.16413680615172441 -0.40863936860289241 0 -0.17719685395536389 -0.40129308706876238 0 -0.1688369421115844 -0.39074784701090032 0 -0.16413680615172441 -0.40863936860289241 0 -0.1688369421115844 -0.39074784701090032 0 -0.1563041080976531 -0.40041677887246108 0 -0.15468326663986309 -0.39108982713781049 0 -0.1688369421115844 -0.39074784701090032 0 -0.1563041080976531 -0.40041677887246108 0 -0.1542241429844993 -0.37603136075650478 0 -0.1688369421115844 -0.39074784701090032 0 -0.16964814287113791 -0.36576944870152212 0 -0.15468326663986309 -0.39108982713781049 0 -0.1542241429844993 -0.37603136075650478 0 -0.1688369421115844 -0.39074784701090032 0 -0.1688369421115844 -0.39074784701090032 0 -0.1846014351435715 -0.37967625263478461 0 -0.16964814287113791 -0.36576944870152212 0 -0.1688369421115844 -0.39074784701090032 0 -0.1846014351435715 -0.37967625263478461 0 -0.18781680335436921 -0.39253946286939467 0 -0.1846014351435715 -0.37967625263478461 0 -0.19741662461353829 -0.38292485144060923 0 -0.19784770285517531 -0.36871073407885041 0 -0.19741662461353829 -0.38292485144060923 0 -0.21077770697236481 -0.38139659757009342 0 -0.19784770285517531 -0.36871073407885041 0 -0.1846014351435715 -0.37967625263478461 0 -0.19741662461353829 -0.38292485144060923 0 -0.18781680335436921 -0.39253946286939467 0 -0.18781680335436921 -0.39253946286939467 0 -0.20315755491810619 -0.39692337190463001 0 -0.18799686420377729 -0.41324566979186261 0 -0.19741662461353829 -0.38292485144060923 0 -0.18781680335436921 -0.39253946286939467 0 -0.20315755491810619 -0.39692337190463001 0 -0.20315755491810619 -0.39692337190463001 0 -0.21185692225583019 -0.41785197098083338 0 -0.221639448196707 -0.39589275970234111 0 -0.20315755491810619 -0.39692337190463001 0 -0.21077770697236481 -0.38139659757009342 0 -0.221639448196707 -0.39589275970234111 0 -0.19741662461353829 -0.38292485144060923 0 -0.20315755491810619 -0.39692337190463001 0 -0.21077770697236481 -0.38139659757009342 0 -0.2030124069786316 -0.43770559373650741 0 -0.18799686420377729 -0.41324566979186261 0 -0.21185692225583019 -0.41785197098083338 0 -0.2030124069786316 -0.43770559373650741 0 -0.17768692149640239 -0.43846214753236129 0 -0.18799686420377729 -0.41324566979186261 0 -0.18799686420377729 -0.41324566979186261 0 -0.21185692225583019 -0.41785197098083338 0 -0.20315755491810619 -0.39692337190463001 0 -0.18799686420377729 -0.41324566979186261 0 -0.21185692225583019 -0.41785197098083338 0 -0.21185692225583019 -0.41785197098083338 0 -0.221639448196707 -0.39589275970234111 0 -0.22288989310954821 -0.43929297992095367 0 -0.2030124069786316 -0.43770559373650741 0 -0.21185692225583019 -0.41785197098083338 0 -0.2030124069786316 -0.43770559373650741 0 -0.21185692225583019 -0.41785197098083338 0 -0.22288989310954821 -0.43929297992095367 0 -0.21185692225583019 -0.41785197098083338 0 -0.23398399929764499 -0.42212371168925178 0 -0.21185692225583019 -0.41785197098083338 0 -0.23398399929764499 -0.42212371168925178 0 -0.21185692225583019 -0.41785197098083338 0 -0.23398399929764499 -0.42212371168925178 0 -0.23555355501619241 -0.40527805062250549 0 -0.21185692225583019 -0.41785197098083338 0 -0.221639448196707 -0.39589275970234111 0 -0.23555355501619241 -0.40527805062250549 0 -0.25430814362330401 -0.40911952683226133 0 -0.23398399929764499 -0.42212371168925178 0 -0.23555355501619241 -0.40527805062250549 0 -0.25430814362330401 -0.40911952683226133 0 -0.25611107633945979 -0.42639545239766968 0 -0.23398399929764499 -0.42212371168925178 0 -0.25611107633945979 -0.42639545239766968 0 -0.23398399929764499 -0.42212371168925178 0 -0.25611107633945979 -0.42639545239766968 0 -0.24655895640252171 -0.44608312833632618 0 -0.23398399929764499 -0.42212371168925178 0 -0.24655895640252171 -0.44608312833632618 0 -0.22288989310954821 -0.43929297992095367 0 -0.23398399929764499 -0.42212371168925178 0 -0.221639448196707 -0.39589275970234111 0 -0.2314219741375855 -0.37393354842384963 0 -0.2260472628392127 -0.37165201945617943 0 -0.221639448196707 -0.39589275970234111 0 -0.23817577370313339 -0.39010086890843798 0 -0.2314219741375855 -0.37393354842384963 0 -0.221639448196707 -0.39589275970234111 0 -0.2314219741375855 -0.37393354842384963 0 -0.21077770697236481 -0.38139659757009342 0 -0.221639448196707 -0.39589275970234111 0 -0.2260472628392127 -0.37165201945617943 0 -0.221639448196707 -0.39589275970234111 0 -0.23555355501619241 -0.40527805062250549 0 -0.23817577370313339 -0.39010086890843798 0 -0.25120937307449159 -0.39573472274994997 0 -0.25430814362330401 -0.40911952683226133 0 -0.23555355501619241 -0.40527805062250549 0 -0.25120937307449159 -0.39573472274994997 0 -0.23555355501619241 -0.40527805062250549 0 -0.23817577370313339 -0.39010086890843798 0 -0.25449735385820349 -0.38372889264791998 0 -0.2314219741375855 -0.37393354842384963 0 -0.25120937307449159 -0.39573472274994997 0 -0.25449735385820349 -0.38372889264791998 0 -0.23817577370313339 -0.39010086890843798 0 -0.25449735385820349 -0.38372889264791998 0 -0.26087154130867102 -0.37528427971471501 0 -0.23215458505188391 -0.3722890285984814 0 -0.25449735385820349 -0.38372889264791998 0 -0.23215458505188391 -0.3722890285984814 0 -0.2314219741375855 -0.37393354842384963 0 -0.25449735385820349 -0.38372889264791998 0 -0.23817577370313339 -0.39010086890843798 0 -0.2314219741375855 -0.37393354842384963 0 -0.26087154130867102 -0.37528427971471501 0 -0.24729727552769459 -0.36636066369430792 0 -0.23215458505188391 -0.3722890285984814 0 -0.26087154130867102 -0.37528427971471501 0 -0.23215458505188391 -0.3722890285984814 0 -0.25026491295981063 -0.3591533028701196 0 -0.24729727552769459 -0.36636066369430792 0 -0.23875760001691329 -0.35746698758693979 0 -0.24729727552769459 -0.36636066369430792 0 -0.23215458505188391 -0.3722890285984814 0 -0.23875760001691329 -0.35746698758693979 0 -0.23215458505188391 -0.3722890285984814 0 -0.23875760001691329 -0.35746698758693979 0 -0.23215458505188391 -0.3722890285984814 0 -0.23009002731834971 -0.36248750000429603 0 -0.2260472628392127 -0.37165201945617943 0 -0.23215458505188391 -0.3722890285984814 0 -0.2314219741375855 -0.37393354842384963 0 -0.2314219741375855 -0.37393354842384963 0 -0.2260472628392127 -0.37165201945617943 0 -0.23215458505188391 -0.3722890285984814 0 -0.2260472628392127 -0.37165201945617943 0 -0.23215458505188391 -0.3722890285984814 0 -0.2314219741375855 -0.37393354842384963 0 -0.2260472628392127 -0.37165201945617943 0 -0.23215458505188391 -0.3722890285984814 0 -0.23009002731834971 -0.36248750000429603 0 -0.23875760001691329 -0.35746698758693979 0 -0.23009002731834971 -0.36248750000429603 0 -0.22189652138608959 -0.36194330225738081 0 -0.2260472628392127 -0.37165201945617943 0 -0.22189652138608959 -0.36194330225738081 0 -0.2260472628392127 -0.37165201945617943 0 -0.21118747086081091 -0.36534413723327269 0 -0.2272958312366698 -0.35308790848971527 0 -0.23875760001691329 -0.35746698758693979 0 -0.2334221158110274 -0.34044489689627988 0 -0.22052129445612181 -0.3452729178084033 0 -0.2272958312366698 -0.35308790848971527 0 -0.21590494073851299 -0.3542932969088054 0 -0.22189652138608959 -0.36194330225738081 0 -0.2272958312366698 -0.35308790848971527 0 -0.21590494073851299 -0.3542932969088054 0 -0.23009002731834971 -0.36248750000429603 0 -0.22189652138608959 -0.36194330225738081 0 -0.2272958312366698 -0.35308790848971527 0 -0.23009002731834971 -0.36248750000429603 0 -0.2272958312366698 -0.35308790848971527 0 -0.23875760001691329 -0.35746698758693979 0 -0.22052129445612181 -0.3452729178084033 0 -0.2272958312366698 -0.35308790848971527 0 -0.2334221158110274 -0.34044489689627988 0 -0.23875760001691329 -0.35746698758693979 0 -0.24892009194236051 -0.34920057363171508 0 -0.2334221158110274 -0.34044489689627988 0 -0.25026491295981063 -0.3591533028701196 0 -0.23875760001691329 -0.35746698758693979 0 -0.24892009194236051 -0.34920057363171508 0 -0.2478142613430229 -0.33633621555486087 0 -0.24142044924060299 -0.32458422323193992 0 -0.2334221158110274 -0.34044489689627988 0 -0.24892009194236051 -0.34920057363171508 0 -0.2478142613430229 -0.33633621555486087 0 -0.2334221158110274 -0.34044489689627988 0 -0.25338362554719701 -0.31167564713320761 0 -0.24142044924060299 -0.32458422323193992 0 -0.2261380777788706 -0.3120714055725069 0 -0.24142044924060299 -0.32458422323193992 0 -0.2264325986603935 -0.32691366561395158 0 -0.2261380777788706 -0.3120714055725069 0 -0.2264325986603935 -0.32691366561395158 0 -0.2174091742914942 -0.33434505632747652 0 -0.2157723417121577 -0.32302212128029162 0 -0.2264325986603935 -0.32691366561395158 0 -0.2157723417121577 -0.32302212128029162 0 -0.2261380777788706 -0.3120714055725069 0 -0.2264325986603935 -0.32691366561395158 0 -0.2261380777788706 -0.3120714055725069 0 -0.2264325986603935 -0.32691366561395158 0 -0.2334221158110274 -0.34044489689627988 0 -0.2174091742914942 -0.33434505632747652 0 -0.24142044924060299 -0.32458422323193992 0 -0.2264325986603935 -0.32691366561395158 0 -0.2334221158110274 -0.34044489689627988 0 -0.22052129445612181 -0.3452729178084033 0 -0.2334221158110274 -0.34044489689627988 0 -0.2174091742914942 -0.33434505632747652 0 -0.22052129445612181 -0.3452729178084033 0 -0.2174091742914942 -0.33434505632747652 0 -0.20786751273301221 -0.34476109497790802 0 -0.2174091742914942 -0.33434505632747652 0 -0.2055306299046975 -0.32937808022171239 0 -0.2157723417121577 -0.32302212128029162 0 -0.2174091742914942 -0.33434505632747652 0 -0.2055306299046975 -0.32937808022171239 0 -0.20786751273301221 -0.34476109497790802 0 -0.2055306299046975 -0.32937808022171239 0 -0.19762893861058581 -0.33649284913727318 0 -0.20786751273301221 -0.34476109497790802 0 -0.2055306299046975 -0.32937808022171239 0 -0.2157723417121577 -0.32302212128029162 0 -0.20335122792533269 -0.31240239866581038 0 -0.2157723417121577 -0.32302212128029162 0 -0.2261380777788706 -0.3120714055725069 0 -0.20335122792533269 -0.31240239866581038 0 -0.20335122792533269 -0.31240239866581038 0 -0.18056437807179471 -0.31273339175911608 0 -0.2055306299046975 -0.32937808022171239 0 -0.19210987536820581 -0.32303714766519631 0 -0.20335122792533269 -0.31240239866581038 0 -0.19210987536820581 -0.32303714766519631 0 -0.20335122792533269 -0.31240239866581038 0 -0.18056437807179471 -0.31273339175911608 0 -0.19762893861058581 -0.33649284913727318 0 -0.19795442871519339 -0.34867520074893321 0 -0.20786751273301221 -0.34476109497790802 0 -0.2055306299046975 -0.32937808022171239 0 -0.19210987536820581 -0.32303714766519631 0 -0.19762893861058581 -0.33649284913727318 0 -0.19210987536820581 -0.32303714766519631 0 -0.19762893861058581 -0.33649284913727318 0 -0.18468224633181979 -0.33661272207261611 0 -0.19795442871519339 -0.34867520074893321 0 -0.18468224633181979 -0.33661272207261611 0 -0.19762893861058581 -0.33649284913727318 0 -0.19795442871519339 -0.34867520074893321 0 -0.18468224633181979 -0.33661272207261611 0 -0.19795442871519339 -0.34867520074893321 0 -0.18350175373784311 -0.35053542487413641 0 -0.18468224633181979 -0.33661272207261611 0 -0.19795442871519339 -0.34867520074893321 0 -0.19632767888240929 -0.35903625501036529 0 -0.20666101375837409 -0.35535042068615241 0 -0.19795442871519339 -0.34867520074893321 0 -0.19632767888240929 -0.35903625501036529 0 -0.18350175373784311 -0.35053542487413641 0 -0.19632767888240929 -0.35903625501036529 0 -0.19784770285517531 -0.36871073407885041 0 -0.16964814287113791 -0.36576944870152212 0 -0.19632767888240929 -0.35903625501036529 0 -0.19784770285517531 -0.36871073407885041 0 -0.21118747086081091 -0.36534413723327269 0 -0.19632767888240929 -0.35903625501036529 0 -0.21118747086081091 -0.36534413723327269 0 -0.20666101375837409 -0.35535042068615241 0 -0.2260472628392127 -0.37165201945617943 0 -0.19784770285517531 -0.36871073407885041 0 -0.2260472628392127 -0.37165201945617943 0 -0.19784770285517531 -0.36871073407885041 0 -0.21118747086081091 -0.36534413723327269 0 -0.21077770697236481 -0.38139659757009342 0 -0.2260472628392127 -0.37165201945617943 0 -0.19784770285517531 -0.36871073407885041 0 -0.19632767888240929 -0.35903625501036529 0 -0.21118747086081091 -0.36534413723327269 0 -0.2260472628392127 -0.37165201945617943 0 -0.21118747086081091 -0.36534413723327269 0 -0.22189652138608959 -0.36194330225738081 0 -0.21118747086081091 -0.36534413723327269 0 -0.21590494073851299 -0.3542932969088054 0 -0.21118747086081091 -0.36534413723327269 0 -0.21590494073851299 -0.3542932969088054 0 -0.20666101375837409 -0.35535042068615241 0 -0.22052129445612181 -0.3452729178084033 0 -0.21590494073851299 -0.3542932969088054 0 -0.20786751273301221 -0.34476109497790802 0 -0.19795442871519339 -0.34867520074893321 0 -0.20786751273301221 -0.34476109497790802 0 -0.20666101375837409 -0.35535042068615241 0 -0.21590494073851299 -0.3542932969088054 0 -0.20786751273301221 -0.34476109497790802 0 -0.20666101375837409 -0.35535042068615241 0 -0.24130044097179529 -0.25564058872725781 0 -0.22536421211644339 -0.27307276024919092 0 -0.22495585243800931 -0.25249364033624638 0 -0.22536421211644339 -0.27307276024919092 0 -0.2168984341667701 -0.26134027676316163 0 -0.22495585243800931 -0.25249364033624638 0 -0.22536421211644339 -0.27307276024919092 0 -0.22495585243800931 -0.25249364033624638 0 -0.24130044097179529 -0.25564058872725781 0 -0.22536421211644339 -0.27307276024919092 0 -0.2524625491404241 -0.26148940870638571 0 -0.24130044097179529 -0.25564058872725781 0 -0.2416761748935608 -0.27135090492890168 0 -0.24130044097179529 -0.25564058872725781 0 -0.2416761748935608 -0.27135090492890168 0 -0.22536421211644339 -0.27307276024919092 0 -0.2416761748935608 -0.27135090492890168 0 -0.22536421211644339 -0.27307276024919092 0 -0.23654277635611731 -0.28330444759124268 0 -0.25360365773395499 -0.27985881362419779 0 -0.2524625491404241 -0.26148940870638571 0 -0.2416761748935608 -0.27135090492890168 0 -0.25360365773395499 -0.27985881362419779 0 -0.2416761748935608 -0.27135090492890168 0 -0.23654277635611731 -0.28330444759124268 0 -0.22536421211644339 -0.27307276024919092 0 -0.21468482669385339 -0.27093265799678151 0 -0.2168984341667701 -0.26134027676316163 0 -0.22536421211644339 -0.27307276024919092 0 -0.21765267980075531 -0.28150817839260389 0 -0.22536421211644339 -0.27307276024919092 0 -0.21765267980075531 -0.28150817839260389 0 -0.21468482669385339 -0.27093265799678151 0 -0.22536421211644339 -0.27307276024919092 0 -0.22575114494765611 -0.29257208291084891 0 -0.23654277635611731 -0.28330444759124268 0 -0.22536421211644339 -0.27307276024919092 0 -0.22575114494765611 -0.29257208291084891 0 -0.22536421211644339 -0.27307276024919092 0 -0.22575114494765611 -0.29257208291084891 0 -0.21765267980075531 -0.28150817839260389 0 -0.22575114494765611 -0.29257208291084891 0 -0.21575516930932381 -0.29106612113637281 0 -0.21765267980075531 -0.28150817839260389 0 -0.22575114494765611 -0.29257208291084891 0 -0.2153147881826305 -0.30091529405850659 0 -0.21575516930932381 -0.29106612113637281 0 -0.22575114494765611 -0.29257208291084891 0 -0.23654277635611731 -0.28330444759124268 0 -0.2434535477117922 -0.29604589628799077 0 -0.25360365773395499 -0.27985881362419779 0 -0.23654277635611731 -0.28330444759124268 0 -0.2434535477117922 -0.29604589628799077 0 -0.25338362554719701 -0.31167564713320761 0 -0.2434535477117922 -0.29604589628799077 0 -0.2261380777788706 -0.3120714055725069 0 -0.25338362554719701 -0.31167564713320761 0 -0.2261380777788706 -0.3120714055725069 0 -0.22575114494765611 -0.29257208291084891 0 -0.2434535477117922 -0.29604589628799077 0 -0.2261380777788706 -0.3120714055725069 0 -0.22575114494765611 -0.29257208291084891 0 -0.2261380777788706 -0.3120714055725069 0 -0.22575114494765611 -0.29257208291084891 0 -0.2261380777788706 -0.3120714055725069 0 -0.2153147881826305 -0.30091529405850659 0 -0.2261380777788706 -0.3120714055725069 0 -0.20335122792533269 -0.31240239866581038 0 -0.2153147881826305 -0.30091529405850659 0 -0.2261380777788706 -0.3120714055725069 0 -0.20335122792533269 -0.31240239866581038 0 -0.20335122792533269 -0.31240239866581038 0 -0.2153147881826305 -0.30091529405850659 0 -0.20475317708372409 -0.29674158675242968 0 -0.20335122792533269 -0.31240239866581038 0 -0.19567690993347181 -0.30524871152301902 0 -0.20475317708372409 -0.29674158675242968 0 -0.20335122792533269 -0.31240239866581038 0 -0.19567690993347181 -0.30524871152301902 0 -0.18056437807179471 -0.31273339175911608 0 -0.19567690993347181 -0.30524871152301902 0 -0.18648732952796851 -0.30508774647442638 0 -0.18056437807179471 -0.31273339175911608 0 -0.19567690993347181 -0.30524871152301902 0 -0.19361541523649159 -0.29658224819161949 0 -0.18648732952796851 -0.30508774647442638 0 -0.19361541523649159 -0.29658224819161949 0 -0.18269415154630281 -0.29269486040466852 0 -0.18648732952796851 -0.30508774647442638 0 -0.19567690993347181 -0.30524871152301902 0 -0.19361541523649159 -0.29658224819161949 0 -0.20475317708372409 -0.29674158675242968 0 -0.1959405138748733 -0.28464479075428423 0 -0.20810880200075549 -0.28600999134767102 0 -0.20475317708372409 -0.29674158675242968 0 -0.19361541523649159 -0.29658224819161949 0 -0.1959405138748733 -0.28464479075428423 0 -0.20475317708372409 -0.29674158675242968 0 -0.19361541523649159 -0.29658224819161949 0 -0.1959405138748733 -0.28464479075428423 0 -0.18269415154630281 -0.29269486040466852 0 -0.20810880200075549 -0.28600999134767102 0 -0.21765267980075531 -0.28150817839260389 0 -0.20561732606685579 -0.2763664044480999 0 -0.1959405138748733 -0.28464479075428423 0 -0.20810880200075549 -0.28600999134767102 0 -0.20561732606685579 -0.2763664044480999 0 -0.20810880200075549 -0.28600999134767102 0 -0.20475317708372409 -0.29674158675242968 0 -0.21575516930932381 -0.29106612113637281 0 -0.2153147881826305 -0.30091529405850659 0 -0.20475317708372409 -0.29674158675242968 0 -0.21575516930932381 -0.29106612113637281 0 -0.20810880200075549 -0.28600999134767102 0 -0.21575516930932381 -0.29106612113637281 0 -0.21765267980075531 -0.28150817839260389 0 -0.21765267980075531 -0.28150817839260389 0 -0.21468482669385339 -0.27093265799678151 0 -0.20561732606685579 -0.2763664044480999 0 -0.21468482669385339 -0.27093265799678151 0 -0.20561732606685579 -0.2763664044480999 0 -0.20673933226126451 -0.26185429963573698 0 -0.1959405138748733 -0.28464479075428423 0 -0.19497574585899591 -0.2683619248040946 0 -0.18130108778456661 -0.28008820365302611 0 -0.1959405138748733 -0.28464479075428423 0 -0.20561732606685579 -0.2763664044480999 0 -0.19497574585899591 -0.2683619248040946 0 -0.20561732606685579 -0.2763664044480999 0 -0.19497574585899591 -0.2683619248040946 0 -0.20673933226126451 -0.26185429963573698 0 -0.19497574585899591 -0.2683619248040946 0 -0.20673933226126451 -0.26185429963573698 0 -0.19816737708826421 -0.24332479085234021 0 -0.19497574585899591 -0.2683619248040946 0 -0.18208883807815079 -0.26389305948108049 0 -0.19816737708826421 -0.24332479085234021 0 -0.18208883807815079 -0.26389305948108049 0 -0.19816737708826421 -0.24332479085234021 0 -0.20673933226126451 -0.26185429963573698 0 -0.21274794732428029 -0.24834802559785249 0 -0.19816737708826421 -0.24332479085234021 0 -0.21468482669385339 -0.27093265799678151 0 -0.20673933226126451 -0.26185429963573698 0 -0.2168984341667701 -0.26134027676316163 0 -0.22495585243800931 -0.25249364033624638 0 -0.2168984341667701 -0.26134027676316163 0 -0.21274794732428029 -0.24834802559785249 0 -0.20673933226126451 -0.26185429963573698 0 -0.2168984341667701 -0.26134027676316163 0 -0.21274794732428029 -0.24834802559785249 0 -0.16930196674816639 -0.25208280460960758 0 -0.16613823227874569 -0.27011249995767478 0 -0.1788834735570495 -0.2492280067697098 0 -0.15732989424637961 -0.25741631051579289 0 -0.16930196674816639 -0.25208280460960758 0 -0.16040631888775031 -0.27012053781948098 0 -0.16930196674816639 -0.25208280460960758 0 -0.16613823227874569 -0.27011249995767478 0 -0.16040631888775031 -0.27012053781948098 0 -0.16930196674816639 -0.25208280460960758 0 -0.16040631888775031 -0.27012053781948098 0 -0.15732989424637961 -0.25741631051579289 0 -0.16930196674816639 -0.25208280460960758 0 -0.16050787258751101 -0.24526753645713731 0 -0.18208883807815079 -0.26389305948108049 0 -0.1788834735570495 -0.2492280067697098 0 -0.19816737708826421 -0.24332479085234021 0 -0.18208883807815079 -0.26389305948108049 0 -0.16613823227874569 -0.27011249995767478 0 -0.1788834735570495 -0.2492280067697098 0 -0.16613823227874569 -0.27011249995767478 0 -0.1788834735570495 -0.2492280067697098 0 -0.19497574585899591 -0.2683619248040946 0 -0.18208883807815079 -0.26389305948108049 0 -0.18130108778456661 -0.28008820365302611 0 -0.18208883807815079 -0.26389305948108049 0 -0.1660102990680373 -0.28446132810982111 0 -0.18208883807815079 -0.26389305948108049 0 -0.18130108778456661 -0.28008820365302611 0 -0.1660102990680373 -0.28446132810982111 0 -0.18208883807815079 -0.26389305948108049 0 -0.16613823227874569 -0.27011249995767478 0 -0.1660102990680373 -0.28446132810982111 0 -0.16613823227874569 -0.27011249995767478 0 -0.16040631888775031 -0.27012053781948098 0 -0.1660102990680373 -0.28446132810982111 0 -0.16040631888775031 -0.27012053781948098 0 -0.15292286249425741 -0.28552334458930639 0 -0.16040631888775031 -0.27012053781948098 0 -0.1660102990680373 -0.28446132810982111 0 -0.15292286249425741 -0.28552334458930639 0 -0.1660102990680373 -0.28446132810982111 0 -0.14993176005792411 -0.30502959673856178 0 -0.15292286249425741 -0.28552334458930639 0 -0.16397604875809271 -0.29633403910475692 0 -0.1660102990680373 -0.28446132810982111 0 -0.14993176005792411 -0.30502959673856178 0 -0.1660102990680373 -0.28446132810982111 0 -0.14993176005792411 -0.30502959673856178 0 -0.16397604875809271 -0.29633403910475692 0 -0.1660102990680373 -0.28446132810982111 0 -0.17312999634793991 -0.29041644091361352 0 -0.16397604875809271 -0.29633403910475692 0 -0.17312999634793991 -0.29041644091361352 0 -0.1697196881073548 -0.29919091242670959 0 -0.18130108778456661 -0.28008820365302611 0 -0.18269415154630281 -0.29269486040466852 0 -0.17312999634793991 -0.29041644091361352 0 -0.18130108778456661 -0.28008820365302611 0 -0.1660102990680373 -0.28446132810982111 0 -0.17312999634793991 -0.29041644091361352 0 -0.1959405138748733 -0.28464479075428423 0 -0.18130108778456661 -0.28008820365302611 0 -0.18269415154630281 -0.29269486040466852 0 -0.18269415154630281 -0.29269486040466852 0 -0.17312999634793991 -0.29041644091361352 0 -0.1697196881073548 -0.29919091242670959 0 -0.18269415154630281 -0.29269486040466852 0 -0.17564444540554969 -0.30455141462702828 0 -0.1697196881073548 -0.29919091242670959 0 -0.18269415154630281 -0.29269486040466852 0 -0.17564444540554969 -0.30455141462702828 0 -0.18648732952796851 -0.30508774647442638 0 -0.17564444540554969 -0.30455141462702828 0 -0.18648732952796851 -0.30508774647442638 0 -0.18056437807179471 -0.31273339175911608 0 -0.18648732952796851 -0.30508774647442638 0 -0.18056437807179471 -0.31273339175911608 0 -0.17564444540554969 -0.30455141462702828 0 -0.1697196881073548 -0.29919091242670959 0 -0.15875667977432731 -0.31305016207021658 0 -0.17564444540554969 -0.30455141462702828 0 -0.18056437807179471 -0.31273339175911608 0 -0.15875667977432731 -0.31305016207021658 0 -0.16397604875809271 -0.29633403910475692 0 -0.1697196881073548 -0.29919091242670959 0 -0.16068251969351061 -0.30271507132068581 0 -0.16397604875809271 -0.29633403910475692 0 -0.16068251969351061 -0.30271507132068581 0 -0.14993176005792411 -0.30502959673856178 0 -0.1697196881073548 -0.29919091242670959 0 -0.16068251969351061 -0.30271507132068581 0 -0.15875667977432731 -0.31305016207021658 0 -0.16068251969351061 -0.30271507132068581 0 -0.14993176005792411 -0.30502959673856178 0 -0.15875667977432731 -0.31305016207021658 0 -0.14993176005792411 -0.30502959673856178 0 -0.14539036585597279 -0.30090213155315482 0 -0.15292286249425741 -0.28552334458930639 0 -0.14993176005792411 -0.30502959673856178 0 -0.15875667977432731 -0.31305016207021658 0 -0.14348859032101341 -0.31327194051654661 0 -0.14993176005792411 -0.30502959673856178 0 -0.15875667977432731 -0.31305016207021658 0 -0.14539036585597279 -0.30090213155315482 0 -0.14340177704526319 -0.29909479426435709 0 -0.13930187325613569 -0.31333275517240677 0 -0.14993176005792411 -0.30502959673856178 0 -0.14539036585597279 -0.30090213155315482 0 -0.14539036585597279 -0.30090213155315482 0 -0.14340177704526319 -0.29909479426435709 0 -0.14993176005792411 -0.30502959673856178 0 -0.14348859032101341 -0.31327194051654661 0 -0.14993176005792411 -0.30502959673856178 0 -0.14539036585597279 -0.30090213155315482 0 -0.14348859032101341 -0.31327194051654661 0 -0.14539036585597279 -0.30090213155315482 0 -0.14348859032101341 -0.31327194051654661 0 -0.13930187325613569 -0.31333275517240677 0 -0.14539036585597279 -0.30090213155315482 0 -0.13930187325613569 -0.31333275517240677 0 -0.14340177704526319 -0.29909479426435709 0 -0.13500914363655589 -0.31339510972621809 0 -0.13930187325613569 -0.31333275517240677 0 -0.14340177704526319 -0.29909479426435709 0 -0.13500914363655589 -0.31339510972621809 0 -0.14340177704526319 -0.29909479426435709 0 -0.13359691879421179 -0.30628179769647929 0 -0.13500914363655589 -0.31339510972621809 0 -0.13359691879421179 -0.30628179769647929 0 -0.13500914363655589 -0.31339510972621809 0 -0.13181940247648161 -0.31344144269019902 0 -0.13359691879421179 -0.30628179769647929 0 -0.1285367533768986 -0.30925998762068679 0 -0.13181940247648161 -0.31344144269019902 0 -0.13359691879421179 -0.30628179769647929 0 -0.1285367533768986 -0.30925998762068679 0 -0.12806223591387 -0.30264482312176189 0 -0.1285367533768986 -0.30925998762068679 0 -0.12806223591387 -0.30264482312176189 0 -0.1233218650564137 -0.30959565741799261 0 -0.1285367533768986 -0.30925998762068679 0 -0.12427237808688971 -0.31613607221539308 0 -0.1233218650564137 -0.30959565741799261 0 -0.12806223591387 -0.30264482312176189 0 -0.13498695156104731 -0.29932406808048079 0 -0.13116901690637869 -0.29450876044175961 0 -0.12806223591387 -0.30264482312176189 0 -0.13116901690637869 -0.29450876044175961 0 -0.1235437429290084 -0.29547536832135329 0 -0.13359691879421179 -0.30628179769647929 0 -0.12806223591387 -0.30264482312176189 0 -0.13498695156104731 -0.29932406808048079 0 -0.14340177704526319 -0.29909479426435709 0 -0.13359691879421179 -0.30628179769647929 0 -0.13498695156104731 -0.29932406808048079 0 -0.14340177704526319 -0.29909479426435709 0 -0.13498695156104731 -0.29932406808048079 0 -0.13812225437746589 -0.2942964779240686 0 -0.13812225437746589 -0.2942964779240686 0 -0.1349431533500374 -0.28749729490881037 0 -0.14204901995842409 -0.28774078963451472 0 -0.13812225437746589 -0.2942964779240686 0 -0.13116901690637869 -0.29450876044175961 0 -0.1349431533500374 -0.28749729490881037 0 -0.13498695156104731 -0.29932406808048079 0 -0.13812225437746589 -0.2942964779240686 0 -0.13116901690637869 -0.29450876044175961 0 -0.13116901690637869 -0.29450876044175961 0 -0.12740540384098351 -0.2871823888050643 0 -0.1235437429290084 -0.29547536832135329 0 -0.13116901690637869 -0.29450876044175961 0 -0.12740540384098351 -0.2871823888050643 0 -0.1349431533500374 -0.28749729490881037 0 -0.12740540384098351 -0.2871823888050643 0 -0.13106247381214839 -0.28120797859879088 0 -0.12445474201649299 -0.27837977644627282 0 -0.12740540384098351 -0.2871823888050643 0 -0.1349431533500374 -0.28749729490881037 0 -0.13106247381214839 -0.28120797859879088 0 -0.1349431533500374 -0.28749729490881037 0 -0.13829334519471381 -0.28061092781721109 0 -0.13106247381214839 -0.28120797859879088 0 -0.1349431533500374 -0.28749729490881037 0 -0.14204901995842409 -0.28774078963451472 0 -0.13829334519471381 -0.28061092781721109 0 -0.14204901995842409 -0.28774078963451472 0 -0.15292286249425741 -0.28552334458930639 0 -0.1455416699255247 -0.28010690325474957 0 -0.14204901995842409 -0.28774078963451472 0 -0.1455416699255247 -0.28010690325474957 0 -0.13829334519471381 -0.28061092781721109 0 -0.14340177704526319 -0.29909479426435709 0 -0.14204901995842409 -0.28774078963451472 0 -0.15292286249425741 -0.28552334458930639 0 -0.14340177704526319 -0.29909479426435709 0 -0.13812225437746589 -0.2942964779240686 0 -0.14204901995842409 -0.28774078963451472 0 -0.14539036585597279 -0.30090213155315482 0 -0.14340177704526319 -0.29909479426435709 0 -0.15292286249425741 -0.28552334458930639 0 -0.14340177704526319 -0.29909479426435709 0 -0.15292286249425741 -0.28552334458930639 0 -0.14340177704526319 -0.29909479426435709 0 -0.13812225437746589 -0.2942964779240686 0 -0.14539036585597279 -0.30090213155315482 0 -0.15292286249425741 -0.28552334458930639 0 -0.15292286249425741 -0.28552334458930639 0 -0.1500854059211594 -0.27484023072700448 0 -0.1455416699255247 -0.28010690325474957 0 -0.16040631888775031 -0.27012053781948098 0 -0.15292286249425741 -0.28552334458930639 0 -0.1500854059211594 -0.27484023072700448 0 -0.16040631888775031 -0.27012053781948098 0 -0.1500854059211594 -0.27484023072700448 0 -0.14912045287247369 -0.26618002498548821 0 -0.14912045287247369 -0.26618002498548821 0 -0.14340549970874911 -0.27316200172740751 0 -0.13712288968441599 -0.26668608479075551 0 -0.1500854059211594 -0.27484023072700448 0 -0.14912045287247369 -0.26618002498548821 0 -0.14340549970874911 -0.27316200172740751 0 -0.1500854059211594 -0.27484023072700448 0 -0.14340549970874911 -0.27316200172740751 0 -0.1455416699255247 -0.28010690325474957 0 -0.14340549970874911 -0.27316200172740751 0 -0.1455416699255247 -0.28010690325474957 0 -0.13829334519471381 -0.28061092781721109 0 -0.14340549970874911 -0.27316200172740751 0 -0.13829334519471381 -0.28061092781721109 0 -0.13208915290303441 -0.27418856690167742 0 -0.13829334519471381 -0.28061092781721109 0 -0.13106247381214839 -0.28120797859879088 0 -0.13208915290303441 -0.27418856690167742 0 -0.13106247381214839 -0.28120797859879088 0 -0.13208915290303441 -0.27418856690167742 0 -0.12445474201649299 -0.27837977644627282 0 -0.13208915290303441 -0.27418856690167742 0 -0.1257252129849713 -0.26760651690292381 0 -0.13712288968441599 -0.26668608479075551 0 -0.13208915290303441 -0.27418856690167742 0 -0.1257252129849713 -0.26760651690292381 0 -0.12445474201649299 -0.27837977644627282 0 -0.14340549970874911 -0.27316200172740751 0 -0.13208915290303441 -0.27418856690167742 0 -0.13712288968441599 -0.26668608479075551 0 -0.13712288968441599 -0.26668608479075551 0 -0.13398995876330039 -0.25751920465692651 0 -0.14318294807515911 -0.26018553671137279 0 -0.1257252129849713 -0.26760651690292381 0 -0.13712288968441599 -0.26668608479075551 0 -0.13398995876330039 -0.25751920465692651 0 -0.1257252129849713 -0.26760651690292381 0 -0.13398995876330039 -0.25751920465692651 0 -0.1223083114857455 -0.25613110687167828 0 -0.13398995876330039 -0.25751920465692651 0 -0.1223083114857455 -0.25613110687167828 0 -0.13178625741313191 -0.24563913469824819 0 -0.13398995876330039 -0.25751920465692651 0 -0.14555956547881591 -0.25165122890814712 0 -0.13178625741313191 -0.24563913469824819 0 -0.14555956547881591 -0.25165122890814712 0 -0.14318294807515911 -0.26018553671137279 0 -0.14917640328494489 -0.25886766526172778 0 -0.13398995876330039 -0.25751920465692651 0 -0.14555956547881591 -0.25165122890814712 0 -0.14318294807515911 -0.26018553671137279 0 -0.14912045287247369 -0.26618002498548821 0 -0.13712288968441599 -0.26668608479075551 0 -0.14318294807515911 -0.26018553671137279 0 -0.14912045287247369 -0.26618002498548821 0 -0.14318294807515911 -0.26018553671137279 0 -0.14917640328494489 -0.25886766526172778 0 -0.15732989424637961 -0.25741631051579289 0 -0.14912045287247369 -0.26618002498548821 0 -0.14917640328494489 -0.25886766526172778 0 -0.15732989424637961 -0.25741631051579289 0 -0.16040631888775031 -0.27012053781948098 0 -0.14912045287247369 -0.26618002498548821 0 -0.15732989424637961 -0.25741631051579289 0 -0.14555956547881591 -0.25165122890814712 0 -0.14917640328494489 -0.25886766526172778 0 -0.15732989424637961 -0.25741631051579289 0 -0.14555956547881591 -0.25165122890814712 0 -0.15114094217610249 -0.24408778668063341 0 -0.1714356629012159 -0.34441864277437773 0 -0.16964814287113791 -0.36576944870152212 0 -0.15301488964195609 -0.34829566470157958 0 -0.1542241429844993 -0.37603136075650478 0 -0.16964814287113791 -0.36576944870152212 0 -0.15301488964195609 -0.34829566470157958 0 -0.1846014351435715 -0.37967625263478461 0 -0.19784770285517531 -0.36871073407885041 0 -0.16964814287113791 -0.36576944870152212 0 -0.19784770285517531 -0.36871073407885041 0 -0.16964814287113791 -0.36576944870152212 0 -0.19632767888240929 -0.35903625501036529 0 -0.16964814287113791 -0.36576944870152212 0 -0.18350175373784311 -0.35053542487413641 0 -0.1714356629012159 -0.34441864277437773 0 -0.16964814287113791 -0.36576944870152212 0 -0.18350175373784311 -0.35053542487413641 0 -0.1714356629012159 -0.34441864277437773 0 -0.18350175373784311 -0.35053542487413641 0 -0.18468224633181979 -0.33661272207261611 0 -0.1714356629012159 -0.34441864277437773 0 -0.18468224633181979 -0.33661272207261611 0 -0.1714100639484453 -0.32455024339630001 0 -0.18468224633181979 -0.33661272207261611 0 -0.1821916409300664 -0.3242333762233065 0 -0.1714100639484453 -0.32455024339630001 0 -0.18468224633181979 -0.33661272207261611 0 -0.1714100639484453 -0.32455024339630001 0 -0.19210987536820581 -0.32303714766519631 0 -0.18056437807179471 -0.31273339175911608 0 -0.1821916409300664 -0.3242333762233065 0 -0.19210987536820581 -0.32303714766519631 0 -0.18468224633181979 -0.33661272207261611 0 -0.1821916409300664 -0.3242333762233065 0 -0.18056437807179471 -0.31273339175911608 0 -0.1821916409300664 -0.3242333762233065 0 -0.1714100639484453 -0.32455024339630001 0 -0.18056437807179471 -0.31273339175911608 0 -0.1714100639484453 -0.32455024339630001 0 -0.18056437807179471 -0.31273339175911608 0 -0.1714100639484453 -0.32455024339630001 0 -0.15875667977432731 -0.31305016207021658 0 -0.1714100639484453 -0.32455024339630001 0 -0.15639659891449531 -0.32190480275141992 0 -0.1495873622944752 -0.33068777488062701 0 -0.18056437807179471 -0.31273339175911608 0 -0.15875667977432731 -0.31305016207021658 0 -0.1714100639484453 -0.32455024339630001 0 -0.15875667977432731 -0.31305016207021658 0 -0.1714100639484453 -0.32455024339630001 0 -0.15639659891449531 -0.32190480275141992 0 -0.15875667977432731 -0.31305016207021658 0 -0.1714100639484453 -0.32455024339630001 0 -0.15301488964195609 -0.34829566470157958 0 -0.1714356629012159 -0.34441864277437773 0 -0.1714100639484453 -0.32455024339630001 0 -0.15301488964195609 -0.34829566470157958 0 -0.1714100639484453 -0.32455024339630001 0 -0.1495873622944752 -0.33068777488062701 0 -0.15301488964195609 -0.34829566470157958 0 -0.1495873622944752 -0.33068777488062701 0 -0.1414820502422936 -0.33827262098342847 0 -0.15301488964195609 -0.34829566470157958 0 -0.1495873622944752 -0.33068777488062701 0 -0.1414820502422936 -0.33827262098342847 0 -0.1406042898571212 -0.32483246826164308 0 -0.15875667977432731 -0.31305016207021658 0 -0.14583228964073319 -0.3193310306585298 0 -0.14348859032101341 -0.31327194051654661 0 -0.15639659891449531 -0.32190480275141992 0 -0.15875667977432731 -0.31305016207021658 0 -0.14583228964073319 -0.3193310306585298 0 -0.15875667977432731 -0.31305016207021658 0 -0.14348859032101341 -0.31327194051654661 0 -0.15639659891449531 -0.32190480275141992 0 -0.1495873622944752 -0.33068777488062701 0 -0.14583228964073319 -0.3193310306585298 0 -0.1495873622944752 -0.33068777488062701 0 -0.14583228964073319 -0.3193310306585298 0 -0.1406042898571212 -0.32483246826164308 0 -0.14583228964073319 -0.3193310306585298 0 -0.14031930510148971 -0.31970199461217269 0 -0.1406042898571212 -0.32483246826164308 0 -0.14583228964073319 -0.3193310306585298 0 -0.14083548028412171 -0.31675158108975898 0 -0.14348859032101341 -0.31327194051654661 0 -0.14583228964073319 -0.3193310306585298 0 -0.14083548028412171 -0.31675158108975898 0 -0.14031930510148971 -0.31970199461217269 0 -0.14348859032101341 -0.31327194051654661 0 -0.13930187325613569 -0.31333275517240677 0 -0.14083548028412171 -0.31675158108975898 0 -0.14348859032101341 -0.31327194051654661 0 -0.13903843234274091 -0.31620812000857151 0 -0.13717952136363901 -0.31766587328508861 0 -0.12814290376288481 -0.33611556183183322 0 -0.13717952136363901 -0.31766587328508861 0 -0.1406042898571212 -0.32483246826164308 0 -0.12814290376288481 -0.33611556183183322 0 -0.13717952136363901 -0.31766587328508861 0 -0.1293215764797383 -0.3230862281859419 0 -0.12814290376288481 -0.33611556183183322 0 -0.13500914363655589 -0.31339510972621809 0 -0.13717952136363901 -0.31766587328508861 0 -0.1293215764797383 -0.3230862281859419 0 -0.13500914363655589 -0.31339510972621809 0 -0.13181940247648161 -0.31344144269019902 0 -0.13930187325613569 -0.31333275517240677 0 -0.13903843234274091 -0.31620812000857151 0 -0.13717952136363901 -0.31766587328508861 0 -0.13930187325613569 -0.31333275517240677 0 -0.13717952136363901 -0.31766587328508861 0 -0.14348859032101341 -0.31327194051654661 0 -0.13930187325613569 -0.31333275517240677 0 -0.13903843234274091 -0.31620812000857151 0 -0.13500914363655589 -0.31339510972621809 0 -0.13930187325613569 -0.31333275517240677 0 -0.13500914363655589 -0.31339510972621809 0 -0.13930187325613569 -0.31333275517240677 0 -0.13717952136363901 -0.31766587328508861 0 -0.13903843234274091 -0.31620812000857151 0 -0.13717952136363901 -0.31766587328508861 0 -0.13905196806826139 -0.31771715384074051 0 -0.14083548028412171 -0.31675158108975898 0 -0.13905196806826139 -0.31771715384074051 0 -0.14031930510148971 -0.31970199461217269 0 -0.14083548028412171 -0.31675158108975898 0 -0.13903843234274091 -0.31620812000857151 0 -0.13905196806826139 -0.31771715384074051 0 -0.13717952136363901 -0.31766587328508861 0 -0.13905196806826139 -0.31771715384074051 0 -0.14031930510148971 -0.31970199461217269 0 -0.13717952136363901 -0.31766587328508861 0 -0.1293215764797383 -0.3230862281859419 0 -0.13717952136363901 -0.31766587328508861 0 -0.14031930510148971 -0.31970199461217269 0 -0.1406042898571212 -0.32483246826164308 0 -0.13500914363655589 -0.31339510972621809 0 -0.1293215764797383 -0.3230862281859419 0 -0.13181940247648161 -0.31344144269019902 0 -0.1293215764797383 -0.3230862281859419 0 -0.13181940247648161 -0.31344144269019902 0 -0.12427237808688971 -0.31613607221539308 0 -0.13500914363655589 -0.31339510972621809 0 -0.1293215764797383 -0.3230862281859419 0 -0.1285367533768986 -0.30925998762068679 0 -0.13181940247648161 -0.31344144269019902 0 -0.12427237808688971 -0.31613607221539308 0 -0.1414820502422936 -0.33827262098342847 0 -0.12814290376288481 -0.33611556183183322 0 -0.1360608056550307 -0.35143163524145948 0 -0.1414820502422936 -0.33827262098342847 0 -0.1406042898571212 -0.32483246826164308 0 -0.12814290376288481 -0.33611556183183322 0 -0.1360608056550307 -0.35143163524145948 0 -0.12812666361228051 -0.36150390876310767 0 -0.1191062861621304 -0.35456525037857772 0 -0.12814290376288481 -0.33611556183183322 0 -0.1360608056550307 -0.35143163524145948 0 -0.1191062861621304 -0.35456525037857772 0 -0.1360608056550307 -0.35143163524145948 0 -0.15301488964195609 -0.34829566470157958 0 -0.13461971533546691 -0.37204108600685931 0 -0.1414820502422936 -0.33827262098342847 0 -0.1360608056550307 -0.35143163524145948 0 -0.15301488964195609 -0.34829566470157958 0 -0.1542241429844993 -0.37603136075650478 0 -0.15301488964195609 -0.34829566470157958 0 -0.13461971533546691 -0.37204108600685931 0 -0.15301488964195609 -0.34829566470157958 0 -0.13461971533546691 -0.37204108600685931 0 -0.1360608056550307 -0.35143163524145948 0 -0.13461971533546691 -0.37204108600685931 0 -0.12812666361228051 -0.36150390876310767 0 -0.13461971533546691 -0.37204108600685931 0 -0.12812666361228051 -0.36150390876310767 0 -0.12271984729649391 -0.36797766342553417 0 -0.13461971533546691 -0.37204108600685931 0 -0.12271984729649391 -0.36797766342553417 0 -0.12108740855967071 -0.38114056776092681 0 -0.12271984729649391 -0.36797766342553417 0 -0.110069668561376 -0.37301493892532223 0 -0.12108740855967071 -0.38114056776092681 0 -0.12271984729649391 -0.36797766342553417 0 -0.110069668561376 -0.37301493892532223 0 -0.1191062861621304 -0.35456525037857772 0 -0.1111866503681915 -0.36212413203702232 0 -0.110069668561376 -0.37301493892532223 0 -0.1191062861621304 -0.35456525037857772 0 -0.110069668561376 -0.37301493892532223 0 -0.1191062861621304 -0.35456525037857772 0 -0.12812666361228051 -0.36150390876310767 0 -0.12271984729649391 -0.36797766342553417 0 -0.1191062861621304 -0.35456525037857772 0 -0.1111866503681915 -0.36212413203702232 0 -0.110069668561376 -0.37301493892532223 0 -0.1071586490317215 -0.36933673662457861 0 -0.1025001442797033 -0.36878760973336538 0 -0.092867294853428123 -0.37060475261786652 0 -0.090849377254120164 -0.3496240795835126 0 -0.110069668561376 -0.37301493892532223 0 -0.10487813291761509 -0.37342026580260429 0 -0.1071586490317215 -0.36933673662457861 0 -0.10487813291761509 -0.37342026580260429 0 -0.098555839244069382 -0.37268239333261449 0 -0.1019434607355445 -0.37753604055626649 0 -0.10487813291761509 -0.37342026580260429 0 -0.1025001442797033 -0.36878760973336538 0 -0.098555839244069382 -0.37268239333261449 0 -0.10487813291761509 -0.37342026580260429 0 -0.1025001442797033 -0.36878760973336538 0 -0.1071586490317215 -0.36933673662457861 0 -0.1111866503681915 -0.36212413203702232 0 -0.1025001442797033 -0.36878760973336538 0 -0.1071586490317215 -0.36933673662457861 0 -0.1025001442797033 -0.36878760973336538 0 -0.092867294853428123 -0.37060475261786652 0 -0.1025001442797033 -0.36878760973336538 0 -0.098555839244069382 -0.37268239333261449 0 -0.092867294853428123 -0.37060475261786652 0 -0.098555839244069382 -0.37268239333261449 0 -0.092867294853428123 -0.37060475261786652 0 -0.093929531538894578 -0.38164902944585938 0 -0.1025001442797033 -0.36878760973336538 0 -0.1159108603797203 -0.34593691895965328 0 -0.1025001442797033 -0.36878760973336538 0 -0.1042802350165293 -0.35389855303946671 0 -0.090849377254120164 -0.3496240795835126 0 -0.1025001442797033 -0.36878760973336538 0 -0.1042802350165293 -0.35389855303946671 0 -0.1159108603797203 -0.34593691895965328 0 -0.1042802350165293 -0.35389855303946671 0 -0.1100854768669301 -0.33635515388472847 0 -0.090849377254120164 -0.3496240795835126 0 -0.1111866503681915 -0.36212413203702232 0 -0.1025001442797033 -0.36878760973336538 0 -0.1159108603797203 -0.34593691895965328 0 -0.12814290376288481 -0.33611556183183322 0 -0.1159108603797203 -0.34593691895965328 0 -0.1191062861621304 -0.35456525037857772 0 -0.1111866503681915 -0.36212413203702232 0 -0.1159108603797203 -0.34593691895965328 0 -0.1191062861621304 -0.35456525037857772 0 -0.12814290376288481 -0.33611556183183322 0 -0.1191062861621304 -0.35456525037857772 0 -0.1042802350165293 -0.35389855303946671 0 -0.1159108603797203 -0.34593691895965328 0 -0.1100854768669301 -0.33635515388472847 0 -0.1293215764797383 -0.3230862281859419 0 -0.1100854768669301 -0.33635515388472847 0 -0.1293215764797383 -0.3230862281859419 0 -0.12814290376288481 -0.33611556183183322 0 -0.1159108603797203 -0.34593691895965328 0 -0.1293215764797383 -0.3230862281859419 0 -0.1159108603797203 -0.34593691895965328 0 -0.1293215764797383 -0.3230862281859419 0 -0.1159108603797203 -0.34593691895965328 0 -0.1100854768669301 -0.33635515388472847 0 -0.1293215764797383 -0.3230862281859419 0 -0.1100854768669301 -0.33635515388472847 0 -0.1166404068490679 -0.32219542778944471 0 -0.12427237808688971 -0.31613607221539308 0 -0.114027223223167 -0.31362206881937632 0 -0.1233218650564137 -0.30959565741799261 0 -0.12427237808688971 -0.31613607221539308 0 -0.1166404068490679 -0.32219542778944471 0 -0.114027223223167 -0.31362206881937632 0 -0.1293215764797383 -0.3230862281859419 0 -0.12427237808688971 -0.31613607221539308 0 -0.1166404068490679 -0.32219542778944471 0 -0.1100854768669301 -0.33635515388472847 0 -0.1166404068490679 -0.32219542778944471 0 -0.1054953795886153 -0.32177761584178399 0 -0.1166404068490679 -0.32219542778944471 0 -0.114027223223167 -0.31362206881937632 0 -0.1054953795886153 -0.32177761584178399 0 -0.1100854768669301 -0.33635515388472847 0 -0.1054953795886153 -0.32177761584178399 0 -0.08817993112899733 -0.32186934056284378 0 -0.1054953795886153 -0.32177761584178399 0 -0.08817993112899733 -0.32186934056284378 0 -0.098803386283195599 -0.31084306231350911 0 -0.114027223223167 -0.31362206881937632 0 -0.1054953795886153 -0.32177761584178399 0 -0.098803386283195599 -0.31084306231350911 0 -0.1100854768669301 -0.33635515388472847 0 -0.08817993112899733 -0.32186934056284378 0 -0.090849377254120164 -0.3496240795835126 0 -0.1100854768669301 -0.33635515388472847 0 -0.090849377254120164 -0.3496240795835126 0 -0.08817993112899733 -0.32186934056284378 0 -0.068607372302384811 -0.34218405705961841 0 -0.08817993112899733 -0.32186934056284378 0 -0.090849377254120164 -0.3496240795835126 0 -0.08817993112899733 -0.32186934056284378 0 -0.068607372302384811 -0.34218405705961841 0 -0.090849377254120164 -0.3496240795835126 0 -0.08817993112899733 -0.32186934056284378 0 -0.068686811322512337 -0.3200686295331503 0 -0.077803823656077631 -0.31018151184964621 0 -0.08817993112899733 -0.32186934056284378 0 -0.098803386283195599 -0.31084306231350911 0 -0.08817993112899733 -0.32186934056284378 0 -0.068686811322512337 -0.3200686295331503 0 -0.068607372302384811 -0.34218405705961841 0 -0.068686811322512337 -0.3200686295331503 0 -0.068607372302384811 -0.34218405705961841 0 -0.057020490009622171 -0.32972185262478337 0 -0.068607372302384811 -0.34218405705961841 0 -0.063750436764240706 -0.36505165535521039 0 -0.066384086614780735 -0.36650006433233739 0 -0.068607372302384811 -0.34218405705961841 0 -0.066384086614780735 -0.36650006433233739 0 -0.090849377254120164 -0.3496240795835126 0 -0.063750436764240706 -0.36505165535521039 0 -0.066384086614780735 -0.36650006433233739 0 -0.057569698252130638 -0.36777172245591222 0 -0.063750436764240706 -0.36505165535521039 0 -0.066384086614780735 -0.36650006433233739 0 -0.066384086614780735 -0.36650006433233739 0 -0.081344315728048344 -0.37472763116059221 0 -0.081344315728048344 -0.37472763116059221 0 -0.092867294853428123 -0.37060475261786652 0 -0.090849377254120164 -0.3496240795835126 0 -0.066384086614780735 -0.36650006433233739 0 -0.081344315728048344 -0.37472763116059221 0 -0.090849377254120164 -0.3496240795835126 0 -0.092867294853428123 -0.37060475261786652 0 -0.090849377254120164 -0.3496240795835126 0 -0.081344315728048344 -0.37472763116059221 0 -0.092867294853428123 -0.37060475261786652 0 -0.066384086614780735 -0.36650006433233739 0 -0.090849377254120164 -0.3496240795835126 0 -0.095721911214905878 -0.25452512295504748 0 -0.10476337173715131 -0.26964924190994238 0 -0.083240820347768987 -0.27051646648269878 0 -0.095721911214905878 -0.25452512295504748 0 -0.1091327142612739 -0.25696123718903757 0 -0.10476337173715131 -0.26964924190994238 0 -0.095721911214905878 -0.25452512295504748 0 -0.1091327142612739 -0.25696123718903757 0 -0.10425775271815001 -0.24508298738637729 0 -0.1091327142612739 -0.25696123718903757 0 -0.1223083114857455 -0.25613110687167828 0 -0.11762503027157251 -0.2438646842861463 0 -0.1257252129849713 -0.26760651690292381 0 -0.1223083114857455 -0.25613110687167828 0 -0.1154467705645582 -0.26537978080928831 0 -0.1091327142612739 -0.25696123718903757 0 -0.1154467705645582 -0.26537978080928831 0 -0.10476337173715131 -0.26964924190994238 0 -0.1091327142612739 -0.25696123718903757 0 -0.1223083114857455 -0.25613110687167828 0 -0.1154467705645582 -0.26537978080928831 0 -0.1154467705645582 -0.26537978080928831 0 -0.1152029857384768 -0.27555030453465978 0 -0.10476337173715131 -0.26964924190994238 0 -0.1257252129849713 -0.26760651690292381 0 -0.1154467705645582 -0.26537978080928831 0 -0.1152029857384768 -0.27555030453465978 0 -0.12445474201649299 -0.27837977644627282 0 -0.1152029857384768 -0.27555030453465978 0 -0.11892878243140589 -0.28618845527802489 0 -0.1257252129849713 -0.26760651690292381 0 -0.12445474201649299 -0.27837977644627282 0 -0.1152029857384768 -0.27555030453465978 0 -0.1152029857384768 -0.27555030453465978 0 -0.10476337173715131 -0.26964924190994238 0 -0.1082976643155039 -0.28410207081680222 0 -0.10476337173715131 -0.26964924190994238 0 -0.096707478297604718 -0.28330793626112222 0 -0.083240820347768987 -0.27051646648269878 0 -0.10476337173715131 -0.26964924190994238 0 -0.096707478297604718 -0.28330793626112222 0 -0.1082976643155039 -0.28410207081680222 0 -0.096707478297604718 -0.28330793626112222 0 -0.10152515934921651 -0.2960789985733962 0 -0.085710375738382916 -0.29619290352277128 0 -0.10152515934921651 -0.2960789985733962 0 -0.1082976643155039 -0.28410207081680222 0 -0.11471779628211 -0.29580868125497939 0 -0.096707478297604718 -0.28330793626112222 0 -0.10152515934921651 -0.2960789985733962 0 -0.1082976643155039 -0.28410207081680222 0 -0.1152029857384768 -0.27555030453465978 0 -0.1082976643155039 -0.28410207081680222 0 -0.11892878243140589 -0.28618845527802489 0 -0.1082976643155039 -0.28410207081680222 0 -0.11892878243140589 -0.28618845527802489 0 -0.11471779628211 -0.29580868125497939 0 -0.12740540384098351 -0.2871823888050643 0 -0.12445474201649299 -0.27837977644627282 0 -0.11892878243140589 -0.28618845527802489 0 -0.12740540384098351 -0.2871823888050643 0 -0.11892878243140589 -0.28618845527802489 0 -0.1235437429290084 -0.29547536832135329 0 -0.11892878243140589 -0.28618845527802489 0 -0.1235437429290084 -0.29547536832135329 0 -0.11471779628211 -0.29580868125497939 0 -0.11471779628211 -0.29580868125497939 0 -0.1100677433627278 -0.30384615540220961 0 -0.1189567677945495 -0.30349879238961219 0 -0.1235437429290084 -0.29547536832135329 0 -0.11471779628211 -0.29580868125497939 0 -0.1189567677945495 -0.30349879238961219 0 -0.12806223591387 -0.30264482312176189 0 -0.1235437429290084 -0.29547536832135329 0 -0.1189567677945495 -0.30349879238961219 0 -0.114027223223167 -0.31362206881937632 0 -0.1189567677945495 -0.30349879238961219 0 -0.1233218650564137 -0.30959565741799261 0 -0.12806223591387 -0.30264482312176189 0 -0.1189567677945495 -0.30349879238961219 0 -0.1233218650564137 -0.30959565741799261 0 -0.114027223223167 -0.31362206881937632 0 -0.1100677433627278 -0.30384615540220961 0 -0.1189567677945495 -0.30349879238961219 0 -0.10152515934921651 -0.2960789985733962 0 -0.098803386283195599 -0.31084306231350911 0 -0.085710375738382916 -0.29619290352277128 0 -0.114027223223167 -0.31362206881937632 0 -0.1100677433627278 -0.30384615540220961 0 -0.098803386283195599 -0.31084306231350911 0 -0.10152515934921651 -0.2960789985733962 0 -0.1100677433627278 -0.30384615540220961 0 -0.098803386283195599 -0.31084306231350911 0 -0.10152515934921651 -0.2960789985733962 0 -0.11471779628211 -0.29580868125497939 0 -0.1100677433627278 -0.30384615540220961 0 -0.08817993112899733 -0.32186934056284378 0 -0.077803823656077631 -0.31018151184964621 0 -0.085710375738382916 -0.29619290352277128 0 -0.08817993112899733 -0.32186934056284378 0 -0.085710375738382916 -0.29619290352277128 0 -0.08817993112899733 -0.32186934056284378 0 -0.098803386283195599 -0.31084306231350911 0 -0.085710375738382916 -0.29619290352277128 0 -0.077803823656077631 -0.31018151184964621 0 -0.068638176434417886 -0.30259517377981898 0 -0.085710375738382916 -0.29619290352277128 0 -0.068686811322512337 -0.3200686295331503 0 -0.077803823656077631 -0.31018151184964621 0 -0.068638176434417886 -0.30259517377981898 0 -0.068638176434417886 -0.30259517377981898 0 -0.069603619070109229 -0.286165192350259 0 -0.085710375738382916 -0.29619290352277128 0 -0.068638176434417886 -0.30259517377981898 0 -0.069603619070109229 -0.286165192350259 0 -0.053825610010505162 -0.29664550207160822 0 -0.096707478297604718 -0.28330793626112222 0 -0.085710375738382916 -0.29619290352277128 0 -0.083240820347768987 -0.27051646648269878 0 -0.069603619070109229 -0.286165192350259 0 -0.085710375738382916 -0.29619290352277128 0 -0.083240820347768987 -0.27051646648269878 0 -0.085710375738382916 -0.29619290352277128 0 -0.083240820347768987 -0.27051646648269878 0 -0.069603619070109229 -0.286165192350259 0 -0.065976498469842673 -0.2695614295332962 0 -0.056561050103304047 -0.28315485566382542 0 -0.069603619070109229 -0.286165192350259 0 -0.083240820347768987 -0.27051646648269878 0 -0.065976498469842673 -0.2695614295332962 0 -0.083240820347768987 -0.27051646648269878 0 -0.080771264957155059 -0.2448400294426262 0 -0.068158317794434542 -0.2495170602682302 0 -0.065976498469842673 -0.2695614295332962 0 -0.057576418678844839 -0.25856318574999182 0 -0.068158317794434542 -0.2495170602682302 0 -0.083240820347768987 -0.27051646648269878 0 -0.065976498469842673 -0.2695614295332962 0 -0.068158317794434542 -0.2495170602682302 0 -0.095721911214905878 -0.25452512295504748 0 -0.083240820347768987 -0.27051646648269878 0 -0.080771264957155059 -0.2448400294426262 0 -0.083240820347768987 -0.27051646648269878 0 -0.080771264957155059 -0.2448400294426262 0 -0.041423614893305441 -0.26445528927329959 0 -0.025767639489991299 -0.25946497962313969 0 -0.034892676046757463 -0.24952760846005781 0 -0.041423614893305441 -0.26445528927329959 0 -0.047152442161352552 -0.25140253843235022 0 -0.034892676046757463 -0.24952760846005781 0 -0.041423614893305441 -0.26445528927329959 0 -0.057576418678844839 -0.25856318574999182 0 -0.05435483081791645 -0.27106279540243228 0 -0.047152442161352552 -0.25140253843235022 0 -0.057576418678844839 -0.25856318574999182 0 -0.05687482565736731 -0.2475939293170851 0 -0.041423614893305441 -0.26445528927329959 0 -0.047152442161352552 -0.25140253843235022 0 -0.057576418678844839 -0.25856318574999182 0 -0.057576418678844839 -0.25856318574999182 0 -0.05687482565736731 -0.2475939293170851 0 -0.068158317794434542 -0.2495170602682302 0 -0.065976498469842673 -0.2695614295332962 0 -0.057576418678844839 -0.25856318574999182 0 -0.05435483081791645 -0.27106279540243228 0 -0.065976498469842673 -0.2695614295332962 0 -0.05435483081791645 -0.27106279540243228 0 -0.056561050103304047 -0.28315485566382542 0 -0.05435483081791645 -0.27106279540243228 0 -0.043451643150317763 -0.28418272521225629 0 -0.056561050103304047 -0.28315485566382542 0 -0.041423614893305441 -0.26445528927329959 0 -0.05435483081791645 -0.27106279540243228 0 -0.043451643150317763 -0.28418272521225629 0 -0.041423614893305441 -0.26445528927329959 0 -0.029300949854769141 -0.2762645262555754 0 -0.025767639489991299 -0.25946497962313969 0 -0.041423614893305441 -0.26445528927329959 0 -0.043451643150317763 -0.28418272521225629 0 -0.029300949854769141 -0.2762645262555754 0 -0.043451643150317763 -0.28418272521225629 0 -0.029002166555643621 -0.29161404621555059 0 -0.029300949854769141 -0.2762645262555754 0 -0.043451643150317763 -0.28418272521225629 0 -0.041774922849496597 -0.29782342139614137 0 -0.029002166555643621 -0.29161404621555059 0 -0.043451643150317763 -0.28418272521225629 0 -0.053825610010505162 -0.29664550207160822 0 -0.041774922849496597 -0.29782342139614137 0 -0.069603619070109229 -0.286165192350259 0 -0.056561050103304047 -0.28315485566382542 0 -0.053825610010505162 -0.29664550207160822 0 -0.043451643150317763 -0.28418272521225629 0 -0.056561050103304047 -0.28315485566382542 0 -0.053825610010505162 -0.29664550207160822 0 -0.068638176434417886 -0.30259517377981898 0 -0.053825610010505162 -0.29664550207160822 0 -0.048995993823199427 -0.31184232618792301 0 -0.068686811322512337 -0.3200686295331503 0 -0.068638176434417886 -0.30259517377981898 0 -0.048995993823199427 -0.31184232618792301 0 -0.053825610010505162 -0.29664550207160822 0 -0.048995993823199427 -0.31184232618792301 0 -0.041774922849496597 -0.29782342139614137 0 -0.048995993823199427 -0.31184232618792301 0 -0.041774922849496597 -0.29782342139614137 0 -0.033599200707817037 -0.30483250729336853 0 -0.041774922849496597 -0.29782342139614137 0 -0.033599200707817037 -0.30483250729336853 0 -0.029002166555643621 -0.29161404621555059 0 -0.048995993823199427 -0.31184232618792301 0 -0.033599200707817037 -0.30483250729336853 0 -0.034172123316752713 -0.31601593148002077 0 -0.033599200707817037 -0.30483250729336853 0 -0.01964115124026174 -0.30990303824227577 0 -0.034172123316752713 -0.31601593148002077 0 -0.033599200707817037 -0.30483250729336853 0 -0.024323838445463059 -0.30084998171713673 0 -0.01964115124026174 -0.30990303824227577 0 -0.033599200707817037 -0.30483250729336853 0 -0.024323838445463059 -0.30084998171713673 0 -0.029002166555643621 -0.29161404621555059 0 -0.024323838445463059 -0.30084998171713673 0 -0.01964115124026174 -0.30990303824227577 0 -0.01505283527812985 -0.29705033511735202 0 -0.01964115124026174 -0.30990303824227577 0 -0.0064590071102648833 -0.30689811281617091 0 -0.013163787212558771 -0.3147811884499806 0 -0.0064590071102648833 -0.30689811281617091 0 -0.0031332965675300618 -0.3192535604675994 0 0.0068436558020707403 -0.30952440010844662 0 -0.0064590071102648833 -0.30689811281617091 0 -0.0052124117894683216 -0.29773121284251319 0 0.001060383604688247 -0.30155388938627731 0 -0.0052124117894683216 -0.29773121284251319 0 0.001060383604688247 -0.30155388938627731 0 0.0021455206274590228 -0.29404508635188592 0 -0.0064590071102648833 -0.30689811281617091 0 -0.0052124117894683216 -0.29773121284251319 0 -0.01505283527812985 -0.29705033511735202 0 -0.01964115124026174 -0.30990303824227577 0 -0.0064590071102648833 -0.30689811281617091 0 -0.01505283527812985 -0.29705033511735202 0 -0.01505283527812985 -0.29705033511735202 0 -0.0074649649844617692 -0.28893040109489587 0 -0.0171993095363366 -0.2827848063253503 0 -0.0052124117894683216 -0.29773121284251319 0 -0.01505283527812985 -0.29705033511735202 0 -0.0074649649844617692 -0.28893040109489587 0 -0.0074649649844617692 -0.28893040109489587 0 0.0045612647380138989 -0.28431467149452821 0 0.0021455206274590228 -0.29404508635188592 0 -0.0052124117894683216 -0.29773121284251319 0 -0.0074649649844617692 -0.28893040109489587 0 0.0021455206274590228 -0.29404508635188592 0 -0.0074649649844617692 -0.28893040109489587 0 -0.0046885611662538448 -0.27467123434601781 0 0.0045612647380138989 -0.28431467149452821 0 -0.0074649649844617692 -0.28893040109489587 0 -0.0171993095363366 -0.2827848063253503 0 -0.0046885611662538448 -0.27467123434601781 0 -0.024323838445463059 -0.30084998171713673 0 -0.01505283527812985 -0.29705033511735202 0 -0.029002166555643621 -0.29161404621555059 0 -0.01505283527812985 -0.29705033511735202 0 -0.0171993095363366 -0.2827848063253503 0 -0.029002166555643621 -0.29161404621555059 0 -0.0171993095363366 -0.2827848063253503 0 -0.029002166555643621 -0.29161404621555059 0 -0.029300949854769141 -0.2762645262555754 0 -0.029300949854769141 -0.2762645262555754 0 -0.0173661246746738 -0.26998341458809377 0 -0.025767639489991299 -0.25946497962313969 0 -0.0171993095363366 -0.2827848063253503 0 -0.029300949854769141 -0.2762645262555754 0 -0.0173661246746738 -0.26998341458809377 0 -0.0171993095363366 -0.2827848063253503 0 -0.0173661246746738 -0.26998341458809377 0 -0.0046885611662538448 -0.27467123434601781 0 -0.0173661246746738 -0.26998341458809377 0 -0.0046885611662538448 -0.27467123434601781 0 -0.011000072387487479 -0.26005496459402222 0 -0.0046885611662538448 -0.27467123434601781 0 -0.011000072387487479 -0.26005496459402222 0 0.001638160530432056 -0.26101289470167283 0 -0.011000072387487479 -0.26005496459402222 0 -0.0074019412988201817 -0.24854936663358451 0 0.001638160530432056 -0.26101289470167283 0 -0.011000072387487479 -0.26005496459402222 0 -0.02058946353034052 -0.24673964048383121 0 -0.0074019412988201817 -0.24854936663358451 0 -0.011000072387487479 -0.26005496459402222 0 -0.025767639489991299 -0.25946497962313969 0 -0.02058946353034052 -0.24673964048383121 0 -0.0173661246746738 -0.26998341458809377 0 -0.011000072387487479 -0.26005496459402222 0 -0.025767639489991299 -0.25946497962313969 0 -0.025767639489991299 -0.25946497962313969 0 -0.02058946353034052 -0.24673964048383121 0 -0.034892676046757463 -0.24952760846005781 0 -0.034516181116196587 -0.35191788790384237 0 -0.049034813475771682 -0.36249877355639237 0 -0.048492507822679283 -0.34201290646057358 0 -0.03125074449343767 -0.36632186491452567 0 -0.049034813475771682 -0.36249877355639237 0 -0.029462254649158429 -0.38281349005316662 0 -0.049034813475771682 -0.36249877355639237 0 -0.029462254649158429 -0.38281349005316662 0 -0.049034813475771682 -0.36249877355639237 0 -0.029462254649158429 -0.38281349005316662 0 -0.051109456153729617 -0.37703639657970811 0 -0.034516181116196587 -0.35191788790384237 0 -0.03125074449343767 -0.36632186491452567 0 -0.049034813475771682 -0.36249877355639237 0 -0.049034813475771682 -0.36249877355639237 0 -0.057569698252130638 -0.36777172245591222 0 -0.051109456153729617 -0.37703639657970811 0 -0.066384086614780735 -0.36650006433233739 0 -0.051109456153729617 -0.37703639657970811 0 -0.066384086614780735 -0.36650006433233739 0 -0.057569698252130638 -0.36777172245591222 0 -0.051109456153729617 -0.37703639657970811 0 -0.063750436764240706 -0.36505165535521039 0 -0.049034813475771682 -0.36249877355639237 0 -0.057569698252130638 -0.36777172245591222 0 -0.068607372302384811 -0.34218405705961841 0 -0.049034813475771682 -0.36249877355639237 0 -0.068607372302384811 -0.34218405705961841 0 -0.063750436764240706 -0.36505165535521039 0 -0.049034813475771682 -0.36249877355639237 0 -0.068607372302384811 -0.34218405705961841 0 -0.049034813475771682 -0.36249877355639237 0 -0.048492507822679283 -0.34201290646057358 0 -0.068607372302384811 -0.34218405705961841 0 -0.057020490009622171 -0.32972185262478337 0 -0.048492507822679283 -0.34201290646057358 0 -0.057020490009622171 -0.32972185262478337 0 -0.048492507822679283 -0.34201290646057358 0 -0.043710091296826757 -0.32688652408015278 0 -0.048995993823199427 -0.31184232618792301 0 -0.057020490009622171 -0.32972185262478337 0 -0.043710091296826757 -0.32688652408015278 0 -0.068686811322512337 -0.3200686295331503 0 -0.048995993823199427 -0.31184232618792301 0 -0.057020490009622171 -0.32972185262478337 0 -0.043710091296826757 -0.32688652408015278 0 -0.023421693932178401 -0.32307004227387609 0 -0.043710091296826757 -0.32688652408015278 0 -0.034172123316752713 -0.31601593148002077 0 -0.023421693932178401 -0.32307004227387609 0 -0.048995993823199427 -0.31184232618792301 0 -0.043710091296826757 -0.32688652408015278 0 -0.034172123316752713 -0.31601593148002077 0 -0.043710091296826757 -0.32688652408015278 0 -0.034789525323552173 -0.3364174222726391 0 -0.023421693932178401 -0.32307004227387609 0 -0.034516181116196587 -0.35191788790384237 0 -0.048492507822679283 -0.34201290646057358 0 -0.034789525323552173 -0.3364174222726391 0 -0.048492507822679283 -0.34201290646057358 0 -0.043710091296826757 -0.32688652408015278 0 -0.034789525323552173 -0.3364174222726391 0 -0.023807152449879829 -0.33819975064475061 0 -0.023421693932178401 -0.32307004227387609 0 -0.0033260258263804669 -0.32681841465303751 0 -0.034516181116196587 -0.35191788790384237 0 -0.034789525323552173 -0.3364174222726391 0 -0.023807152449879829 -0.33819975064475061 0 -0.034789525323552173 -0.3364174222726391 0 -0.023807152449879829 -0.33819975064475061 0 -0.023421693932178401 -0.32307004227387609 0 -0.01964115124026174 -0.30990303824227577 0 -0.034172123316752713 -0.31601593148002077 0 -0.023421693932178401 -0.32307004227387609 0 -0.01964115124026174 -0.30990303824227577 0 -0.023421693932178401 -0.32307004227387609 0 -0.013163787212558771 -0.3147811884499806 0 -0.023421693932178401 -0.32307004227387609 0 -0.0031332965675300618 -0.3192535604675994 0 -0.023421693932178401 -0.32307004227387609 0 -0.013163787212558771 -0.3147811884499806 0 -0.0031332965675300618 -0.3192535604675994 0 -0.023421693932178401 -0.32307004227387609 0 -0.0033260258263804669 -0.32681841465303751 0 -0.0031332965675300618 -0.3192535604675994 0 -0.0064590071102648833 -0.30689811281617091 0 -0.013163787212558771 -0.3147811884499806 0 -0.0031332965675300618 -0.3192535604675994 0 -0.023807152449879829 -0.33819975064475061 0 -0.0033260258263804669 -0.32681841465303751 0 -0.0053138169306343359 -0.33563337472114801 0 -0.023807152449879829 -0.33819975064475061 0 -0.0033260258263804669 -0.32681841465303751 0 -0.023807152449879829 -0.33819975064475061 0 -0.0053138169306343359 -0.33563337472114801 0 -0.0073683429415816156 -0.34561773438271709 0 -0.0033260258263804669 -0.32681841465303751 0 -0.0053138169306343359 -0.33563337472114801 0 0.0016103038837324639 -0.33199173929296572 0 -0.0053138169306343359 -0.33563337472114801 0 -0.0073683429415816156 -0.34561773438271709 0 0.0044609759893579036 -0.33771915893773408 0 -0.0073683429415816156 -0.34561773438271709 0 -0.00075274073939014601 -0.3564584525775914 0 -0.012221122963374201 -0.35529528028319518 0 -0.00075274073939014601 -0.3564584525775914 0 -0.012221122963374201 -0.35529528028319518 0 -0.0104788203870329 -0.36560489059452711 0 -0.0073683429415816156 -0.34561773438271709 0 -0.012221122963374201 -0.35529528028319518 0 -0.020588287028139831 -0.35010470642616592 0 -0.023807152449879829 -0.33819975064475061 0 -0.0073683429415816156 -0.34561773438271709 0 -0.020588287028139831 -0.35010470642616592 0 -0.012221122963374201 -0.35529528028319518 0 -0.020588287028139831 -0.35010470642616592 0 -0.02284685477756641 -0.36061752371752842 0 -0.034516181116196587 -0.35191788790384237 0 -0.020588287028139831 -0.35010470642616592 0 -0.02284685477756641 -0.36061752371752842 0 -0.034516181116196587 -0.35191788790384237 0 -0.023807152449879829 -0.33819975064475061 0 -0.020588287028139831 -0.35010470642616592 0 -0.03125074449343767 -0.36632186491452567 0 -0.02025643773077002 -0.37322320494285222 0 -0.029462254649158429 -0.38281349005316662 0 -0.03125074449343767 -0.36632186491452567 0 -0.02284685477756641 -0.36061752371752842 0 -0.02025643773077002 -0.37322320494285222 0 -0.034516181116196587 -0.35191788790384237 0 -0.03125074449343767 -0.36632186491452567 0 -0.02284685477756641 -0.36061752371752842 0 -0.02284685477756641 -0.36061752371752842 0 -0.02025643773077002 -0.37322320494285222 0 -0.0104788203870329 -0.36560489059452711 0 -0.02025643773077002 -0.37322320494285222 0 -0.0104788203870329 -0.36560489059452711 0 -0.0082454498370062301 -0.37783571146599321 0 -0.012221122963374201 -0.35529528028319518 0 -0.02284685477756641 -0.36061752371752842 0 -0.0104788203870329 -0.36560489059452711 0 -0.00075274073939014601 -0.3564584525775914 0 -0.0104788203870329 -0.36560489059452711 0 0.0014496837259096161 -0.37019917058000251 0 -0.0104788203870329 -0.36560489059452711 0 -0.0082454498370062301 -0.37783571146599321 0 0.0014496837259096161 -0.37019917058000251 0 -0.0082454498370062301 -0.37783571146599321 0 0.001178295979689481 -0.3881409324793787 0 0.0014496837259096161 -0.37019917058000251 0 -0.013335108411958081 -0.38502830909826641 0 -0.0082454498370062301 -0.37783571146599321 0 0.001178295979689481 -0.3881409324793787 0 -0.02025643773077002 -0.37322320494285222 0 -0.013335108411958081 -0.38502830909826641 0 -0.0082454498370062301 -0.37783571146599321 0 -0.0098896958225452025 -0.40312820654994069 0 0.001178295979689481 -0.3881409324793787 0 0.0080763184361985277 -0.4079839549095946 0 -0.013335108411958081 -0.38502830909826641 0 -0.0098896958225452025 -0.40312820654994069 0 0.001178295979689481 -0.3881409324793787 0 -0.026827697568039811 -0.39423347186273988 0 -0.033773224259886207 -0.4104452190821718 0 -0.020176703618998499 -0.41173136554844852 0 -0.0098896958225452025 -0.40312820654994069 0 -0.029462254649158429 -0.38281349005316662 0 -0.0098896958225452025 -0.40312820654994069 0 -0.026827697568039811 -0.39423347186273988 0 -0.020176703618998499 -0.41173136554844852 0 -0.0098896958225452025 -0.40312820654994069 0 -0.026827697568039811 -0.39423347186273988 0 -0.029462254649158429 -0.38281349005316662 0 -0.02025643773077002 -0.37322320494285222 0 -0.013335108411958081 -0.38502830909826641 0 -0.029462254649158429 -0.38281349005316662 0 -0.013335108411958081 -0.38502830909826641 0 -0.0098896958225452025 -0.40312820654994069 0 -0.029462254649158429 -0.38281349005316662 0 -0.026827697568039811 -0.39423347186273988 0 -0.054086006648044221 -0.38448055151166632 0 -0.026827697568039811 -0.39423347186273988 0 -0.029462254649158429 -0.38281349005316662 0 -0.054086006648044221 -0.38448055151166632 0 -0.029462254649158429 -0.38281349005316662 0 -0.051109456153729617 -0.37703639657970811 0 -0.054086006648044221 -0.38448055151166632 0 -0.026827697568039811 -0.39423347186273988 0 -0.04244947688583655 -0.39961519165880749 0 -0.033773224259886207 -0.4104452190821718 0 -0.026827697568039811 -0.39423347186273988 0 -0.044476237978441101 -0.39376917224719388 0 -0.054086006648044221 -0.38448055151166632 0 -0.026827697568039811 -0.39423347186273988 0 -0.04244947688583655 -0.39961519165880749 0 -0.044476237978441101 -0.39376917224719388 0 -0.04244947688583655 -0.39961519165880749 0 -0.044476237978441101 -0.39376917224719388 0 -0.054541770811843859 -0.3967474739555622 0 -0.044476237978441101 -0.39376917224719388 0 -0.054541770811843859 -0.3967474739555622 0 -0.054086006648044221 -0.38448055151166632 0 -0.04244947688583655 -0.39961519165880749 0 -0.054541770811843859 -0.3967474739555622 0 -0.047940813964459143 -0.40977153777140318 0 -0.054541770811843859 -0.3967474739555622 0 -0.059047307723192027 -0.4076500050322116 0 -0.047940813964459143 -0.40977153777140318 0 -0.054541770811843859 -0.3967474739555622 0 -0.059047307723192027 -0.4076500050322116 0 -0.067385704034009272 -0.40160776068576809 0 -0.054541770811843859 -0.3967474739555622 0 -0.064224746421867457 -0.3893508556193026 0 -0.067385704034009272 -0.40160776068576809 0 -0.054541770811843859 -0.3967474739555622 0 -0.054086006648044221 -0.38448055151166632 0 -0.064224746421867457 -0.3893508556193026 0 -0.066384086614780735 -0.36650006433233739 0 -0.051109456153729617 -0.37703639657970811 0 -0.054086006648044221 -0.38448055151166632 0 -0.055567234848722502 -0.43368031821831771 0 -0.05803860556271926 -0.41951586772026223 0 -0.041253820432041233 -0.4253944886752965 0 -0.05803860556271926 -0.41951586772026223 0 -0.047940813964459143 -0.40977153777140318 0 -0.041253820432041233 -0.4253944886752965 0 -0.05803860556271926 -0.41951586772026223 0 -0.059047307723192027 -0.4076500050322116 0 -0.047940813964459143 -0.40977153777140318 0 -0.033773224259886207 -0.4104452190821718 0 -0.041253820432041233 -0.4253944886752965 0 -0.023459158130170452 -0.42867114199527478 0 -0.047940813964459143 -0.40977153777140318 0 -0.033773224259886207 -0.4104452190821718 0 -0.041253820432041233 -0.4253944886752965 0 -0.04244947688583655 -0.39961519165880749 0 -0.047940813964459143 -0.40977153777140318 0 -0.033773224259886207 -0.4104452190821718 0 -0.055567234848722502 -0.43368031821831771 0 -0.041253820432041233 -0.4253944886752965 0 -0.039612264755186782 -0.45304739528729721 0 -0.041253820432041233 -0.4253944886752965 0 -0.023459158130170452 -0.42867114199527478 0 -0.039612264755186782 -0.45304739528729721 0 -0.023459158130170452 -0.42867114199527478 0 -0.020176703618998499 -0.41173136554844852 0 -0.0062201247180692348 -0.41868752424963762 0 -0.033773224259886207 -0.4104452190821718 0 -0.023459158130170452 -0.42867114199527478 0 -0.020176703618998499 -0.41173136554844852 0 -0.0098896958225452025 -0.40312820654994069 0 -0.0062201247180692348 -0.41868752424963762 0 0.0080763184361985277 -0.4079839549095946 0 -0.0098896958225452025 -0.40312820654994069 0 -0.020176703618998499 -0.41173136554844852 0 -0.0062201247180692348 -0.41868752424963762 0 -0.023459158130170452 -0.42867114199527478 0 -0.0062201247180692348 -0.41868752424963762 0 0.00098278496791487282 -0.43499994183307022 0 -0.023459158130170452 -0.42867114199527478 0 -0.01021388243781865 -0.45148415516460921 0 0.00098278496791487282 -0.43499994183307022 0 -0.01021388243781865 -0.45148415516460921 0 -0.017137315581297458 -0.47257937858970051 0 0.0058249948487519992 -0.47378655522329088 0 -0.01021388243781865 -0.45148415516460921 0 -0.017137315581297458 -0.47257937858970051 0 -0.039612264755186782 -0.45304739528729721 0 -0.017137315581297458 -0.47257937858970051 0 -0.035731853051649283 -0.47022070656449549 0 -0.039612264755186782 -0.45304739528729721 0 -0.023459158130170452 -0.42867114199527478 0 -0.01021388243781865 -0.45148415516460921 0 -0.039612264755186782 -0.45304739528729721 0 -0.0055299371706789557 -0.5 0 -0.017137315581297458 -0.47257937858970051 0 0.0058249948487519992 -0.47378655522329088 0 -0.017137315581297458 -0.47257937858970051 0 -0.027251683969294449 -0.48565012481494002 0 -0.035731853051649283 -0.47022070656449549 0 -0.0055299371706789557 -0.5 0 -0.017137315581297458 -0.47257937858970051 0 -0.027251683969294449 -0.48565012481494002 0 -0.0055299371706789557 -0.5 0 -0.027251683969294449 -0.48565012481494002 0 -0.035450826421156267 -0.5 0 -0.027251683969294449 -0.48565012481494002 0 -0.035450826421156267 -0.5 0 -0.043777162089773433 -0.4858812690605735 0 -0.027251683969294449 -0.48565012481494002 0 -0.043777162089773433 -0.4858812690605735 0 -0.035731853051649283 -0.47022070656449549 0 -0.043777162089773433 -0.4858812690605735 0 -0.062795593314491943 -0.46246998616704887 0 -0.067631384442881345 -0.48191178913905819 0 -0.043777162089773433 -0.4858812690605735 0 -0.062795593314491943 -0.46246998616704887 0 -0.043777162089773433 -0.4858812690605735 0 -0.035731853051649283 -0.47022070656449549 0 -0.062795593314491943 -0.46246998616704887 0 -0.035450826421156267 -0.5 0 -0.043777162089773433 -0.4858812690605735 0 -0.065371715671633579 -0.5 0 -0.043777162089773433 -0.4858812690605735 0 -0.065371715671633579 -0.5 0 -0.067631384442881345 -0.48191178913905819 0 -0.035731853051649283 -0.47022070656449549 0 -0.039612264755186782 -0.45304739528729721 0 -0.062795593314491943 -0.46246998616704887 0 -0.039612264755186782 -0.45304739528729721 0 -0.063093534258204464 -0.4470929176268672 0 -0.062795593314491943 -0.46246998616704887 0 -0.039612264755186782 -0.45304739528729721 0 -0.062795593314491943 -0.46246998616704887 0 -0.055567234848722502 -0.43368031821831771 0 -0.039612264755186782 -0.45304739528729721 0 -0.063093534258204464 -0.4470929176268672 0 -0.063093534258204464 -0.4470929176268672 0 -0.078083407498481111 -0.44365101322148132 0 -0.07517077470611816 -0.42853518480640779 0 -0.063093534258204464 -0.4470929176268672 0 -0.078083407498481111 -0.44365101322148132 0 -0.062795593314491943 -0.46246998616704887 0 -0.078083407498481111 -0.44365101322148132 0 -0.062795593314491943 -0.46246998616704887 0 -0.062795593314491943 -0.46246998616704887 0 -0.085880290841635537 -0.4718524896252857 0 -0.078083407498481111 -0.44365101322148132 0 -0.062795593314491943 -0.46246998616704887 0 -0.085880290841635537 -0.4718524896252857 0 -0.078083407498481111 -0.44365101322148132 0 -0.085880290841635537 -0.4718524896252857 0 -0.097711956992144813 -0.4474166230622264 0 -0.078083407498481111 -0.44365101322148132 0 -0.097711956992144813 -0.4474166230622264 0 -0.09337122168247193 -0.42483204027591481 0 -0.065371715671633579 -0.5 0 -0.067631384442881345 -0.48191178913905819 0 -0.080332160296872165 -0.48935520084238282 0 -0.062795593314491943 -0.46246998616704887 0 -0.067631384442881345 -0.48191178913905819 0 -0.085880290841635537 -0.4718524896252857 0 -0.067631384442881345 -0.48191178913905819 0 -0.085880290841635537 -0.4718524896252857 0 -0.080332160296872165 -0.48935520084238282 0 -0.085880290841635537 -0.4718524896252857 0 -0.080332160296872165 -0.48935520084238282 0 -0.1089649883687793 -0.48123499308352191 0 -0.065371715671633579 -0.5 0 -0.080332160296872165 -0.48935520084238282 0 -0.095292604922110891 -0.5 0 -0.080332160296872165 -0.48935520084238282 0 -0.095292604922110891 -0.5 0 -0.1089649883687793 -0.48123499308352191 0 -0.085880290841635537 -0.4718524896252857 0 -0.1089649883687793 -0.48123499308352191 0 -0.085880290841635537 -0.4718524896252857 0 -0.1089649883687793 -0.48123499308352191 0 -0.1038076478007464 -0.46498510783643909 0 -0.13220195266968959 -0.47624020067167439 0 -0.132049685895923 -0.49061749654175812 0 -0.1089649883687793 -0.48123499308352191 0 -0.13220195266968959 -0.47624020067167439 0 -0.1089649883687793 -0.48123499308352191 0 -0.12267335500042589 -0.45943632557472242 0 -0.132049685895923 -0.49061749654175812 0 -0.1089649883687793 -0.48123499308352191 0 -0.132049685895923 -0.49061749654175812 0 -0.12521349417258831 -0.5 0 -0.1089649883687793 -0.48123499308352191 0 -0.12521349417258831 -0.5 0 -0.095292604922110891 -0.5 0 -0.1089649883687793 -0.48123499308352191 0 -0.097711956992144813 -0.4474166230622264 0 -0.1209273657791242 -0.44176315549154482 0 -0.10892361542948779 -0.43270009710332302 0 -0.085880290841635537 -0.4718524896252857 0 -0.097711956992144813 -0.4474166230622264 0 -0.1038076478007464 -0.46498510783643909 0 -0.097711956992144813 -0.4474166230622264 0 -0.1038076478007464 -0.46498510783643909 0 -0.12267335500042589 -0.45943632557472242 0 -0.1089649883687793 -0.48123499308352191 0 -0.1038076478007464 -0.46498510783643909 0 -0.12267335500042589 -0.45943632557472242 0 -0.097711956992144813 -0.4474166230622264 0 -0.12267335500042589 -0.45943632557472242 0 -0.097711956992144813 -0.4474166230622264 0 -0.12267335500042589 -0.45943632557472242 0 -0.1209273657791242 -0.44176315549154482 0 -0.1216473709369055 -0.42684453866736272 0 -0.10892361542948779 -0.43270009710332302 0 -0.1087215033836464 -0.41950108730796121 0 -0.1209273657791242 -0.44176315549154482 0 -0.1216473709369055 -0.42684453866736272 0 -0.10892361542948779 -0.43270009710332302 0 -0.097711956992144813 -0.4474166230622264 0 -0.10892361542948779 -0.43270009710332302 0 -0.09337122168247193 -0.42483204027591481 0 -0.10892361542948779 -0.43270009710332302 0 -0.1087215033836464 -0.41950108730796121 0 -0.09337122168247193 -0.42483204027591481 0 -0.096588227858627168 -0.4092920006955777 0 -0.1087215033836464 -0.41950108730796121 0 -0.09337122168247193 -0.42483204027591481 0 -0.096588227858627168 -0.4092920006955777 0 -0.1087215033836464 -0.41950108730796121 0 -0.1080054089967771 -0.40891004411514281 0 -0.1087215033836464 -0.41950108730796121 0 -0.1080054089967771 -0.40891004411514281 0 -0.120923414606757 -0.4101805087101501 0 -0.1216473709369055 -0.42684453866736272 0 -0.1087215033836464 -0.41950108730796121 0 -0.120923414606757 -0.4101805087101501 0 -0.1307621202024957 -0.41939643977350932 0 -0.1216473709369055 -0.42684453866736272 0 -0.120923414606757 -0.4101805087101501 0 -0.13157646338772311 -0.40235343479418412 0 -0.1127529974633094 -0.3920012321200208 0 -0.13157646338772311 -0.40235343479418412 0 -0.11341138155082391 -0.3988465766850991 0 -0.13157646338772311 -0.40235343479418412 0 -0.1127529974633094 -0.3920012321200208 0 -0.11341138155082391 -0.3988465766850991 0 -0.13157646338772311 -0.40235343479418412 0 -0.120923414606757 -0.4101805087101501 0 -0.11341138155082391 -0.3988465766850991 0 -0.1080054089967771 -0.40891004411514281 0 -0.120923414606757 -0.4101805087101501 0 -0.11341138155082391 -0.3988465766850991 0 -0.13092027878879889 -0.38880123511953929 0 -0.1127529974633094 -0.3920012321200208 0 -0.12108740855967071 -0.38114056776092681 0 -0.1127529974633094 -0.3920012321200208 0 -0.12108740855967071 -0.38114056776092681 0 -0.1098954811148765 -0.38186976570230341 0 -0.110069668561376 -0.37301493892532223 0 -0.12108740855967071 -0.38114056776092681 0 -0.1098954811148765 -0.38186976570230341 0 -0.1127529974633094 -0.3920012321200208 0 -0.1098954811148765 -0.38186976570230341 0 -0.093929531538894578 -0.38164902944585938 0 -0.1098954811148765 -0.38186976570230341 0 -0.1019434607355445 -0.37753604055626649 0 -0.093929531538894578 -0.38164902944585938 0 -0.1127529974633094 -0.3920012321200208 0 -0.093929531538894578 -0.38164902944585938 0 -0.095246299713925064 -0.39533971857601341 0 -0.1127529974633094 -0.3920012321200208 0 -0.093929531538894578 -0.38164902944585938 0 -0.10487813291761509 -0.37342026580260429 0 -0.1098954811148765 -0.38186976570230341 0 -0.1019434607355445 -0.37753604055626649 0 -0.110069668561376 -0.37301493892532223 0 -0.10487813291761509 -0.37342026580260429 0 -0.1098954811148765 -0.38186976570230341 0 -0.093929531538894578 -0.38164902944585938 0 -0.095246299713925064 -0.39533971857601341 0 -0.098555839244069382 -0.37268239333261449 0 -0.1019434607355445 -0.37753604055626649 0 -0.093929531538894578 -0.38164902944585938 0 -0.1080054089967771 -0.40891004411514281 0 -0.11341138155082391 -0.3988465766850991 0 -0.095246299713925064 -0.39533971857601341 0 -0.1127529974633094 -0.3920012321200208 0 -0.11341138155082391 -0.3988465766850991 0 -0.095246299713925064 -0.39533971857601341 0 -0.11341138155082391 -0.3988465766850991 0 -0.095246299713925064 -0.39533971857601341 0 -0.096588227858627168 -0.4092920006955777 0 -0.095246299713925064 -0.39533971857601341 0 -0.096588227858627168 -0.4092920006955777 0 -0.1080054089967771 -0.40891004411514281 0 -0.095246299713925064 -0.39533971857601341 0 -0.096588227858627168 -0.4092920006955777 0 -0.095246299713925064 -0.39533971857601341 0 -0.082445157773887515 -0.40535209700250152 0 -0.095246299713925064 -0.39533971857601341 0 -0.079735523067896136 -0.39234528709765859 0 -0.095246299713925064 -0.39533971857601341 0 -0.079735523067896136 -0.39234528709765859 0 -0.082445157773887515 -0.40535209700250152 0 -0.081344315728048344 -0.37472763116059221 0 -0.093929531538894578 -0.38164902944585938 0 -0.079735523067896136 -0.39234528709765859 0 -0.081344315728048344 -0.37472763116059221 0 -0.093929531538894578 -0.38164902944585938 0 -0.092867294853428123 -0.37060475261786652 0 -0.093929531538894578 -0.38164902944585938 0 -0.081344315728048344 -0.37472763116059221 0 -0.092867294853428123 -0.37060475261786652 0 -0.093929531538894578 -0.38164902944585938 0 -0.093929531538894578 -0.38164902944585938 0 -0.095246299713925064 -0.39533971857601341 0 -0.079735523067896136 -0.39234528709765859 0 -0.081344315728048344 -0.37472763116059221 0 -0.054086006648044221 -0.38448055151166632 0 -0.069847647966464088 -0.38522608134730479 0 -0.081344315728048344 -0.37472763116059221 0 -0.054086006648044221 -0.38448055151166632 0 -0.066384086614780735 -0.36650006433233739 0 -0.081344315728048344 -0.37472763116059221 0 -0.054086006648044221 -0.38448055151166632 0 -0.054086006648044221 -0.38448055151166632 0 -0.064224746421867457 -0.3893508556193026 0 -0.069847647966464088 -0.38522608134730479 0 -0.081344315728048344 -0.37472763116059221 0 -0.079735523067896136 -0.39234528709765859 0 -0.069847647966464088 -0.38522608134730479 0 -0.079735523067896136 -0.39234528709765859 0 -0.064224746421867457 -0.3893508556193026 0 -0.069847647966464088 -0.38522608134730479 0 -0.079735523067896136 -0.39234528709765859 0 -0.082445157773887515 -0.40535209700250152 0 -0.067385704034009272 -0.40160776068576809 0 -0.079735523067896136 -0.39234528709765859 0 -0.064224746421867457 -0.3893508556193026 0 -0.079735523067896136 -0.39234528709765859 0 -0.064224746421867457 -0.3893508556193026 0 -0.067385704034009272 -0.40160776068576809 0 -0.05803860556271926 -0.41951586772026223 0 -0.059047307723192027 -0.4076500050322116 0 -0.071173719160636528 -0.41351995860781049 0 -0.059047307723192027 -0.4076500050322116 0 -0.067385704034009272 -0.40160776068576809 0 -0.071173719160636528 -0.41351995860781049 0 -0.05803860556271926 -0.41951586772026223 0 -0.071173719160636528 -0.41351995860781049 0 -0.07517077470611816 -0.42853518480640779 0 -0.082445157773887515 -0.40535209700250152 0 -0.067385704034009272 -0.40160776068576809 0 -0.071173719160636528 -0.41351995860781049 0 -0.071173719160636528 -0.41351995860781049 0 -0.07517077470611816 -0.42853518480640779 0 -0.083749820236348263 -0.41630625627764251 0 -0.055567234848722502 -0.43368031821831771 0 -0.05803860556271926 -0.41951586772026223 0 -0.07517077470611816 -0.42853518480640779 0 -0.055567234848722502 -0.43368031821831771 0 -0.063093534258204464 -0.4470929176268672 0 -0.07517077470611816 -0.42853518480640779 0 -0.078083407498481111 -0.44365101322148132 0 -0.07517077470611816 -0.42853518480640779 0 -0.09337122168247193 -0.42483204027591481 0 -0.078083407498481111 -0.44365101322148132 0 -0.09337122168247193 -0.42483204027591481 0 -0.07517077470611816 -0.42853518480640779 0 -0.09337122168247193 -0.42483204027591481 0 -0.083749820236348263 -0.41630625627764251 0 -0.096588227858627168 -0.4092920006955777 0 -0.09337122168247193 -0.42483204027591481 0 -0.083749820236348263 -0.41630625627764251 0 -0.096588227858627168 -0.4092920006955777 0 -0.082445157773887515 -0.40535209700250152 0 -0.083749820236348263 -0.41630625627764251 0 -0.082445157773887515 -0.40535209700250152 0 -0.071173719160636528 -0.41351995860781049 0 -0.083749820236348263 -0.41630625627764251 0 -0.084759377840465486 -0.071625959810252535 0 -0.077455850545230992 -0.083275463413191586 0 -0.087769017666925353 -0.094420651272060924 0 -0.084759377840465486 -0.071625959810252535 0 -0.087769017666925353 -0.094420651272060924 0 -0.1059782127135928 -0.074433393834118733 0 -0.084759377840465486 -0.071625959810252535 0 -0.1059782127135928 -0.074433393834118733 0 -0.089206877821650585 -0.057973808767956651 0 -0.084759377840465486 -0.071625959810252535 0 -0.089206877821650585 -0.057973808767956651 0 -0.074277404596178959 -0.05973641421770063 0 -0.06844506044708043 -0.073932768015858727 0 -0.074277404596178959 -0.05973641421770063 0 -0.057325107243472263 -0.061673721710143722 0 -0.084759377840465486 -0.071625959810252535 0 -0.06844506044708043 -0.073932768015858727 0 -0.077455850545230992 -0.083275463413191586 0 -0.084759377840465486 -0.071625959810252535 0 -0.06844506044708043 -0.073932768015858727 0 -0.074277404596178959 -0.05973641421770063 0 -0.077455850545230992 -0.083275463413191586 0 -0.066762949065087646 -0.089902242077299757 0 -0.087769017666925353 -0.094420651272060924 0 -0.06844506044708043 -0.073932768015858727 0 -0.077455850545230992 -0.083275463413191586 0 -0.066762949065087646 -0.089902242077299757 0 -0.066762949065087646 -0.089902242077299757 0 -0.07076687267432108 -0.1142568572280081 0 -0.051600297873546357 -0.095051206105288819 0 -0.066762949065087646 -0.089902242077299757 0 -0.07076687267432108 -0.1142568572280081 0 -0.087769017666925353 -0.094420651272060924 0 -0.07076687267432108 -0.1142568572280081 0 -0.097242629798420327 -0.1185668471750775 0 -0.07076687267432108 -0.1142568572280081 0 -0.097242629798420327 -0.1185668471750775 0 -0.083729950295400757 -0.13590116009119169 0 -0.07076687267432108 -0.1142568572280081 0 -0.087769017666925353 -0.094420651272060924 0 -0.097242629798420327 -0.1185668471750775 0 -0.097242629798420327 -0.1185668471750775 0 -0.1184006278415676 -0.1106082292566901 0 -0.1099842562905755 -0.097964843497610643 0 -0.087769017666925353 -0.094420651272060924 0 -0.097242629798420327 -0.1185668471750775 0 -0.1099842562905755 -0.097964843497610643 0 -0.097242629798420327 -0.1185668471750775 0 -0.1184006278415676 -0.1106082292566901 0 -0.12371838692251939 -0.12287683712214691 0 -0.097242629798420327 -0.1185668471750775 0 -0.12371838692251939 -0.12287683712214691 0 -0.1128338108833226 -0.13047386474767261 0 -0.097242629798420327 -0.1185668471750775 0 -0.12371838692251939 -0.12287683712214691 0 -0.1184006278415676 -0.1106082292566901 0 -0.12371838692251939 -0.12287683712214691 0 -0.1291261972115724 -0.11262163051793379 0 -0.1184006278415676 -0.1106082292566901 0 -0.1244101908758608 -0.098938989160173352 0 -0.1299695072667052 -0.10656040677306911 0 -0.1184006278415676 -0.1106082292566901 0 -0.1099842562905755 -0.097964843497610643 0 -0.1244101908758608 -0.098938989160173352 0 -0.1099842562905755 -0.097964843497610643 0 -0.1244101908758608 -0.098938989160173352 0 -0.12267102177126871 -0.086747198019136773 0 -0.1099842562905755 -0.097964843497610643 0 -0.12267102177126871 -0.086747198019136773 0 -0.1059782127135928 -0.074433393834118733 0 -0.087769017666925353 -0.094420651272060924 0 -0.1099842562905755 -0.097964843497610643 0 -0.1059782127135928 -0.074433393834118733 0 -0.1059782127135928 -0.074433393834118733 0 -0.1176456145751838 -0.059964442654696103 0 -0.13241715236731019 -0.071499797347555794 0 -0.12267102177126871 -0.086747198019136773 0 -0.1059782127135928 -0.074433393834118733 0 -0.13241715236731019 -0.071499797347555794 0 -0.1176456145751838 -0.059964442654696103 0 -0.1131896275628357 -0.036310698784263309 0 -0.10261073543698759 -0.052826179683409413 0 -0.1176456145751838 -0.059964442654696103 0 -0.1131896275628357 -0.036310698784263309 0 -0.1277566199360311 -0.046518470620895702 0 -0.1131896275628357 -0.036310698784263309 0 -0.123096087504753 -0.021537143894235469 0 -0.1277566199360311 -0.046518470620895702 0 -0.1131896275628357 -0.036310698784263309 0 -0.097965794684774246 -0.03812649795123136 0 -0.10261073543698759 -0.052826179683409413 0 -0.097965794684774246 -0.03812649795123136 0 -0.10261073543698759 -0.052826179683409413 0 -0.082880886156258937 -0.045922202544615327 0 -0.1131896275628357 -0.036310698784263309 0 -0.097965794684774246 -0.03812649795123136 0 -0.1032973716438029 -0.027317123237146031 0 -0.1059782127135928 -0.074433393834118733 0 -0.1176456145751838 -0.059964442654696103 0 -0.10261073543698759 -0.052826179683409413 0 -0.1059782127135928 -0.074433393834118733 0 -0.10261073543698759 -0.052826179683409413 0 -0.089206877821650585 -0.057973808767956651 0 -0.1195315168135004 -0.0024303773624146621 0 -0.123096087504753 -0.021537143894235469 0 -0.1113963054135417 -0.0043700933766745859 0 -0.123096087504753 -0.021537143894235469 0 -0.1195315168135004 -0.0024303773624146621 0 -0.123096087504753 -0.021537143894235469 0 -0.1268184100029203 -0.01315007552767593 0 -0.1113963054135417 -0.0043700933766745859 0 -0.1114119624519735 -0.013561206835568459 0 -0.123096087504753 -0.021537143894235469 0 -0.1113963054135417 -0.0043700933766745859 0 -0.1195315168135004 -0.0024303773624146621 0 -0.123096087504753 -0.021537143894235469 0 -0.1195315168135004 -0.0024303773624146621 0 -0.12743649414895861 -0.006291773193808704 0 -0.1268184100029203 -0.01315007552767593 0 -0.1114119624519735 -0.013561206835568459 0 -0.11359048742354021 -0.019403281660653349 0 -0.123096087504753 -0.021537143894235469 0 -0.11359048742354021 -0.019403281660653349 0 -0.123096087504753 -0.021537143894235469 0 -0.112828499283345 -0.024865531336549059 0 -0.1114119624519735 -0.013561206835568459 0 -0.11359048742354021 -0.019403281660653349 0 -0.1071170657176144 -0.01896591174976836 0 -0.11359048742354021 -0.019403281660653349 0 -0.112828499283345 -0.024865531336549059 0 -0.1071170657176144 -0.01896591174976836 0 -0.1131896275628357 -0.036310698784263309 0 -0.123096087504753 -0.021537143894235469 0 -0.112828499283345 -0.024865531336549059 0 -0.1131896275628357 -0.036310698784263309 0 -0.112828499283345 -0.024865531336549059 0 -0.1032973716438029 -0.027317123237146031 0 -0.112828499283345 -0.024865531336549059 0 -0.1032973716438029 -0.027317123237146031 0 -0.1071170657176144 -0.01896591174976836 0 -0.097965794684774246 -0.03812649795123136 0 -0.1032973716438029 -0.027317123237146031 0 -0.094286155278714756 -0.02795183140897111 0 -0.1032973716438029 -0.027317123237146031 0 -0.094286155278714756 -0.02795183140897111 0 -0.094397087335533425 -0.01768226819209302 0 -0.1032973716438029 -0.027317123237146031 0 -0.094397087335533425 -0.01768226819209302 0 -0.1071170657176144 -0.01896591174976836 0 -0.1113963054135417 -0.0043700933766745859 0 -0.1022998594653398 -0.0098496059293485816 0 -0.095042178018154802 0.0009823759069313182 0 -0.1113963054135417 -0.0043700933766745859 0 -0.1114119624519735 -0.013561206835568459 0 -0.1022998594653398 -0.0098496059293485816 0 -0.1114119624519735 -0.013561206835568459 0 -0.1071170657176144 -0.01896591174976836 0 -0.1022998594653398 -0.0098496059293485816 0 -0.094397087335533425 -0.01768226819209302 0 -0.1071170657176144 -0.01896591174976836 0 -0.1022998594653398 -0.0098496059293485816 0 -0.094397087335533425 -0.01768226819209302 0 -0.1022998594653398 -0.0098496059293485816 0 -0.09119992214601233 -0.0072252515097783881 0 -0.1022998594653398 -0.0098496059293485816 0 -0.09119992214601233 -0.0072252515097783881 0 -0.095042178018154802 0.0009823759069313182 0 -0.09119992214601233 -0.0072252515097783881 0 -0.080555240801361186 -0.010014772595642639 0 -0.082085834664370957 0.00072418305549578471 0 -0.09119992214601233 -0.0072252515097783881 0 -0.095042178018154802 0.0009823759069313182 0 -0.082085834664370957 0.00072418305549578471 0 -0.094397087335533425 -0.01768226819209302 0 -0.09119992214601233 -0.0072252515097783881 0 -0.080555240801361186 -0.010014772595642639 0 -0.094397087335533425 -0.01768226819209302 0 -0.080555240801361186 -0.010014772595642639 0 -0.080578328941956462 -0.021189621102860021 0 -0.094286155278714756 -0.02795183140897111 0 -0.094397087335533425 -0.01768226819209302 0 -0.080578328941956462 -0.021189621102860021 0 -0.094286155278714756 -0.02795183140897111 0 -0.080578328941956462 -0.021189621102860021 0 -0.084474720586090568 -0.032751805197192257 0 -0.080578328941956462 -0.021189621102860021 0 -0.066662437868748453 -0.030568872978283489 0 -0.084474720586090568 -0.032751805197192257 0 -0.066662437868748453 -0.030568872978283489 0 -0.069748504601416489 -0.015336708063262551 0 -0.056638824423872462 -0.01491351256515484 0 -0.080578328941956462 -0.021189621102860021 0 -0.066662437868748453 -0.030568872978283489 0 -0.069748504601416489 -0.015336708063262551 0 -0.080555240801361186 -0.010014772595642639 0 -0.080578328941956462 -0.021189621102860021 0 -0.069748504601416489 -0.015336708063262551 0 -0.080555240801361186 -0.010014772595642639 0 -0.069748504601416489 -0.015336708063262551 0 -0.070517512630694557 -0.002546413074365927 0 -0.069748504601416489 -0.015336708063262551 0 -0.070517512630694557 -0.002546413074365927 0 -0.056638824423872462 -0.01491351256515484 0 -0.080555240801361186 -0.010014772595642639 0 -0.070517512630694557 -0.002546413074365927 0 -0.082085834664370957 0.00072418305549578471 0 -0.10261073543698759 -0.052826179683409413 0 -0.089206877821650585 -0.057973808767956651 0 -0.082880886156258937 -0.045922202544615327 0 -0.089206877821650585 -0.057973808767956651 0 -0.082880886156258937 -0.045922202544615327 0 -0.074277404596178959 -0.05973641421770063 0 -0.097965794684774246 -0.03812649795123136 0 -0.084474720586090568 -0.032751805197192257 0 -0.082880886156258937 -0.045922202544615327 0 -0.097965794684774246 -0.03812649795123136 0 -0.094286155278714756 -0.02795183140897111 0 -0.084474720586090568 -0.032751805197192257 0 -0.066662437868748453 -0.030568872978283489 0 -0.084474720586090568 -0.032751805197192257 0 -0.082880886156258937 -0.045922202544615327 0 -0.066662437868748453 -0.030568872978283489 0 -0.082880886156258937 -0.045922202544615327 0 -0.063495440641379144 -0.047188353309730827 0 -0.063495440641379144 -0.047188353309730827 0 -0.074277404596178959 -0.05973641421770063 0 -0.057325107243472263 -0.061673721710143722 0 -0.082880886156258937 -0.045922202544615327 0 -0.063495440641379144 -0.047188353309730827 0 -0.074277404596178959 -0.05973641421770063 0 -0.063495440641379144 -0.047188353309730827 0 -0.057325107243472263 -0.061673721710143722 0 -0.046694023406942807 -0.048562101043976187 0 -0.057325107243472263 -0.061673721710143722 0 -0.04259340245180282 -0.060362124209989078 0 -0.046694023406942807 -0.048562101043976187 0 -0.063495440641379144 -0.047188353309730827 0 -0.050841850176557173 -0.035660650400660583 0 -0.046694023406942807 -0.048562101043976187 0 -0.066662437868748453 -0.030568872978283489 0 -0.050841850176557173 -0.035660650400660583 0 -0.066662437868748453 -0.030568872978283489 0 -0.063495440641379144 -0.047188353309730827 0 -0.050841850176557173 -0.035660650400660583 0 -0.050841850176557173 -0.035660650400660583 0 -0.035021262484366579 -0.040752427823039901 0 -0.050841850176557173 -0.035660650400660583 0 -0.035021262484366579 -0.040752427823039901 0 -0.046694023406942807 -0.048562101043976187 0 -0.035021262484366579 -0.040752427823039901 0 -0.034255536741932671 -0.047445902250769348 0 -0.046694023406942807 -0.048562101043976187 0 -0.035021262484366579 -0.040752427823039901 0 -0.034255536741932671 -0.047445902250769348 0 -0.025136370030621889 -0.050391805666694857 0 -0.035021262484366579 -0.040752427823039901 0 -0.034255536741932671 -0.047445902250769348 0 -0.034255536741932671 -0.047445902250769348 0 -0.038051421926349027 -0.053999980248557337 0 -0.030277492868152789 -0.05739527141432739 0 -0.04259340245180282 -0.060362124209989078 0 -0.030277492868152789 -0.05739527141432739 0 -0.03100086444038247 -0.068981994541821523 0 -0.038051421926349027 -0.053999980248557337 0 -0.04259340245180282 -0.060362124209989078 0 -0.030277492868152789 -0.05739527141432739 0 -0.034255536741932671 -0.047445902250769348 0 -0.038051421926349027 -0.053999980248557337 0 -0.046694023406942807 -0.048562101043976187 0 -0.038051421926349027 -0.053999980248557337 0 -0.04259340245180282 -0.060362124209989078 0 -0.046694023406942807 -0.048562101043976187 0 -0.070517512630694557 -0.002546413074365927 0 -0.056638824423872462 -0.01491351256515484 0 -0.055813665327939861 0.004961667931764239 0 -0.056638824423872462 -0.01491351256515484 0 -0.038065540254775793 -0.01414133944257338 0 -0.055813665327939861 0.004961667931764239 0 -0.050841850176557173 -0.035660650400660583 0 -0.056638824423872462 -0.01491351256515484 0 -0.038065540254775793 -0.01414133944257338 0 -0.066662437868748453 -0.030568872978283489 0 -0.050841850176557173 -0.035660650400660583 0 -0.056638824423872462 -0.01491351256515484 0 -0.035021262484366579 -0.040752427823039901 0 -0.038065540254775793 -0.01414133944257338 0 -0.035021262484366579 -0.040752427823039901 0 -0.038065540254775793 -0.01414133944257338 0 -0.02211103150227026 -0.01782876186553007 0 -0.050841850176557173 -0.035660650400660583 0 -0.035021262484366579 -0.040752427823039901 0 -0.038065540254775793 -0.01414133944257338 0 -0.038065540254775793 -0.01414133944257338 0 -0.041109818025184541 0.01246974893789313 0 -0.02211103150227026 -0.01782876186553007 0 -0.008081950935871246 -0.0078643453545879025 0 -0.02332930609282181 0.002293464424054465 0 -0.038065540254775793 -0.01414133944257338 0 -0.02211103150227026 -0.01782876186553007 0 -0.02332930609282181 0.002293464424054465 0 -0.035021262484366579 -0.040752427823039901 0 -0.02211103150227026 -0.01782876186553007 0 -0.0099906299789442321 -0.0293115812195653 0 -0.0099906299789442321 -0.0293115812195653 0 -0.008081950935871246 -0.0078643453545879025 0 0.0069763512184407676 -0.022647556875415451 0 -0.02211103150227026 -0.01782876186553007 0 -0.0099906299789442321 -0.0293115812195653 0 -0.008081950935871246 -0.0078643453545879025 0 -0.008081950935871246 -0.0078643453545879025 0 0.0057465999670243432 0.0055996356184830438 0 -0.035021262484366579 -0.040752427823039901 0 -0.025136370030621889 -0.050391805666694857 0 -0.0071811579328509706 -0.049712626935109173 0 -0.018946400125805479 -0.056652799910228362 0 -0.025136370030621889 -0.050391805666694857 0 -0.0071811579328509706 -0.049712626935109173 0 -0.018946400125805479 -0.056652799910228362 0 -0.0095552923233079845 -0.062436331508622898 0 -0.021410271066296831 -0.063751429282473432 0 -0.018946400125805479 -0.056652799910228362 0 -0.030277492868152789 -0.05739527141432739 0 -0.025136370030621889 -0.050391805666694857 0 -0.018946400125805479 -0.056652799910228362 0 -0.030277492868152789 -0.05739527141432739 0 -0.021410271066296831 -0.063751429282473432 0 -0.034255536741932671 -0.047445902250769348 0 -0.030277492868152789 -0.05739527141432739 0 -0.025136370030621889 -0.050391805666694857 0 -0.035021262484366579 -0.040752427823039901 0 -0.0099906299789442321 -0.0293115812195653 0 -0.0071811579328509706 -0.049712626935109173 0 -0.035021262484366579 -0.040752427823039901 0 -0.0071811579328509706 -0.049712626935109173 0 -0.0099906299789442321 -0.0293115812195653 0 -0.0071811579328509706 -0.049712626935109173 0 0.0050241786169890248 -0.03713629370316586 0 -0.018946400125805479 -0.056652799910228362 0 -0.0071811579328509706 -0.049712626935109173 0 -0.0095552923233079845 -0.062436331508622898 0 -0.0095552923233079845 -0.062436331508622898 0 0.0055518271476778479 -0.060554578777902927 0 -0.0071811579328509706 -0.049712626935109173 0 -0.0095552923233079845 -0.062436331508622898 0 0.0055518271476778479 -0.060554578777902927 0 -0.00083418359899767053 -0.072522553478430687 0 -0.01018293480097566 -0.085106020112889605 0 -0.01727130557383541 -0.073290749037367015 0 -0.0095552923233079845 -0.062436331508622898 0 -0.00083418359899767053 -0.072522553478430687 0 0.0055518271476778479 -0.060554578777902927 0 -0.0095552923233079845 -0.062436331508622898 0 -0.00083418359899767053 -0.072522553478430687 0 -0.01727130557383541 -0.073290749037367015 0 -0.01018293480097566 -0.085106020112889605 0 -0.032453498244747199 -0.087001550327739735 0 -0.013713416355387869 -0.1050205758249743 0 -0.01018293480097566 -0.085106020112889605 0 -0.01727130557383541 -0.073290749037367015 0 -0.032453498244747199 -0.087001550327739735 0 -0.01018293480097566 -0.085106020112889605 0 -0.032453498244747199 -0.087001550327739735 0 -0.01727130557383541 -0.073290749037367015 0 -0.03100086444038247 -0.068981994541821523 0 -0.032453498244747199 -0.087001550327739735 0 -0.0095552923233079845 -0.062436331508622898 0 -0.021410271066296831 -0.063751429282473432 0 -0.01727130557383541 -0.073290749037367015 0 -0.021410271066296831 -0.063751429282473432 0 -0.01727130557383541 -0.073290749037367015 0 -0.03100086444038247 -0.068981994541821523 0 -0.030277492868152789 -0.05739527141432739 0 -0.021410271066296831 -0.063751429282473432 0 -0.03100086444038247 -0.068981994541821523 0 -0.04259340245180282 -0.060362124209989078 0 -0.03100086444038247 -0.068981994541821523 0 -0.049546184547941761 -0.07654420465893548 0 -0.03100086444038247 -0.068981994541821523 0 -0.032453498244747199 -0.087001550327739735 0 -0.049546184547941761 -0.07654420465893548 0 -0.032453498244747199 -0.087001550327739735 0 -0.049546184547941761 -0.07654420465893548 0 -0.051600297873546357 -0.095051206105288819 0 -0.06844506044708043 -0.073932768015858727 0 -0.066762949065087646 -0.089902242077299757 0 -0.049546184547941761 -0.07654420465893548 0 -0.066762949065087646 -0.089902242077299757 0 -0.049546184547941761 -0.07654420465893548 0 -0.051600297873546357 -0.095051206105288819 0 -0.06844506044708043 -0.073932768015858727 0 -0.057325107243472263 -0.061673721710143722 0 -0.049546184547941761 -0.07654420465893548 0 -0.057325107243472263 -0.061673721710143722 0 -0.04259340245180282 -0.060362124209989078 0 -0.049546184547941761 -0.07654420465893548 0 -0.07076687267432108 -0.1142568572280081 0 -0.044291115550221832 -0.10994686728093871 0 -0.050178390909508278 -0.13166414322784881 0 -0.07076687267432108 -0.1142568572280081 0 -0.044291115550221832 -0.10994686728093871 0 -0.07076687267432108 -0.1142568572280081 0 -0.051600297873546357 -0.095051206105288819 0 -0.044291115550221832 -0.10994686728093871 0 -0.032453498244747199 -0.087001550327739735 0 -0.051600297873546357 -0.095051206105288819 0 -0.044291115550221832 -0.10994686728093871 0 -0.032453498244747199 -0.087001550327739735 0 -0.044291115550221832 -0.10994686728093871 0 -0.028650089411466882 -0.1096696962239173 0 -0.044291115550221832 -0.10994686728093871 0 -0.050178390909508278 -0.13166414322784881 0 -0.033578234858004291 -0.12622010836747671 0 -0.044291115550221832 -0.10994686728093871 0 -0.028650089411466882 -0.1096696962239173 0 -0.033578234858004291 -0.12622010836747671 0 -0.028650089411466882 -0.1096696962239173 0 -0.021610958674889241 -0.1236399918879838 0 -0.013713416355387869 -0.1050205758249743 0 -0.028650089411466882 -0.1096696962239173 0 -0.021610958674889241 -0.1236399918879838 0 -0.033578234858004291 -0.12622010836747671 0 -0.032453498244747199 -0.087001550327739735 0 -0.028650089411466882 -0.1096696962239173 0 -0.013713416355387869 -0.1050205758249743 0 -0.013713416355387869 -0.1050205758249743 0 0.002348869369470805 -0.11731109275913 0 0.00271208556382007 -0.09883127110100752 0 -0.01018293480097566 -0.085106020112889605 0 -0.013713416355387869 -0.1050205758249743 0 0.00271208556382007 -0.09883127110100752 0 -0.021610958674889241 -0.1236399918879838 0 -0.013713416355387869 -0.1050205758249743 0 -0.0089565425227370356 -0.12302905988177 0 -0.013713416355387869 -0.1050205758249743 0 -0.0089565425227370356 -0.12302905988177 0 0.002348869369470805 -0.11731109275913 0 -0.0089565425227370356 -0.12302905988177 0 -8.7367507044229444e-05 -0.1320758947210427 0 0.002348869369470805 -0.11731109275913 0 -0.0089565425227370356 -0.12302905988177 0 -8.7367507044229444e-05 -0.1320758947210427 0 -0.01070795677091901 -0.13402965130026151 0 -8.7367507044229444e-05 -0.1320758947210427 0 -0.0083325490775591395 -0.1445639533356648 0 0.00207234792727306 -0.14230533698230219 0 -8.7367507044229444e-05 -0.1320758947210427 0 -0.01070795677091901 -0.13402965130026151 0 -0.0083325490775591395 -0.1445639533356648 0 -0.01070795677091901 -0.13402965130026151 0 -0.021584240955527311 -0.13825260388064289 0 -0.0083325490775591395 -0.1445639533356648 0 -0.021610958674889241 -0.1236399918879838 0 -0.0089565425227370356 -0.12302905988177 0 -0.01070795677091901 -0.13402965130026151 0 -0.021584240955527311 -0.13825260388064289 0 -0.033578234858004291 -0.12622010836747671 0 -0.035154613646412251 -0.14414734770352849 0 -0.021610958674889241 -0.1236399918879838 0 -0.01070795677091901 -0.13402965130026151 0 -0.021584240955527311 -0.13825260388064289 0 -0.021610958674889241 -0.1236399918879838 0 -0.021584240955527311 -0.13825260388064289 0 -0.033578234858004291 -0.12622010836747671 0 -0.021735869372850151 -0.1525695057058703 0 -0.035006977501845192 -0.15977716749456189 0 -0.035154613646412251 -0.14414734770352849 0 -0.021584240955527311 -0.13825260388064289 0 -0.021735869372850151 -0.1525695057058703 0 -0.035154613646412251 -0.14414734770352849 0 -0.021584240955527311 -0.13825260388064289 0 -0.021735869372850151 -0.1525695057058703 0 -0.0083325490775591395 -0.1445639533356648 0 -0.021735869372850151 -0.1525695057058703 0 -0.0083325490775591395 -0.1445639533356648 0 -0.0089773153789232361 -0.15948872001182321 0 -0.0083325490775591395 -0.1445639533356648 0 0.0044631311353323967 -0.15533498840657239 0 0.00207234792727306 -0.14230533698230219 0 -0.0083325490775591395 -0.1445639533356648 0 -0.0089773153789232361 -0.15948872001182321 0 0.0044631311353323967 -0.15533498840657239 0 -0.0089773153789232361 -0.15948872001182321 0 -0.0061774939463007019 -0.17193904810355759 0 -0.02254149666353707 -0.17016892296766931 0 -0.00089121633836973589 -0.16327629310308001 0 -0.0089773153789232361 -0.15948872001182321 0 0.0044631311353323967 -0.15533498840657239 0 -0.00089121633836973589 -0.16327629310308001 0 -0.0061774939463007019 -0.17193904810355759 0 0.0043408472213855853 -0.1709494822463099 0 -0.00089121633836973589 -0.16327629310308001 0 -0.0089773153789232361 -0.15948872001182321 0 -0.0061774939463007019 -0.17193904810355759 0 -0.0061774939463007019 -0.17193904810355759 0 -0.01111585859188041 -0.18519644467540661 0 -0.02254149666353707 -0.17016892296766931 0 -0.0061774939463007019 -0.17193904810355759 0 -0.01111585859188041 -0.18519644467540661 0 0.001720711736504155 -0.18321484223918161 0 -0.0061774939463007019 -0.17193904810355759 0 0.0043408472213855853 -0.1709494822463099 0 0.001720711736504155 -0.18321484223918161 0 -0.01111585859188041 -0.18519644467540661 0 -0.02254149666353707 -0.17016892296766931 0 -0.02905900948168361 -0.18889681296462019 0 -0.02254149666353707 -0.17016892296766931 0 -0.035986838854404138 -0.17541035913326941 0 -0.02905900948168361 -0.18889681296462019 0 -0.021735869372850151 -0.1525695057058703 0 -0.0089773153789232361 -0.15948872001182321 0 -0.02254149666353707 -0.17016892296766931 0 -0.02254149666353707 -0.17016892296766931 0 -0.035006977501845192 -0.15977716749456189 0 -0.035986838854404138 -0.17541035913326941 0 -0.021735869372850151 -0.1525695057058703 0 -0.02254149666353707 -0.17016892296766931 0 -0.035006977501845192 -0.15977716749456189 0 -0.035006977501845192 -0.15977716749456189 0 -0.046846234269656242 -0.16872630703543781 0 -0.035986838854404138 -0.17541035913326941 0 -0.035006977501845192 -0.15977716749456189 0 -0.046846234269656242 -0.16872630703543781 0 -0.052498855700484147 -0.1528508571804604 0 -0.035986838854404138 -0.17541035913326941 0 -0.049180669748795369 -0.18426403801105079 0 -0.02905900948168361 -0.18889681296462019 0 -0.046846234269656242 -0.16872630703543781 0 -0.035986838854404138 -0.17541035913326941 0 -0.049180669748795369 -0.18426403801105079 0 -0.046846234269656242 -0.16872630703543781 0 -0.049180669748795369 -0.18426403801105079 0 -0.067086850944435561 -0.17194904997627061 0 -0.049180669748795369 -0.18426403801105079 0 -0.065886087948995323 -0.1868444779592334 0 -0.067086850944435561 -0.17194904997627061 0 -0.046846234269656242 -0.16872630703543781 0 -0.052498855700484147 -0.1528508571804604 0 -0.067086850944435561 -0.17194904997627061 0 -0.052498855700484147 -0.1528508571804604 0 -0.050178390909508278 -0.13166414322784881 0 -0.066911883777597228 -0.13767809129283179 0 -0.050178390909508278 -0.13166414322784881 0 -0.033578234858004291 -0.12622010836747671 0 -0.035154613646412251 -0.14414734770352849 0 -0.035006977501845192 -0.15977716749456189 0 -0.052498855700484147 -0.1528508571804604 0 -0.035154613646412251 -0.14414734770352849 0 -0.052498855700484147 -0.1528508571804604 0 -0.050178390909508278 -0.13166414322784881 0 -0.035154613646412251 -0.14414734770352849 0 -0.030496456730285251 -0.23617075648794489 0 -0.02058946353034052 -0.24673964048383121 0 -0.01433523027994708 -0.2315735345724951 0 -0.030496456730285251 -0.23617075648794489 0 -0.02058946353034052 -0.24673964048383121 0 -0.034892676046757463 -0.24952760846005781 0 -0.0074019412988201817 -0.24854936663358451 0 -0.01433523027994708 -0.2315735345724951 0 0.0019815391129595372 -0.23326154048766989 0 -0.02058946353034052 -0.24673964048383121 0 -0.0074019412988201817 -0.24854936663358451 0 -0.01433523027994708 -0.2315735345724951 0 -0.01433523027994708 -0.2315735345724951 0 -0.00053481913395022479 -0.2137630812897415 0 0.0019815391129595372 -0.23326154048766989 0 -0.01433523027994708 -0.2315735345724951 0 -0.016979603611894871 -0.21562155904709421 0 -0.00053481913395022479 -0.2137630812897415 0 -0.01433523027994708 -0.2315735345724951 0 -0.026247679846550319 -0.22328377272885699 0 -0.016979603611894871 -0.21562155904709421 0 -0.030496456730285251 -0.23617075648794489 0 -0.01433523027994708 -0.2315735345724951 0 -0.026247679846550319 -0.22328377272885699 0 -0.030312494608010259 -0.20814308882602969 0 -0.016979603611894871 -0.21562155904709421 0 -0.013467794191016491 -0.201344317818348 0 -0.026247679846550319 -0.22328377272885699 0 -0.030312494608010259 -0.20814308882602969 0 -0.016979603611894871 -0.21562155904709421 0 -0.016979603611894871 -0.21562155904709421 0 -0.00053481913395022479 -0.2137630812897415 0 -0.013467794191016491 -0.201344317818348 0 -0.00053481913395022479 -0.2137630812897415 0 -0.013467794191016491 -0.201344317818348 0 0.0058434739981291749 -0.19505996769432099 0 -0.01111585859188041 -0.18519644467540661 0 -0.013467794191016491 -0.201344317818348 0 0.0058434739981291749 -0.19505996769432099 0 -0.01111585859188041 -0.18519644467540661 0 0.0058434739981291749 -0.19505996769432099 0 0.001720711736504155 -0.18321484223918161 0 -0.01111585859188041 -0.18519644467540661 0 -0.013467794191016491 -0.201344317818348 0 -0.02905900948168361 -0.18889681296462019 0 -0.030312494608010259 -0.20814308882602969 0 -0.013467794191016491 -0.201344317818348 0 -0.02905900948168361 -0.18889681296462019 0 -0.030312494608010259 -0.20814308882602969 0 -0.02905900948168361 -0.18889681296462019 0 -0.041609475830034527 -0.19700029446739331 0 -0.049180669748795369 -0.18426403801105079 0 -0.02905900948168361 -0.18889681296462019 0 -0.041609475830034527 -0.19700029446739331 0 -0.049180669748795369 -0.18426403801105079 0 -0.041609475830034527 -0.19700029446739331 0 -0.059602764428980909 -0.2007913685919219 0 -0.049180669748795369 -0.18426403801105079 0 -0.059602764428980909 -0.2007913685919219 0 -0.065886087948995323 -0.1868444779592334 0 -0.041609475830034527 -0.19700029446739331 0 -0.059602764428980909 -0.2007913685919219 0 -0.045998587730862482 -0.2099731760879861 0 -0.059602764428980909 -0.2007913685919219 0 -0.045998587730862482 -0.2099731760879861 0 -0.05759535120541931 -0.22008027816405351 0 -0.045998587730862482 -0.2099731760879861 0 -0.04157309878005086 -0.22466128756308301 0 -0.05759535120541931 -0.22008027816405351 0 -0.030312494608010259 -0.20814308882602969 0 -0.041609475830034527 -0.19700029446739331 0 -0.045998587730862482 -0.2099731760879861 0 -0.026247679846550319 -0.22328377272885699 0 -0.030312494608010259 -0.20814308882602969 0 -0.04157309878005086 -0.22466128756308301 0 -0.030312494608010259 -0.20814308882602969 0 -0.045998587730862482 -0.2099731760879861 0 -0.04157309878005086 -0.22466128756308301 0 -0.030496456730285251 -0.23617075648794489 0 -0.026247679846550319 -0.22328377272885699 0 -0.04157309878005086 -0.22466128756308301 0 -0.030496456730285251 -0.23617075648794489 0 -0.04157309878005086 -0.22466128756308301 0 -0.043926439475269682 -0.23893244645978129 0 -0.04157309878005086 -0.22466128756308301 0 -0.05759535120541931 -0.22008027816405351 0 -0.056579751506169992 -0.23675858024042681 0 -0.05759535120541931 -0.22008027816405351 0 -0.056579751506169992 -0.23675858024042681 0 -0.069134652816466816 -0.22964083039239391 0 -0.04157309878005086 -0.22466128756308301 0 -0.056579751506169992 -0.23675858024042681 0 -0.043926439475269682 -0.23893244645978129 0 -0.056579751506169992 -0.23675858024042681 0 -0.05687482565736731 -0.2475939293170851 0 -0.043926439475269682 -0.23893244645978129 0 -0.056579751506169992 -0.23675858024042681 0 -0.05687482565736731 -0.2475939293170851 0 -0.068158317794434542 -0.2495170602682302 0 -0.047152442161352552 -0.25140253843235022 0 -0.05687482565736731 -0.2475939293170851 0 -0.043926439475269682 -0.23893244645978129 0 -0.047152442161352552 -0.25140253843235022 0 -0.043926439475269682 -0.23893244645978129 0 -0.034892676046757463 -0.24952760846005781 0 -0.030496456730285251 -0.23617075648794489 0 -0.043926439475269682 -0.23893244645978129 0 -0.034892676046757463 -0.24952760846005781 0 -0.093742133900348884 -0.24043010099263989 0 -0.080771264957155059 -0.2448400294426262 0 -0.087282124908491243 -0.2287675351389323 0 -0.080771264957155059 -0.2448400294426262 0 -0.068158317794434542 -0.2495170602682302 0 -0.087282124908491243 -0.2287675351389323 0 -0.095721911214905878 -0.25452512295504748 0 -0.093742133900348884 -0.24043010099263989 0 -0.080771264957155059 -0.2448400294426262 0 -0.068158317794434542 -0.2495170602682302 0 -0.087282124908491243 -0.2287675351389323 0 -0.068158317794434542 -0.2495170602682302 0 -0.069134652816466816 -0.22964083039239391 0 -0.087282124908491243 -0.2287675351389323 0 -0.056579751506169992 -0.23675858024042681 0 -0.068158317794434542 -0.2495170602682302 0 -0.069134652816466816 -0.22964083039239391 0 -0.069134652816466816 -0.22964083039239391 0 -0.087282124908491243 -0.2287675351389323 0 -0.076057718667818963 -0.21308069815032701 0 -0.05759535120541931 -0.22008027816405351 0 -0.069134652816466816 -0.22964083039239391 0 -0.076057718667818963 -0.21308069815032701 0 -0.076057718667818963 -0.21308069815032701 0 -0.079724743922202038 -0.1931689517792245 0 -0.1064059320225479 -0.20801801000963441 0 -0.087282124908491243 -0.2287675351389323 0 -0.076057718667818963 -0.21308069815032701 0 -0.1064059320225479 -0.20801801000963441 0 -0.059602764428980909 -0.2007913685919219 0 -0.05759535120541931 -0.22008027816405351 0 -0.076057718667818963 -0.21308069815032701 0 -0.059602764428980909 -0.2007913685919219 0 -0.076057718667818963 -0.21308069815032701 0 -0.079724743922202038 -0.1931689517792245 0 -0.059602764428980909 -0.2007913685919219 0 -0.079724743922202038 -0.1931689517792245 0 -0.065886087948995323 -0.1868444779592334 0 -0.1064059320225479 -0.20801801000963441 0 -0.097716937947231491 -0.18236863836799291 0 -0.1110316492752499 -0.18715314187080029 0 -0.079724743922202038 -0.1931689517792245 0 -0.1064059320225479 -0.20801801000963441 0 -0.097716937947231491 -0.18236863836799291 0 -0.1064059320225479 -0.20801801000963441 0 -0.12552973913660481 -0.18726848488033629 0 -0.1064059320225479 -0.20801801000963441 0 -0.1110316492752499 -0.18715314187080029 0 -0.12552973913660481 -0.18726848488033629 0 -0.1064059320225479 -0.20801801000963441 0 -0.12552973913660481 -0.18726848488033629 0 -0.13387494140780751 -0.20470574401124339 0 -0.1064059320225479 -0.20801801000963441 0 -0.12427974049693311 -0.2192069991518282 0 -0.13387494140780751 -0.20470574401124339 0 -0.087282124908491243 -0.2287675351389323 0 -0.1064059320225479 -0.20801801000963441 0 -0.093742133900348884 -0.24043010099263989 0 -0.087282124908491243 -0.2287675351389323 0 -0.10824525073862321 -0.23051559327079299 0 -0.087282124908491243 -0.2287675351389323 0 -0.1064059320225479 -0.20801801000963441 0 -0.10824525073862321 -0.23051559327079299 0 -0.10824525073862321 -0.23051559327079299 0 -0.12427974049693311 -0.2192069991518282 0 -0.12824360402680501 -0.23191432903801429 0 -0.1064059320225479 -0.20801801000963441 0 -0.10824525073862321 -0.23051559327079299 0 -0.12427974049693311 -0.2192069991518282 0 -0.10824525073862321 -0.23051559327079299 0 -0.11762503027157251 -0.2438646842861463 0 -0.12824360402680501 -0.23191432903801429 0 -0.10824525073862321 -0.23051559327079299 0 -0.11762503027157251 -0.2438646842861463 0 -0.10425775271815001 -0.24508298738637729 0 -0.1223083114857455 -0.25613110687167828 0 -0.11762503027157251 -0.2438646842861463 0 -0.13178625741313191 -0.24563913469824819 0 -0.1091327142612739 -0.25696123718903757 0 -0.11762503027157251 -0.2438646842861463 0 -0.10425775271815001 -0.24508298738637729 0 -0.093742133900348884 -0.24043010099263989 0 -0.10824525073862321 -0.23051559327079299 0 -0.10425775271815001 -0.24508298738637729 0 -0.095721911214905878 -0.25452512295504748 0 -0.093742133900348884 -0.24043010099263989 0 -0.10425775271815001 -0.24508298738637729 0 -0.092565867144336622 -0.15088368298751351 0 -0.083729950295400757 -0.13590116009119169 0 -0.074051961468577149 -0.15384012550620929 0 -0.092565867144336622 -0.15088368298751351 0 -0.083729950295400757 -0.13590116009119169 0 -0.10068440036152999 -0.138661001170194 0 -0.07076687267432108 -0.1142568572280081 0 -0.050178390909508278 -0.13166414322784881 0 -0.066911883777597228 -0.13767809129283179 0 -0.07076687267432108 -0.1142568572280081 0 -0.083729950295400757 -0.13590116009119169 0 -0.066911883777597228 -0.13767809129283179 0 -0.083729950295400757 -0.13590116009119169 0 -0.066911883777597228 -0.13767809129283179 0 -0.074051961468577149 -0.15384012550620929 0 -0.052498855700484147 -0.1528508571804604 0 -0.066911883777597228 -0.13767809129283179 0 -0.074051961468577149 -0.15384012550620929 0 -0.074051961468577149 -0.15384012550620929 0 -0.067086850944435561 -0.17194904997627061 0 -0.08723645329314525 -0.16478450782981641 0 -0.052498855700484147 -0.1528508571804604 0 -0.074051961468577149 -0.15384012550620929 0 -0.067086850944435561 -0.17194904997627061 0 -0.065886087948995323 -0.1868444779592334 0 -0.067086850944435561 -0.17194904997627061 0 -0.080927999866602984 -0.17831632334858599 0 -0.079724743922202038 -0.1931689517792245 0 -0.065886087948995323 -0.1868444779592334 0 -0.080927999866602984 -0.17831632334858599 0 -0.079724743922202038 -0.1931689517792245 0 -0.080927999866602984 -0.17831632334858599 0 -0.097716937947231491 -0.18236863836799291 0 -0.080927999866602984 -0.17831632334858599 0 -0.08723645329314525 -0.16478450782981641 0 -0.097716937947231491 -0.18236863836799291 0 -0.067086850944435561 -0.17194904997627061 0 -0.080927999866602984 -0.17831632334858599 0 -0.08723645329314525 -0.16478450782981641 0 -0.092565867144336622 -0.15088368298751351 0 -0.074051961468577149 -0.15384012550620929 0 -0.08723645329314525 -0.16478450782981641 0 -0.10219726387108739 -0.16229156772505179 0 -0.097716937947231491 -0.18236863836799291 0 -0.11447398799461569 -0.17095743422523779 0 -0.092565867144336622 -0.15088368298751351 0 -0.08723645329314525 -0.16478450782981641 0 -0.10219726387108739 -0.16229156772505179 0 -0.08723645329314525 -0.16478450782981641 0 -0.10219726387108739 -0.16229156772505179 0 -0.097716937947231491 -0.18236863836799291 0 -0.10219726387108739 -0.16229156772505179 0 -0.1129493426271293 -0.15918494803172301 0 -0.10797388694904241 -0.149235992811763 0 -0.097716937947231491 -0.18236863836799291 0 -0.1110316492752499 -0.18715314187080029 0 -0.11447398799461569 -0.17095743422523779 0 -0.11447398799461569 -0.17095743422523779 0 -0.12552973913660481 -0.18726848488033629 0 -0.13260571201648669 -0.17305508669918321 0 -0.1110316492752499 -0.18715314187080029 0 -0.11447398799461569 -0.17095743422523779 0 -0.12552973913660481 -0.18726848488033629 0 -0.11447398799461569 -0.17095743422523779 0 -0.1227554134926354 -0.1629562434519892 0 -0.13260571201648669 -0.17305508669918321 0 -0.10219726387108739 -0.16229156772505179 0 -0.1129493426271293 -0.15918494803172301 0 -0.11447398799461569 -0.17095743422523779 0 -0.1129493426271293 -0.15918494803172301 0 -0.11447398799461569 -0.17095743422523779 0 -0.1227554134926354 -0.1629562434519892 0 -0.1129493426271293 -0.15918494803172301 0 -0.1227554134926354 -0.1629562434519892 0 -0.12006252970395979 -0.152591584973194 0 -0.12006252970395979 -0.152591584973194 0 -0.1246746975720613 -0.14429165099579869 0 -0.1147695138312526 -0.14075431864444041 0 -0.12006252970395979 -0.152591584973194 0 -0.1147695138312526 -0.14075431864444041 0 -0.10797388694904241 -0.149235992811763 0 -0.1129493426271293 -0.15918494803172301 0 -0.12006252970395979 -0.152591584973194 0 -0.10797388694904241 -0.149235992811763 0 -0.1147695138312526 -0.14075431864444041 0 -0.10797388694904241 -0.149235992811763 0 -0.10068440036152999 -0.138661001170194 0 -0.092565867144336622 -0.15088368298751351 0 -0.10797388694904241 -0.149235992811763 0 -0.10068440036152999 -0.138661001170194 0 -0.092565867144336622 -0.15088368298751351 0 -0.10219726387108739 -0.16229156772505179 0 -0.10797388694904241 -0.149235992811763 0 -0.097242629798420327 -0.1185668471750775 0 -0.083729950295400757 -0.13590116009119169 0 -0.10068440036152999 -0.138661001170194 0 -0.097242629798420327 -0.1185668471750775 0 -0.10068440036152999 -0.138661001170194 0 -0.1128338108833226 -0.13047386474767261 0 -0.1147695138312526 -0.14075431864444041 0 -0.10068440036152999 -0.138661001170194 0 -0.1128338108833226 -0.13047386474767261 0 -0.1147695138312526 -0.14075431864444041 0 -0.1128338108833226 -0.13047386474767261 0 -0.1186083316188242 -0.13346037066554581 0 -0.1147695138312526 -0.14075431864444041 0 -0.1186083316188242 -0.13346037066554581 0 -0.1249345866341606 -0.13576661566523751 0 -0.1246746975720613 -0.14429165099579869 0 -0.1147695138312526 -0.14075431864444041 0 -0.1249345866341606 -0.13576661566523751 0 -0.12371838692251939 -0.12287683712214691 0 -0.1128338108833226 -0.13047386474767261 0 -0.12245831614015221 -0.12793607091777609 0 -0.1186083316188242 -0.13346037066554581 0 -0.1249345866341606 -0.13576661566523751 0 -0.12245831614015221 -0.12793607091777609 0 -0.1128338108833226 -0.13047386474767261 0 -0.1186083316188242 -0.13346037066554581 0 -0.12245831614015221 -0.12793607091777609 0 -0.1249345866341606 -0.13576661566523751 0 -0.12245831614015221 -0.12793607091777609 0 -0.13071229567074541 -0.13389839556568781 0 -0.12245831614015221 -0.12793607091777609 0 -0.13071229567074541 -0.13389839556568781 0 -0.1368682256682496 -0.12817010881979721 0 -0.1246746975720613 -0.14429165099579869 0 -0.1249345866341606 -0.13576661566523751 0 -0.13140556420772931 -0.14067341960016061 0 -0.1249345866341606 -0.13576661566523751 0 -0.13071229567074541 -0.13389839556568781 0 -0.13140556420772931 -0.14067341960016061 0 -0.13071229567074541 -0.13389839556568781 0 -0.1374574357055475 -0.13674023456130729 0 -0.1368682256682496 -0.12817010881979721 0 -0.1374574357055475 -0.13674023456130729 0 -0.1368682256682496 -0.12817010881979721 0 -0.14540586020422219 -0.13560887798403079 0 -0.1374574357055475 -0.13674023456130729 0 -0.1407959527869285 -0.14436383516889059 0 -0.13140556420772931 -0.14067341960016061 0 -0.13071229567074541 -0.13389839556568781 0 -0.1374574357055475 -0.13674023456130729 0 -0.13140556420772931 -0.14067341960016061 0 -0.1368682256682496 -0.12817010881979721 0 -0.14737626460106781 -0.12592111807363071 0 -0.14540586020422219 -0.13560887798403079 0 -0.1374574357055475 -0.13674023456130729 0 -0.14540586020422219 -0.13560887798403079 0 -0.1407959527869285 -0.14436383516889059 0 -0.14540586020422219 -0.13560887798403079 0 -0.15587760461318551 -0.13264452279792829 0 -0.15678102103438951 -0.14391739337086179 0 -0.14737626460106781 -0.12592111807363071 0 -0.15587760461318551 -0.13264452279792829 0 -0.15719415105627091 -0.1227792853410159 0 -0.14737626460106781 -0.12592111807363071 0 -0.14540586020422219 -0.13560887798403079 0 -0.15587760461318551 -0.13264452279792829 0 -0.1407959527869285 -0.14436383516889059 0 -0.1468003276251256 -0.1530169951031469 0 -0.15678102103438951 -0.14391739337086179 0 -0.14540586020422219 -0.13560887798403079 0 -0.1407959527869285 -0.14436383516889059 0 -0.15678102103438951 -0.14391739337086179 0 -0.1468003276251256 -0.1530169951031469 0 -0.15678102103438951 -0.14391739337086179 0 -0.1618267873882652 -0.15487258848071209 0 -0.1407959527869285 -0.14436383516889059 0 -0.1468003276251256 -0.1530169951031469 0 -0.13279725999559619 -0.14901009572655571 0 -0.1468003276251256 -0.1530169951031469 0 -0.13279725999559619 -0.14901009572655571 0 -0.1330444880777725 -0.15912308851814361 0 -0.1407959527869285 -0.14436383516889059 0 -0.13140556420772931 -0.14067341960016061 0 -0.13279725999559619 -0.14901009572655571 0 -0.1246746975720613 -0.14429165099579869 0 -0.13140556420772931 -0.14067341960016061 0 -0.13279725999559619 -0.14901009572655571 0 -0.12006252970395979 -0.152591584973194 0 -0.13279725999559619 -0.14901009572655571 0 -0.1330444880777725 -0.15912308851814361 0 -0.12006252970395979 -0.152591584973194 0 -0.1246746975720613 -0.14429165099579869 0 -0.13279725999559619 -0.14901009572655571 0 -0.1227554134926354 -0.1629562434519892 0 -0.12006252970395979 -0.152591584973194 0 -0.1330444880777725 -0.15912308851814361 0 -0.1227554134926354 -0.1629562434519892 0 -0.1330444880777725 -0.15912308851814361 0 -0.13260571201648669 -0.17305508669918321 0 -0.1330444880777725 -0.15912308851814361 0 -0.13260571201648669 -0.17305508669918321 0 -0.14327860588568919 -0.16543925680275071 0 -0.12552973913660481 -0.18726848488033629 0 -0.13260571201648669 -0.17305508669918321 0 -0.142782132878364 -0.1886151523016682 0 -0.14815028328559671 -0.17628871996725609 0 -0.1573805813158452 -0.16734400462489221 0 -0.15915750844726381 -0.18474937544656761 0 -0.14815028328559671 -0.17628871996725609 0 -0.15915750844726381 -0.18474937544656761 0 -0.142782132878364 -0.1886151523016682 0 -0.13260571201648669 -0.17305508669918321 0 -0.14815028328559671 -0.17628871996725609 0 -0.142782132878364 -0.1886151523016682 0 -0.1468003276251256 -0.1530169951031469 0 -0.1330444880777725 -0.15912308851814361 0 -0.14327860588568919 -0.16543925680275071 0 -0.13260571201648669 -0.17305508669918321 0 -0.14815028328559671 -0.17628871996725609 0 -0.14327860588568919 -0.16543925680275071 0 -0.14815028328559671 -0.17628871996725609 0 -0.14327860588568919 -0.16543925680275071 0 -0.1573805813158452 -0.16734400462489221 0 -0.1468003276251256 -0.1530169951031469 0 -0.1573805813158452 -0.16734400462489221 0 -0.1618267873882652 -0.15487258848071209 0 -0.1468003276251256 -0.1530169951031469 0 -0.14327860588568919 -0.16543925680275071 0 -0.1573805813158452 -0.16734400462489221 0 -0.1573805813158452 -0.16734400462489221 0 -0.1714341228141639 -0.1623693748209821 0 -0.1618267873882652 -0.15487258848071209 0 -0.1573805813158452 -0.16734400462489221 0 -0.1714341228141639 -0.1623693748209821 0 -0.17011141627568249 -0.1756589001507198 0 -0.1573805813158452 -0.16734400462489221 0 -0.15915750844726381 -0.18474937544656761 0 -0.17011141627568249 -0.1756589001507198 0 -0.15915750844726381 -0.18474937544656761 0 -0.17011141627568249 -0.1756589001507198 0 -0.1761221468536607 -0.1906291004356713 0 -0.17011141627568249 -0.1756589001507198 0 -0.18400063951085829 -0.17367443318172859 0 -0.1761221468536607 -0.1906291004356713 0 -0.18400063951085829 -0.17367443318172859 0 -0.1761221468536607 -0.1906291004356713 0 -0.19224833781571299 -0.1899871164870536 0 -0.18400063951085829 -0.17367443318172859 0 -0.1824598360587053 -0.15604070128364789 0 -0.19280240759936959 -0.1638856888916411 0 -0.1714341228141639 -0.1623693748209821 0 -0.18400063951085829 -0.17367443318172859 0 -0.1824598360587053 -0.15604070128364789 0 -0.1714341228141639 -0.1623693748209821 0 -0.17011141627568249 -0.1756589001507198 0 -0.18400063951085829 -0.17367443318172859 0 -0.1824598360587053 -0.15604070128364789 0 -0.17282547633562689 -0.14662562120419209 0 -0.19399013383676339 -0.1411974515825771 0 -0.1714341228141639 -0.1623693748209821 0 -0.1824598360587053 -0.15604070128364789 0 -0.17282547633562689 -0.14662562120419209 0 -0.17282547633562689 -0.14662562120419209 0 -0.1711301833626718 -0.13161604866728471 0 -0.19399013383676339 -0.1411974515825771 0 -0.1711301833626718 -0.13161604866728471 0 -0.19399013383676339 -0.1411974515825771 0 -0.19078395627702749 -0.11532063674878611 0 -0.15587760461318551 -0.13264452279792829 0 -0.1711301833626718 -0.13161604866728471 0 -0.15719415105627091 -0.1227792853410159 0 -0.15587760461318551 -0.13264452279792829 0 -0.1711301833626718 -0.13161604866728471 0 -0.15678102103438951 -0.14391739337086179 0 -0.17282547633562689 -0.14662562120419209 0 -0.1711301833626718 -0.13161604866728471 0 -0.15678102103438951 -0.14391739337086179 0 -0.1714341228141639 -0.1623693748209821 0 -0.17282547633562689 -0.14662562120419209 0 -0.1618267873882652 -0.15487258848071209 0 -0.17282547633562689 -0.14662562120419209 0 -0.15678102103438951 -0.14391739337086179 0 -0.1618267873882652 -0.15487258848071209 0 -0.15114094217610249 -0.24408778668063341 0 -0.1433518357179219 -0.23763047889329689 0 -0.1571319452915064 -0.23392897992680819 0 -0.14555956547881591 -0.25165122890814712 0 -0.15114094217610249 -0.24408778668063341 0 -0.1433518357179219 -0.23763047889329689 0 -0.14555956547881591 -0.25165122890814712 0 -0.1433518357179219 -0.23763047889329689 0 -0.13178625741313191 -0.24563913469824819 0 -0.11762503027157251 -0.2438646842861463 0 -0.13178625741313191 -0.24563913469824819 0 -0.12824360402680501 -0.23191432903801429 0 -0.1433518357179219 -0.23763047889329689 0 -0.13178625741313191 -0.24563913469824819 0 -0.12824360402680501 -0.23191432903801429 0 -0.1433518357179219 -0.23763047889329689 0 -0.12824360402680501 -0.23191432903801429 0 -0.144628974288882 -0.2208813194294561 0 -0.12427974049693311 -0.2192069991518282 0 -0.12824360402680501 -0.23191432903801429 0 -0.144628974288882 -0.2208813194294561 0 -0.1433518357179219 -0.23763047889329689 0 -0.144628974288882 -0.2208813194294561 0 -0.1571319452915064 -0.23392897992680819 0 -0.144628974288882 -0.2208813194294561 0 -0.1573836060397297 -0.22035384485546611 0 -0.1571319452915064 -0.23392897992680819 0 -0.144628974288882 -0.2208813194294561 0 -0.13387494140780751 -0.20470574401124339 0 -0.15737461297642449 -0.2056235028054226 0 -0.13387494140780751 -0.20470574401124339 0 -0.15737461297642449 -0.2056235028054226 0 -0.144628974288882 -0.2208813194294561 0 -0.15737461297642449 -0.2056235028054226 0 -0.1573836060397297 -0.22035384485546611 0 -0.12427974049693311 -0.2192069991518282 0 -0.144628974288882 -0.2208813194294561 0 -0.13387494140780751 -0.20470574401124339 0 -0.12552973913660481 -0.18726848488033629 0 -0.13387494140780751 -0.20470574401124339 0 -0.142782132878364 -0.1886151523016682 0 -0.13387494140780751 -0.20470574401124339 0 -0.142782132878364 -0.1886151523016682 0 -0.15737461297642449 -0.2056235028054226 0 -0.15915750844726381 -0.18474937544656761 0 -0.142782132878364 -0.1886151523016682 0 -0.15737461297642449 -0.2056235028054226 0 -0.15915750844726381 -0.18474937544656761 0 -0.1761221468536607 -0.1906291004356713 0 -0.15737461297642449 -0.2056235028054226 0 -0.1761221468536607 -0.1906291004356713 0 -0.18087428454504151 -0.2065412615996019 0 -0.15737461297642449 -0.2056235028054226 0 -0.1761221468536607 -0.1906291004356713 0 -0.18929528125695011 -0.19970945243359611 0 -0.19224833781571299 -0.1899871164870536 0 -0.1761221468536607 -0.1906291004356713 0 -0.18087428454504151 -0.2065412615996019 0 -0.18929528125695011 -0.19970945243359611 0 -0.18699518197941381 -0.21595929857790611 0 -0.18087428454504151 -0.2065412615996019 0 -0.17039889160210589 -0.22098157726017739 0 -0.18087428454504151 -0.2065412615996019 0 -0.15737461297642449 -0.2056235028054226 0 -0.18087428454504151 -0.2065412615996019 0 -0.15737461297642449 -0.2056235028054226 0 -0.17039889160210589 -0.22098157726017739 0 -0.15737461297642449 -0.2056235028054226 0 -0.1573836060397297 -0.22035384485546611 0 -0.17039889160210589 -0.22098157726017739 0 -0.1571319452915064 -0.23392897992680819 0 -0.17039889160210589 -0.22098157726017739 0 -0.16709785011861589 -0.23725638996949749 0 -0.1573836060397297 -0.22035384485546611 0 -0.1571319452915064 -0.23392897992680819 0 -0.17039889160210589 -0.22098157726017739 0 -0.18699518197941381 -0.21595929857790611 0 -0.17814857436379011 -0.23402105159375691 0 -0.17039889160210589 -0.22098157726017739 0 -0.17814857436379011 -0.23402105159375691 0 -0.16709785011861589 -0.23725638996949749 0 -0.18699518197941381 -0.21595929857790611 0 -0.17814857436379011 -0.23402105159375691 0 -0.1916287148353534 -0.22834351358174479 0 -0.18699518197941381 -0.21595929857790611 0 -0.17039889160210589 -0.22098157726017739 0 -0.17814857436379011 -0.23402105159375691 0 -0.1788834735570495 -0.2492280067697098 0 -0.1916287148353534 -0.22834351358174479 0 -0.16930196674816639 -0.25208280460960758 0 -0.17814857436379011 -0.23402105159375691 0 -0.16930196674816639 -0.25208280460960758 0 -0.17814857436379011 -0.23402105159375691 0 -0.1788834735570495 -0.2492280067697098 0 -0.17814857436379011 -0.23402105159375691 0 -0.1788834735570495 -0.2492280067697098 0 -0.1916287148353534 -0.22834351358174479 0 -0.16930196674816639 -0.25208280460960758 0 -0.16709785011861589 -0.23725638996949749 0 -0.16050787258751101 -0.24526753645713731 0 -0.16930196674816639 -0.25208280460960758 0 -0.17814857436379011 -0.23402105159375691 0 -0.16709785011861589 -0.23725638996949749 0 -0.1571319452915064 -0.23392897992680819 0 -0.16709785011861589 -0.23725638996949749 0 -0.16050787258751101 -0.24526753645713731 0 -0.15114094217610249 -0.24408778668063341 0 -0.1571319452915064 -0.23392897992680819 0 -0.16050787258751101 -0.24526753645713731 0 -0.15732989424637961 -0.25741631051579289 0 -0.15114094217610249 -0.24408778668063341 0 -0.16050787258751101 -0.24526753645713731 0 -0.21274794732428029 -0.24834802559785249 0 -0.20952475166938869 -0.23674410193605039 0 -0.22454749275957561 -0.23191452042330199 0 -0.21274794732428029 -0.24834802559785249 0 -0.20952475166938869 -0.23674410193605039 0 -0.19816737708826421 -0.24332479085234021 0 -0.20952475166938869 -0.23674410193605039 0 -0.19816737708826421 -0.24332479085234021 0 -0.1916287148353534 -0.22834351358174479 0 -0.1788834735570495 -0.2492280067697098 0 -0.19816737708826421 -0.24332479085234021 0 -0.1916287148353534 -0.22834351358174479 0 -0.1916287148353534 -0.22834351358174479 0 -0.20988527363517701 -0.22586057531507781 0 -0.20673987456910189 -0.2175545841325415 0 -0.20988527363517701 -0.22586057531507781 0 -0.21572188022262839 -0.21834946539082201 0 -0.20673987456910189 -0.2175545841325415 0 -0.20952475166938869 -0.23674410193605039 0 -0.1916287148353534 -0.22834351358174479 0 -0.20988527363517701 -0.22586057531507781 0 -0.20952475166938869 -0.23674410193605039 0 -0.20988527363517701 -0.22586057531507781 0 -0.22454749275957561 -0.23191452042330199 0 -0.20988527363517701 -0.22586057531507781 0 -0.21572188022262839 -0.21834946539082201 0 -0.22454749275957561 -0.23191452042330199 0 -0.21572188022262839 -0.21834946539082201 0 -0.21208954803869201 -0.20776034598128229 0 -0.22413913308114189 -0.2113354005103576 0 -0.21572188022262839 -0.21834946539082201 0 -0.21208954803869201 -0.20776034598128229 0 -0.20673987456910189 -0.2175545841325415 0 -0.21208954803869201 -0.20776034598128229 0 -0.20437395611365849 -0.20745902039378039 0 -0.20673987456910189 -0.2175545841325415 0 -0.21208954803869201 -0.20776034598128229 0 -0.20437395611365849 -0.20745902039378039 0 -0.1916287148353534 -0.22834351358174479 0 -0.20437395611365849 -0.20745902039378039 0 -0.18699518197941381 -0.21595929857790611 0 -0.18087428454504151 -0.2065412615996019 0 -0.20437395611365849 -0.20745902039378039 0 -0.18699518197941381 -0.21595929857790611 0 -0.1916287148353534 -0.22834351358174479 0 -0.20437395611365849 -0.20745902039378039 0 -0.18087428454504151 -0.2065412615996019 0 -0.20437395611365849 -0.20745902039378039 0 -0.18087428454504151 -0.2065412615996019 0 -0.20437395611365849 -0.20745902039378039 0 -0.18929528125695011 -0.19970945243359611 0 -0.1916287148353534 -0.22834351358174479 0 -0.20437395611365849 -0.20745902039378039 0 -0.20673987456910189 -0.2175545841325415 0 -0.20437395611365849 -0.20745902039378039 0 -0.19694142971746051 -0.19784450892677649 0 -0.18929528125695011 -0.19970945243359611 0 -0.20437395611365849 -0.20745902039378039 0 -0.19694142971746051 -0.19784450892677649 0 -0.20269892467535061 -0.19295447674161409 0 -0.19694142971746051 -0.19784450892677649 0 -0.18929528125695011 -0.19970945243359611 0 -0.19224833781571299 -0.1899871164870536 0 -0.19694142971746051 -0.19784450892677649 0 -0.19224833781571299 -0.1899871164870536 0 -0.20269892467535061 -0.19295447674161409 0 -0.20437395611365849 -0.20745902039378039 0 -0.21569349501885079 -0.1889106988677802 0 -0.20437395611365849 -0.20745902039378039 0 -0.20269892467535061 -0.19295447674161409 0 -0.21569349501885079 -0.1889106988677802 0 -0.21208954803869201 -0.20776034598128229 0 -0.21569349501885079 -0.1889106988677802 0 -0.224534460123791 -0.20084690977075101 0 -0.21208954803869201 -0.20776034598128229 0 -0.20437395611365849 -0.20745902039378039 0 -0.21569349501885079 -0.1889106988677802 0 -0.21569349501885079 -0.1889106988677802 0 -0.224534460123791 -0.20084690977075101 0 -0.23391384498602241 -0.19118172375095249 0 -0.224534460123791 -0.20084690977075101 0 -0.23391384498602241 -0.19118172375095249 0 -0.23863336709020619 -0.2037112788664163 0 -0.23391384498602241 -0.19118172375095249 0 -0.26130534856775339 -0.18579846135542619 0 -0.23391384498602241 -0.19118172375095249 0 -0.23863336709020619 -0.2037112788664163 0 -0.26130534856775339 -0.18579846135542619 0 -0.23863336709020619 -0.2037112788664163 0 -0.2369040911752921 -0.22137571193770131 0 -0.25100332460723662 -0.21172946587330899 0 -0.23863336709020619 -0.2037112788664163 0 -0.22413913308114189 -0.2113354005103576 0 -0.2369040911752921 -0.22137571193770131 0 -0.224534460123791 -0.20084690977075101 0 -0.23863336709020619 -0.2037112788664163 0 -0.22413913308114189 -0.2113354005103576 0 -0.21208954803869201 -0.20776034598128229 0 -0.224534460123791 -0.20084690977075101 0 -0.22413913308114189 -0.2113354005103576 0 -0.22413913308114189 -0.2113354005103576 0 -0.22454749275957561 -0.23191452042330199 0 -0.2369040911752921 -0.22137571193770131 0 -0.22413913308114189 -0.2113354005103576 0 -0.22454749275957561 -0.23191452042330199 0 -0.21572188022262839 -0.21834946539082201 0 -0.22413913308114189 -0.2113354005103576 0 -0.22454749275957561 -0.23191452042330199 0 -0.22454749275957561 -0.23191452042330199 0 -0.2369040911752921 -0.22137571193770131 0 -0.23790738491192881 -0.2395582492432205 0 -0.2369040911752921 -0.22137571193770131 0 -0.23790738491192881 -0.2395582492432205 0 -0.25723666982714699 -0.23820841720532429 0 -0.2369040911752921 -0.22137571193770131 0 -0.25723666982714699 -0.23820841720532429 0 -0.25100332460723662 -0.21172946587330899 0 -0.22495585243800931 -0.25249364033624638 0 -0.24130044097179529 -0.25564058872725781 0 -0.23790738491192881 -0.2395582492432205 0 -0.24130044097179529 -0.25564058872725781 0 -0.23790738491192881 -0.2395582492432205 0 -0.25723666982714699 -0.23820841720532429 0 -0.24130044097179529 -0.25564058872725781 0 -0.25723666982714699 -0.23820841720532429 0 -0.22495585243800931 -0.25249364033624638 0 -0.21274794732428029 -0.24834802559785249 0 -0.22454749275957561 -0.23191452042330199 0 -0.22495585243800931 -0.25249364033624638 0 -0.22454749275957561 -0.23191452042330199 0 -0.22495585243800931 -0.25249364033624638 0 -0.22454749275957561 -0.23191452042330199 0 -0.23790738491192881 -0.2395582492432205 0 -0.2115864363375293 -0.14448653114936821 0 -0.2064240193048045 -0.16070738919176211 0 -0.21887002726069771 -0.15554082789779539 0 -0.2115864363375293 -0.14448653114936821 0 -0.19399013383676339 -0.1411974515825771 0 -0.2064240193048045 -0.16070738919176211 0 -0.2115864363375293 -0.14448653114936821 0 -0.2041830764487319 -0.1289196513607731 0 -0.19399013383676339 -0.1411974515825771 0 -0.2115864363375293 -0.14448653114936821 0 -0.2154345864577204 -0.12802766816547781 0 -0.2041830764487319 -0.1289196513607731 0 -0.2041830764487319 -0.1289196513607731 0 -0.19399013383676339 -0.1411974515825771 0 -0.19078395627702749 -0.11532063674878611 0 -0.1824598360587053 -0.15604070128364789 0 -0.19399013383676339 -0.1411974515825771 0 -0.19280240759936959 -0.1638856888916411 0 -0.19399013383676339 -0.1411974515825771 0 -0.19280240759936959 -0.1638856888916411 0 -0.2064240193048045 -0.16070738919176211 0 -0.18400063951085829 -0.17367443318172859 0 -0.19280240759936959 -0.1638856888916411 0 -0.20333994025977059 -0.17753731952294499 0 -0.19280240759936959 -0.1638856888916411 0 -0.20333994025977059 -0.17753731952294499 0 -0.2064240193048045 -0.16070738919176211 0 -0.18400063951085829 -0.17367443318172859 0 -0.19224833781571299 -0.1899871164870536 0 -0.20333994025977059 -0.17753731952294499 0 -0.19224833781571299 -0.1899871164870536 0 -0.20269892467535061 -0.19295447674161409 0 -0.20333994025977059 -0.17753731952294499 0 -0.21569349501885079 -0.1889106988677802 0 -0.20333994025977059 -0.17753731952294499 0 -0.2270130339240444 -0.17036237734178081 0 -0.20269892467535061 -0.19295447674161409 0 -0.21569349501885079 -0.1889106988677802 0 -0.20333994025977059 -0.17753731952294499 0 -0.20333994025977059 -0.17753731952294499 0 -0.2064240193048045 -0.16070738919176211 0 -0.2270130339240444 -0.17036237734178081 0 -0.2064240193048045 -0.16070738919176211 0 -0.2270130339240444 -0.17036237734178081 0 -0.21887002726069771 -0.15554082789779539 0 -0.2270130339240444 -0.17036237734178081 0 -0.23045661947641241 -0.14660701390827041 0 -0.21887002726069771 -0.15554082789779539 0 -0.21569349501885079 -0.1889106988677802 0 -0.2270130339240444 -0.17036237734178081 0 -0.21569349501885079 -0.1889106988677802 0 -0.23391384498602241 -0.19118172375095249 0 -0.2270130339240444 -0.17036237734178081 0 -0.23391384498602241 -0.19118172375095249 0 -0.2482519669145887 -0.16648200385476961 0 -0.26130534856775339 -0.18579846135542619 0 -0.23391384498602241 -0.19118172375095249 0 -0.2270130339240444 -0.17036237734178081 0 -0.2482519669145887 -0.16648200385476961 0 -0.2270130339240444 -0.17036237734178081 0 -0.2482519669145887 -0.16648200385476961 0 -0.23045661947641241 -0.14660701390827041 0 -0.2482519669145887 -0.16648200385476961 0 -0.23045661947641241 -0.14660701390827041 0 -0.25295801924109529 -0.1445461540838856 0 -0.2115864363375293 -0.14448653114936821 0 -0.23045661947641241 -0.14660701390827041 0 -0.21887002726069771 -0.15554082789779539 0 -0.2115864363375293 -0.14448653114936821 0 -0.2154345864577204 -0.12802766816547781 0 -0.23045661947641241 -0.14660701390827041 0 -0.23045661947641241 -0.14660701390827041 0 -0.23787402957915979 -0.1198224895175395 0 -0.23045661947641241 -0.14660701390827041 0 -0.22717493035218811 -0.12628588253686371 0 -0.23787402957915979 -0.1198224895175395 0 -0.2154345864577204 -0.12802766816547781 0 -0.23045661947641241 -0.14660701390827041 0 -0.22717493035218811 -0.12628588253686371 0 -0.23045661947641241 -0.14660701390827041 0 -0.24833379368722169 -0.12242881535128169 0 -0.23787402957915979 -0.1198224895175395 0 -0.23045661947641241 -0.14660701390827041 0 -0.24833379368722169 -0.12242881535128169 0 -0.25295801924109529 -0.1445461540838856 0 -0.24833379368722169 -0.12242881535128169 0 -0.23787402957915979 -0.1198224895175395 0 -0.25078516967255832 -0.10897906838393739 0 -0.23787402957915979 -0.1198224895175395 0 -0.2452914396819072 -0.093037965126808536 0 -0.23787402957915979 -0.1198224895175395 0 -0.22493448589546 -0.11068635855616731 0 -0.2452914396819072 -0.093037965126808536 0 -0.23787402957915979 -0.1198224895175395 0 -0.2452914396819072 -0.093037965126808536 0 -0.25078516967255832 -0.10897906838393739 0 -0.22493448589546 -0.11068635855616731 0 -0.2452914396819072 -0.093037965126808536 0 -0.2269284637984624 -0.092247471546980958 0 -0.22493448589546 -0.11068635855616731 0 -0.2269284637984624 -0.092247471546980958 0 -0.21246547666984239 -0.1018401726314586 0 -0.2154345864577204 -0.12802766816547781 0 -0.22717493035218811 -0.12628588253686371 0 -0.22493448589546 -0.11068635855616731 0 -0.22717493035218811 -0.12628588253686371 0 -0.23787402957915979 -0.1198224895175395 0 -0.22493448589546 -0.11068635855616731 0 -0.2452914396819072 -0.093037965126808536 0 -0.22154034097744349 -0.074087302449213466 0 -0.25270884978465469 -0.066253440736077598 0 -0.2452914396819072 -0.093037965126808536 0 -0.25270884978465469 -0.066253440736077598 0 -0.2452914396819072 -0.093037965126808536 0 -0.2269284637984624 -0.092247471546980958 0 -0.22154034097744349 -0.074087302449213466 0 -0.2269284637984624 -0.092247471546980958 0 -0.22154034097744349 -0.074087302449213466 0 -0.21246547666984239 -0.1018401726314586 0 -0.22154034097744349 -0.074087302449213466 0 -0.20532123375130701 -0.08414396627088537 0 -0.21029011884153381 -0.057955982925987727 0 -0.22154034097744349 -0.074087302449213466 0 -0.21246547666984239 -0.1018401726314586 0 -0.22154034097744349 -0.074087302449213466 0 -0.20532123375130701 -0.08414396627088537 0 -0.21246547666984239 -0.1018401726314586 0 -0.20532123375130701 -0.08414396627088537 0 -0.18833216816618831 -0.075451004923934889 0 -0.1870339283968423 -0.095911798024367154 0 -0.18833216816618831 -0.075451004923934889 0 -0.21029011884153381 -0.057955982925987727 0 -0.20532123375130701 -0.08414396627088537 0 -0.18833216816618831 -0.075451004923934889 0 -0.21029011884153381 -0.057955982925987727 0 -0.2095603163497565 -0.1169588974925326 0 -0.21246547666984239 -0.1018401726314586 0 -0.19078395627702749 -0.11532063674878611 0 -0.2154345864577204 -0.12802766816547781 0 -0.22493448589546 -0.11068635855616731 0 -0.2095603163497565 -0.1169588974925326 0 -0.2154345864577204 -0.12802766816547781 0 -0.2041830764487319 -0.1289196513607731 0 -0.2095603163497565 -0.1169588974925326 0 -0.22493448589546 -0.11068635855616731 0 -0.2095603163497565 -0.1169588974925326 0 -0.21246547666984239 -0.1018401726314586 0 -0.20532123375130701 -0.08414396627088537 0 -0.21246547666984239 -0.1018401726314586 0 -0.1870339283968423 -0.095911798024367154 0 -0.21246547666984239 -0.1018401726314586 0 -0.19078395627702749 -0.11532063674878611 0 -0.1870339283968423 -0.095911798024367154 0 -0.2041830764487319 -0.1289196513607731 0 -0.2095603163497565 -0.1169588974925326 0 -0.19078395627702749 -0.11532063674878611 0 -0.1711301833626718 -0.13161604866728471 0 -0.19078395627702749 -0.11532063674878611 0 -0.1693865330646602 -0.1114469694894786 0 -0.1693865330646602 -0.1114469694894786 0 -0.15719415105627091 -0.1227792853410159 0 -0.14441626681549749 -0.1104410489198291 0 -0.1711301833626718 -0.13161604866728471 0 -0.1693865330646602 -0.1114469694894786 0 -0.15719415105627091 -0.1227792853410159 0 -0.1693865330646602 -0.1114469694894786 0 -0.16637421749084291 -0.092946026921882044 0 -0.14441626681549749 -0.1104410489198291 0 -0.1693865330646602 -0.1114469694894786 0 -0.1870339283968423 -0.095911798024367154 0 -0.16637421749084291 -0.092946026921882044 0 -0.19078395627702749 -0.11532063674878611 0 -0.1693865330646602 -0.1114469694894786 0 -0.1870339283968423 -0.095911798024367154 0 -0.18833216816618831 -0.075451004923934889 0 -0.16637421749084291 -0.092946026921882044 0 -0.18833216816618831 -0.075451004923934889 0 -0.1870339283968423 -0.095911798024367154 0 -0.16637421749084291 -0.092946026921882044 0 -0.18833216816618831 -0.075451004923934889 0 -0.16428047457153011 -0.065476768921427619 0 -0.1793049329842617 -0.047856813271073183 0 -0.18833216816618831 -0.075451004923934889 0 -0.16428047457153011 -0.065476768921427619 0 -0.16637421749084291 -0.092946026921882044 0 -0.16428047457153011 -0.065476768921427619 0 -0.16637421749084291 -0.092946026921882044 0 -0.1490714142114416 -0.079478532805872637 0 -0.16637421749084291 -0.092946026921882044 0 -0.1490714142114416 -0.079478532805872637 0 -0.13707768479858939 -0.096481124074215954 0 -0.1490714142114416 -0.079478532805872637 0 -0.13241715236731019 -0.071499797347555794 0 -0.1443901597825496 -0.055099829264574553 0 -0.16428047457153011 -0.065476768921427619 0 -0.1490714142114416 -0.079478532805872637 0 -0.1443901597825496 -0.055099829264574553 0 -0.12267102177126871 -0.086747198019136773 0 -0.13241715236731019 -0.071499797347555794 0 -0.13707768479858939 -0.096481124074215954 0 -0.13241715236731019 -0.071499797347555794 0 -0.13707768479858939 -0.096481124074215954 0 -0.1490714142114416 -0.079478532805872637 0 -0.13241715236731019 -0.071499797347555794 0 -0.13707768479858939 -0.096481124074215954 0 -0.1244101908758608 -0.098938989160173352 0 -0.13707768479858939 -0.096481124074215954 0 -0.1299695072667052 -0.10656040677306911 0 -0.1244101908758608 -0.098938989160173352 0 -0.12267102177126871 -0.086747198019136773 0 -0.13707768479858939 -0.096481124074215954 0 -0.13707768479858939 -0.096481124074215954 0 -0.1299695072667052 -0.10656040677306911 0 -0.14441626681549749 -0.1104410489198291 0 -0.12371838692251939 -0.12287683712214691 0 -0.12245831614015221 -0.12793607091777609 0 -0.14441626681549749 -0.1104410489198291 0 -0.12371838692251939 -0.12287683712214691 0 -0.1291261972115724 -0.11262163051793379 0 -0.14441626681549749 -0.1104410489198291 0 -0.12245831614015221 -0.12793607091777609 0 -0.14441626681549749 -0.1104410489198291 0 -0.1184006278415676 -0.1106082292566901 0 -0.1299695072667052 -0.10656040677306911 0 -0.1291261972115724 -0.11262163051793379 0 -0.12245831614015221 -0.12793607091777609 0 -0.1368682256682496 -0.12817010881979721 0 -0.14441626681549749 -0.1104410489198291 0 -0.1299695072667052 -0.10656040677306911 0 -0.1291261972115724 -0.11262163051793379 0 -0.14441626681549749 -0.1104410489198291 0 -0.1368682256682496 -0.12817010881979721 0 -0.14737626460106781 -0.12592111807363071 0 -0.14441626681549749 -0.1104410489198291 0 -0.14737626460106781 -0.12592111807363071 0 -0.15719415105627091 -0.1227792853410159 0 -0.14441626681549749 -0.1104410489198291 0 -0.16637421749084291 -0.092946026921882044 0 -0.14441626681549749 -0.1104410489198291 0 -0.16637421749084291 -0.092946026921882044 0 -0.13707768479858939 -0.096481124074215954 0 -0.14441626681549749 -0.1104410489198291 0 -0.14534073812157411 -0.025599999862636551 0 -0.15766078152670249 -0.038822405282724078 0 -0.1596986166843726 -0.018287629878874809 0 -0.14534073812157411 -0.025599999862636551 0 -0.14470387857328831 -0.013579684409493489 0 -0.13395813965962541 -0.019909367908082069 0 -0.14534073812157411 -0.025599999862636551 0 -0.14470387857328831 -0.013579684409493489 0 -0.1596986166843726 -0.018287629878874809 0 -0.15288594458857521 -0.0057362803360174394 0 -0.14470387857328831 -0.013579684409493489 0 -0.1596986166843726 -0.018287629878874809 0 -0.15288594458857521 -0.0057362803360174394 0 -0.14263431330638721 -0.0026543475024554258 0 -0.14470387857328831 -0.013579684409493489 0 -0.14470387857328831 -0.013579684409493489 0 -0.13370551907919501 -0.0092904809688946141 0 -0.13395813965962541 -0.019909367908082069 0 -0.14263431330638721 -0.0026543475024554258 0 -0.14470387857328831 -0.013579684409493489 0 -0.13370551907919501 -0.0092904809688946141 0 -0.14263431330638721 -0.0026543475024554258 0 -0.13370551907919501 -0.0092904809688946141 0 -0.1296905307002188 -0.00029615891624961121 0 -0.13370551907919501 -0.0092904809688946141 0 -0.1296905307002188 -0.00029615891624961121 0 -0.12743649414895861 -0.006291773193808704 0 -0.1195315168135004 -0.0024303773624146621 0 -0.1296905307002188 -0.00029615891624961121 0 -0.12743649414895861 -0.006291773193808704 0 -0.13370551907919501 -0.0092904809688946141 0 -0.1268184100029203 -0.01315007552767593 0 -0.13395813965962541 -0.019909367908082069 0 -0.13370551907919501 -0.0092904809688946141 0 -0.12743649414895861 -0.006291773193808704 0 -0.1268184100029203 -0.01315007552767593 0 -0.123096087504753 -0.021537143894235469 0 -0.13395813965962541 -0.019909367908082069 0 -0.12757143638572829 -0.02810380810425436 0 -0.123096087504753 -0.021537143894235469 0 -0.1268184100029203 -0.01315007552767593 0 -0.13395813965962541 -0.019909367908082069 0 -0.1367805619498427 -0.027986289063662021 0 -0.12757143638572829 -0.02810380810425436 0 -0.13892810759773749 -0.037197864290652007 0 -0.14534073812157411 -0.025599999862636551 0 -0.13395813965962541 -0.019909367908082069 0 -0.1367805619498427 -0.027986289063662021 0 -0.14534073812157411 -0.025599999862636551 0 -0.1367805619498427 -0.027986289063662021 0 -0.13892810759773749 -0.037197864290652007 0 -0.13395813965962541 -0.019909367908082069 0 -0.1367805619498427 -0.027986289063662021 0 -0.12757143638572829 -0.02810380810425436 0 -0.123096087504753 -0.021537143894235469 0 -0.12757143638572829 -0.02810380810425436 0 -0.1277566199360311 -0.046518470620895702 0 -0.13892810759773749 -0.037197864290652007 0 -0.1443901597825496 -0.055099829264574553 0 -0.123096087504753 -0.021537143894235469 0 -0.12757143638572829 -0.02810380810425436 0 -0.1277566199360311 -0.046518470620895702 0 -0.12757143638572829 -0.02810380810425436 0 -0.1277566199360311 -0.046518470620895702 0 -0.13892810759773749 -0.037197864290652007 0 -0.123096087504753 -0.021537143894235469 0 -0.1277566199360311 -0.046518470620895702 0 -0.13241715236731019 -0.071499797347555794 0 -0.1277566199360311 -0.046518470620895702 0 -0.1443901597825496 -0.055099829264574553 0 -0.13241715236731019 -0.071499797347555794 0 -0.1277566199360311 -0.046518470620895702 0 -0.1176456145751838 -0.059964442654696103 0 -0.13241715236731019 -0.071499797347555794 0 -0.1277566199360311 -0.046518470620895702 0 -0.16428047457153011 -0.065476768921427619 0 -0.1443901597825496 -0.055099829264574553 0 -0.15766078152670249 -0.038822405282724078 0 -0.14534073812157411 -0.025599999862636551 0 -0.13892810759773749 -0.037197864290652007 0 -0.15766078152670249 -0.038822405282724078 0 -0.13892810759773749 -0.037197864290652007 0 -0.1443901597825496 -0.055099829264574553 0 -0.15766078152670249 -0.038822405282724078 0 -0.15766078152670249 -0.038822405282724078 0 -0.1793049329842617 -0.047856813271073183 0 -0.17403331282914539 -0.03058554515212648 0 -0.16428047457153011 -0.065476768921427619 0 -0.15766078152670249 -0.038822405282724078 0 -0.1793049329842617 -0.047856813271073183 0 -0.1793049329842617 -0.047856813271073183 0 -0.17403331282914539 -0.03058554515212648 0 -0.19349426202699299 -0.03023649320779195 0 -0.17403331282914539 -0.03058554515212648 0 -0.17913583508951389 -0.01379730080937374 0 -0.19349426202699299 -0.03023649320779195 0 -0.15766078152670249 -0.038822405282724078 0 -0.17403331282914539 -0.03058554515212648 0 -0.1596986166843726 -0.018287629878874809 0 -0.17403331282914539 -0.03058554515212648 0 -0.1596986166843726 -0.018287629878874809 0 -0.17913583508951389 -0.01379730080937374 0 -0.15288594458857521 -0.0057362803360174394 0 -0.1596986166843726 -0.018287629878874809 0 -0.16664299870092189 -0.00098725277767185864 0 -0.1596986166843726 -0.018287629878874809 0 -0.16664299870092189 -0.00098725277767185864 0 -0.17913583508951389 -0.01379730080937374 0 -0.16664299870092189 -0.00098725277767185864 0 -0.17913583508951389 -0.01379730080937374 0 -0.18590658937504029 0.0026401256165909611 0 -0.17913583508951389 -0.01379730080937374 0 -0.1969415444654164 -0.011779062498855091 0 -0.18590658937504029 0.0026401256165909611 0 -0.1969415444654164 -0.011779062498855091 0 -0.18590658937504029 0.0026401256165909611 0 -0.21146848345518951 0.003149405620048396 0 -0.17913583508951389 -0.01379730080937374 0 -0.1969415444654164 -0.011779062498855091 0 -0.19349426202699299 -0.03023649320779195 0 -0.1969415444654164 -0.011779062498855091 0 -0.19349426202699299 -0.03023649320779195 0 -0.2152801408691786 -0.025016295302843501 0 -0.1969415444654164 -0.011779062498855091 0 -0.2152801408691786 -0.025016295302843501 0 -0.21146848345518951 0.003149405620048396 0 -0.18833216816618831 -0.075451004923934889 0 -0.1793049329842617 -0.047856813271073183 0 -0.19759253086806949 -0.044605120483036782 0 -0.18833216816618831 -0.075451004923934889 0 -0.19759253086806949 -0.044605120483036782 0 -0.21029011884153381 -0.057955982925987727 0 -0.1793049329842617 -0.047856813271073183 0 -0.19349426202699299 -0.03023649320779195 0 -0.19759253086806949 -0.044605120483036782 0 -0.19349426202699299 -0.03023649320779195 0 -0.19759253086806949 -0.044605120483036782 0 -0.2124548436403538 -0.041828048768985278 0 -0.19349426202699299 -0.03023649320779195 0 -0.2152801408691786 -0.025016295302843501 0 -0.2124548436403538 -0.041828048768985278 0 -0.2124548436403538 -0.041828048768985278 0 -0.21029011884153381 -0.057955982925987727 0 -0.23061520528504451 -0.04633443226696831 0 -0.19759253086806949 -0.044605120483036782 0 -0.2124548436403538 -0.041828048768985278 0 -0.21029011884153381 -0.057955982925987727 0 -0.22154034097744349 -0.074087302449213466 0 -0.23061520528504451 -0.04633443226696831 0 -0.22154034097744349 -0.074087302449213466 0 -0.21029011884153381 -0.057955982925987727 0 -0.23061520528504451 -0.04633443226696831 0 -0.2152801408691786 -0.025016295302843501 0 -0.2124548436403538 -0.041828048768985278 0 -0.23061520528504451 -0.04633443226696831 0 -0.23061520528504451 -0.04633443226696831 0 -0.23969006959264549 -0.018581562084723169 0 -0.23061520528504451 -0.04633443226696831 0 -0.23969006959264549 -0.018581562084723169 0 -0.26012625988740212 -0.039468916345346647 0 -0.22154034097744349 -0.074087302449213466 0 -0.23061520528504451 -0.04633443226696831 0 -0.25270884978465469 -0.066253440736077598 0 -0.23061520528504451 -0.04633443226696831 0 -0.26012625988740212 -0.039468916345346647 0 -0.25270884978465469 -0.066253440736077598 0 -0.23969006959264549 -0.018581562084723169 0 -0.21146848345518951 0.003149405620048396 0 -0.24496178883302311 0.01237944270509766 0 -0.2152801408691786 -0.025016295302843501 0 -0.23969006959264549 -0.018581562084723169 0 -0.21146848345518951 0.003149405620048396 0 -0.2152801408691786 -0.025016295302843501 0 -0.23061520528504451 -0.04633443226696831 0 -0.23969006959264549 -0.018581562084723169 0 -0.2675436699901495 -0.012684391954615921 0 -0.2850930399986577 -0.024558673915459909 0 -0.29084842672228689 0.0076878545578341444 0 -0.23969006959264549 -0.018581562084723169 0 -0.2675436699901495 -0.012684391954615921 0 -0.24496178883302311 0.01237944270509766 0 -0.2675436699901495 -0.012684391954615921 0 -0.26012625988740212 -0.039468916345346647 0 -0.23969006959264549 -0.018581562084723169 0 -0.2675436699901495 -0.012684391954615921 0 -0.26012625988740212 -0.039468916345346647 0 -0.2675436699901495 -0.012684391954615921 0 -0.2850930399986577 -0.024558673915459909 0 -0.26012625988740212 -0.039468916345346647 0 -0.2850930399986577 -0.024558673915459909 0 -0.30499230222712781 -0.017997269794696919 0 -0.29084842672228689 0.0076878545578341444 0 -0.2850930399986577 -0.024558673915459909 0 -0.30499230222712781 -0.017997269794696919 0 -0.29350154574471021 -0.044450210418664073 0 -0.30499230222712781 -0.017997269794696919 0 -0.29084842672228689 0.0076878545578341444 0 -0.31390032267290879 0.001897368345985068 0 -0.29350154574471021 -0.044450210418664073 0 -0.30427868518195128 -0.072447131110588397 0 -0.32291102566163321 -0.052239715899617359 0 -0.29350154574471021 -0.044450210418664073 0 -0.31896657823204971 -0.032018348765597109 0 -0.32291102566163321 -0.052239715899617359 0 -0.30499230222712781 -0.017997269794696919 0 -0.29350154574471021 -0.044450210418664073 0 -0.31896657823204971 -0.032018348765597109 0 -0.29350154574471021 -0.044450210418664073 0 -0.27841129873124459 -0.067934210963657413 0 -0.30427868518195128 -0.072447131110588397 0 -0.2850930399986577 -0.024558673915459909 0 -0.29350154574471021 -0.044450210418664073 0 -0.26012625988740212 -0.039468916345346647 0 -0.29350154574471021 -0.044450210418664073 0 -0.26012625988740212 -0.039468916345346647 0 -0.27841129873124459 -0.067934210963657413 0 -0.26012625988740212 -0.039468916345346647 0 -0.25270884978465469 -0.066253440736077598 0 -0.26012625988740212 -0.039468916345346647 0 -0.25270884978465469 -0.066253440736077598 0 -0.27841129873124459 -0.067934210963657413 0 -0.25270884978465469 -0.066253440736077598 0 -0.26541167251050729 -0.084205514534511847 0 -0.27841129873124459 -0.067934210963657413 0 -0.2452914396819072 -0.093037965126808536 0 -0.26541167251050729 -0.084205514534511847 0 -0.2650004296524609 -0.10114740952445619 0 -0.2452914396819072 -0.093037965126808536 0 -0.25270884978465469 -0.066253440736077598 0 -0.26541167251050729 -0.084205514534511847 0 -0.26541167251050729 -0.084205514534511847 0 -0.2650004296524609 -0.10114740952445619 0 -0.28564634470226929 -0.092654546321559506 0 -0.26541167251050729 -0.084205514534511847 0 -0.27841129873124459 -0.067934210963657413 0 -0.28564634470226929 -0.092654546321559506 0 -0.24833379368722169 -0.12242881535128169 0 -0.26480110773064908 -0.11539739694613151 0 -0.27514493606408202 -0.1312820102745848 0 -0.24833379368722169 -0.12242881535128169 0 -0.26480110773064908 -0.11539739694613151 0 -0.25078516967255832 -0.10897906838393739 0 -0.2452914396819072 -0.093037965126808536 0 -0.25078516967255832 -0.10897906838393739 0 -0.2650004296524609 -0.10114740952445619 0 -0.26480110773064908 -0.11539739694613151 0 -0.25078516967255832 -0.10897906838393739 0 -0.2650004296524609 -0.10114740952445619 0 -0.2650004296524609 -0.10114740952445619 0 -0.28474120957692278 -0.1131496811963973 0 -0.28564634470226929 -0.092654546321559506 0 -0.26480110773064908 -0.11539739694613151 0 -0.28474120957692278 -0.1131496811963973 0 -0.27514493606408202 -0.1312820102745848 0 -0.26480110773064908 -0.11539739694613151 0 -0.2650004296524609 -0.10114740952445619 0 -0.28474120957692278 -0.1131496811963973 0 -0.28474120957692278 -0.1131496811963973 0 -0.30526983805509672 -0.11245537178651149 0 -0.28564634470226929 -0.092654546321559506 0 -0.30526983805509672 -0.11245537178651149 0 -0.28564634470226929 -0.092654546321559506 0 -0.30857905939988889 -0.092356992461175735 0 -0.28474120957692278 -0.1131496811963973 0 -0.30526983805509672 -0.11245537178651149 0 -0.30195607844094252 -0.140135205197888 0 -0.27841129873124459 -0.067934210963657413 0 -0.28564634470226929 -0.092654546321559506 0 -0.30427868518195128 -0.072447131110588397 0 -0.28564634470226929 -0.092654546321559506 0 -0.30427868518195128 -0.072447131110588397 0 -0.28564634470226929 -0.092654546321559506 0 -0.30857905939988889 -0.092356992461175735 0 -0.30427868518195128 -0.072447131110588397 0 -0.30427868518195128 -0.072447131110588397 0 -0.33155871978592788 -0.069673125282747495 0 -0.32291102566163321 -0.052239715899617359 0 -0.30427868518195128 -0.072447131110588397 0 -0.3288085468901214 -0.089977153538802326 0 -0.33155871978592788 -0.069673125282747495 0 -0.30857905939988889 -0.092356992461175735 0 -0.30427868518195128 -0.072447131110588397 0 -0.3288085468901214 -0.089977153538802326 0 -0.3288085468901214 -0.089977153538802326 0 -0.33155871978592788 -0.069673125282747495 0 -0.34774129300182488 -0.082735446380318239 0 -0.3288085468901214 -0.089977153538802326 0 -0.3511309939927556 -0.098555953437193075 0 -0.34774129300182488 -0.082735446380318239 0 -0.30526983805509672 -0.11245537178651149 0 -0.32866857856308002 -0.1107168015458582 0 -0.31915130217039878 -0.12502831046526819 0 -0.32866857856308002 -0.1107168015458582 0 -0.31915130217039878 -0.12502831046526819 0 -0.33438152878896399 -0.12563066202067411 0 -0.30857905939988889 -0.092356992461175735 0 -0.3288085468901214 -0.089977153538802326 0 -0.32866857856308002 -0.1107168015458582 0 -0.30526983805509672 -0.11245537178651149 0 -0.30857905939988889 -0.092356992461175735 0 -0.32866857856308002 -0.1107168015458582 0 -0.3288085468901214 -0.089977153538802326 0 -0.3511309939927556 -0.098555953437193075 0 -0.3288085468901214 -0.089977153538802326 0 -0.34331931687982459 -0.10686961945164419 0 -0.3511309939927556 -0.098555953437193075 0 -0.3288085468901214 -0.089977153538802326 0 -0.34331931687982459 -0.10686961945164419 0 -0.32866857856308002 -0.1107168015458582 0 -0.32866857856308002 -0.1107168015458582 0 -0.34720440431868632 -0.1189370413497579 0 -0.33438152878896399 -0.12563066202067411 0 -0.34331931687982459 -0.10686961945164419 0 -0.32866857856308002 -0.1107168015458582 0 -0.34720440431868632 -0.1189370413497579 0 -0.34720440431868632 -0.1189370413497579 0 -0.33438152878896399 -0.12563066202067411 0 -0.34741505777368009 -0.13016669333789321 0 -0.34720440431868632 -0.1189370413497579 0 -0.36268484684438951 -0.1190384266111158 0 -0.3579385988444943 -0.1288231446599975 0 -0.34331931687982459 -0.10686961945164419 0 -0.34720440431868632 -0.1189370413497579 0 -0.35464269193855241 -0.10548379146956639 0 -0.34720440431868632 -0.1189370413497579 0 -0.35464269193855241 -0.10548379146956639 0 -0.36268484684438951 -0.1190384266111158 0 -0.35464269193855241 -0.10548379146956639 0 -0.36268484684438951 -0.1190384266111158 0 -0.35464269193855241 -0.10548379146956639 0 -0.3511309939927556 -0.098555953437193075 0 -0.36379277664744242 -0.1092179971870948 0 -0.34331931687982459 -0.10686961945164419 0 -0.35464269193855241 -0.10548379146956639 0 -0.3511309939927556 -0.098555953437193075 0 -0.3511309939927556 -0.098555953437193075 0 -0.36492102778498808 -0.094211280647730239 0 -0.35678004949357789 -0.089792443070241285 0 -0.3511309939927556 -0.098555953437193075 0 -0.37345344109538969 -0.1071347533355838 0 -0.36379277664744242 -0.1092179971870948 0 -0.3511309939927556 -0.098555953437193075 0 -0.36492102778498808 -0.094211280647730239 0 -0.37345344109538969 -0.1071347533355838 0 -0.36492102778498808 -0.094211280647730239 0 -0.37345344109538969 -0.1071347533355838 0 -0.37997177527635362 -0.088800420973651331 0 -0.3511309939927556 -0.098555953437193075 0 -0.37345344109538969 -0.1071347533355838 0 -0.35464269193855241 -0.10548379146956639 0 -0.36379277664744242 -0.1092179971870948 0 -0.36268484684438951 -0.1190384266111158 0 -0.36379277664744242 -0.1092179971870948 0 -0.37462886795691103 -0.1184763459202593 0 -0.36268484684438951 -0.1190384266111158 0 -0.37345344109538969 -0.1071347533355838 0 -0.36379277664744242 -0.1092179971870948 0 -0.37462886795691103 -0.1184763459202593 0 -0.37462886795691103 -0.1184763459202593 0 -0.36268484684438951 -0.1190384266111158 0 -0.37072700175022649 -0.13259306175266519 0 -0.33155871978592788 -0.069673125282747495 0 -0.35719872502226802 -0.064404736455334247 0 -0.34774129300182488 -0.082735446380318239 0 -0.35719872502226802 -0.064404736455334247 0 -0.34774129300182488 -0.082735446380318239 0 -0.36325926057736768 -0.082155703074774683 0 -0.3511309939927556 -0.098555953437193075 0 -0.34774129300182488 -0.082735446380318239 0 -0.35678004949357789 -0.089792443070241285 0 -0.34774129300182488 -0.082735446380318239 0 -0.35678004949357789 -0.089792443070241285 0 -0.36325926057736768 -0.082155703074774683 0 -0.36492102778498808 -0.094211280647730239 0 -0.36325926057736768 -0.082155703074774683 0 -0.37997177527635362 -0.088800420973651331 0 -0.36325926057736768 -0.082155703074774683 0 -0.37544789422893882 -0.070772870030723273 0 -0.37997177527635362 -0.088800420973651331 0 -0.36492102778498808 -0.094211280647730239 0 -0.35678004949357789 -0.089792443070241285 0 -0.36325926057736768 -0.082155703074774683 0 -0.35719872502226802 -0.064404736455334247 0 -0.37884492690954558 -0.054839602117997363 0 -0.37544789422893882 -0.070772870030723273 0 -0.35719872502226802 -0.064404736455334247 0 -0.36325926057736768 -0.082155703074774683 0 -0.37544789422893882 -0.070772870030723273 0 -0.35719872502226802 -0.064404736455334247 0 -0.36555663484781642 -0.040643059528352517 0 -0.37884492690954558 -0.054839602117997363 0 -0.35719872502226802 -0.064404736455334247 0 -0.36555663484781642 -0.040643059528352517 0 -0.34281611104347398 -0.051406973640920853 0 -0.33155871978592788 -0.069673125282747495 0 -0.35719872502226802 -0.064404736455334247 0 -0.34281611104347398 -0.051406973640920853 0 -0.36555663484781642 -0.040643059528352517 0 -0.34281611104347398 -0.051406973640920853 0 -0.34154336614131509 -0.03203230068864632 0 -0.36555663484781642 -0.040643059528352517 0 -0.36338250616200651 -0.01519824168372921 0 -0.37949077953040511 -0.02492776216193596 0 -0.36338250616200651 -0.01519824168372921 0 -0.38653749201156717 -0.0085714722691885865 0 -0.36953825318317091 0.0010669767550764381 0 -0.36338250616200651 -0.01519824168372921 0 -0.34648002239000819 -0.003224372146928744 0 -0.36953825318317091 0.0010669767550764381 0 -0.36555663484781642 -0.040643059528352517 0 -0.36338250616200651 -0.01519824168372921 0 -0.34154336614131509 -0.03203230068864632 0 -0.36338250616200651 -0.01519824168372921 0 -0.34648002239000819 -0.003224372146928744 0 -0.34154336614131509 -0.03203230068864632 0 -0.34648002239000819 -0.003224372146928744 0 -0.32645969789622858 -0.01258962578465257 0 -0.34154336614131509 -0.03203230068864632 0 -0.32645969789622858 -0.01258962578465257 0 -0.31896657823204971 -0.032018348765597109 0 -0.34154336614131509 -0.03203230068864632 0 -0.34648002239000819 -0.003224372146928744 0 -0.32645969789622858 -0.01258962578465257 0 -0.33183757558868021 0.0092231901974755889 0 -0.32645969789622858 -0.01258962578465257 0 -0.31390032267290879 0.001897368345985068 0 -0.33183757558868021 0.0092231901974755889 0 -0.30499230222712781 -0.017997269794696919 0 -0.32645969789622858 -0.01258962578465257 0 -0.31390032267290879 0.001897368345985068 0 -0.30499230222712781 -0.017997269794696919 0 -0.32645969789622858 -0.01258962578465257 0 -0.31896657823204971 -0.032018348765597109 0 -0.31896657823204971 -0.032018348765597109 0 -0.32291102566163321 -0.052239715899617359 0 -0.34154336614131509 -0.03203230068864632 0 -0.30427868518195128 -0.072447131110588397 0 -0.32291102566163321 -0.052239715899617359 0 -0.33155871978592788 -0.069673125282747495 0 -0.32291102566163321 -0.052239715899617359 0 -0.34281611104347398 -0.051406973640920853 0 -0.32291102566163321 -0.052239715899617359 0 -0.34154336614131509 -0.03203230068864632 0 -0.32291102566163321 -0.052239715899617359 0 -0.34281611104347398 -0.051406973640920853 0 -0.34154336614131509 -0.03203230068864632 0 -0.30719362811525203 -0.24701180601075259 0 -0.29842519666094219 -0.22786110040171931 0 -0.32461104141330033 -0.2293359746937596 0 -0.29842519666094219 -0.22786110040171931 0 -0.27317289868249872 -0.2207762456833908 0 -0.3002256202737571 -0.21314847876976009 0 -0.29842519666094219 -0.22786110040171931 0 -0.28246916049422771 -0.24363196748454599 0 -0.27317289868249872 -0.2207762456833908 0 -0.30719362811525203 -0.24701180601075259 0 -0.29842519666094219 -0.22786110040171931 0 -0.28246916049422771 -0.24363196748454599 0 -0.2684958022756625 -0.26238831904624688 0 -0.28246916049422771 -0.24363196748454599 0 -0.25723666982714699 -0.23820841720532429 0 -0.25723666982714699 -0.23820841720532429 0 -0.27317289868249872 -0.2207762456833908 0 -0.25100332460723662 -0.21172946587330899 0 -0.25723666982714699 -0.23820841720532429 0 -0.27317289868249872 -0.2207762456833908 0 -0.28246916049422771 -0.24363196748454599 0 -0.25723666982714699 -0.23820841720532429 0 -0.27317289868249872 -0.2207762456833908 0 -0.27317289868249872 -0.2207762456833908 0 -0.28910912753785051 -0.20334407416145731 0 -0.27317289868249872 -0.2207762456833908 0 -0.26756236305051739 -0.20543053548879109 0 -0.28910912753785051 -0.20334407416145731 0 -0.27317289868249872 -0.2207762456833908 0 -0.26756236305051739 -0.20543053548879109 0 -0.25100332460723662 -0.21172946587330899 0 -0.23863336709020619 -0.2037112788664163 0 -0.25100332460723662 -0.21172946587330899 0 -0.26130534856775339 -0.18579846135542619 0 -0.26756236305051739 -0.20543053548879109 0 -0.25100332460723662 -0.21172946587330899 0 -0.26130534856775339 -0.18579846135542619 0 -0.26756236305051739 -0.20543053548879109 0 -0.27675518004583438 -0.1946499299618463 0 -0.26130534856775339 -0.18579846135542619 0 -0.26756236305051739 -0.20543053548879109 0 -0.27675518004583438 -0.1946499299618463 0 -0.28910912753785051 -0.20334407416145731 0 -0.27675518004583438 -0.1946499299618463 0 -0.29049171586200417 -0.19140211593390821 0 -0.28869685214948448 -0.18041519895989991 0 -0.29049171586200417 -0.19140211593390821 0 -0.28910912753785051 -0.20334407416145731 0 -0.3038285189476761 -0.202514407881732 0 -0.27675518004583438 -0.1946499299618463 0 -0.29049171586200417 -0.19140211593390821 0 -0.28910912753785051 -0.20334407416145731 0 -0.27317289868249872 -0.2207762456833908 0 -0.28910912753785051 -0.20334407416145731 0 -0.3002256202737571 -0.21314847876976009 0 -0.28910912753785051 -0.20334407416145731 0 -0.3002256202737571 -0.21314847876976009 0 -0.3038285189476761 -0.202514407881732 0 -0.29842519666094219 -0.22786110040171931 0 -0.3002256202737571 -0.21314847876976009 0 -0.31469301309989378 -0.21338364530541459 0 -0.3002256202737571 -0.21314847876976009 0 -0.3038285189476761 -0.202514407881732 0 -0.31469301309989378 -0.21338364530541459 0 -0.29049171586200417 -0.19140211593390821 0 -0.30368846229270369 -0.18411998976671309 0 -0.32042147073886029 -0.19306074049287991 0 -0.29049171586200417 -0.19140211593390821 0 -0.32042147073886029 -0.19306074049287991 0 -0.29049171586200417 -0.19140211593390821 0 -0.3038285189476761 -0.202514407881732 0 -0.32042147073886029 -0.19306074049287991 0 -0.28869685214948448 -0.18041519895989991 0 -0.31608835573121558 -0.1750319365643736 0 -0.30368846229270369 -0.18411998976671309 0 -0.28869685214948448 -0.18041519895989991 0 -0.31608835573121558 -0.1750319365643736 0 -0.29921503399195359 -0.16155522740870359 0 -0.28869685214948448 -0.18041519895989991 0 -0.31608835573121558 -0.1750319365643736 0 -0.29921503399195359 -0.16155522740870359 0 -0.31490971312894073 -0.15734885753334779 0 -0.31608835573121558 -0.1750319365643736 0 -0.29921503399195359 -0.16155522740870359 0 -0.28110755500329793 -0.1668342770774657 0 -0.28594446030173332 -0.15077527075862049 0 -0.29921503399195359 -0.16155522740870359 0 -0.28869685214948448 -0.18041519895989991 0 -0.28110755500329793 -0.1668342770774657 0 -0.29049171586200417 -0.19140211593390821 0 -0.30368846229270369 -0.18411998976671309 0 -0.28869685214948448 -0.18041519895989991 0 -0.28869685214948448 -0.18041519895989991 0 -0.26130534856775339 -0.18579846135542619 0 -0.28869685214948448 -0.18041519895989991 0 -0.26130534856775339 -0.18579846135542619 0 -0.28110755500329793 -0.1668342770774657 0 -0.27675518004583438 -0.1946499299618463 0 -0.28869685214948448 -0.18041519895989991 0 -0.26130534856775339 -0.18579846135542619 0 -0.2482519669145887 -0.16648200385476961 0 -0.26130534856775339 -0.18579846135542619 0 -0.26845346200273862 -0.15718481997489589 0 -0.26130534856775339 -0.18579846135542619 0 -0.26845346200273862 -0.15718481997489589 0 -0.28110755500329793 -0.1668342770774657 0 -0.26845346200273862 -0.15718481997489589 0 -0.28110755500329793 -0.1668342770774657 0 -0.28594446030173332 -0.15077527075862049 0 -0.26845346200273862 -0.15718481997489589 0 -0.27514493606408202 -0.1312820102745848 0 -0.28594446030173332 -0.15077527075862049 0 -0.2482519669145887 -0.16648200385476961 0 -0.26845346200273862 -0.15718481997489589 0 -0.25295801924109529 -0.1445461540838856 0 -0.26845346200273862 -0.15718481997489589 0 -0.25295801924109529 -0.1445461540838856 0 -0.27514493606408202 -0.1312820102745848 0 -0.24833379368722169 -0.12242881535128169 0 -0.25295801924109529 -0.1445461540838856 0 -0.27514493606408202 -0.1312820102745848 0 -0.24833379368722169 -0.12242881535128169 0 -0.27514493606408202 -0.1312820102745848 0 -0.28474120957692278 -0.1131496811963973 0 -0.27514493606408202 -0.1312820102745848 0 -0.30195607844094252 -0.140135205197888 0 -0.27514493606408202 -0.1312820102745848 0 -0.30195607844094252 -0.140135205197888 0 -0.29921503399195359 -0.16155522740870359 0 -0.28594446030173332 -0.15077527075862049 0 -0.30195607844094252 -0.140135205197888 0 -0.27514493606408202 -0.1312820102745848 0 -0.28594446030173332 -0.15077527075862049 0 -0.30195607844094252 -0.140135205197888 0 -0.29921503399195359 -0.16155522740870359 0 -0.30195607844094252 -0.140135205197888 0 -0.31490971312894073 -0.15734885753334779 0 -0.30526983805509672 -0.11245537178651149 0 -0.30195607844094252 -0.140135205197888 0 -0.31915130217039878 -0.12502831046526819 0 -0.30195607844094252 -0.140135205197888 0 -0.32432636973716999 -0.13574834017801371 0 -0.31915130217039878 -0.12502831046526819 0 -0.32432636973716999 -0.13574834017801371 0 -0.31915130217039878 -0.12502831046526819 0 -0.33438152878896399 -0.12563066202067411 0 -0.30195607844094252 -0.140135205197888 0 -0.32876722081780291 -0.14898840012119111 0 -0.31490971312894073 -0.15734885753334779 0 -0.30195607844094252 -0.140135205197888 0 -0.32432636973716999 -0.13574834017801371 0 -0.32876722081780291 -0.14898840012119111 0 -0.30195607844094252 -0.140135205197888 0 -0.32876722081780291 -0.14898840012119111 0 -0.32876722081780291 -0.14898840012119111 0 -0.32852187666278881 -0.16103351837458271 0 -0.31490971312894073 -0.15734885753334779 0 -0.32876722081780291 -0.14898840012119111 0 -0.34329220705358088 -0.15108034468061951 0 -0.32852187666278881 -0.16103351837458271 0 -0.34329220705358088 -0.15108034468061951 0 -0.32852187666278881 -0.16103351837458271 0 -0.32876722081780291 -0.14898840012119111 0 -0.34329220705358088 -0.15108034468061951 0 -0.33637806518029217 -0.1366187814658435 0 -0.32432636973716999 -0.13574834017801371 0 -0.32876722081780291 -0.14898840012119111 0 -0.33637806518029217 -0.1366187814658435 0 -0.32432636973716999 -0.13574834017801371 0 -0.33637806518029217 -0.1366187814658435 0 -0.33438152878896399 -0.12563066202067411 0 -0.33637806518029217 -0.1366187814658435 0 -0.33438152878896399 -0.12563066202067411 0 -0.34741505777368009 -0.13016669333789321 0 -0.34720440431868632 -0.1189370413497579 0 -0.34741505777368009 -0.13016669333789321 0 -0.3579385988444943 -0.1288231446599975 0 -0.33637806518029217 -0.1366187814658435 0 -0.35806253744437322 -0.1411271709866565 0 -0.33637806518029217 -0.1366187814658435 0 -0.34741505777368009 -0.13016669333789321 0 -0.35806253744437322 -0.1411271709866565 0 -0.34741505777368009 -0.13016669333789321 0 -0.3579385988444943 -0.1288231446599975 0 -0.35806253744437322 -0.1411271709866565 0 -0.36268484684438951 -0.1190384266111158 0 -0.3579385988444943 -0.1288231446599975 0 -0.37072700175022649 -0.13259306175266519 0 -0.37072700175022649 -0.13259306175266519 0 -0.35806253744437322 -0.1411271709866565 0 -0.37828494590977291 -0.14533158478565161 0 -0.36268484684438951 -0.1190384266111158 0 -0.37072700175022649 -0.13259306175266519 0 -0.37072700175022649 -0.13259306175266519 0 -0.35806253744437322 -0.1411271709866565 0 -0.3579385988444943 -0.1288231446599975 0 -0.37072700175022649 -0.13259306175266519 0 -0.35806253744437322 -0.1411271709866565 0 -0.37072700175022649 -0.13259306175266519 0 -0.37828494590977291 -0.14533158478565161 0 -0.35806253744437322 -0.1411271709866565 0 -0.37828494590977291 -0.14533158478565161 0 -0.36643973154349252 -0.1515696276524332 0 -0.35806253744437322 -0.1411271709866565 0 -0.37828494590977291 -0.14533158478565161 0 -0.36643973154349252 -0.1515696276524332 0 -0.35806253744437322 -0.1411271709866565 0 -0.35382397189279391 -0.1568470641740673 0 -0.34329220705358088 -0.15108034468061951 0 -0.33637806518029217 -0.1366187814658435 0 -0.35806253744437322 -0.1411271709866565 0 -0.34329220705358088 -0.15108034468061951 0 -0.35806253744437322 -0.1411271709866565 0 -0.35382397189279391 -0.1568470641740673 0 -0.34329220705358088 -0.15108034468061951 0 -0.35806253744437322 -0.1411271709866565 0 -0.34329220705358088 -0.15108034468061951 0 -0.35382397189279391 -0.1568470641740673 0 -0.34190848722277839 -0.16335375771085539 0 -0.35055590407450399 -0.17175358915906119 0 -0.35382397189279391 -0.1568470641740673 0 -0.34190848722277839 -0.16335375771085539 0 -0.35055590407450399 -0.17175358915906119 0 -0.35382397189279391 -0.1568470641740673 0 -0.36543192869600849 -0.16466513034968999 0 -0.36643973154349252 -0.1515696276524332 0 -0.35382397189279391 -0.1568470641740673 0 -0.36543192869600849 -0.16466513034968999 0 -0.36643973154349252 -0.1515696276524332 0 -0.36543192869600849 -0.16466513034968999 0 -0.38638443787410948 -0.15898285856661479 0 -0.36543192869600849 -0.16466513034968999 0 -0.36358297719726151 -0.1810667478955274 0 -0.37753005425245872 -0.17346469631497161 0 -0.35055590407450399 -0.17175358915906119 0 -0.36543192869600849 -0.16466513034968999 0 -0.36358297719726151 -0.1810667478955274 0 -0.36358297719726151 -0.1810667478955274 0 -0.3802809804925727 -0.19637798961082331 0 -0.37753005425245872 -0.17346469631497161 0 -0.35055590407450399 -0.17175358915906119 0 -0.3333484764302248 -0.17605427216594621 0 -0.35035122561571652 -0.19471936505185161 0 -0.35055590407450399 -0.17175358915906119 0 -0.36358297719726151 -0.1810667478955274 0 -0.35035122561571652 -0.19471936505185161 0 -0.35055590407450399 -0.17175358915906119 0 -0.3333484764302248 -0.17605427216594621 0 -0.34190848722277839 -0.16335375771085539 0 -0.34329220705358088 -0.15108034468061951 0 -0.34190848722277839 -0.16335375771085539 0 -0.32852187666278881 -0.16103351837458271 0 -0.3333484764302248 -0.17605427216594621 0 -0.34190848722277839 -0.16335375771085539 0 -0.32852187666278881 -0.16103351837458271 0 -0.32852187666278881 -0.16103351837458271 0 -0.31490971312894073 -0.15734885753334779 0 -0.31608835573121558 -0.1750319365643736 0 -0.3333484764302248 -0.17605427216594621 0 -0.32852187666278881 -0.16103351837458271 0 -0.31608835573121558 -0.1750319365643736 0 -0.3333484764302248 -0.17605427216594621 0 -0.31608835573121558 -0.1750319365643736 0 -0.32042147073886029 -0.19306074049287991 0 -0.30368846229270369 -0.18411998976671309 0 -0.31608835573121558 -0.1750319365643736 0 -0.32042147073886029 -0.19306074049287991 0 -0.3038285189476761 -0.202514407881732 0 -0.32042147073886029 -0.19306074049287991 0 -0.31469301309989378 -0.21338364530541459 0 -0.32042147073886029 -0.19306074049287991 0 -0.31469301309989378 -0.21338364530541459 0 -0.33794582326811162 -0.2136359176669998 0 -0.32042147073886029 -0.19306074049287991 0 -0.33794582326811162 -0.2136359176669998 0 -0.35035122561571652 -0.19471936505185161 0 -0.3333484764302248 -0.17605427216594621 0 -0.32042147073886029 -0.19306074049287991 0 -0.35035122561571652 -0.19471936505185161 0 -0.32042147073886029 -0.19306074049287991 0 -0.35035122561571652 -0.19471936505185161 0 -0.35035122561571652 -0.19471936505185161 0 -0.3802809804925727 -0.19637798961082331 0 -0.35035122561571652 -0.19471936505185161 0 -0.36608374714553482 -0.21674293346339141 0 -0.3802809804925727 -0.19637798961082331 0 -0.36358297719726151 -0.1810667478955274 0 -0.35035122561571652 -0.19471936505185161 0 -0.3802809804925727 -0.19637798961082331 0 -0.33794582326811162 -0.2136359176669998 0 -0.35035122561571652 -0.19471936505185161 0 -0.36608374714553482 -0.21674293346339141 0 -0.33794582326811162 -0.2136359176669998 0 -0.36608374714553482 -0.21674293346339141 0 -0.35151444159536399 -0.23457284699470149 0 -0.36608374714553482 -0.21674293346339141 0 -0.35151444159536399 -0.23457284699470149 0 -0.37841784177742749 -0.23980971929564329 0 -0.35151444159536399 -0.23457284699470149 0 -0.37841784177742749 -0.23980971929564329 0 -0.35074909256490078 -0.2544265487002364 0 -0.35151444159536399 -0.23457284699470149 0 -0.37841784177742749 -0.23980971929564329 0 -0.32984033196924661 -0.25079586296346412 0 -0.35074909256490078 -0.2544265487002364 0 -0.35151444159536399 -0.23457284699470149 0 -0.32984033196924661 -0.25079586296346412 0 -0.35151444159536399 -0.23457284699470149 0 -0.32461104141330033 -0.2293359746937596 0 -0.35151444159536399 -0.23457284699470149 0 -0.32461104141330033 -0.2293359746937596 0 -0.33794582326811162 -0.2136359176669998 0 -0.35151444159536399 -0.23457284699470149 0 -0.32461104141330033 -0.2293359746937596 0 -0.29842519666094219 -0.22786110040171931 0 -0.31469301309989378 -0.21338364530541459 0 -0.32461104141330033 -0.2293359746937596 0 -0.31469301309989378 -0.21338364530541459 0 -0.33794582326811162 -0.2136359176669998 0 -0.32461104141330033 -0.2293359746937596 0 -0.32984033196924661 -0.25079586296346412 0 -0.30719362811525203 -0.24701180601075259 0 -0.32461104141330033 -0.2293359746937596 0 -0.42874790633329363 -0.22666804866296519 0 -0.40532124195949121 -0.24504659159658509 0 -0.39529176282730127 -0.22059651023469221 0 -0.42882862824786411 -0.25215583988111961 0 -0.42874790633329363 -0.22666804866296519 0 -0.40532124195949121 -0.24504659159658509 0 -0.40532124195949121 -0.24504659159658509 0 -0.37841784177742749 -0.23980971929564329 0 -0.39529176282730127 -0.22059651023469221 0 -0.40532124195949121 -0.24504659159658509 0 -0.37841784177742749 -0.23980971929564329 0 -0.38796331349011443 -0.26301535694688227 0 -0.40532124195949121 -0.24504659159658509 0 -0.37841784177742749 -0.23980971929564329 0 -0.36608374714553482 -0.21674293346339141 0 -0.37841784177742749 -0.23980971929564329 0 -0.39529176282730127 -0.22059651023469221 0 -0.39529176282730127 -0.22059651023469221 0 -0.3802809804925727 -0.19637798961082331 0 -0.41021073536942859 -0.19803661416979501 0 -0.36608374714553482 -0.21674293346339141 0 -0.39529176282730127 -0.22059651023469221 0 -0.3802809804925727 -0.19637798961082331 0 -0.3802809804925727 -0.19637798961082331 0 -0.41021073536942859 -0.19803661416979501 0 -0.39448392983844638 -0.17263413234757791 0 -0.3802809804925727 -0.19637798961082331 0 -0.41021073536942859 -0.19803661416979501 0 -0.42874790633329363 -0.22666804866296519 0 -0.39529176282730127 -0.22059651023469221 0 -0.41021073536942859 -0.19803661416979501 0 -0.42874790633329363 -0.22666804866296519 0 -0.41021073536942859 -0.19803661416979501 0 -0.4401404902462846 -0.19969523872876671 0 -0.41021073536942859 -0.19803661416979501 0 -0.41714294136046021 -0.1761753367215155 0 -0.4401404902462846 -0.19969523872876671 0 -0.41021073536942859 -0.19803661416979501 0 -0.4401404902462846 -0.19969523872876671 0 -0.41714294136046021 -0.1761753367215155 0 -0.43904737243451408 -0.17464877847223631 0 -0.4401404902462846 -0.19969523872876671 0 -0.41714294136046021 -0.1761753367215155 0 -0.42697096754586372 -0.15545383019154099 0 -0.43904737243451408 -0.17464877847223631 0 -0.40732623982897498 -0.1647247938003796 0 -0.41714294136046021 -0.1761753367215155 0 -0.39448392983844638 -0.17263413234757791 0 -0.40732623982897498 -0.1647247938003796 0 -0.41714294136046021 -0.1761753367215155 0 -0.42697096754586372 -0.15545383019154099 0 -0.40732623982897498 -0.1647247938003796 0 -0.40262795672781843 -0.15039270748859609 0 -0.42697096754586372 -0.15545383019154099 0 -0.41021073536942859 -0.19803661416979501 0 -0.41714294136046021 -0.1761753367215155 0 -0.39448392983844638 -0.17263413234757791 0 -0.3802809804925727 -0.19637798961082331 0 -0.39448392983844638 -0.17263413234757791 0 -0.37753005425245872 -0.17346469631497161 0 -0.39448392983844638 -0.17263413234757791 0 -0.37753005425245872 -0.17346469631497161 0 -0.38638443787410948 -0.15898285856661479 0 -0.36543192869600849 -0.16466513034968999 0 -0.37753005425245872 -0.17346469631497161 0 -0.38638443787410948 -0.15898285856661479 0 -0.39448392983844638 -0.17263413234757791 0 -0.38638443787410948 -0.15898285856661479 0 -0.40732623982897498 -0.1647247938003796 0 -0.38638443787410948 -0.15898285856661479 0 -0.40262795672781843 -0.15039270748859609 0 -0.40732623982897498 -0.1647247938003796 0 -0.39448392983844638 -0.17263413234757791 0 -0.38638443787410948 -0.15898285856661479 0 -0.40262795672781843 -0.15039270748859609 0 -0.39442667454971941 -0.13415480486628081 0 -0.41253123543362141 -0.1393940864213952 0 -0.40262795672781843 -0.15039270748859609 0 -0.37828494590977291 -0.14533158478565161 0 -0.39442667454971941 -0.13415480486628081 0 -0.36643973154349252 -0.1515696276524332 0 -0.38638443787410948 -0.15898285856661479 0 -0.37828494590977291 -0.14533158478565161 0 -0.38638443787410948 -0.15898285856661479 0 -0.40262795672781843 -0.15039270748859609 0 -0.37828494590977291 -0.14533158478565161 0 -0.40262795672781843 -0.15039270748859609 0 -0.37828494590977291 -0.14533158478565161 0 -0.38638443787410948 -0.15898285856661479 0 -0.37828494590977291 -0.14533158478565161 0 -0.37828494590977291 -0.14533158478565161 0 -0.38480362760193559 -0.1319482511596429 0 -0.39442667454971941 -0.13415480486628081 0 -0.37072700175022649 -0.13259306175266519 0 -0.38480362760193559 -0.1319482511596429 0 -0.39577588819802417 -0.1157135532339737 0 -0.37072700175022649 -0.13259306175266519 0 -0.37828494590977291 -0.14533158478565161 0 -0.38480362760193559 -0.1319482511596429 0 -0.38480362760193559 -0.1319482511596429 0 -0.39442667454971941 -0.13415480486628081 0 -0.39577588819802417 -0.1157135532339737 0 -0.39442667454971941 -0.13415480486628081 0 -0.41253123543362141 -0.1393940864213952 0 -0.41165981523076728 -0.1218179481055594 0 -0.41253123543362141 -0.1393940864213952 0 -0.426970763113938 -0.13515114145499871 0 -0.41165981523076728 -0.1218179481055594 0 -0.40262795672781843 -0.15039270748859609 0 -0.42697096754586372 -0.15545383019154099 0 -0.40262795672781843 -0.15039270748859609 0 -0.41253123543362141 -0.1393940864213952 0 -0.42697096754586372 -0.15545383019154099 0 -0.42697096754586372 -0.15545383019154099 0 -0.426970763113938 -0.13515114145499871 0 -0.44509263740706551 -0.14212220901294331 0 -0.41253123543362141 -0.1393940864213952 0 -0.42697096754586372 -0.15545383019154099 0 -0.426970763113938 -0.13515114145499871 0 -0.426970763113938 -0.13515114145499871 0 -0.43006680524271368 -0.1179881169787706 0 -0.45029269494434387 -0.12341505764234929 0 -0.426970763113938 -0.13515114145499871 0 -0.44509263740706551 -0.14212220901294331 0 -0.45029269494434387 -0.12341505764234929 0 -0.42697096754586372 -0.15545383019154099 0 -0.44509263740706551 -0.14212220901294331 0 -0.45131397836390907 -0.16051495289448589 0 -0.47246189950802481 -0.1371868507305154 0 -0.47565698918195443 -0.16557607559743079 0 -0.45131397836390907 -0.16051495289448589 0 -0.44509263740706551 -0.14212220901294331 0 -0.47246189950802481 -0.1371868507305154 0 -0.45131397836390907 -0.16051495289448589 0 -0.47246189950802481 -0.1371868507305154 0 -0.45029269494434387 -0.12341505764234929 0 -0.4627810458106838 -0.1149266163432036 0 -0.44509263740706551 -0.14212220901294331 0 -0.47246189950802481 -0.1371868507305154 0 -0.45029269494434387 -0.12341505764234929 0 -0.47246189950802481 -0.1371868507305154 0 -0.5 -0.1432294961685274 0 -0.5 -0.1158217940366789 0 -0.47246189950802481 -0.1371868507305154 0 -0.5 -0.1432294961685274 0 -0.49015151825732162 -0.1569333472344516 0 -0.47246189950802481 -0.1371868507305154 0 -0.47565698918195443 -0.16557607559743079 0 -0.49015151825732162 -0.1569333472344516 0 -0.47565698918195443 -0.16557607559743079 0 -0.49999999999999978 -0.17063719830037569 0 -0.5 -0.1432294961685274 0 -0.49999999999999978 -0.17063719830037569 0 -0.49015151825732162 -0.1569333472344516 0 -0.47565698918195443 -0.16557607559743079 0 -0.49999999999999978 -0.17063719830037569 0 -0.49015151825732162 -0.1569333472344516 0 -0.49999999999999978 -0.17063719830037569 0 -0.5 -0.18682484307354291 0 -0.48423261982685789 -0.18480150032177839 0 -0.47565698918195443 -0.16557607559743079 0 -0.49999999999999978 -0.17063719830037569 0 -0.48423261982685789 -0.18480150032177839 0 -0.47565698918195443 -0.16557607559743079 0 -0.48423261982685789 -0.18480150032177839 0 -0.45966848465605259 -0.18140453382487251 0 -0.47565698918195443 -0.16557607559743079 0 -0.45131397836390907 -0.16051495289448589 0 -0.47565698918195443 -0.16557607559743079 0 -0.45966848465605259 -0.18140453382487251 0 -0.45131397836390907 -0.16051495289448589 0 -0.42697096754586372 -0.15545383019154099 0 -0.45131397836390907 -0.16051495289448589 0 -0.43904737243451408 -0.17464877847223631 0 -0.42697096754586372 -0.15545383019154099 0 -0.45131397836390907 -0.16051495289448589 0 -0.45966848465605259 -0.18140453382487251 0 -0.45131397836390907 -0.16051495289448589 0 -0.43904737243451408 -0.17464877847223631 0 -0.45966848465605259 -0.18140453382487251 0 -0.43904737243451408 -0.17464877847223631 0 -0.4401404902462846 -0.19969523872876671 0 -0.5 -0.27385615966996801 0 -0.49999999999999661 -0.20301248784671 0 -0.47514940566521352 -0.23326952014714999 0 -0.45413044471375702 -0.21811696237505071 0 -0.47007024512314061 -0.20135386328773849 0 -0.47514940566521352 -0.23326952014714999 0 -0.42874790633329363 -0.22666804866296519 0 -0.4401404902462846 -0.19969523872876671 0 -0.45413044471375702 -0.21811696237505071 0 -0.4401404902462846 -0.19969523872876671 0 -0.45413044471375702 -0.21811696237505071 0 -0.47007024512314061 -0.20135386328773849 0 -0.45966848465605259 -0.18140453382487251 0 -0.4401404902462846 -0.19969523872876671 0 -0.47007024512314061 -0.20135386328773849 0 -0.4401404902462846 -0.19969523872876671 0 -0.47007024512314061 -0.20135386328773849 0 -0.47007024512314061 -0.20135386328773849 0 -0.49999999999999661 -0.20301248784671 0 -0.47514940566521352 -0.23326952014714999 0 -0.48423261982685789 -0.18480150032177839 0 -0.45966848465605259 -0.18140453382487251 0 -0.47007024512314061 -0.20135386328773849 0 -0.48423261982685789 -0.18480150032177839 0 -0.47007024512314061 -0.20135386328773849 0 -0.49999999999999661 -0.20301248784671 0 -0.5 -0.18682484307354291 0 -0.48423261982685789 -0.18480150032177839 0 -0.49999999999999661 -0.20301248784671 0 -0.47007024512314061 -0.20135386328773849 0 -0.49999999999999661 -0.20301248784671 0 -0.47024296673703608 -0.26214578800260963 0 -0.47514940566521352 -0.23326952014714999 0 -0.45645277741734702 -0.2411318597008231 0 -0.45413044471375702 -0.21811696237505071 0 -0.47514940566521352 -0.23326952014714999 0 -0.45645277741734702 -0.2411318597008231 0 -0.42874790633329363 -0.22666804866296519 0 -0.45413044471375702 -0.21811696237505071 0 -0.45645277741734702 -0.2411318597008231 0 -0.42882862824786411 -0.25215583988111961 0 -0.42874790633329363 -0.22666804866296519 0 -0.45645277741734702 -0.2411318597008231 0 -0.41251788627771868 -0.047201757817496137 0 -0.43127794994743568 -0.02694574779495618 0 -0.41368769409973888 -0.021078929689551929 0 -0.41251788627771868 -0.047201757817496137 0 -0.4096338524315063 -0.069379980071832964 0 -0.42486825943558088 -0.070273358677097469 0 -0.41251788627771868 -0.047201757817496137 0 -0.42486825943558088 -0.070273358677097469 0 -0.43862570644421162 -0.052555419479466271 0 -0.41251788627771868 -0.047201757817496137 0 -0.43127794994743568 -0.02694574779495618 0 -0.43862570644421162 -0.052555419479466271 0 -0.43127794994743568 -0.02694574779495618 0 -0.43378871403987529 -0.0037156786729933022 0 -0.41933320277035652 -0.0073184789836325441 0 -0.43378871403987529 -0.0037156786729933022 0 -0.41933320277035652 -0.0073184789836325441 0 -0.41432406220981272 0.0057619269529878836 0 -0.41933320277035652 -0.0073184789836325441 0 -0.41196952604221698 -0.0020688422146962399 0 -0.41432406220981272 0.0057619269529878836 0 -0.41933320277035652 -0.0073184789836325441 0 -0.41368769409973888 -0.021078929689551929 0 -0.4049577091662086 -0.0072437002136591534 0 -0.41196952604221698 -0.0020688422146962399 0 -0.4049577091662086 -0.0072437002136591534 0 -0.4071055423468859 0.002776995099962481 0 -0.41933320277035652 -0.0073184789836325441 0 -0.41196952604221698 -0.0020688422146962399 0 -0.4049577091662086 -0.0072437002136591534 0 -0.43127794994743568 -0.02694574779495618 0 -0.41933320277035652 -0.0073184789836325441 0 -0.41368769409973888 -0.021078929689551929 0 -0.41251788627771868 -0.047201757817496137 0 -0.41368769409973888 -0.021078929689551929 0 -0.39786258448612799 -0.02481437816321163 0 -0.41368769409973888 -0.021078929689551929 0 -0.39786258448612799 -0.02481437816321163 0 -0.4049577091662086 -0.0072437002136591534 0 -0.4049577091662086 -0.0072437002136591534 0 -0.38653749201156717 -0.0085714722691885865 0 -0.39706540415667713 0.0062458464327191116 0 -0.39786258448612799 -0.02481437816321163 0 -0.4049577091662086 -0.0072437002136591534 0 -0.38653749201156717 -0.0085714722691885865 0 -0.38653749201156717 -0.0085714722691885865 0 -0.38342362107646139 0.00405821384166671 0 -0.36953825318317091 0.0010669767550764381 0 -0.39786258448612799 -0.02481437816321163 0 -0.38653749201156717 -0.0085714722691885865 0 -0.37949077953040511 -0.02492776216193596 0 -0.39786258448612799 -0.02481437816321163 0 -0.37949077953040511 -0.02492776216193596 0 -0.38998394583112961 -0.039862646827438022 0 -0.36338250616200651 -0.01519824168372921 0 -0.38653749201156717 -0.0085714722691885865 0 -0.37949077953040511 -0.02492776216193596 0 -0.36555663484781642 -0.040643059528352517 0 -0.37949077953040511 -0.02492776216193596 0 -0.38998394583112961 -0.039862646827438022 0 -0.36555663484781642 -0.040643059528352517 0 -0.38998394583112961 -0.039862646827438022 0 -0.37884492690954558 -0.054839602117997363 0 -0.41251788627771868 -0.047201757817496137 0 -0.39786258448612799 -0.02481437816321163 0 -0.38998394583112961 -0.039862646827438022 0 -0.41251788627771868 -0.047201757817496137 0 -0.38998394583112961 -0.039862646827438022 0 -0.39392068678855519 -0.066121683066152126 0 -0.41251788627771868 -0.047201757817496137 0 -0.39392068678855519 -0.066121683066152126 0 -0.4096338524315063 -0.069379980071832964 0 -0.38998394583112961 -0.039862646827438022 0 -0.37884492690954558 -0.054839602117997363 0 -0.39392068678855519 -0.066121683066152126 0 -0.37884492690954558 -0.054839602117997363 0 -0.37544789422893882 -0.070772870030723273 0 -0.39392068678855519 -0.066121683066152126 0 -0.37544789422893882 -0.070772870030723273 0 -0.37997177527635362 -0.088800420973651331 0 -0.39392068678855519 -0.066121683066152126 0 -0.37997177527635362 -0.088800420973651331 0 -0.40935372746676058 -0.088473393238507281 0 -0.37997177527635362 -0.088800420973651331 0 -0.39423626164356151 -0.1003391744360192 0 -0.40935372746676058 -0.088473393238507281 0 -0.37997177527635362 -0.088800420973651331 0 -0.39392068678855519 -0.066121683066152126 0 -0.40935372746676058 -0.088473393238507281 0 -0.39392068678855519 -0.066121683066152126 0 -0.4096338524315063 -0.069379980071832964 0 -0.40935372746676058 -0.088473393238507281 0 -0.37345344109538969 -0.1071347533355838 0 -0.39577588819802417 -0.1157135532339737 0 -0.37462886795691103 -0.1184763459202593 0 -0.37072700175022649 -0.13259306175266519 0 -0.39577588819802417 -0.1157135532339737 0 -0.37345344109538969 -0.1071347533355838 0 -0.37462886795691103 -0.1184763459202593 0 -0.39577588819802417 -0.1157135532339737 0 -0.37072700175022649 -0.13259306175266519 0 -0.39577588819802417 -0.1157135532339737 0 -0.37345344109538969 -0.1071347533355838 0 -0.37997177527635362 -0.088800420973651331 0 -0.39423626164356151 -0.1003391744360192 0 -0.37345344109538969 -0.1071347533355838 0 -0.39423626164356151 -0.1003391744360192 0 -0.39577588819802417 -0.1157135532339737 0 -0.39423626164356151 -0.1003391744360192 0 -0.39577588819802417 -0.1157135532339737 0 -0.41091251386727068 -0.10551354684004351 0 -0.39423626164356151 -0.1003391744360192 0 -0.41091251386727068 -0.10551354684004351 0 -0.40935372746676058 -0.088473393238507281 0 -0.39577588819802417 -0.1157135532339737 0 -0.41165981523076728 -0.1218179481055594 0 -0.41091251386727068 -0.10551354684004351 0 -0.39442667454971941 -0.13415480486628081 0 -0.39577588819802417 -0.1157135532339737 0 -0.41165981523076728 -0.1218179481055594 0 -0.39577588819802417 -0.1157135532339737 0 -0.41165981523076728 -0.1218179481055594 0 -0.39577588819802417 -0.1157135532339737 0 -0.41091251386727068 -0.10551354684004351 0 -0.41165981523076728 -0.1218179481055594 0 -0.41091251386727068 -0.10551354684004351 0 -0.42293610045570962 -0.10739846348972169 0 -0.41165981523076728 -0.1218179481055594 0 -0.42293610045570962 -0.10739846348972169 0 -0.43006680524271368 -0.1179881169787706 0 -0.41091251386727068 -0.10551354684004351 0 -0.42604913953651807 -0.095313540446114606 0 -0.40935372746676058 -0.088473393238507281 0 -0.41091251386727068 -0.10551354684004351 0 -0.42604913953651807 -0.095313540446114606 0 -0.42293610045570962 -0.10739846348972169 0 -0.41091251386727068 -0.10551354684004351 0 -0.42604913953651807 -0.095313540446114606 0 -0.42604913953651807 -0.095313540446114606 0 -0.43873567965716759 -0.088146365503363244 0 -0.43774430666010078 -0.1042641138208935 0 -0.42604913953651807 -0.095313540446114606 0 -0.42293610045570962 -0.10739846348972169 0 -0.43774430666010078 -0.1042641138208935 0 -0.426970763113938 -0.13515114145499871 0 -0.41165981523076728 -0.1218179481055594 0 -0.43006680524271368 -0.1179881169787706 0 -0.42293610045570962 -0.10739846348972169 0 -0.43006680524271368 -0.1179881169787706 0 -0.43774430666010078 -0.1042641138208935 0 -0.4096338524315063 -0.069379980071832964 0 -0.40935372746676058 -0.088473393238507281 0 -0.42486825943558088 -0.070273358677097469 0 -0.42604913953651807 -0.095313540446114606 0 -0.40935372746676058 -0.088473393238507281 0 -0.43873567965716759 -0.088146365503363244 0 -0.40935372746676058 -0.088473393238507281 0 -0.42486825943558088 -0.070273358677097469 0 -0.43873567965716759 -0.088146365503363244 0 -0.40935372746676058 -0.088473393238507281 0 -0.43873567965716759 -0.088146365503363244 0 -0.42486825943558088 -0.070273358677097469 0 -0.4421958142930027 -0.070620043593344756 0 -0.43873567965716759 -0.088146365503363244 0 -0.42486825943558088 -0.070273358677097469 0 -0.4421958142930027 -0.070620043593344756 0 -0.43862570644421162 -0.052555419479466271 0 -0.4421958142930027 -0.070620043593344756 0 -0.45908380429614032 -0.064508310287921256 0 -0.43862570644421162 -0.052555419479466271 0 -0.45203323252347127 -0.077773514288212109 0 -0.4421958142930027 -0.070620043593344756 0 -0.45908380429614032 -0.064508310287921256 0 -0.45203323252347127 -0.077773514288212109 0 -0.43873567965716759 -0.088146365503363244 0 -0.46811763184757438 -0.087819337768219194 0 -0.45203323252347127 -0.077773514288212109 0 -0.4421958142930027 -0.070620043593344756 0 -0.43873567965716759 -0.088146365503363244 0 -0.43873567965716759 -0.088146365503363244 0 -0.46811763184757438 -0.087819337768219194 0 -0.45359164258806117 -0.10280616720612371 0 -0.43873567965716759 -0.088146365503363244 0 -0.46811763184757438 -0.087819337768219194 0 -0.45203323252347127 -0.077773514288212109 0 -0.46811763184757438 -0.087819337768219194 0 -0.45908380429614032 -0.064508310287921256 0 -0.45029269494434387 -0.12341505764234929 0 -0.43774430666010078 -0.1042641138208935 0 -0.45359164258806117 -0.10280616720612371 0 -0.43006680524271368 -0.1179881169787706 0 -0.45029269494434387 -0.12341505764234929 0 -0.43774430666010078 -0.1042641138208935 0 -0.43873567965716759 -0.088146365503363244 0 -0.43774430666010078 -0.1042641138208935 0 -0.45359164258806117 -0.10280616720612371 0 -0.46811763184757438 -0.087819337768219194 0 -0.45359164258806117 -0.10280616720612371 0 -0.46887513732896818 -0.1027032158203089 0 -0.45359164258806117 -0.10280616720612371 0 -0.4627810458106838 -0.1149266163432036 0 -0.46887513732896818 -0.1027032158203089 0 -0.45029269494434387 -0.12341505764234929 0 -0.45359164258806117 -0.10280616720612371 0 -0.4627810458106838 -0.1149266163432036 0 -0.47246189950802481 -0.1371868507305154 0 -0.47733593121518259 -0.11229795564821581 0 -0.5 -0.1158217940366789 0 -0.47246189950802481 -0.1371868507305154 0 -0.4627810458106838 -0.1149266163432036 0 -0.47733593121518259 -0.11229795564821581 0 -0.4627810458106838 -0.1149266163432036 0 -0.47733593121518259 -0.11229795564821581 0 -0.46887513732896818 -0.1027032158203089 0 -0.47733593121518259 -0.11229795564821581 0 -0.46887513732896818 -0.1027032158203089 0 -0.48254943518333859 -0.095666002135782163 0 -0.46811763184757438 -0.087819337768219194 0 -0.46887513732896818 -0.1027032158203089 0 -0.48254943518333859 -0.095666002135782163 0 -0.48254943518333859 -0.095666002135782163 0 -0.5 -0.1158217940366789 0 -0.49999999999999828 -0.088414091904830544 0 -0.47733593121518259 -0.11229795564821581 0 -0.48254943518333859 -0.095666002135782163 0 -0.5 -0.1158217940366789 0 -0.46811763184757438 -0.087819337768219194 0 -0.45908380429614032 -0.064508310287921256 0 -0.47954190214806908 -0.076461201096376261 0 -0.45908380429614032 -0.064508310287921256 0 -0.47954190214806908 -0.076461201096376261 0 -0.45908380429614032 -0.064508310287921256 0 -0.47954190214806908 -0.076461201096376261 0 -0.4797541133834422 -0.054112045070692463 0 -0.46811763184757438 -0.087819337768219194 0 -0.48254943518333859 -0.095666002135782163 0 -0.47954190214806908 -0.076461201096376261 0 -0.47954190214806908 -0.076461201096376261 0 -0.49999999999999828 -0.088414091904830544 0 -0.48254943518333859 -0.095666002135782163 0 -0.47954190214806908 -0.076461201096376261 0 -0.49999999999999828 -0.088414091904830544 0 -0.47954190214806908 -0.076461201096376261 0 -0.49999999999999828 -0.088414091904830544 0 -0.5 -0.061213212032636299 0 -0.47954190214806908 -0.076461201096376261 0 -0.5 -0.061213212032636299 0 -0.4797541133834422 -0.054112045070692463 0 -0.5 -0.061213212032636299 0 -0.5 -0.034012332160442083 0 -0.4797541133834422 -0.054112045070692463 0 -0.5 -0.034012332160442083 0 -0.4797541133834422 -0.054112045070692463 0 -0.46809529795745958 -0.033821291476430232 0 -0.45908380429614032 -0.064508310287921256 0 -0.4797541133834422 -0.054112045070692463 0 -0.46809529795745958 -0.033821291476430232 0 -0.45908380429614032 -0.064508310287921256 0 -0.46809529795745958 -0.033821291476430232 0 -0.44960495292878289 -0.039319850822697143 0 -0.43127794994743568 -0.02694574779495618 0 -0.44960495292878289 -0.039319850822697143 0 -0.43862570644421162 -0.052555419479466271 0 -0.45908380429614032 -0.064508310287921256 0 -0.44960495292878289 -0.039319850822697143 0 -0.43862570644421162 -0.052555419479466271 0 -0.45908380429614032 -0.064508310287921256 0 -0.43862570644421162 -0.052555419479466271 0 -0.43378871403987529 -0.0037156786729933022 0 -0.45094200599866741 -0.018768485074711759 0 -0.45048731362507782 0.001039663864718561 0 -0.43378871403987529 -0.0037156786729933022 0 -0.45094200599866741 -0.018768485074711759 0 -0.43127794994743568 -0.02694574779495618 0 -0.44960495292878289 -0.039319850822697143 0 -0.45094200599866741 -0.018768485074711759 0 -0.43127794994743568 -0.02694574779495618 0 -0.43378871403987529 -0.0037156786729933022 0 -0.45094200599866741 -0.018768485074711759 0 -0.46809529795745958 -0.033821291476430232 0 -0.45094200599866741 -0.018768485074711759 0 -0.46809529795745958 -0.033821291476430232 0 -0.44960495292878289 -0.039319850822697143 0 -0.45094200599866741 -0.018768485074711759 0 -0.46809529795745958 -0.033821291476430232 0 -0.45094200599866741 -0.018768485074711759 0 -0.46757882059456513 -0.0077866980642548149 0 -0.45094200599866741 -0.018768485074711759 0 -0.46757882059456513 -0.0077866980642548149 0 -0.45048731362507782 0.001039663864718561 0 -0.5 -0.034012332160442083 0 -0.46809529795745958 -0.033821291476430232 0 -0.48338201569889561 -0.017018613621449911 0 -0.46757882059456513 -0.0077866980642548149 0 -0.48338201569889561 -0.017018613621449911 0 -0.48713054266686168 0.002431054637415931 0 -0.46809529795745958 -0.033821291476430232 0 -0.46757882059456513 -0.0077866980642548149 0 -0.48338201569889561 -0.017018613621449911 0 -0.5 -0.034012332160442083 0 -0.48338201569889561 -0.017018613621449911 0 -0.5 -0.0068114522882477546 0 -0.48338201569889561 -0.017018613621449911 0 -0.5 -0.0068114522882477546 0 -0.48713054266686168 0.002431054637415931 0 -0.48713054266686168 0.002431054637415931 0 -0.5 0.02038942758394657 0 -0.48240168715859227 0.01912011610724005 0 -0.5 -0.0068114522882477546 0 -0.48713054266686168 0.002431054637415931 0 -0.5 0.02038942758394657 0 -0.5 0.02038942758394657 0 -0.48870951920765338 0.027590157014227141 0 -0.49819089546775608 0.037457616660202253 0 -0.5 0.02038942758394657 0 -0.48870951920765338 0.027590157014227141 0 -0.48240168715859227 0.01912011610724005 0 -0.48240168715859227 0.01912011610724005 0 -0.47424549420426532 0.033393467705519722 0 -0.46392835701681329 0.022487435295002509 0 -0.48240168715859227 0.01912011610724005 0 -0.46687192567033559 0.01004242635699479 0 -0.46392835701681329 0.022487435295002509 0 -0.48870951920765338 0.027590157014227141 0 -0.48240168715859227 0.01912011610724005 0 -0.47424549420426532 0.033393467705519722 0 -0.46757882059456513 -0.0077866980642548149 0 -0.48713054266686168 0.002431054637415931 0 -0.46687192567033559 0.01004242635699479 0 -0.48713054266686168 0.002431054637415931 0 -0.46687192567033559 0.01004242635699479 0 -0.48713054266686168 0.002431054637415931 0 -0.48240168715859227 0.01912011610724005 0 -0.46687192567033559 0.01004242635699479 0 -0.5 0.047590307456140901 0 -0.49070102329864862 0.057885849282125097 0 -0.48379313918704819 0.045778268777172372 0 -0.5 0.047590307456140901 0 -0.49070102329864862 0.057885849282125097 0 -0.5 0.074791187328335229 0 -0.49070102329864862 0.057885849282125097 0 -0.48379313918704819 0.045778268777172372 0 -0.47901095400754612 0.063383633566851921 0 -0.5 0.047590307456140901 0 -0.49819089546775608 0.037457616660202253 0 -0.48379313918704819 0.045778268777172372 0 -0.49819089546775608 0.037457616660202253 0 -0.47424549420426532 0.033393467705519722 0 -0.49819089546775608 0.037457616660202253 0 -0.48379313918704819 0.045778268777172372 0 -0.47424549420426532 0.033393467705519722 0 -0.5 0.02038942758394657 0 -0.5 0.047590307456140901 0 -0.49819089546775608 0.037457616660202253 0 -0.48870951920765338 0.027590157014227141 0 -0.49819089546775608 0.037457616660202253 0 -0.47424549420426532 0.033393467705519722 0 -0.48379313918704819 0.045778268777172372 0 -0.47424549420426532 0.033393467705519722 0 -0.46260299950298861 0.041911466808071077 0 -0.48379313918704819 0.045778268777172372 0 -0.46519235301055489 0.054594772579183222 0 -0.46260299950298861 0.041911466808071077 0 -0.48379313918704819 0.045778268777172372 0 -0.46519235301055489 0.054594772579183222 0 -0.47901095400754612 0.063383633566851921 0 -0.46519235301055489 0.054594772579183222 0 -0.45273568262519109 0.049950704767747871 0 -0.45568495483550081 0.066004484426329169 0 -0.46519235301055489 0.054594772579183222 0 -0.45568495483550081 0.066004484426329169 0 -0.47901095400754612 0.063383633566851921 0 -0.46519235301055489 0.054594772579183222 0 -0.46260299950298861 0.041911466808071077 0 -0.45273568262519109 0.049950704767747871 0 -0.46260299950298861 0.041911466808071077 0 -0.4469094298246804 0.039673775490583887 0 -0.45273568262519109 0.049950704767747871 0 -0.47424549420426532 0.033393467705519722 0 -0.46260299950298861 0.041911466808071077 0 -0.45030009294077439 0.029329318750837191 0 -0.47424549420426532 0.033393467705519722 0 -0.45030009294077439 0.029329318750837191 0 -0.46260299950298861 0.041911466808071077 0 -0.4469094298246804 0.039673775490583887 0 -0.45030009294077439 0.029329318750837191 0 -0.4469094298246804 0.039673775490583887 0 -0.43605842863391092 0.034635208321716099 0 -0.43393451408538602 0.053064040253560991 0 -0.4469094298246804 0.039673775490583887 0 -0.45030009294077439 0.029329318750837191 0 -0.43605842863391092 0.034635208321716099 0 -0.45273568262519109 0.049950704767747871 0 -0.43393451408538602 0.053064040253560991 0 -0.45568495483550081 0.066004484426329169 0 -0.4469094298246804 0.039673775490583887 0 -0.45273568262519109 0.049950704767747871 0 -0.43393451408538602 0.053064040253560991 0 -0.46687192567033559 0.01004242635699479 0 -0.44661330867380961 0.017653798076573669 0 -0.45048731362507782 0.001039663864718561 0 -0.46757882059456513 -0.0077866980642548149 0 -0.46687192567033559 0.01004242635699479 0 -0.45048731362507782 0.001039663864718561 0 -0.46687192567033559 0.01004242635699479 0 -0.44661330867380961 0.017653798076573669 0 -0.46687192567033559 0.01004242635699479 0 -0.46392835701681329 0.022487435295002509 0 -0.44661330867380961 0.017653798076573669 0 -0.46392835701681329 0.022487435295002509 0 -0.44661330867380961 0.017653798076573669 0 -0.45030009294077439 0.029329318750837191 0 -0.47424549420426532 0.033393467705519722 0 -0.46392835701681329 0.022487435295002509 0 -0.45030009294077439 0.029329318750837191 0 -0.44661330867380961 0.017653798076573669 0 -0.45030009294077439 0.029329318750837191 0 -0.42635469167728379 0.025265169796153671 0 -0.45030009294077439 0.029329318750837191 0 -0.42635469167728379 0.025265169796153671 0 -0.45030009294077439 0.029329318750837191 0 -0.42635469167728379 0.025265169796153671 0 -0.43605842863391092 0.034635208321716099 0 -0.44661330867380961 0.017653798076573669 0 -0.43919037368972069 0.0075561255006074196 0 -0.45048731362507782 0.001039663864718561 0 -0.43378871403987529 -0.0037156786729933022 0 -0.43919037368972069 0.0075561255006074196 0 -0.45048731362507782 0.001039663864718561 0 -0.43378871403987529 -0.0037156786729933022 0 -0.43919037368972069 0.0075561255006074196 0 -0.42587215842012027 0.01524671873413075 0 -0.44661330867380961 0.017653798076573669 0 -0.43919037368972069 0.0075561255006074196 0 -0.42587215842012027 0.01524671873413075 0 -0.43378871403987529 -0.0037156786729933022 0 -0.41663542208108362 0.01133712772872579 0 -0.43378871403987529 -0.0037156786729933022 0 -0.42587215842012027 0.01524671873413075 0 -0.41663542208108362 0.01133712772872579 0 -0.43378871403987529 -0.0037156786729933022 0 -0.41432406220981272 0.0057619269529878836 0 -0.41663542208108362 0.01133712772872579 0 -0.41432406220981272 0.0057619269529878836 0 -0.41663542208108362 0.01133712772872579 0 -0.41432406220981272 0.0057619269529878836 0 -0.41663542208108362 0.01133712772872579 0 -0.40721101015951378 0.0111897445424608 0 -0.41663542208108362 0.01133712772872579 0 -0.40721101015951378 0.0111897445424608 0 -0.40491121463730589 0.02162566157335135 0 -0.41432406220981272 0.0057619269529878836 0 -0.40721101015951378 0.0111897445424608 0 -0.4071055423468859 0.002776995099962481 0 -0.41196952604221698 -0.0020688422146962399 0 -0.41432406220981272 0.0057619269529878836 0 -0.4071055423468859 0.002776995099962481 0 -0.41663542208108362 0.01133712772872579 0 -0.42211109327574492 0.024544922270632 0 -0.40491121463730589 0.02162566157335135 0 -0.42294135858208087 0.026547594306904392 0 -0.39696505689472272 0.036307159240500743 0 -0.40491121463730589 0.02162566157335135 0 -0.42211109327574492 0.024544922270632 0 -0.40491121463730589 0.02162566157335135 0 -0.42294135858208087 0.026547594306904392 0 -0.42211109327574492 0.024544922270632 0 -0.40491121463730589 0.02162566157335135 0 -0.41663542208108362 0.01133712772872579 0 -0.40491121463730589 0.02162566157335135 0 -0.41663542208108362 0.01133712772872579 0 -0.42211109327574492 0.024544922270632 0 -0.42587215842012027 0.01524671873413075 0 -0.41663542208108362 0.01133712772872579 0 -0.42211109327574492 0.024544922270632 0 -0.44661330867380961 0.017653798076573669 0 -0.42635469167728379 0.025265169796153671 0 -0.44661330867380961 0.017653798076573669 0 -0.42587215842012027 0.01524671873413075 0 -0.42635469167728379 0.025265169796153671 0 -0.42294135858208087 0.026547594306904392 0 -0.42635469167728379 0.025265169796153671 0 -0.43605842863391092 0.034635208321716099 0 -0.42211109327574492 0.024544922270632 0 -0.42635469167728379 0.025265169796153671 0 -0.42294135858208087 0.026547594306904392 0 -0.42211109327574492 0.024544922270632 0 -0.42294135858208087 0.026547594306904392 0 -0.42211109327574492 0.024544922270632 0 -0.42635469167728379 0.025265169796153671 0 -0.42294135858208087 0.026547594306904392 0 -0.42635469167728379 0.025265169796153671 0 -0.42587215842012027 0.01524671873413075 0 -0.42211109327574492 0.024544922270632 0 -0.42635469167728379 0.025265169796153671 0 -0.42294135858208087 0.026547594306904392 0 -0.43393451408538602 0.053064040253560991 0 -0.42294135858208087 0.026547594306904392 0 -0.43605842863391092 0.034635208321716099 0 -0.43393451408538602 0.053064040253560991 0 -0.42294135858208087 0.026547594306904392 0 -0.43393451408538602 0.053064040253560991 0 -0.41940708618358791 0.046057776575262478 0 -0.43393451408538602 0.053064040253560991 0 -0.41988240292948081 0.059814648023132203 0 -0.4299857102739072 0.071360049970611988 0 -0.43393451408538602 0.053064040253560991 0 -0.41988240292948081 0.059814648023132203 0 -0.41940708618358791 0.046057776575262478 0 -0.41988240292948081 0.059814648023132203 0 -0.40974970386612319 0.05229442369148745 0 -0.41940708618358791 0.046057776575262478 0 -0.40974970386612319 0.05229442369148745 0 -0.41940708618358791 0.046057776575262478 0 -0.41112828653685352 0.045037878929458618 0 -0.41988240292948081 0.059814648023132203 0 -0.40974970386612319 0.05229442369148745 0 -0.40588783373901571 0.063899837377538529 0 -0.42294135858208087 0.026547594306904392 0 -0.39696505689472272 0.036307159240500743 0 -0.42294135858208087 0.026547594306904392 0 -0.41940708618358791 0.046057776575262478 0 -0.41165533107536623 0.038598738161769813 0 -0.42294135858208087 0.026547594306904392 0 -0.41165533107536623 0.038598738161769813 0 -0.39696505689472272 0.036307159240500743 0 -0.41940708618358791 0.046057776575262478 0 -0.41112828653685352 0.045037878929458618 0 -0.41165533107536623 0.038598738161769813 0 -0.41112828653685352 0.045037878929458618 0 -0.41165533107536623 0.038598738161769813 0 -0.40370102502233679 0.04320057728931475 0 -0.40974970386612319 0.05229442369148745 0 -0.41112828653685352 0.045037878929458618 0 -0.40370102502233679 0.04320057728931475 0 -0.41165533107536623 0.038598738161769813 0 -0.40370102502233679 0.04320057728931475 0 -0.39696505689472272 0.036307159240500743 0 -0.40370102502233679 0.04320057728931475 0 -0.39100270711824869 0.046311310130119653 0 -0.39696505689472272 0.036307159240500743 0 -0.40370102502233679 0.04320057728931475 0 -0.39100270711824869 0.046311310130119653 0 -0.39876989083825259 0.048529650048697567 0 -0.39696505689472272 0.036307159240500743 0 -0.38460901564691963 0.031547892532623072 0 -0.39111972736662981 0.031013029327406471 0 -0.39696505689472272 0.036307159240500743 0 -0.39111972736662981 0.031013029327406471 0 -0.39741967133818978 0.028199837026236439 0 -0.39928439428803802 0.057180999115757962 0 -0.39326633799086402 0.064304730937405741 0 -0.40588783373901571 0.063899837377538529 0 -0.40974970386612319 0.05229442369148745 0 -0.39928439428803802 0.057180999115757962 0 -0.40588783373901571 0.063899837377538529 0 -0.40974970386612319 0.05229442369148745 0 -0.40370102502233679 0.04320057728931475 0 -0.39876989083825259 0.048529650048697567 0 -0.40974970386612319 0.05229442369148745 0 -0.39928439428803802 0.057180999115757962 0 -0.39876989083825259 0.048529650048697567 0 -0.39928439428803802 0.057180999115757962 0 -0.39876989083825259 0.048529650048697567 0 -0.39111259631673972 0.054541006896367608 0 -0.39100270711824869 0.046311310130119653 0 -0.39876989083825259 0.048529650048697567 0 -0.39111259631673972 0.054541006896367608 0 -0.39928439428803802 0.057180999115757962 0 -0.39111259631673972 0.054541006896367608 0 -0.39326633799086402 0.064304730937405741 0 -0.39100270711824869 0.046311310130119653 0 -0.3833032429943023 0.050461815299403398 0 -0.37098875520736319 0.046066724174093923 0 -0.39111259631673972 0.054541006896367608 0 -0.38104900467073288 0.060457535846821377 0 -0.39326633799086402 0.064304730937405741 0 -0.39111259631673972 0.054541006896367608 0 -0.3833032429943023 0.050461815299403398 0 -0.38104900467073288 0.060457535846821377 0 -0.39100270711824869 0.046311310130119653 0 -0.39111259631673972 0.054541006896367608 0 -0.3833032429943023 0.050461815299403398 0 -0.3833032429943023 0.050461815299403398 0 -0.38104900467073288 0.060457535846821377 0 -0.37098875520736319 0.046066724174093923 0 -0.39696505689472272 0.036307159240500743 0 -0.38460901564691963 0.031547892532623072 0 -0.37098875520736319 0.046066724174093923 0 -0.39696505689472272 0.036307159240500743 0 -0.37098875520736319 0.046066724174093923 0 -0.39100270711824869 0.046311310130119653 0 -0.39696505689472272 0.036307159240500743 0 -0.37098875520736319 0.046066724174093923 0 -0.38460901564691963 0.031547892532623072 0 -0.37169809957755168 0.034485684418351738 0 -0.37098875520736319 0.046066724174093923 0 -0.38460901564691963 0.031547892532623072 0 -0.3761672922991911 0.026867423316783549 0 -0.37169809957755168 0.034485684418351738 0 -0.38460901564691963 0.031547892532623072 0 -0.3761672922991911 0.026867423316783549 0 -0.38055333495443072 0.017491504448059879 0 -0.38055333495443072 0.017491504448059879 0 -0.39111972736662981 0.031013029327406471 0 -0.39741967133818978 0.028199837026236439 0 -0.38460901564691963 0.031547892532623072 0 -0.38055333495443072 0.017491504448059879 0 -0.39111972736662981 0.031013029327406471 0 -0.38055333495443072 0.017491504448059879 0 -0.38342362107646139 0.00405821384166671 0 -0.39706540415667713 0.0062458464327191116 0 -0.38055333495443072 0.017491504448059879 0 -0.38342362107646139 0.00405821384166671 0 -0.36953825318317091 0.0010669767550764381 0 -0.38653749201156717 -0.0085714722691885865 0 -0.38342362107646139 0.00405821384166671 0 -0.39706540415667713 0.0062458464327191116 0 -0.38055333495443072 0.017491504448059879 0 -0.39706540415667713 0.0062458464327191116 0 -0.40491121463730589 0.02162566157335135 0 -0.4049577091662086 -0.0072437002136591534 0 -0.4071055423468859 0.002776995099962481 0 -0.39706540415667713 0.0062458464327191116 0 -0.40721101015951378 0.0111897445424608 0 -0.4071055423468859 0.002776995099962481 0 -0.39706540415667713 0.0062458464327191116 0 -0.40721101015951378 0.0111897445424608 0 -0.39706540415667713 0.0062458464327191116 0 -0.40491121463730589 0.02162566157335135 0 -0.38055333495443072 0.017491504448059879 0 -0.40491121463730589 0.02162566157335135 0 -0.39741967133818978 0.028199837026236439 0 -0.38055333495443072 0.017491504448059879 0 -0.40491121463730589 0.02162566157335135 0 -0.39696505689472272 0.036307159240500743 0 -0.40491121463730589 0.02162566157335135 0 -0.39741967133818978 0.028199837026236439 0 -0.40491121463730589 0.02162566157335135 0 -0.39741967133818978 0.028199837026236439 0 -0.4002043884727714 0.106430540332039 0 -0.38827756260742841 0.1069851595481361 0 -0.39050069605298621 0.09804674460565517 0 -0.4002043884727714 0.106430540332039 0 -0.39050069605298621 0.09804674460565517 0 -0.39919300886277492 0.092084473865180677 0 -0.4002043884727714 0.106430540332039 0 -0.39919300886277492 0.092084473865180677 0 -0.40962597196079598 0.098768754046315549 0 -0.4002043884727714 0.106430540332039 0 -0.40500159503933081 0.11906023549783409 0 -0.39123204437261538 0.1183441265096393 0 -0.40500159503933081 0.11906023549783409 0 -0.39123204437261538 0.1183441265096393 0 -0.39724577858065152 0.1299831436324938 0 -0.4002043884727714 0.106430540332039 0 -0.39123204437261538 0.1183441265096393 0 -0.38827756260742841 0.1069851595481361 0 -0.39123204437261538 0.1183441265096393 0 -0.37804625210008819 0.123601833798883 0 -0.39724577858065152 0.1299831436324938 0 -0.39123204437261538 0.1183441265096393 0 -0.38088203858385289 0.11058566211189109 0 -0.38827756260742841 0.1069851595481361 0 -0.37804625210008819 0.123601833798883 0 -0.38088203858385289 0.11058566211189109 0 -0.36731618702330532 0.1060265404953956 0 -0.39123204437261538 0.1183441265096393 0 -0.37804625210008819 0.123601833798883 0 -0.38088203858385289 0.11058566211189109 0 -0.38088203858385289 0.11058566211189109 0 -0.3795381468158272 0.097970650207401519 0 -0.36731618702330532 0.1060265404953956 0 -0.38088203858385289 0.11058566211189109 0 -0.38827756260742841 0.1069851595481361 0 -0.3795381468158272 0.097970650207401519 0 -0.39050069605298621 0.09804674460565517 0 -0.3795381468158272 0.097970650207401519 0 -0.38529037350612899 0.08676289907551854 0 -0.38827756260742841 0.1069851595481361 0 -0.39050069605298621 0.09804674460565517 0 -0.3795381468158272 0.097970650207401519 0 -0.38529037350612899 0.08676289907551854 0 -0.38585427601343142 0.073387020954206642 0 -0.36915247111533223 0.076046632334744568 0 -0.3795381468158272 0.097970650207401519 0 -0.38529037350612899 0.08676289907551854 0 -0.36915247111533223 0.076046632334744568 0 -0.38529037350612899 0.08676289907551854 0 -0.38585427601343142 0.073387020954206642 0 -0.39963909762920591 0.076793050612180599 0 -0.38104900467073288 0.060457535846821377 0 -0.38585427601343142 0.073387020954206642 0 -0.36915247111533223 0.076046632334744568 0 -0.38104900467073288 0.060457535846821377 0 -0.38585427601343142 0.073387020954206642 0 -0.39326633799086402 0.064304730937405741 0 -0.38585427601343142 0.073387020954206642 0 -0.39326633799086402 0.064304730937405741 0 -0.39963909762920591 0.076793050612180599 0 -0.39326633799086402 0.064304730937405741 0 -0.39963909762920591 0.076793050612180599 0 -0.40588783373901571 0.063899837377538529 0 -0.39050069605298621 0.09804674460565517 0 -0.38529037350612899 0.08676289907551854 0 -0.39919300886277492 0.092084473865180677 0 -0.38529037350612899 0.08676289907551854 0 -0.39963909762920591 0.076793050612180599 0 -0.39919300886277492 0.092084473865180677 0 -0.39963909762920591 0.076793050612180599 0 -0.39919300886277492 0.092084473865180677 0 -0.41142221274610902 0.087150526556525748 0 -0.39919300886277492 0.092084473865180677 0 -0.41142221274610902 0.087150526556525748 0 -0.40962597196079598 0.098768754046315549 0 -0.39963909762920591 0.076793050612180599 0 -0.41142221274610902 0.087150526556525748 0 -0.41524682468080237 0.072012980574736374 0 -0.41142221274610902 0.087150526556525748 0 -0.41524682468080237 0.072012980574736374 0 -0.42307428493215049 0.083430446648407333 0 -0.41142221274610902 0.087150526556525748 0 -0.42307428493215049 0.083430446648407333 0 -0.42088711779091198 0.097099534599919282 0 -0.41988240292948081 0.059814648023132203 0 -0.40588783373901571 0.063899837377538529 0 -0.41524682468080237 0.072012980574736374 0 -0.39963909762920591 0.076793050612180599 0 -0.40588783373901571 0.063899837377538529 0 -0.41524682468080237 0.072012980574736374 0 -0.41988240292948081 0.059814648023132203 0 -0.41524682468080237 0.072012980574736374 0 -0.4299857102739072 0.071360049970611988 0 -0.43393451408538602 0.053064040253560991 0 -0.4299857102739072 0.071360049970611988 0 -0.4449276695886909 0.079580486200217571 0 -0.41524682468080237 0.072012980574736374 0 -0.4299857102739072 0.071360049970611988 0 -0.42307428493215049 0.083430446648407333 0 -0.42307428493215049 0.083430446648407333 0 -0.42732516987257141 0.097249824090241244 0 -0.42088711779091198 0.097099534599919282 0 -0.42307428493215049 0.083430446648407333 0 -0.43682238123718642 0.085048319794647276 0 -0.42732516987257141 0.097249824090241244 0 -0.4299857102739072 0.071360049970611988 0 -0.43682238123718642 0.085048319794647276 0 -0.4449276695886909 0.079580486200217571 0 -0.4299857102739072 0.071360049970611988 0 -0.42307428493215049 0.083430446648407333 0 -0.43682238123718642 0.085048319794647276 0 -0.43682238123718642 0.085048319794647276 0 -0.43069153314159431 0.1145075166488613 0 -0.44257559726247542 0.098016071726705262 0 -0.42383173818412262 0.1049838925542337 0 -0.42732516987257141 0.097249824090241244 0 -0.43069153314159431 0.1145075166488613 0 -0.43682238123718642 0.085048319794647276 0 -0.43069153314159431 0.1145075166488613 0 -0.43682238123718642 0.085048319794647276 0 -0.42732516987257141 0.097249824090241244 0 -0.43069153314159431 0.1145075166488613 0 -0.42383173818412262 0.1049838925542337 0 -0.42732516987257141 0.097249824090241244 0 -0.42088711779091198 0.097099534599919282 0 -0.4002043884727714 0.106430540332039 0 -0.40962597196079598 0.098768754046315549 0 -0.41642313193141278 0.111078694877913 0 -0.42088711779091198 0.097099534599919282 0 -0.40962597196079598 0.098768754046315549 0 -0.41642313193141278 0.111078694877913 0 -0.42383173818412262 0.1049838925542337 0 -0.42088711779091198 0.097099534599919282 0 -0.41642313193141278 0.111078694877913 0 -0.41142221274610902 0.087150526556525748 0 -0.42088711779091198 0.097099534599919282 0 -0.40962597196079598 0.098768754046315549 0 -0.40500159503933081 0.11906023549783409 0 -0.41642313193141278 0.111078694877913 0 -0.41340409697242059 0.12685292149463129 0 -0.4002043884727714 0.106430540332039 0 -0.40500159503933081 0.11906023549783409 0 -0.41642313193141278 0.111078694877913 0 -0.41642313193141278 0.111078694877913 0 -0.43069153314159431 0.1145075166488613 0 -0.41340409697242059 0.12685292149463129 0 -0.43069153314159431 0.1145075166488613 0 -0.43701833249064481 0.1242334301559498 0 -0.44179067089362839 0.1076777407290711 0 -0.42383173818412262 0.1049838925542337 0 -0.41642313193141278 0.111078694877913 0 -0.43069153314159431 0.1145075166488613 0 -0.44179067089362839 0.1076777407290711 0 -0.46025929109890668 0.1228993092208283 0 -0.43701833249064481 0.1242334301559498 0 -0.4456387852995447 0.1215821685367893 0 -0.44179067089362839 0.1076777407290711 0 -0.4456387852995447 0.1215821685367893 0 -0.44179067089362839 0.1076777407290711 0 -0.46025929109890668 0.1228993092208283 0 -0.44179067089362839 0.1076777407290711 0 -0.45439337809347963 0.10844862579155699 0 -0.45737508089389378 0.1171240750731626 0 -0.43069153314159431 0.1145075166488613 0 -0.44179067089362839 0.1076777407290711 0 -0.44257559726247542 0.098016071726705262 0 -0.44179067089362839 0.1076777407290711 0 -0.44257559726247542 0.098016071726705262 0 -0.45046103111811231 0.1019930611521717 0 -0.44257559726247542 0.098016071726705262 0 -0.45046103111811231 0.1019930611521717 0 -0.45389416723914727 0.093804188021215956 0 -0.44179067089362839 0.1076777407290711 0 -0.45046103111811231 0.1019930611521717 0 -0.45439337809347963 0.10844862579155699 0 -0.45439337809347963 0.10844862579155699 0 -0.45965134210183101 0.1020186794923091 0 -0.46021395701907231 0.1117008824395225 0 -0.45046103111811231 0.1019930611521717 0 -0.45439337809347963 0.10844862579155699 0 -0.45965134210183101 0.1020186794923091 0 -0.45965134210183101 0.1020186794923091 0 -0.45389416723914727 0.093804188021215956 0 -0.46346612645172991 0.09164912933258422 0 -0.45046103111811231 0.1019930611521717 0 -0.45965134210183101 0.1020186794923091 0 -0.45389416723914727 0.093804188021215956 0 -0.45965134210183101 0.1020186794923091 0 -0.46346612645172991 0.09164912933258422 0 -0.46942433891909358 0.09794253220754158 0 -0.45965134210183101 0.1020186794923091 0 -0.46716403993112687 0.1061796871622742 0 -0.46021395701907231 0.1117008824395225 0 -0.45965134210183101 0.1020186794923091 0 -0.46716403993112687 0.1061796871622742 0 -0.46942433891909358 0.09794253220754158 0 -0.46850251367066731 0.11368406789329109 0 -0.46310818746654842 0.1170947369159233 0 -0.46021395701907231 0.1117008824395225 0 -0.46716403993112687 0.1061796871622742 0 -0.46850251367066731 0.11368406789329109 0 -0.46021395701907231 0.1117008824395225 0 -0.44179067089362839 0.1076777407290711 0 -0.46025929109890668 0.1228993092208283 0 -0.45737508089389378 0.1171240750731626 0 -0.46843522873632337 0.122233320799193 0 -0.46025929109890668 0.1228993092208283 0 -0.47466662052273528 0.12622733750165099 0 -0.46850251367066731 0.11368406789329109 0 -0.46310818746654842 0.1170947369159233 0 -0.46843522873632337 0.122233320799193 0 -0.46310818746654842 0.1170947369159233 0 -0.46843522873632337 0.122233320799193 0 -0.46312395089326902 0.12017514188532499 0 -0.46843522873632337 0.122233320799193 0 -0.46312395089326902 0.12017514188532499 0 -0.46025929109890668 0.1228993092208283 0 -0.46312395089326902 0.12017514188532499 0 -0.46093476916251391 0.1192141210106173 0 -0.46025929109890668 0.1228993092208283 0 -0.46310818746654842 0.1170947369159233 0 -0.46312395089326902 0.12017514188532499 0 -0.46093476916251391 0.1192141210106173 0 -0.46310818746654842 0.1170947369159233 0 -0.46093476916251391 0.1192141210106173 0 -0.45737508089389378 0.1171240750731626 0 -0.46093476916251391 0.1192141210106173 0 -0.46025929109890668 0.1228993092208283 0 -0.45737508089389378 0.1171240750731626 0 -0.45439337809347963 0.10844862579155699 0 -0.46021395701907231 0.1117008824395225 0 -0.45737508089389378 0.1171240750731626 0 -0.46310818746654842 0.1170947369159233 0 -0.46021395701907231 0.1117008824395225 0 -0.45737508089389378 0.1171240750731626 0 -0.43393451408538602 0.053064040253560991 0 -0.4449276695886909 0.079580486200217571 0 -0.43393451408538602 0.053064040253560991 0 -0.4449276695886909 0.079580486200217571 0 -0.45568495483550081 0.066004484426329169 0 -0.4449276695886909 0.079580486200217571 0 -0.44607463045159118 0.088520672121561589 0 -0.45931141054148722 0.082075152416908659 0 -0.43682238123718642 0.085048319794647276 0 -0.4449276695886909 0.079580486200217571 0 -0.44607463045159118 0.088520672121561589 0 -0.43682238123718642 0.085048319794647276 0 -0.44257559726247542 0.098016071726705262 0 -0.44607463045159118 0.088520672121561589 0 -0.45389416723914727 0.093804188021215956 0 -0.44607463045159118 0.088520672121561589 0 -0.45931141054148722 0.082075152416908659 0 -0.44257559726247542 0.098016071726705262 0 -0.45389416723914727 0.093804188021215956 0 -0.44607463045159118 0.088520672121561589 0 -0.46346612645172991 0.09164912933258422 0 -0.45931141054148722 0.082075152416908659 0 -0.4778424774177511 0.083998275813429113 0 -0.45389416723914727 0.093804188021215956 0 -0.46346612645172991 0.09164912933258422 0 -0.45931141054148722 0.082075152416908659 0 -0.45931141054148722 0.082075152416908659 0 -0.45568495483550081 0.066004484426329169 0 -0.4778424774177511 0.083998275813429113 0 -0.45568495483550081 0.066004484426329169 0 -0.4778424774177511 0.083998275813429113 0 -0.4449276695886909 0.079580486200217571 0 -0.45931141054148722 0.082075152416908659 0 -0.45568495483550081 0.066004484426329169 0 -0.45568495483550081 0.066004484426329169 0 -0.47901095400754612 0.063383633566851921 0 -0.4778424774177511 0.083998275813429113 0 -0.46346612645172991 0.09164912933258422 0 -0.4778424774177511 0.083998275813429113 0 -0.46942433891909358 0.09794253220754158 0 -0.4778424774177511 0.083998275813429113 0 -0.5 0.074791187328335229 0 -0.500000000000001 0.1019920672005296 0 -0.4778424774177511 0.083998275813429113 0 -0.500000000000001 0.1019920672005296 0 -0.49070102329864862 0.057885849282125097 0 -0.47901095400754612 0.063383633566851921 0 -0.5 0.074791187328335229 0 -0.47901095400754612 0.063383633566851921 0 -0.4778424774177511 0.083998275813429113 0 -0.5 0.074791187328335229 0 -0.4758780139246695 0.1174792835986567 0 -0.47802804794497011 0.1055522737787066 0 -0.48583949670281379 0.1188773836853006 0 -0.4758780139246695 0.1174792835986567 0 -0.48583949670281379 0.1188773836853006 0 -0.47466662052273528 0.12622733750165099 0 -0.46850251367066731 0.11368406789329109 0 -0.46843522873632337 0.122233320799193 0 -0.4758780139246695 0.1174792835986567 0 -0.46843522873632337 0.122233320799193 0 -0.4758780139246695 0.1174792835986567 0 -0.47466662052273528 0.12622733750165099 0 -0.46850251367066731 0.11368406789329109 0 -0.4758780139246695 0.1174792835986567 0 -0.47802804794497011 0.1055522737787066 0 -0.46716403993112687 0.1061796871622742 0 -0.46850251367066731 0.11368406789329109 0 -0.47802804794497011 0.1055522737787066 0 -0.4778424774177511 0.083998275813429113 0 -0.46942433891909358 0.09794253220754158 0 -0.47802804794497011 0.1055522737787066 0 -0.46716403993112687 0.1061796871622742 0 -0.46942433891909358 0.09794253220754158 0 -0.47802804794497011 0.1055522737787066 0 -0.4778424774177511 0.083998275813429113 0 -0.47802804794497011 0.1055522737787066 0 -0.500000000000001 0.1019920672005296 0 -0.47802804794497011 0.1055522737787066 0 -0.500000000000001 0.1019920672005296 0 -0.48583949670281379 0.1188773836853006 0 -0.500000000000001 0.1019920672005296 0 -0.48583949670281379 0.1188773836853006 0 -0.5 0.12882254570531809 0 -0.48583949670281379 0.1188773836853006 0 -0.5 0.12882254570531809 0 -0.48012964554945292 0.1392761667154675 0 -0.46025929109890668 0.1228993092208283 0 -0.48012964554945292 0.1392761667154675 0 -0.46025929109890668 0.1228993092208283 0 -0.48012964554945292 0.1392761667154675 0 -0.47466662052273528 0.12622733750165099 0 -0.48583949670281379 0.1188773836853006 0 -0.48012964554945292 0.1392761667154675 0 -0.47466662052273528 0.12622733750165099 0 -0.48012964554945292 0.1392761667154675 0 -0.47877182913478272 0.16708886820882621 0 -0.46054832187124589 0.15920585333638149 0 -0.5 0.12882254570531809 0 -0.48012964554945292 0.1392761667154675 0 -0.49999999999999922 0.15565302421010671 0 -0.48012964554945292 0.1392761667154675 0 -0.49999999999999922 0.15565302421010671 0 -0.48012964554945292 0.1392761667154675 0 -0.49999999999999922 0.15565302421010671 0 -0.47877182913478272 0.16708886820882621 0 -0.49999999999999922 0.15565302421010671 0 -0.5 0.1779255645443959 0 -0.47877182913478272 0.16708886820882621 0 -0.5 0.1779255645443959 0 -0.48270114262150221 0.18638983864249509 0 -0.47877182913478272 0.16708886820882621 0 -0.48270114262150221 0.18638983864249509 0 -0.47877182913478272 0.16708886820882621 0 -0.46006277036340648 0.18636274336085071 0 -0.47877182913478272 0.16708886820882621 0 -0.46054832187124589 0.15920585333638149 0 -0.46006277036340648 0.18636274336085071 0 -0.46054832187124589 0.15920585333638149 0 -0.46006277036340648 0.18636274336085071 0 -0.44389494779998923 0.16842226767380999 0 -0.46006277036340648 0.18636274336085071 0 -0.44389494779998923 0.16842226767380999 0 -0.43491579376131378 0.18775851035633559 0 -0.46054832187124589 0.15920585333638149 0 -0.44389494779998923 0.16842226767380999 0 -0.44064209651387592 0.15105814280471949 0 -0.44064209651387592 0.15105814280471949 0 -0.44240998807245457 0.13343301136195221 0 -0.45666722910393531 0.14090689107754059 0 -0.46054832187124589 0.15920585333638149 0 -0.44064209651387592 0.15105814280471949 0 -0.45666722910393531 0.14090689107754059 0 -0.46025929109890668 0.1228993092208283 0 -0.44240998807245457 0.13343301136195221 0 -0.45666722910393531 0.14090689107754059 0 -0.4456387852995447 0.1215821685367893 0 -0.46025929109890668 0.1228993092208283 0 -0.44240998807245457 0.13343301136195221 0 -0.46025929109890668 0.1228993092208283 0 -0.44240998807245457 0.13343301136195221 0 -0.43701833249064481 0.1242334301559498 0 -0.4456387852995447 0.1215821685367893 0 -0.44240998807245457 0.13343301136195221 0 -0.46025929109890668 0.1228993092208283 0 -0.48012964554945292 0.1392761667154675 0 -0.45666722910393531 0.14090689107754059 0 -0.48012964554945292 0.1392761667154675 0 -0.46054832187124589 0.15920585333638149 0 -0.45666722910393531 0.14090689107754059 0 -0.47545477511343798 0.22821340015460251 0 -0.50000000000000355 0.25257516604358171 0 -0.47243170773416598 0.25252131008609718 0 -0.49999999999999728 0.22247064521297411 0 -0.47545477511343798 0.22821340015460251 0 -0.50000000000000355 0.25257516604358171 0 -0.49999999999999728 0.22247064521297411 0 -0.47545477511343798 0.22821340015460251 0 -0.47981480967647572 0.20635154742371739 0 -0.49999999999999728 0.22247064521297411 0 -0.47545477511343798 0.22821340015460251 0 -0.47545477511343798 0.22821340015460251 0 -0.47981480967647572 0.20635154742371739 0 -0.46183424333790829 0.2145505728736328 0 -0.49999999999999728 0.22247064521297411 0 -0.47981480967647572 0.20635154742371739 0 -0.5 0.200198104878685 0 -0.5 0.1779255645443959 0 -0.48270114262150221 0.18638983864249509 0 -0.5 0.200198104878685 0 -0.48270114262150221 0.18638983864249509 0 -0.47981480967647572 0.20635154742371739 0 -0.5 0.200198104878685 0 -0.48270114262150221 0.18638983864249509 0 -0.46006277036340648 0.18636274336085071 0 -0.47981480967647572 0.20635154742371739 0 -0.46006277036340648 0.18636274336085071 0 -0.44373564997161308 0.20767254717792411 0 -0.46183424333790829 0.2145505728736328 0 -0.46006277036340648 0.18636274336085071 0 -0.47981480967647572 0.20635154742371739 0 -0.46183424333790829 0.2145505728736328 0 -0.46006277036340648 0.18636274336085071 0 -0.44373564997161308 0.20767254717792411 0 -0.43491579376131378 0.18775851035633559 0 -0.44373564997161308 0.20767254717792411 0 -0.46183424333790829 0.2145505728736328 0 -0.4509095502268789 0.23395615509623141 0 -0.47545477511343798 0.22821340015460251 0 -0.46183424333790829 0.2145505728736328 0 -0.4509095502268789 0.23395615509623141 0 -0.47545477511343798 0.22821340015460251 0 -0.4509095502268789 0.23395615509623141 0 -0.44373564997161308 0.20767254717792411 0 -0.4509095502268789 0.23395615509623141 0 -0.42619555400130871 0.2210865732610654 0 -0.4509095502268789 0.23395615509623141 0 -0.45447176510546028 0.26210261842800259 0 -0.43846763777347608 0.25139159902730851 0 -0.4509095502268789 0.23395615509623141 0 -0.42483305275653133 0.2391713563412208 0 -0.43846763777347608 0.25139159902730851 0 -0.4509095502268789 0.23395615509623141 0 -0.47243170773416598 0.25252131008609718 0 -0.45447176510546028 0.26210261842800259 0 -0.47545477511343798 0.22821340015460251 0 -0.4509095502268789 0.23395615509623141 0 -0.47243170773416598 0.25252131008609718 0 -0.42483305275653133 0.2391713563412208 0 -0.4058641186269526 0.24719101802337209 0 -0.42186070460899672 0.25309052481387179 0 -0.42483305275653133 0.2391713563412208 0 -0.40570075130157518 0.22831226782547601 0 -0.4058641186269526 0.24719101802337209 0 -0.42483305275653133 0.2391713563412208 0 -0.43846763777347608 0.25139159902730851 0 -0.42186070460899672 0.25309052481387179 0 -0.4509095502268789 0.23395615509623141 0 -0.42483305275653133 0.2391713563412208 0 -0.42619555400130871 0.2210865732610654 0 -0.42619555400130871 0.2210865732610654 0 -0.4093815069092428 0.20930915628961541 0 -0.40570075130157518 0.22831226782547601 0 -0.42483305275653133 0.2391713563412208 0 -0.42619555400130871 0.2210865732610654 0 -0.40570075130157518 0.22831226782547601 0 -0.42619555400130871 0.2210865732610654 0 -0.4093815069092428 0.20930915628961541 0 -0.42673330281057742 0.203657828083776 0 -0.44373564997161308 0.20767254717792411 0 -0.42619555400130871 0.2210865732610654 0 -0.42673330281057742 0.203657828083776 0 -0.42673330281057742 0.203657828083776 0 -0.43491579376131378 0.18775851035633559 0 -0.41450696552696992 0.19227560940300201 0 -0.44373564997161308 0.20767254717792411 0 -0.42673330281057742 0.203657828083776 0 -0.43491579376131378 0.18775851035633559 0 -0.4093815069092428 0.20930915628961541 0 -0.42673330281057742 0.203657828083776 0 -0.41450696552696992 0.19227560940300201 0 -0.4093815069092428 0.20930915628961541 0 -0.41450696552696992 0.19227560940300201 0 -0.38917287431225889 0.19672734352777779 0 -0.41450696552696992 0.19227560940300201 0 -0.38917287431225889 0.19672734352777779 0 -0.39506614435951359 0.18124695928314211 0 -0.38917287431225889 0.19672734352777779 0 -0.37898545115169752 0.21022080054698841 0 -0.37264942182107469 0.19314124370032379 0 -0.38917287431225889 0.19672734352777779 0 -0.37906143969833178 0.1837364686344008 0 -0.37264942182107469 0.19314124370032379 0 -0.38917287431225889 0.19672734352777779 0 -0.37898545115169752 0.21022080054698841 0 -0.39295229269392568 0.21375641065098319 0 -0.37898545115169752 0.21022080054698841 0 -0.39295229269392568 0.21375641065098319 0 -0.38566351333877391 0.22701595062985411 0 -0.4093815069092428 0.20930915628961541 0 -0.39295229269392568 0.21375641065098319 0 -0.40570075130157518 0.22831226782547601 0 -0.4093815069092428 0.20930915628961541 0 -0.38917287431225889 0.19672734352777779 0 -0.39295229269392568 0.21375641065098319 0 -0.39295229269392568 0.21375641065098319 0 -0.40570075130157518 0.22831226782547601 0 -0.38566351333877391 0.22701595062985411 0 -0.40570075130157518 0.22831226782547601 0 -0.38566351333877391 0.22701595062985411 0 -0.38890999743407823 0.2427193981317495 0 -0.37898545115169752 0.21022080054698841 0 -0.38566351333877391 0.22701595062985411 0 -0.36918549998045508 0.2219342564482602 0 -0.38566351333877391 0.22701595062985411 0 -0.37426535240908931 0.23763306958086369 0 -0.36918549998045508 0.2219342564482602 0 -0.38566351333877391 0.22701595062985411 0 -0.38890999743407823 0.2427193981317495 0 -0.37426535240908931 0.23763306958086369 0 -0.38890999743407823 0.2427193981317495 0 -0.37426535240908931 0.23763306958086369 0 -0.37627277756599359 0.25576698107499612 0 -0.40570075130157518 0.22831226782547601 0 -0.38890999743407823 0.2427193981317495 0 -0.4058641186269526 0.24719101802337209 0 -0.38890999743407823 0.2427193981317495 0 -0.4058641186269526 0.24719101802337209 0 -0.39181582631995732 0.25666003096110762 0 -0.42456068504600192 0.1439667135030753 0 -0.40845034835474481 0.1615357131875573 0 -0.39950638225365043 0.15875242040585999 0 -0.40644770470087432 0.14163984351175291 0 -0.42456068504600192 0.1439667135030753 0 -0.39950638225365043 0.15875242040585999 0 -0.42456068504600192 0.1439667135030753 0 -0.39950638225365043 0.15875242040585999 0 -0.40644770470087432 0.14163984351175291 0 -0.41340409697242059 0.12685292149463129 0 -0.42456068504600192 0.1439667135030753 0 -0.43069153314159431 0.1145075166488613 0 -0.43701833249064481 0.1242334301559498 0 -0.42456068504600192 0.1439667135030753 0 -0.43069153314159431 0.1145075166488613 0 -0.41340409697242059 0.12685292149463129 0 -0.42456068504600192 0.1439667135030753 0 -0.43701833249064481 0.1242334301559498 0 -0.44240998807245457 0.13343301136195221 0 -0.42456068504600192 0.1439667135030753 0 -0.44240998807245457 0.13343301136195221 0 -0.42456068504600192 0.1439667135030753 0 -0.43069153314159431 0.1145075166488613 0 -0.42456068504600192 0.1439667135030753 0 -0.44064209651387592 0.15105814280471949 0 -0.44240998807245457 0.13343301136195221 0 -0.42456068504600192 0.1439667135030753 0 -0.44064209651387592 0.15105814280471949 0 -0.42456068504600192 0.1439667135030753 0 -0.41953382528648597 0.16812116145303871 0 -0.42456068504600192 0.1439667135030753 0 -0.41953382528648597 0.16812116145303871 0 -0.44389494779998923 0.16842226767380999 0 -0.44064209651387592 0.15105814280471949 0 -0.41953382528648597 0.16812116145303871 0 -0.43491579376131378 0.18775851035633559 0 -0.41450696552696992 0.19227560940300201 0 -0.41953382528648597 0.16812116145303871 0 -0.44389494779998923 0.16842226767380999 0 -0.43491579376131378 0.18775851035633559 0 -0.41953382528648597 0.16812116145303871 0 -0.41450696552696992 0.19227560940300201 0 -0.41953382528648597 0.16812116145303871 0 -0.4060243672849842 0.17307354262849031 0 -0.41450696552696992 0.19227560940300201 0 -0.41953382528648597 0.16812116145303871 0 -0.42456068504600192 0.1439667135030753 0 -0.41953382528648597 0.16812116145303871 0 -0.40845034835474481 0.1615357131875573 0 -0.41953382528648597 0.16812116145303871 0 -0.40845034835474481 0.1615357131875573 0 -0.4060243672849842 0.17307354262849031 0 -0.40845034835474481 0.1615357131875573 0 -0.39950638225365043 0.15875242040585999 0 -0.40230428932012002 0.16580132986850479 0 -0.39950638225365043 0.15875242040585999 0 -0.40230428932012002 0.16580132986850479 0 -0.39498347874854289 0.1694299291903946 0 -0.40230428932012002 0.16580132986850479 0 -0.39498347874854289 0.1694299291903946 0 -0.4060243672849842 0.17307354262849031 0 -0.40845034835474481 0.1615357131875573 0 -0.40230428932012002 0.16580132986850479 0 -0.4060243672849842 0.17307354262849031 0 -0.41450696552696992 0.19227560940300201 0 -0.4060243672849842 0.17307354262849031 0 -0.39506614435951359 0.18124695928314211 0 -0.39498347874854289 0.1694299291903946 0 -0.4060243672849842 0.17307354262849031 0 -0.39506614435951359 0.18124695928314211 0 -0.39498347874854289 0.1694299291903946 0 -0.39506614435951359 0.18124695928314211 0 -0.38614730887295268 0.17683648479544889 0 -0.38917287431225889 0.19672734352777779 0 -0.39506614435951359 0.18124695928314211 0 -0.37906143969833178 0.1837364686344008 0 -0.39506614435951359 0.18124695928314211 0 -0.38614730887295268 0.17683648479544889 0 -0.37906143969833178 0.1837364686344008 0 -0.39498347874854289 0.1694299291903946 0 -0.38614730887295268 0.17683648479544889 0 -0.37547817268542238 0.172932582073858 0 -0.37547817268542238 0.172932582073858 0 -0.37906143969833178 0.1837364686344008 0 -0.37075009083196669 0.17910762915761069 0 -0.38614730887295268 0.17683648479544889 0 -0.37547817268542238 0.172932582073858 0 -0.37906143969833178 0.1837364686344008 0 -0.39950638225365043 0.15875242040585999 0 -0.39498347874854289 0.1694299291903946 0 -0.37547817268542238 0.172932582073858 0 -0.39950638225365043 0.15875242040585999 0 -0.37547817268542238 0.172932582073858 0 -0.38095294971031302 0.15620214862961901 0 -0.39950638225365043 0.15875242040585999 0 -0.37547817268542238 0.172932582073858 0 -0.38877631717686989 0.1411771271023711 0 -0.3743845192430213 0.13462170770880841 0 -0.3727609344829107 0.14736618439603419 0 -0.38877631717686989 0.1411771271023711 0 -0.38095294971031302 0.15620214862961901 0 -0.3727609344829107 0.14736618439603419 0 -0.39950638225365043 0.15875242040585999 0 -0.38877631717686989 0.1411771271023711 0 -0.38095294971031302 0.15620214862961901 0 -0.39950638225365043 0.15875242040585999 0 -0.38877631717686989 0.1411771271023711 0 -0.40644770470087432 0.14163984351175291 0 -0.39950638225365043 0.15875242040585999 0 -0.38877631717686989 0.1411771271023711 0 -0.40500159503933081 0.11906023549783409 0 -0.41340409697242059 0.12685292149463129 0 -0.39724577858065152 0.1299831436324938 0 -0.40644770470087432 0.14163984351175291 0 -0.41340409697242059 0.12685292149463129 0 -0.39724577858065152 0.1299831436324938 0 -0.40644770470087432 0.14163984351175291 0 -0.38877631717686989 0.1411771271023711 0 -0.39724577858065152 0.1299831436324938 0 -0.37804625210008819 0.123601833798883 0 -0.38877631717686989 0.1411771271023711 0 -0.3743845192430213 0.13462170770880841 0 -0.37804625210008819 0.123601833798883 0 -0.38877631717686989 0.1411771271023711 0 -0.37804625210008819 0.123601833798883 0 -0.38877631717686989 0.1411771271023711 0 -0.39724577858065152 0.1299831436324938 0 -0.365347101462831 0.13817461851868421 0 -0.35348317360806891 0.12938077574343321 0 -0.36633164424306752 0.1221005795070398 0 -0.365347101462831 0.13817461851868421 0 -0.36633164424306752 0.1221005795070398 0 -0.3743845192430213 0.13462170770880841 0 -0.365347101462831 0.13817461851868421 0 -0.36633164424306752 0.1221005795070398 0 -0.37804625210008819 0.123601833798883 0 -0.3743845192430213 0.13462170770880841 0 -0.36633164424306752 0.1221005795070398 0 -0.3743845192430213 0.13462170770880841 0 -0.365347101462831 0.13817461851868421 0 -0.3727609344829107 0.14736618439603419 0 -0.35348317360806891 0.12938077574343321 0 -0.33623501688266189 0.13743010248621851 0 -0.34806126244690111 0.1156444249085414 0 -0.365347101462831 0.13817461851868421 0 -0.35348317360806891 0.12938077574343321 0 -0.35480555670105951 0.1470729930362859 0 -0.35348317360806891 0.12938077574343321 0 -0.35480555670105951 0.1470729930362859 0 -0.33623501688266189 0.13743010248621851 0 -0.35480555670105951 0.1470729930362859 0 -0.35095368412742989 0.16285979326107619 0 -0.34108384742594228 0.1551062344628846 0 -0.35480555670105951 0.1470729930362859 0 -0.33623501688266189 0.13743010248621851 0 -0.34108384742594228 0.1551062344628846 0 -0.35480555670105951 0.1470729930362859 0 -0.3727609344829107 0.14736618439603419 0 -0.36538929421828598 0.1597472365875848 0 -0.365347101462831 0.13817461851868421 0 -0.35480555670105951 0.1470729930362859 0 -0.3727609344829107 0.14736618439603419 0 -0.38095294971031302 0.15620214862961901 0 -0.3727609344829107 0.14736618439603419 0 -0.36538929421828598 0.1597472365875848 0 -0.37547817268542238 0.172932582073858 0 -0.38095294971031302 0.15620214862961901 0 -0.36538929421828598 0.1597472365875848 0 -0.37547817268542238 0.172932582073858 0 -0.36538929421828598 0.1597472365875848 0 -0.36047104019532872 0.17338291754511381 0 -0.36798971074878389 0.18637854837707041 0 -0.36047104019532872 0.17338291754511381 0 -0.35030780973606301 0.17549075859465871 0 -0.37906143969833178 0.1837364686344008 0 -0.36798971074878389 0.18637854837707041 0 -0.37075009083196669 0.17910762915761069 0 -0.37547817268542238 0.172932582073858 0 -0.37075009083196669 0.17910762915761069 0 -0.36047104019532872 0.17338291754511381 0 -0.36798971074878389 0.18637854837707041 0 -0.37075009083196669 0.17910762915761069 0 -0.36047104019532872 0.17338291754511381 0 -0.36798971074878389 0.18637854837707041 0 -0.34042135529351392 0.18433105797711491 0 -0.36798971074878389 0.18637854837707041 0 -0.35030780973606301 0.17549075859465871 0 -0.34042135529351392 0.18433105797711491 0 -0.35480555670105951 0.1470729930362859 0 -0.36538929421828598 0.1597472365875848 0 -0.35095368412742989 0.16285979326107619 0 -0.36047104019532872 0.17338291754511381 0 -0.35030780973606301 0.17549075859465871 0 -0.35095368412742989 0.16285979326107619 0 -0.36538929421828598 0.1597472365875848 0 -0.36047104019532872 0.17338291754511381 0 -0.35095368412742989 0.16285979326107619 0 -0.35030780973606301 0.17549075859465871 0 -0.35095368412742989 0.16285979326107619 0 -0.33901620810013772 0.16895250346694651 0 -0.35095368412742989 0.16285979326107619 0 -0.33901620810013772 0.16895250346694651 0 -0.34108384742594228 0.1551062344628846 0 -0.33901620810013772 0.16895250346694651 0 -0.32669072761201778 0.17772801114192871 0 -0.32440877131842272 0.15921578006389581 0 -0.33901620810013772 0.16895250346694651 0 -0.32440877131842272 0.15921578006389581 0 -0.34108384742594228 0.1551062344628846 0 -0.35030780973606301 0.17549075859465871 0 -0.33901620810013772 0.16895250346694651 0 -0.34042135529351392 0.18433105797711491 0 -0.33901620810013772 0.16895250346694651 0 -0.34042135529351392 0.18433105797711491 0 -0.32669072761201778 0.17772801114192871 0 -0.34042135529351392 0.18433105797711491 0 -0.31258252575418349 0.1810014576415731 0 -0.32058184338665102 0.18999642887825369 0 -0.34042135529351392 0.18433105797711491 0 -0.31258252575418349 0.1810014576415731 0 -0.34042135529351392 0.18433105797711491 0 -0.32669072761201778 0.17772801114192871 0 -0.31258252575418349 0.1810014576415731 0 -0.32669072761201778 0.17772801114192871 0 -0.31258252575418349 0.1810014576415731 0 -0.32440877131842272 0.15921578006389581 0 -0.31258252575418349 0.1810014576415731 0 -0.32058184338665102 0.18999642887825369 0 -0.31164202783444339 0.18960367438034681 0 -0.31258252575418349 0.1810014576415731 0 -0.32440877131842272 0.15921578006389581 0 -0.31258252575418349 0.1810014576415731 0 -0.32440877131842272 0.15921578006389581 0 -0.30928686699462882 0.16318737426620769 0 -0.32440877131842272 0.15921578006389581 0 -0.31214676871617769 0.1437750609055741 0 -0.30928686699462882 0.16318737426620769 0 -0.32440877131842272 0.15921578006389581 0 -0.33623501688266189 0.13743010248621851 0 -0.31214676871617769 0.1437750609055741 0 -0.33623501688266189 0.13743010248621851 0 -0.31214676871617769 0.1437750609055741 0 -0.3127173757629626 0.1125196991101781 0 -0.33623501688266189 0.13743010248621851 0 -0.34806126244690111 0.1156444249085414 0 -0.32440877131842272 0.15921578006389581 0 -0.33623501688266189 0.13743010248621851 0 -0.32440877131842272 0.15921578006389581 0 -0.33623501688266189 0.13743010248621851 0 -0.34108384742594228 0.1551062344628846 0 -0.34824261657673289 0.24684003078997019 0 -0.36034560581290948 0.2331949797244813 0 -0.34699158187959073 0.23006221094352949 0 -0.34824261657673289 0.24684003078997019 0 -0.34699158187959073 0.23006221094352949 0 -0.3369866833716032 0.23617689592248431 0 -0.34824261657673289 0.24684003078997019 0 -0.36292965957869022 0.24700153722895329 0 -0.36034560581290948 0.2331949797244813 0 -0.36292965957869022 0.24700153722895329 0 -0.37426535240908931 0.23763306958086369 0 -0.37627277756599359 0.25576698107499612 0 -0.36292965957869022 0.24700153722895329 0 -0.37426535240908931 0.23763306958086369 0 -0.36034560581290948 0.2331949797244813 0 -0.37426535240908931 0.23763306958086369 0 -0.36034560581290948 0.2331949797244813 0 -0.36918549998045508 0.2219342564482602 0 -0.36034560581290948 0.2331949797244813 0 -0.36918549998045508 0.2219342564482602 0 -0.35426280419631678 0.2199018442433508 0 -0.35426280419631678 0.2199018442433508 0 -0.34699158187959073 0.23006221094352949 0 -0.33803848401705971 0.22215341913216219 0 -0.36034560581290948 0.2331949797244813 0 -0.35426280419631678 0.2199018442433508 0 -0.34699158187959073 0.23006221094352949 0 -0.35426280419631678 0.2199018442433508 0 -0.34672654872418962 0.20331660088694001 0 -0.33803848401705971 0.22215341913216219 0 -0.35426280419631678 0.2199018442433508 0 -0.34672654872418962 0.20331660088694001 0 -0.36428910476369658 0.2087495983247315 0 -0.37898545115169752 0.21022080054698841 0 -0.36428910476369658 0.2087495983247315 0 -0.37264942182107469 0.19314124370032379 0 -0.36918549998045508 0.2219342564482602 0 -0.35426280419631678 0.2199018442433508 0 -0.36428910476369658 0.2087495983247315 0 -0.37898545115169752 0.21022080054698841 0 -0.36918549998045508 0.2219342564482602 0 -0.36428910476369658 0.2087495983247315 0 -0.34672654872418962 0.20331660088694001 0 -0.37264942182107469 0.19314124370032379 0 -0.34672654872418962 0.20331660088694001 0 -0.36428910476369658 0.2087495983247315 0 -0.37264942182107469 0.19314124370032379 0 -0.36798971074878389 0.18637854837707041 0 -0.34672654872418962 0.20331660088694001 0 -0.37264942182107469 0.19314124370032379 0 -0.37906143969833178 0.1837364686344008 0 -0.36798971074878389 0.18637854837707041 0 -0.37264942182107469 0.19314124370032379 0 -0.36798971074878389 0.18637854837707041 0 -0.34042135529351392 0.18433105797711491 0 -0.34672654872418962 0.20331660088694001 0 -0.34042135529351392 0.18433105797711491 0 -0.34672654872418962 0.20331660088694001 0 -0.32524963504831961 0.19869588108650291 0 -0.34042135529351392 0.18433105797711491 0 -0.32058184338665102 0.18999642887825369 0 -0.32524963504831961 0.19869588108650291 0 -0.32058184338665102 0.18999642887825369 0 -0.32524963504831961 0.19869588108650291 0 -0.311616888936874 0.19584633358857631 0 -0.32058184338665102 0.18999642887825369 0 -0.311616888936874 0.19584633358857631 0 -0.31164202783444339 0.18960367438034681 0 -0.32524963504831961 0.19869588108650291 0 -0.31041164584417502 0.20699007176870929 0 -0.311616888936874 0.19584633358857631 0 -0.32524963504831961 0.19869588108650291 0 -0.32080367562730439 0.2134919580735562 0 -0.31041164584417502 0.20699007176870929 0 -0.34672654872418962 0.20331660088694001 0 -0.32524963504831961 0.19869588108650291 0 -0.32080367562730439 0.2134919580735562 0 -0.34672654872418962 0.20331660088694001 0 -0.32080367562730439 0.2134919580735562 0 -0.34672654872418962 0.20331660088694001 0 -0.32080367562730439 0.2134919580735562 0 -0.33803848401705971 0.22215341913216219 0 -0.34699158187959073 0.23006221094352949 0 -0.33803848401705971 0.22215341913216219 0 -0.3369866833716032 0.23617689592248431 0 -0.33803848401705971 0.22215341913216219 0 -0.32310956683312447 0.23072473879632621 0 -0.3369866833716032 0.23617689592248431 0 -0.32080367562730439 0.2134919580735562 0 -0.32310956683312447 0.23072473879632621 0 -0.29488080253041948 0.22366731526017231 0 -0.32080367562730439 0.2134919580735562 0 -0.33803848401705971 0.22215341913216219 0 -0.32310956683312447 0.23072473879632621 0 -0.32310956683312447 0.23072473879632621 0 -0.33213242169912183 0.24992613500971911 0 -0.32310956683312447 0.23072473879632621 0 -0.33213242169912183 0.24992613500971911 0 -0.30846245916933263 0.2451797241646857 0 -0.32310956683312447 0.23072473879632621 0 -0.33213242169912183 0.24992613500971911 0 -0.3369866833716032 0.23617689592248431 0 -0.34824261657673289 0.24684003078997019 0 -0.33213242169912183 0.24992613500971911 0 -0.3369866833716032 0.23617689592248431 0 -0.28924369278351397 0.24685883917450829 0 -0.29488080253041948 0.22366731526017231 0 -0.27553996635935202 0.23890616885437449 0 -0.28924369278351397 0.24685883917450829 0 -0.30846245916933263 0.2451797241646857 0 -0.29488080253041948 0.22366731526017231 0 -0.32310956683312447 0.23072473879632621 0 -0.30846245916933263 0.2451797241646857 0 -0.29488080253041948 0.22366731526017231 0 -0.29488080253041948 0.22366731526017231 0 -0.28407512471040941 0.20883264418328651 0 -0.29950722707795763 0.20324887083473889 0 -0.32080367562730439 0.2134919580735562 0 -0.29488080253041948 0.22366731526017231 0 -0.31041164584417502 0.20699007176870929 0 -0.29488080253041948 0.22366731526017231 0 -0.31041164584417502 0.20699007176870929 0 -0.29950722707795763 0.20324887083473889 0 -0.32080367562730439 0.2134919580735562 0 -0.29488080253041948 0.22366731526017231 0 -0.29950722707795763 0.20324887083473889 0 -0.311616888936874 0.19584633358857631 0 -0.3015163791760046 0.1902883674773978 0 -0.31041164584417502 0.20699007176870929 0 -0.29950722707795763 0.20324887083473889 0 -0.311616888936874 0.19584633358857631 0 -0.311616888936874 0.19584633358857631 0 -0.31164202783444339 0.18960367438034681 0 -0.3015163791760046 0.1902883674773978 0 -0.28837844238890981 0.19566619674656741 0 -0.27286605706807421 0.19835798802342289 0 -0.28528464438297441 0.1802360771772038 0 -0.3015163791760046 0.1902883674773978 0 -0.28837844238890981 0.19566619674656741 0 -0.28528464438297441 0.1802360771772038 0 -0.29950722707795763 0.20324887083473889 0 -0.3015163791760046 0.1902883674773978 0 -0.28837844238890981 0.19566619674656741 0 -0.28407512471040941 0.20883264418328651 0 -0.29950722707795763 0.20324887083473889 0 -0.28837844238890981 0.19566619674656741 0 -0.28407512471040941 0.20883264418328651 0 -0.28837844238890981 0.19566619674656741 0 -0.27286605706807421 0.19835798802342289 0 -0.27286605706807421 0.19835798802342289 0 -0.25001791226633591 0.20223167449818141 0 -0.25771628892770448 0.1781885867772483 0 -0.27286605706807421 0.19835798802342289 0 -0.25001791226633591 0.20223167449818141 0 -0.26474309448668609 0.22322285005153111 0 -0.25001791226633591 0.20223167449818141 0 -0.26474309448668609 0.22322285005153111 0 -0.2417097275862935 0.21883514260066619 0 -0.28407512471040941 0.20883264418328651 0 -0.27286605706807421 0.19835798802342289 0 -0.26474309448668609 0.22322285005153111 0 -0.29488080253041948 0.22366731526017231 0 -0.28407512471040941 0.20883264418328651 0 -0.26474309448668609 0.22322285005153111 0 -0.29488080253041948 0.22366731526017231 0 -0.26474309448668609 0.22322285005153111 0 -0.27553996635935202 0.23890616885437449 0 -0.26474309448668609 0.22322285005153111 0 -0.25825314838481339 0.2425458797231245 0 -0.2408074769917862 0.23465833815203779 0 -0.25825314838481339 0.2425458797231245 0 -0.27553996635935202 0.23890616885437449 0 -0.27057909361132693 0.25823596006253607 0 -0.26474309448668609 0.22322285005153111 0 -0.25825314838481339 0.2425458797231245 0 -0.27553996635935202 0.23890616885437449 0 -0.28924369278351397 0.24685883917450829 0 -0.27553996635935202 0.23890616885437449 0 -0.27057909361132693 0.25823596006253607 0 -0.28994981765154099 0.129105890536617 0 -0.31214676871617769 0.1437750609055741 0 -0.3127173757629626 0.1125196991101781 0 -0.28994981765154099 0.129105890536617 0 -0.29743723577162201 0.15772453462911959 0 -0.27396272325231502 0.1460593730725179 0 -0.28994981765154099 0.129105890536617 0 -0.31214676871617769 0.1437750609055741 0 -0.29743723577162201 0.15772453462911959 0 -0.31214676871617769 0.1437750609055741 0 -0.29743723577162201 0.15772453462911959 0 -0.30928686699462882 0.16318737426620769 0 -0.29743723577162201 0.15772453462911959 0 -0.28528464438297441 0.1802360771772038 0 -0.27396272325231502 0.1460593730725179 0 -0.29743723577162201 0.15772453462911959 0 -0.30928686699462882 0.16318737426620769 0 -0.29985903341273767 0.17422003809087569 0 -0.31258252575418349 0.1810014576415731 0 -0.3015163791760046 0.1902883674773978 0 -0.28528464438297441 0.1802360771772038 0 -0.31258252575418349 0.1810014576415731 0 -0.28528464438297441 0.1802360771772038 0 -0.31258252575418349 0.1810014576415731 0 -0.29985903341273767 0.17422003809087569 0 -0.28528464438297441 0.1802360771772038 0 -0.31258252575418349 0.1810014576415731 0 -0.30928686699462882 0.16318737426620769 0 -0.29985903341273767 0.17422003809087569 0 -0.31258252575418349 0.1810014576415731 0 -0.31164202783444339 0.18960367438034681 0 -0.3015163791760046 0.1902883674773978 0 -0.29743723577162201 0.15772453462911959 0 -0.29985903341273767 0.17422003809087569 0 -0.28528464438297441 0.1802360771772038 0 -0.28528464438297441 0.1802360771772038 0 -0.25799286945900141 0.15886893947765879 0 -0.27396272325231502 0.1460593730725179 0 -0.28528464438297441 0.1802360771772038 0 -0.25771628892770448 0.1781885867772483 0 -0.25799286945900141 0.15886893947765879 0 -0.28528464438297441 0.1802360771772038 0 -0.25771628892770448 0.1781885867772483 0 -0.27286605706807421 0.19835798802342289 0 -0.28528464438297441 0.1802360771772038 0 -0.25771628892770448 0.1781885867772483 0 -0.25799286945900141 0.15886893947765879 0 -0.27396272325231502 0.1460593730725179 0 -0.24645927362986639 0.1322616828522806 0 -0.27396272325231502 0.1460593730725179 0 -0.25813148535304709 0.1137235584372733 0 -0.24645927362986639 0.1322616828522806 0 -0.28994981765154099 0.129105890536617 0 -0.27396272325231502 0.1460593730725179 0 -0.25813148535304709 0.1137235584372733 0 -0.28994981765154099 0.129105890536617 0 -0.25813148535304709 0.1137235584372733 0 -0.28527348531387148 0.1062774067215993 0 -0.25813148535304709 0.1137235584372733 0 -0.26809942719924362 0.085466672468615335 0 -0.24211114701042519 0.09453997081764981 0 -0.25813148535304709 0.1137235584372733 0 -0.28527348531387148 0.1062774067215993 0 -0.26809942719924362 0.085466672468615335 0 -0.28994981765154099 0.129105890536617 0 -0.28527348531387148 0.1062774067215993 0 -0.3127173757629626 0.1125196991101781 0 -0.28527348531387148 0.1062774067215993 0 -0.29863135018488107 0.090887834791935129 0 -0.26809942719924362 0.085466672468615335 0 -0.29863135018488107 0.090887834791935129 0 -0.3127173757629626 0.1125196991101781 0 -0.32522550257001381 0.085314451198393579 0 -0.28527348531387148 0.1062774067215993 0 -0.29863135018488107 0.090887834791935129 0 -0.3127173757629626 0.1125196991101781 0 -0.30838091471111689 0.071929158449262412 0 -0.28938518827392129 0.073094889940132288 0 -0.30045108620983141 0.056480684655655082 0 -0.30838091471111689 0.071929158449262412 0 -0.29863135018488107 0.090887834791935129 0 -0.28938518827392129 0.073094889940132288 0 -0.30838091471111689 0.071929158449262412 0 -0.29863135018488107 0.090887834791935129 0 -0.32522550257001381 0.085314451198393579 0 -0.29863135018488107 0.090887834791935129 0 -0.28938518827392129 0.073094889940132288 0 -0.26809942719924362 0.085466672468615335 0 -0.27339286909944799 0.068627364571179045 0 -0.26809942719924362 0.085466672468615335 0 -0.25797894661879511 0.062645041705594595 0 -0.28938518827392129 0.073094889940132288 0 -0.27339286909944799 0.068627364571179045 0 -0.26809942719924362 0.085466672468615335 0 -0.28938518827392129 0.073094889940132288 0 -0.27339286909944799 0.068627364571179045 0 -0.27810791430583198 0.053302854170373969 0 -0.26809942719924362 0.085466672468615335 0 -0.24155975252329931 0.073837244407682759 0 -0.24211114701042519 0.09453997081764981 0 -0.26809942719924362 0.085466672468615335 0 -0.25797894661879511 0.062645041705594595 0 -0.24155975252329931 0.073837244407682759 0 -0.25797894661879511 0.062645041705594595 0 -0.25457044692415531 0.039847410896771858 0 -0.27810791430583198 0.053302854170373969 0 -0.25457044692415531 0.039847410896771858 0 -0.27832561070586459 0.033023089959677988 0 -0.27810791430583198 0.053302854170373969 0 -0.25457044692415531 0.039847410896771858 0 -0.27832561070586459 0.033023089959677988 0 -0.26425628348590557 0.023451762646417129 0 -0.27339286909944799 0.068627364571179045 0 -0.25797894661879511 0.062645041705594595 0 -0.27810791430583198 0.053302854170373969 0 -0.2675436699901495 -0.012684391954615921 0 -0.27087138527552468 0.0084193362086761453 0 -0.24496178883302311 0.01237944270509766 0 -0.26425628348590557 0.023451762646417129 0 -0.27087138527552468 0.0084193362086761453 0 -0.24496178883302311 0.01237944270509766 0 -0.25457044692415531 0.039847410896771858 0 -0.26425628348590557 0.023451762646417129 0 -0.24496178883302311 0.01237944270509766 0 -0.27832561070586459 0.033023089959677988 0 -0.27087138527552468 0.0084193362086761453 0 -0.29084842672228689 0.0076878545578341444 0 -0.27832561070586459 0.033023089959677988 0 -0.26425628348590557 0.023451762646417129 0 -0.27087138527552468 0.0084193362086761453 0 -0.2675436699901495 -0.012684391954615921 0 -0.27087138527552468 0.0084193362086761453 0 -0.29084842672228689 0.0076878545578341444 0 -0.27832561070586459 0.033023089959677988 0 -0.29084842672228689 0.0076878545578341444 0 -0.29742139705940329 0.038172626107336738 0 -0.29084842672228689 0.0076878545578341444 0 -0.29742139705940329 0.038172626107336738 0 -0.31536361093022047 0.023162692553965091 0 -0.29084842672228689 0.0076878545578341444 0 -0.31390032267290879 0.001897368345985068 0 -0.31536361093022047 0.023162692553965091 0 -0.28938518827392129 0.073094889940132288 0 -0.27810791430583198 0.053302854170373969 0 -0.30045108620983141 0.056480684655655082 0 -0.27810791430583198 0.053302854170373969 0 -0.29742139705940329 0.038172626107336738 0 -0.30045108620983141 0.056480684655655082 0 -0.27832561070586459 0.033023089959677988 0 -0.27810791430583198 0.053302854170373969 0 -0.29742139705940329 0.038172626107336738 0 -0.29742139705940329 0.038172626107336738 0 -0.31326721037818012 0.04384481104951992 0 -0.31536361093022047 0.023162692553965091 0 -0.29742139705940329 0.038172626107336738 0 -0.30045108620983141 0.056480684655655082 0 -0.31326721037818012 0.04384481104951992 0 -0.30045108620983141 0.056480684655655082 0 -0.31614389253053521 0.058539768217305201 0 -0.31326721037818012 0.04384481104951992 0 -0.30838091471111689 0.071929158449262412 0 -0.30045108620983141 0.056480684655655082 0 -0.31614389253053521 0.058539768217305201 0 -0.31614389253053521 0.058539768217305201 0 -0.32606944419769918 0.058537200194134428 0 -0.32632993569316249 0.049539284099900133 0 -0.31614389253053521 0.058539768217305201 0 -0.32606944419769918 0.058537200194134428 0 -0.32407031919003448 0.067960545172723347 0 -0.31614389253053521 0.058539768217305201 0 -0.32632993569316249 0.049539284099900133 0 -0.31326721037818012 0.04384481104951992 0 -0.31326721037818012 0.04384481104951992 0 -0.32440600722766622 0.036233154165429153 0 -0.31536361093022047 0.023162692553965091 0 -0.32632993569316249 0.049539284099900133 0 -0.31326721037818012 0.04384481104951992 0 -0.32440600722766622 0.036233154165429153 0 -0.32632993569316249 0.049539284099900133 0 -0.32440600722766622 0.036233154165429153 0 -0.33493356877254737 0.040217683228884499 0 -0.33493356877254737 0.040217683228884499 0 -0.33773362937706508 0.058109203286609047 0 -0.35024175618411629 0.03090395537482463 0 -0.32440600722766622 0.036233154165429153 0 -0.33493356877254737 0.040217683228884499 0 -0.3356278108200631 0.02574104630544399 0 -0.33493356877254737 0.040217683228884499 0 -0.3356278108200631 0.02574104630544399 0 -0.35024175618411629 0.03090395537482463 0 -0.32632993569316249 0.049539284099900133 0 -0.33493356877254737 0.040217683228884499 0 -0.33773362937706508 0.058109203286609047 0 -0.33773362937706508 0.058109203286609047 0 -0.34582286122008349 0.055521810561559207 0 -0.34467628773160258 0.068943552874552061 0 -0.32606944419769918 0.058537200194134428 0 -0.33773362937706508 0.058109203286609047 0 -0.32407031919003448 0.067960545172723347 0 -0.32606944419769918 0.058537200194134428 0 -0.32632993569316249 0.049539284099900133 0 -0.33773362937706508 0.058109203286609047 0 -0.31390032267290879 0.001897368345985068 0 -0.31536361093022047 0.023162692553965091 0 -0.33183757558868021 0.0092231901974755889 0 -0.31536361093022047 0.023162692553965091 0 -0.3356278108200631 0.02574104630544399 0 -0.33183757558868021 0.0092231901974755889 0 -0.32440600722766622 0.036233154165429153 0 -0.31536361093022047 0.023162692553965091 0 -0.3356278108200631 0.02574104630544399 0 -0.3356278108200631 0.02574104630544399 0 -0.33183757558868021 0.0092231901974755889 0 -0.35619545527155538 0.01335734732276773 0 -0.34648002239000819 -0.003224372146928744 0 -0.33183757558868021 0.0092231901974755889 0 -0.35619545527155538 0.01335734732276773 0 -0.34648002239000819 -0.003224372146928744 0 -0.35619545527155538 0.01335734732276773 0 -0.36953825318317091 0.0010669767550764381 0 -0.33183757558868021 0.0092231901974755889 0 -0.35619545527155538 0.01335734732276773 0 -0.3356278108200631 0.02574104630544399 0 -0.35619545527155538 0.01335734732276773 0 -0.35024175618411629 0.03090395537482463 0 -0.35619545527155538 0.01335734732276773 0 -0.35024175618411629 0.03090395537482463 0 -0.36610105650922109 0.026346306655102781 0 -0.35024175618411629 0.03090395537482463 0 -0.36610105650922109 0.026346306655102781 0 -0.36322388697573799 0.035965026950029073 0 -0.38055333495443072 0.017491504448059879 0 -0.35619545527155538 0.01335734732276773 0 -0.36610105650922109 0.026346306655102781 0 -0.3761672922991911 0.026867423316783549 0 -0.38055333495443072 0.017491504448059879 0 -0.36610105650922109 0.026346306655102781 0 -0.3761672922991911 0.026867423316783549 0 -0.36610105650922109 0.026346306655102781 0 -0.37169809957755168 0.034485684418351738 0 -0.38055333495443072 0.017491504448059879 0 -0.35619545527155538 0.01335734732276773 0 -0.36953825318317091 0.0010669767550764381 0 -0.38055333495443072 0.017491504448059879 0 -0.35619545527155538 0.01335734732276773 0 -0.34582286122008349 0.055521810561559207 0 -0.35708976740043807 0.042022464127772247 0 -0.37098875520736319 0.046066724174093923 0 -0.3550784664853574 0.060270910634679757 0 -0.34582286122008349 0.055521810561559207 0 -0.37098875520736319 0.046066724174093923 0 -0.33773362937706508 0.058109203286609047 0 -0.35024175618411629 0.03090395537482463 0 -0.34582286122008349 0.055521810561559207 0 -0.34582286122008349 0.055521810561559207 0 -0.37098875520736319 0.046066724174093923 0 -0.3550784664853574 0.060270910634679757 0 -0.34582286122008349 0.055521810561559207 0 -0.34467628773160258 0.068943552874552061 0 -0.33773362937706508 0.058109203286609047 0 -0.35024175618411629 0.03090395537482463 0 -0.35024175618411629 0.03090395537482463 0 -0.34582286122008349 0.055521810561559207 0 -0.35708976740043807 0.042022464127772247 0 -0.35024175618411629 0.03090395537482463 0 -0.35708976740043807 0.042022464127772247 0 -0.36322388697573799 0.035965026950029073 0 -0.35708976740043807 0.042022464127772247 0 -0.36322388697573799 0.035965026950029073 0 -0.37098875520736319 0.046066724174093923 0 -0.36610105650922109 0.026346306655102781 0 -0.36322388697573799 0.035965026950029073 0 -0.37169809957755168 0.034485684418351738 0 -0.36322388697573799 0.035965026950029073 0 -0.37169809957755168 0.034485684418351738 0 -0.37098875520736319 0.046066724174093923 0 -0.37169809957755168 0.034485684418351738 0 -0.37098875520736319 0.046066724174093923 0 -0.37098875520736319 0.046066724174093923 0 -0.36915247111533223 0.076046632334744568 0 -0.3550784664853574 0.060270910634679757 0 -0.37098875520736319 0.046066724174093923 0 -0.36217438487350639 0.062687430482174983 0 -0.38104900467073288 0.060457535846821377 0 -0.37098875520736319 0.046066724174093923 0 -0.36915247111533223 0.076046632334744568 0 -0.37098875520736319 0.046066724174093923 0 -0.36915247111533223 0.076046632334744568 0 -0.36217438487350639 0.062687430482174983 0 -0.36915247111533223 0.076046632334744568 0 -0.35522564997771461 0.068595874489344691 0 -0.35498362600728378 0.079148189328135263 0 -0.36915247111533223 0.076046632334744568 0 -0.36217438487350639 0.062687430482174983 0 -0.35522564997771461 0.068595874489344691 0 -0.3550784664853574 0.060270910634679757 0 -0.36217438487350639 0.062687430482174983 0 -0.35522564997771461 0.068595874489344691 0 -0.3550784664853574 0.060270910634679757 0 -0.35522564997771461 0.068595874489344691 0 -0.34467628773160258 0.068943552874552061 0 -0.35522564997771461 0.068595874489344691 0 -0.34467628773160258 0.068943552874552061 0 -0.35498362600728378 0.079148189328135263 0 -0.34467628773160258 0.068943552874552061 0 -0.35988750801114122 0.093858747330864661 0 -0.34467628773160258 0.068943552874552061 0 -0.34784970493908929 0.088094859620412871 0 -0.34048815855518499 0.088930376001817135 0 -0.34467628773160258 0.068943552874552061 0 -0.34784970493908929 0.088094859620412871 0 -0.35988750801114122 0.093858747330864661 0 -0.34467628773160258 0.068943552874552061 0 -0.35498362600728378 0.079148189328135263 0 -0.35988750801114122 0.093858747330864661 0 -0.34784970493908929 0.088094859620412871 0 -0.34634686545842858 0.1006467622744177 0 -0.34048815855518499 0.088930376001817135 0 -0.3795381468158272 0.097970650207401519 0 -0.36915247111533223 0.076046632334744568 0 -0.36731618702330532 0.1060265404953956 0 -0.36915247111533223 0.076046632334744568 0 -0.35498362600728378 0.079148189328135263 0 -0.35988750801114122 0.093858747330864661 0 -0.36915247111533223 0.076046632334744568 0 -0.36731618702330532 0.1060265404953956 0 -0.35988750801114122 0.093858747330864661 0 -0.36915247111533223 0.076046632334744568 0 -0.36731618702330532 0.1060265404953956 0 -0.36731618702330532 0.1060265404953956 0 -0.35988750801114122 0.093858747330864661 0 -0.35906373670833919 0.1135882452325854 0 -0.36731618702330532 0.1060265404953956 0 -0.35988750801114122 0.093858747330864661 0 -0.36731618702330532 0.1060265404953956 0 -0.36633164424306752 0.1221005795070398 0 -0.35906373670833919 0.1135882452325854 0 -0.35348317360806891 0.12938077574343321 0 -0.36633164424306752 0.1221005795070398 0 -0.35906373670833919 0.1135882452325854 0 -0.37804625210008819 0.123601833798883 0 -0.36731618702330532 0.1060265404953956 0 -0.36731618702330532 0.1060265404953956 0 -0.36633164424306752 0.1221005795070398 0 -0.37804625210008819 0.123601833798883 0 -0.36731618702330532 0.1060265404953956 0 -0.36633164424306752 0.1221005795070398 0 -0.35348317360806891 0.12938077574343321 0 -0.34806126244690111 0.1156444249085414 0 -0.35906373670833919 0.1135882452325854 0 -0.35988750801114122 0.093858747330864661 0 -0.34806126244690111 0.1156444249085414 0 -0.34634686545842858 0.1006467622744177 0 -0.35988750801114122 0.093858747330864661 0 -0.34806126244690111 0.1156444249085414 0 -0.35988750801114122 0.093858747330864661 0 -0.34806126244690111 0.1156444249085414 0 -0.35906373670833919 0.1135882452325854 0 -0.34784970493908929 0.088094859620412871 0 -0.35988750801114122 0.093858747330864661 0 -0.34634686545842858 0.1006467622744177 0 -0.34634686545842858 0.1006467622744177 0 -0.33571579606724672 0.096074590957376832 0 -0.34048815855518499 0.088930376001817135 0 -0.34806126244690111 0.1156444249085414 0 -0.34634686545842858 0.1006467622744177 0 -0.33080265768535932 0.1094067743548789 0 -0.33571579606724672 0.096074590957376832 0 -0.33080265768535932 0.1094067743548789 0 -0.32522550257001381 0.085314451198393579 0 -0.34634686545842858 0.1006467622744177 0 -0.33571579606724672 0.096074590957376832 0 -0.33080265768535932 0.1094067743548789 0 -0.33623501688266189 0.13743010248621851 0 -0.34806126244690111 0.1156444249085414 0 -0.33080265768535932 0.1094067743548789 0 -0.33623501688266189 0.13743010248621851 0 -0.33080265768535932 0.1094067743548789 0 -0.3127173757629626 0.1125196991101781 0 -0.3127173757629626 0.1125196991101781 0 -0.32522550257001381 0.085314451198393579 0 -0.33080265768535932 0.1094067743548789 0 -0.3127173757629626 0.1125196991101781 0 -0.32522550257001381 0.085314451198393579 0 -0.30838091471111689 0.071929158449262412 0 -0.32522550257001381 0.085314451198393579 0 -0.32407031919003448 0.067960545172723347 0 -0.30838091471111689 0.071929158449262412 0 -0.31614389253053521 0.058539768217305201 0 -0.32407031919003448 0.067960545172723347 0 -0.33773362937706508 0.058109203286609047 0 -0.32522550257001381 0.085314451198393579 0 -0.32407031919003448 0.067960545172723347 0 -0.33773362937706508 0.058109203286609047 0 -0.32522550257001381 0.085314451198393579 0 -0.33773362937706508 0.058109203286609047 0 -0.34467628773160258 0.068943552874552061 0 -0.32522550257001381 0.085314451198393579 0 -0.34467628773160258 0.068943552874552061 0 -0.32522550257001381 0.085314451198393579 0 -0.34048815855518499 0.088930376001817135 0 -0.33571579606724672 0.096074590957376832 0 -0.32522550257001381 0.085314451198393579 0 -0.34048815855518499 0.088930376001817135 0 -0.39587414850767771 0.48209350728525308 0 -0.4246095660297679 0.49550093226822961 0 -0.3534751275836413 0.49999999999999878 0 -0.4246095660297679 0.49550093226822961 0 -0.43460803688680738 0.5 0 -0.3534751275836413 0.49999999999999878 0 -0.39587414850767771 0.48209350728525308 0 -0.37606570410381668 0.47366176847889557 0 -0.3534751275836413 0.49999999999999878 0 -0.39587414850767771 0.48209350728525308 0 -0.41273422942354338 0.48373000849199221 0 -0.40849540009959551 0.47651198387563498 0 -0.39587414850767771 0.48209350728525308 0 -0.3996498817311348 0.46074658372735239 0 -0.40849540009959551 0.47651198387563498 0 -0.39587414850767771 0.48209350728525308 0 -0.37606570410381668 0.47366176847889557 0 -0.3996498817311348 0.46074658372735239 0 -0.37722236811798338 0.46009136062209011 0 -0.38224190079936271 0.45006820067963232 0 -0.3996498817311348 0.46074658372735239 0 -0.37606570410381668 0.47366176847889557 0 -0.37722236811798338 0.46009136062209011 0 -0.3996498817311348 0.46074658372735239 0 -0.37722236811798338 0.46009136062209011 0 -0.38224190079936271 0.45006820067963232 0 -0.36982508649130652 0.45078168270744129 0 -0.38224190079936271 0.45006820067963232 0 -0.38478163890223388 0.44195167273689873 0 -0.37717856875035488 0.43646572130173161 0 -0.38224190079936271 0.45006820067963232 0 -0.38478163890223388 0.44195167273689873 0 -0.392783844087498 0.44712937912087741 0 -0.38478163890223388 0.44195167273689873 0 -0.392783844087498 0.44712937912087741 0 -0.38545621583256351 0.43256317926760163 0 -0.40475265770424662 0.44273224841968578 0 -0.38545621583256351 0.43256317926760163 0 -0.40475265770424662 0.44273224841968578 0 -0.392783844087498 0.44712937912087741 0 -0.38545621583256351 0.43256317926760163 0 -0.40475265770424662 0.44273224841968578 0 -0.392783844087498 0.44712937912087741 0 -0.3996498817311348 0.46074658372735239 0 -0.38224190079936271 0.45006820067963232 0 -0.392783844087498 0.44712937912087741 0 -0.3996498817311348 0.46074658372735239 0 -0.40475265770424662 0.44273224841968578 0 -0.3996498817311348 0.46074658372735239 0 -0.41260118742847002 0.4591617697880373 0 -0.38224190079936271 0.45006820067963232 0 -0.3996498817311348 0.46074658372735239 0 -0.3996498817311348 0.46074658372735239 0 -0.41705786266290701 0.47142496677507267 0 -0.3996498817311348 0.46074658372735239 0 -0.41260118742847002 0.4591617697880373 0 -0.41705786266290701 0.47142496677507267 0 -0.41260118742847002 0.4591617697880373 0 -0.42404909957592901 0.45290131757177132 0 -0.42433233267478132 0.46236191720032888 0 -0.41260118742847002 0.4591617697880373 0 -0.42433233267478132 0.46236191720032888 0 -0.41705786266290701 0.47142496677507267 0 -0.40475265770424662 0.44273224841968578 0 -0.42169110792396192 0.44280865114861362 0 -0.42404909957592901 0.45290131757177132 0 -0.40475265770424662 0.44273224841968578 0 -0.42404909957592901 0.45290131757177132 0 -0.40475265770424662 0.44273224841968578 0 -0.41260118742847002 0.4591617697880373 0 -0.42404909957592901 0.45290131757177132 0 -0.40475265770424662 0.44273224841968578 0 -0.42169110792396192 0.44280865114861362 0 -0.42167403783228991 0.43387995240292998 0 -0.42169110792396192 0.44280865114861362 0 -0.43256859531976771 0.44130543801670707 0 -0.42167403783228991 0.43387995240292998 0 -0.42169110792396192 0.44280865114861362 0 -0.42404909957592901 0.45290131757177132 0 -0.43256859531976771 0.44130543801670707 0 -0.42404909957592901 0.45290131757177132 0 -0.43256859531976771 0.44130543801670707 0 -0.43709915379447778 0.45371404382176528 0 -0.43709915379447778 0.45371404382176528 0 -0.43085435991212279 0.47460748804499753 0 -0.42433233267478132 0.46236191720032888 0 -0.43709915379447778 0.45371404382176528 0 -0.43085435991212279 0.47460748804499753 0 -0.42404909957592901 0.45290131757177132 0 -0.42433233267478132 0.46236191720032888 0 -0.43709915379447778 0.45371404382176528 0 -0.43085435991212279 0.47460748804499753 0 -0.42093848738124823 0.48048492800007481 0 -0.4246095660297679 0.49550093226822961 0 -0.43085435991212279 0.47460748804499753 0 -0.41705786266290701 0.47142496677507267 0 -0.42093848738124823 0.48048492800007481 0 -0.42433233267478132 0.46236191720032888 0 -0.43085435991212279 0.47460748804499753 0 -0.41705786266290701 0.47142496677507267 0 -0.41705786266290701 0.47142496677507267 0 -0.42093848738124823 0.48048492800007481 0 -0.40849540009959551 0.47651198387563498 0 -0.3996498817311348 0.46074658372735239 0 -0.41705786266290701 0.47142496677507267 0 -0.40849540009959551 0.47651198387563498 0 -0.42093848738124823 0.48048492800007481 0 -0.41273422942354338 0.48373000849199221 0 -0.40849540009959551 0.47651198387563498 0 -0.39587414850767771 0.48209350728525308 0 -0.41273422942354338 0.48373000849199221 0 -0.4246095660297679 0.49550093226822961 0 -0.42093848738124823 0.48048492800007481 0 -0.41273422942354338 0.48373000849199221 0 -0.4246095660297679 0.49550093226822961 0 -0.43085435991212279 0.47460748804499753 0 -0.4246095660297679 0.49550093226822961 0 -0.44359231273650979 0.48715639585560111 0 -0.4246095660297679 0.49550093226822961 0 -0.43460803688680738 0.5 0 -0.44359231273650979 0.48715639585560111 0 -0.43085435991212279 0.47460748804499753 0 -0.4246095660297679 0.49550093226822961 0 -0.43460803688680738 0.5 0 -0.44359231273650979 0.48715639585560111 0 -0.47179615636825523 0.48406193358053851 0 -0.43460803688680738 0.5 0 -0.47179615636825523 0.48406193358053851 0 -0.5 0.5 0 -0.43085435991212279 0.47460748804499753 0 -0.44359231273650979 0.48715639585560111 0 -0.44904327903594038 0.47589847328777579 0 -0.43085435991212279 0.47460748804499753 0 -0.44904327903594038 0.47589847328777579 0 -0.44503874418950079 0.4651511422224876 0 -0.44904327903594038 0.47589847328777579 0 -0.45565785419169641 0.46746222216158062 0 -0.44503874418950079 0.4651511422224876 0 -0.44904327903594038 0.47589847328777579 0 -0.47179615636825523 0.48406193358053851 0 -0.45565785419169641 0.46746222216158062 0 -0.47179615636825523 0.48406193358053851 0 -0.46998256701841551 0.46548133535631558 0 -0.45565785419169641 0.46746222216158062 0 -0.44359231273650979 0.48715639585560111 0 -0.44904327903594038 0.47589847328777579 0 -0.47179615636825523 0.48406193358053851 0 -0.44359231273650979 0.48715639585560111 0 -0.47179615636825523 0.48406193358053851 0 -0.47179615636825523 0.48406193358053851 0 -0.46998256701841551 0.46548133535631558 0 -0.48427253490423072 0.46769902061928392 0 -0.47179615636825523 0.48406193358053851 0 -0.50000000000000056 0.48096747130547601 0 -0.47179615636825523 0.48406193358053851 0 -0.50000000000000056 0.48096747130547601 0 -0.48427253490423072 0.46769902061928392 0 -0.47179615636825523 0.48406193358053851 0 -0.50000000000000056 0.48096747130547601 0 -0.5 0.5 0 -0.5 0.45281384566077187 0 -0.47380771698999419 0.44885237990829419 0 -0.48161906589270942 0.43147248004860927 0 -0.50000000000000056 0.48096747130547601 0 -0.5 0.45281384566077187 0 -0.48427253490423072 0.46769902061928392 0 -0.5 0.45281384566077187 0 -0.48427253490423072 0.46769902061928392 0 -0.47380771698999419 0.44885237990829419 0 -0.46998256701841551 0.46548133535631558 0 -0.48427253490423072 0.46769902061928392 0 -0.47380771698999419 0.44885237990829419 0 -0.47380771698999419 0.44885237990829419 0 -0.46901671851684951 0.43290530803738753 0 -0.48161906589270942 0.43147248004860927 0 -0.47380771698999419 0.44885237990829419 0 -0.46113466569365003 0.44082862444857429 0 -0.46901671851684951 0.43290530803738753 0 -0.47380771698999419 0.44885237990829419 0 -0.46113466569365003 0.44082862444857429 0 -0.45340059012245792 0.45354689150948169 0 -0.46113466569365003 0.44082862444857429 0 -0.45340059012245792 0.45354689150948169 0 -0.45211506636646381 0.44377325232024301 0 -0.46113466569365003 0.44082862444857429 0 -0.45211506636646381 0.44377325232024301 0 -0.45440318380967248 0.43695247064246079 0 -0.46998256701841551 0.46548133535631558 0 -0.47380771698999419 0.44885237990829419 0 -0.45340059012245792 0.45354689150948169 0 -0.46998256701841551 0.46548133535631558 0 -0.45340059012245792 0.45354689150948169 0 -0.45565785419169641 0.46746222216158062 0 -0.43709915379447778 0.45371404382176528 0 -0.45340059012245792 0.45354689150948169 0 -0.44503874418950079 0.4651511422224876 0 -0.43709915379447778 0.45371404382176528 0 -0.43085435991212279 0.47460748804499753 0 -0.44503874418950079 0.4651511422224876 0 -0.45340059012245792 0.45354689150948169 0 -0.45565785419169641 0.46746222216158062 0 -0.44503874418950079 0.4651511422224876 0 -0.43709915379447778 0.45371404382176528 0 -0.44334394767683138 0.4328205995985327 0 -0.43709915379447778 0.45371404382176528 0 -0.45340059012245792 0.45354689150948169 0 -0.44542372487108189 0.44604276775770552 0 -0.43709915379447778 0.45371404382176528 0 -0.44542372487108189 0.44604276775770552 0 -0.44334394767683138 0.4328205995985327 0 -0.43256859531976771 0.44130543801670707 0 -0.43709915379447778 0.45371404382176528 0 -0.44334394767683138 0.4328205995985327 0 -0.4470732206024291 0.43840322825959821 0 -0.45211506636646381 0.44377325232024301 0 -0.44542372487108189 0.44604276775770552 0 -0.4470732206024291 0.43840322825959821 0 -0.45211506636646381 0.44377325232024301 0 -0.45440318380967248 0.43695247064246079 0 -0.45340059012245792 0.45354689150948169 0 -0.45211506636646381 0.44377325232024301 0 -0.44542372487108189 0.44604276775770552 0 -0.4470732206024291 0.43840322825959821 0 -0.44542372487108189 0.44604276775770552 0 -0.44334394767683138 0.4328205995985327 0 -0.44334394767683138 0.4328205995985327 0 -0.44960658442649709 0.41186745781603251 0 -0.44334394767683138 0.4328205995985327 0 -0.4528990152817633 0.4239547785911425 0 -0.44960658442649709 0.41186745781603251 0 -0.4470732206024291 0.43840322825959821 0 -0.44334394767683138 0.4328205995985327 0 -0.44334394767683138 0.4328205995985327 0 -0.4528990152817633 0.4239547785911425 0 -0.45198936895215391 0.43108225617267493 0 -0.4470732206024291 0.43840322825959821 0 -0.44334394767683138 0.4328205995985327 0 -0.45198936895215391 0.43108225617267493 0 -0.4470732206024291 0.43840322825959821 0 -0.45198936895215391 0.43108225617267493 0 -0.45440318380967248 0.43695247064246079 0 -0.44809933733896912 0.40302973668424841 0 -0.42934858052233738 0.41186988363927901 0 -0.44960658442649709 0.41186745781603251 0 -0.44809933733896912 0.40302973668424841 0 -0.42934858052233738 0.41186988363927901 0 -0.44334394767683138 0.4328205995985327 0 -0.44960658442649709 0.41186745781603251 0 -0.42934858052233738 0.41186988363927901 0 -0.46010826796430981 0.41545055030207811 0 -0.47159940222510771 0.4212617849999718 0 -0.47440121776686051 0.40458844431137547 0 -0.44960658442649709 0.41186745781603251 0 -0.46010826796430981 0.41545055030207811 0 -0.46160428817681792 0.40351347489606881 0 -0.4528990152817633 0.4239547785911425 0 -0.44960658442649709 0.41186745781603251 0 -0.46010826796430981 0.41545055030207811 0 -0.46010826796430981 0.41545055030207811 0 -0.45976472858280099 0.42859239857736109 0 -0.47159940222510771 0.4212617849999718 0 -0.46010826796430981 0.41545055030207811 0 -0.47440121776686051 0.40458844431137547 0 -0.46160428817681792 0.40351347489606881 0 -0.46113466569365003 0.44082862444857429 0 -0.45440318380967248 0.43695247064246079 0 -0.45976472858280099 0.42859239857736109 0 -0.45198936895215391 0.43108225617267493 0 -0.45440318380967248 0.43695247064246079 0 -0.45976472858280099 0.42859239857736109 0 -0.4528990152817633 0.4239547785911425 0 -0.46010826796430981 0.41545055030207811 0 -0.45976472858280099 0.42859239857736109 0 -0.4528990152817633 0.4239547785911425 0 -0.45198936895215391 0.43108225617267493 0 -0.45976472858280099 0.42859239857736109 0 -0.45976472858280099 0.42859239857736109 0 -0.46901671851684951 0.43290530803738753 0 -0.47159940222510771 0.4212617849999718 0 -0.46113466569365003 0.44082862444857429 0 -0.45976472858280099 0.42859239857736109 0 -0.46901671851684951 0.43290530803738753 0 -0.48161906589270942 0.43147248004860927 0 -0.47159940222510771 0.4212617849999718 0 -0.48616990929982362 0.41534658070683012 0 -0.46901671851684951 0.43290530803738753 0 -0.48161906589270942 0.43147248004860927 0 -0.47159940222510771 0.4212617849999718 0 -0.47159940222510771 0.4212617849999718 0 -0.48616990929982362 0.41534658070683012 0 -0.47440121776686051 0.40458844431137547 0 -0.48616990929982362 0.41534658070683012 0 -0.5 0.42466022001606779 0 -0.5 0.39650659437136399 0 -0.5 0.45281384566077187 0 -0.48161906589270942 0.43147248004860927 0 -0.5 0.42466022001606779 0 -0.48161906589270942 0.43147248004860927 0 -0.48616990929982362 0.41534658070683012 0 -0.5 0.42466022001606779 0 -0.5 0.39650659437136399 0 -0.47718790589269738 0.38586032735699782 0 -0.49999999999999822 0.36835296872666018 0 -0.48616990929982362 0.41534658070683012 0 -0.5 0.39650659437136399 0 -0.47440121776686051 0.40458844431137547 0 -0.5 0.39650659437136399 0 -0.47440121776686051 0.40458844431137547 0 -0.47718790589269738 0.38586032735699782 0 -0.47440121776686051 0.40458844431137547 0 -0.47718790589269738 0.38586032735699782 0 -0.46621519599951411 0.39275491153772218 0 -0.47718790589269738 0.38586032735699782 0 -0.46201334698503321 0.37889799509063737 0 -0.47355516811839271 0.36425402420609448 0 -0.46201334698503321 0.37889799509063737 0 -0.45586922117616152 0.39091431603353188 0 -0.44557880415563422 0.38038898027784729 0 -0.46201334698503321 0.37889799509063737 0 -0.46621519599951411 0.39275491153772218 0 -0.45586922117616152 0.39091431603353188 0 -0.47718790589269738 0.38586032735699782 0 -0.46201334698503321 0.37889799509063737 0 -0.46621519599951411 0.39275491153772218 0 -0.44960658442649709 0.41186745781603251 0 -0.46160428817681792 0.40351347489606881 0 -0.45586922117616152 0.39091431603353188 0 -0.47440121776686051 0.40458844431137547 0 -0.46160428817681792 0.40351347489606881 0 -0.46621519599951411 0.39275491153772218 0 -0.46160428817681792 0.40351347489606881 0 -0.46621519599951411 0.39275491153772218 0 -0.45586922117616152 0.39091431603353188 0 -0.44960658442649709 0.41186745781603251 0 -0.45586922117616152 0.39091431603353188 0 -0.44809933733896912 0.40302973668424841 0 -0.44960658442649709 0.41186745781603251 0 -0.45586922117616152 0.39091431603353188 0 -0.45586922117616152 0.39091431603353188 0 -0.44809933733896912 0.40302973668424841 0 -0.44398421454236431 0.39220301952157771 0 -0.44809933733896912 0.40302973668424841 0 -0.44398421454236431 0.39220301952157771 0 -0.43488536825659008 0.39896128102100442 0 -0.45586922117616152 0.39091431603353188 0 -0.44398421454236431 0.39220301952157771 0 -0.44557880415563422 0.38038898027784729 0 -0.44398421454236431 0.39220301952157771 0 -0.44557880415563422 0.38038898027784729 0 -0.43334897886905838 0.38707198217106259 0 -0.44557880415563422 0.38038898027784729 0 -0.43334897886905838 0.38707198217106259 0 -0.42810100534158663 0.37398848971860821 0 -0.43334897886905838 0.38707198217106259 0 -0.41610538552338888 0.39204515065776818 0 -0.42810100534158663 0.37398848971860821 0 -0.41610538552338888 0.39204515065776818 0 -0.40286219052443828 0.37222041767625891 0 -0.42810100534158663 0.37398848971860821 0 -0.41610538552338888 0.39204515065776818 0 -0.40286219052443828 0.37222041767625891 0 -0.41610538552338888 0.39204515065776818 0 -0.40036473353264851 0.39541167524765902 0 -0.40286219052443828 0.37222041767625891 0 -0.41610538552338888 0.39204515065776818 0 -0.40740239817745089 0.4222165314534414 0 -0.40036473353264851 0.39541167524765902 0 -0.43334897886905838 0.38707198217106259 0 -0.41610538552338888 0.39204515065776818 0 -0.43488536825659008 0.39896128102100442 0 -0.41610538552338888 0.39204515065776818 0 -0.42934858052233738 0.41186988363927901 0 -0.41610538552338888 0.39204515065776818 0 -0.43488536825659008 0.39896128102100442 0 -0.42934858052233738 0.41186988363927901 0 -0.44809933733896912 0.40302973668424841 0 -0.43488536825659008 0.39896128102100442 0 -0.42934858052233738 0.41186988363927901 0 -0.44398421454236431 0.39220301952157771 0 -0.43334897886905838 0.38707198217106259 0 -0.43488536825659008 0.39896128102100442 0 -0.44334394767683138 0.4328205995985327 0 -0.42934858052233738 0.41186988363927901 0 -0.4324758617574791 0.43030488960998009 0 -0.42934858052233738 0.41186988363927901 0 -0.4324758617574791 0.43030488960998009 0 -0.42386178258839008 0.42400698186878177 0 -0.44334394767683138 0.4328205995985327 0 -0.42934858052233738 0.41186988363927901 0 -0.43256859531976771 0.44130543801670707 0 -0.44334394767683138 0.4328205995985327 0 -0.4324758617574791 0.43030488960998009 0 -0.4324758617574791 0.43030488960998009 0 -0.42386178258839008 0.42400698186878177 0 -0.42167403783228991 0.43387995240292998 0 -0.43256859531976771 0.44130543801670707 0 -0.4324758617574791 0.43030488960998009 0 -0.42167403783228991 0.43387995240292998 0 -0.42386178258839008 0.42400698186878177 0 -0.40740239817745089 0.4222165314534414 0 -0.42167403783228991 0.43387995240292998 0 -0.40475265770424662 0.44273224841968578 0 -0.40740239817745089 0.4222165314534414 0 -0.42167403783228991 0.43387995240292998 0 -0.42934858052233738 0.41186988363927901 0 -0.40740239817745089 0.4222165314534414 0 -0.42934858052233738 0.41186988363927901 0 -0.42386178258839008 0.42400698186878177 0 -0.40740239817745089 0.4222165314534414 0 -0.41610538552338888 0.39204515065776818 0 -0.42934858052233738 0.41186988363927901 0 -0.40740239817745089 0.4222165314534414 0 -0.40740239817745089 0.4222165314534414 0 -0.39100452383692991 0.40648545672669101 0 -0.3827523434658453 0.41826117133637652 0 -0.40740239817745089 0.4222165314534414 0 -0.39100452383692991 0.40648545672669101 0 -0.40036473353264851 0.39541167524765902 0 -0.40740239817745089 0.4222165314534414 0 -0.38545621583256351 0.43256317926760163 0 -0.40740239817745089 0.4222165314534414 0 -0.38545621583256351 0.43256317926760163 0 -0.3827523434658453 0.41826117133637652 0 -0.40475265770424662 0.44273224841968578 0 -0.40740239817745089 0.4222165314534414 0 -0.38545621583256351 0.43256317926760163 0 -0.38545621583256351 0.43256317926760163 0 -0.3827523434658453 0.41826117133637652 0 -0.36785192000822192 0.42328585742754588 0 -0.38545621583256351 0.43256317926760163 0 -0.36785192000822192 0.42328585742754588 0 -0.38545621583256351 0.43256317926760163 0 -0.37717856875035488 0.43646572130173161 0 -0.36785192000822192 0.42328585742754588 0 -0.38478163890223388 0.44195167273689873 0 -0.38545621583256351 0.43256317926760163 0 -0.37717856875035488 0.43646572130173161 0 -0.38545621583256351 0.43256317926760163 0 -0.37717856875035488 0.43646572130173161 0 -0.39100452383692991 0.40648545672669101 0 -0.3827523434658453 0.41826117133637652 0 -0.3798144567514633 0.40772155113995728 0 -0.3827523434658453 0.41826117133637652 0 -0.3798144567514633 0.40772155113995728 0 -0.36984470262962321 0.41265242782660189 0 -0.39100452383692991 0.40648545672669101 0 -0.3798144567514633 0.40772155113995728 0 -0.3867137524410672 0.38688217771584499 0 -0.3798144567514633 0.40772155113995728 0 -0.3867137524410672 0.38688217771584499 0 -0.3705653143576963 0.40154393775543129 0 -0.3867137524410672 0.38688217771584499 0 -0.3705653143576963 0.40154393775543129 0 -0.3867137524410672 0.38688217771584499 0 -0.40036473353264851 0.39541167524765902 0 -0.40286219052443828 0.37222041767625891 0 -0.3867137524410672 0.38688217771584499 0 -0.40286219052443828 0.37222041767625891 0 -0.3888982630442025 0.36590048581888218 0 -0.3867137524410672 0.38688217771584499 0 -0.40286219052443828 0.37222041767625891 0 -0.39100452383692991 0.40648545672669101 0 -0.3867137524410672 0.38688217771584499 0 -0.40036473353264851 0.39541167524765902 0 -0.40452535483654473 0.35355441468790599 0 -0.40513774515659717 0.3517922532406651 0 -0.38838520531790771 0.35105269421084939 0 -0.40513774515659717 0.3517922532406651 0 -0.38838520531790771 0.35105269421084939 0 -0.40096674788558628 0.34226624247182402 0 -0.40452535483654473 0.35355441468790599 0 -0.38838520531790771 0.35105269421084939 0 -0.39638885933713669 0.35885594300994089 0 -0.40452535483654473 0.35355441468790599 0 -0.38838520531790771 0.35105269421084939 0 -0.39638885933713669 0.35885594300994089 0 -0.3888982630442025 0.36590048581888218 0 -0.38838520531790771 0.35105269421084939 0 -0.39638885933713669 0.35885594300994089 0 -0.40452535483654473 0.35355441468790599 0 -0.40400165056791348 0.36112635213978639 0 -0.40400165056791348 0.36112635213978639 0 -0.39915538488354912 0.36667142198066771 0 -0.40286219052443828 0.37222041767625891 0 -0.39638885933713669 0.35885594300994089 0 -0.40400165056791348 0.36112635213978639 0 -0.39915538488354912 0.36667142198066771 0 -0.39915538488354912 0.36667142198066771 0 -0.40286219052443828 0.37222041767625891 0 -0.39915538488354912 0.36667142198066771 0 -0.40286219052443828 0.37222041767625891 0 -0.3888982630442025 0.36590048581888218 0 -0.39638885933713669 0.35885594300994089 0 -0.39915538488354912 0.36667142198066771 0 -0.3888982630442025 0.36590048581888218 0 -0.3867137524410672 0.38688217771584499 0 -0.3888982630442025 0.36590048581888218 0 -0.37519100471246991 0.3709854683288385 0 -0.3888982630442025 0.36590048581888218 0 -0.37519100471246991 0.3709854683288385 0 -0.37672549974694008 0.35622492463845878 0 -0.37672549974694008 0.35622492463845878 0 -0.38838520531790771 0.35105269421084939 0 -0.37913388308317869 0.33980033822586803 0 -0.3888982630442025 0.36590048581888218 0 -0.37672549974694008 0.35622492463845878 0 -0.38838520531790771 0.35105269421084939 0 -0.38838520531790771 0.35105269421084939 0 -0.37913388308317869 0.33980033822586803 0 -0.39362240827528772 0.33490398907415808 0 -0.3788145725477623 0.32633067759603118 0 -0.39362240827528772 0.33490398907415808 0 -0.37913388308317869 0.33980033822586803 0 -0.3788145725477623 0.32633067759603118 0 -0.39362240827528772 0.33490398907415808 0 -0.3788145725477623 0.32633067759603118 0 -0.38876715518139049 0.31878710207299171 0 -0.39362240827528772 0.33490398907415808 0 -0.37578149950171208 0.31311525499370502 0 -0.3788145725477623 0.32633067759603118 0 -0.38876715518139049 0.31878710207299171 0 -0.38876715518139049 0.31878710207299171 0 -0.40240558776230201 0.32701863013441079 0 -0.39362240827528772 0.33490398907415808 0 -0.38876715518139049 0.31878710207299171 0 -0.40240558776230201 0.32701863013441079 0 -0.40457359345530219 0.31146894366726913 0 -0.40513774515659717 0.3517922532406651 0 -0.40096674788558628 0.34226624247182402 0 -0.40932412850863459 0.33501089179464472 0 -0.38838520531790771 0.35105269421084939 0 -0.39362240827528772 0.33490398907415808 0 -0.40096674788558628 0.34226624247182402 0 -0.40240558776230201 0.32701863013441079 0 -0.40096674788558628 0.34226624247182402 0 -0.40932412850863459 0.33501089179464472 0 -0.40240558776230201 0.32701863013441079 0 -0.39362240827528772 0.33490398907415808 0 -0.40096674788558628 0.34226624247182402 0 -0.42472931721170898 0.33130129278301362 0 -0.42403274106079941 0.34432604134370942 0 -0.41452766950518899 0.34800263451576507 0 -0.40513774515659717 0.3517922532406651 0 -0.42472931721170898 0.33130129278301362 0 -0.41452766950518899 0.34800263451576507 0 -0.40513774515659717 0.3517922532406651 0 -0.40932412850863459 0.33501089179464472 0 -0.42472931721170898 0.33130129278301362 0 -0.40513774515659717 0.3517922532406651 0 -0.42472931721170898 0.33130129278301362 0 -0.40240558776230201 0.32701863013441079 0 -0.40932412850863459 0.33501089179464472 0 -0.41455490886051499 0.32557050574830021 0 -0.40932412850863459 0.33501089179464472 0 -0.41455490886051499 0.32557050574830021 0 -0.42472931721170898 0.33130129278301362 0 -0.41455490886051499 0.32557050574830021 0 -0.43219845517123362 0.32348926982994008 0 -0.40457359345530219 0.31146894366726913 0 -0.43219845517123362 0.32348926982994008 0 -0.40457359345530219 0.31146894366726913 0 -0.42790797361430749 0.31450024276589378 0 -0.43219845517123362 0.32348926982994008 0 -0.40457359345530219 0.31146894366726913 0 -0.40240558776230201 0.32701863013441079 0 -0.41455490886051499 0.32557050574830021 0 -0.40457359345530219 0.31146894366726913 0 -0.42790797361430749 0.31450024276589378 0 -0.44432088926682312 0.31081033232536431 0 -0.41455490886051499 0.32557050574830021 0 -0.43219845517123362 0.32348926982994008 0 -0.42472931721170898 0.33130129278301362 0 -0.42790797361430749 0.31450024276589378 0 -0.43219845517123362 0.32348926982994008 0 -0.44432088926682312 0.31081033232536431 0 -0.43219845517123362 0.32348926982994008 0 -0.42472931721170898 0.33130129278301362 0 -0.43219845517123362 0.32348926982994008 0 -0.42472931721170898 0.33130129278301362 0 -0.43861783033176682 0.3281141633673893 0 -0.42472931721170898 0.33130129278301362 0 -0.43620847317111799 0.34194410291109811 0 -0.42403274106079941 0.34432604134370942 0 -0.42472931721170898 0.33130129278301362 0 -0.43620847317111799 0.34194410291109811 0 -0.43861783033176682 0.3281141633673893 0 -0.4206655043551818 0.35605613516496148 0 -0.4471103362367872 0.36015507968552862 0 -0.43620847317111799 0.34194410291109811 0 -0.4206655043551818 0.35605613516496148 0 -0.4471103362367872 0.36015507968552862 0 -0.43620847317111799 0.34194410291109811 0 -0.42403274106079941 0.34432604134370942 0 -0.4206655043551818 0.35605613516496148 0 -0.43620847317111799 0.34194410291109811 0 -0.4206655043551818 0.35605613516496148 0 -0.40452535483654473 0.35355441468790599 0 -0.4206655043551818 0.35605613516496148 0 -0.42403274106079941 0.34432604134370942 0 -0.41452766950518899 0.34800263451576507 0 -0.4206655043551818 0.35605613516496148 0 -0.40452535483654473 0.35355441468790599 0 -0.41452766950518899 0.34800263451576507 0 -0.4206655043551818 0.35605613516496148 0 -0.40452535483654473 0.35355441468790599 0 -0.40400165056791348 0.36112635213978639 0 -0.4206655043551818 0.35605613516496148 0 -0.40452535483654473 0.35355441468790599 0 -0.40513774515659717 0.3517922532406651 0 -0.41452766950518899 0.34800263451576507 0 -0.40286219052443828 0.37222041767625891 0 -0.4206655043551818 0.35605613516496148 0 -0.40400165056791348 0.36112635213978639 0 -0.40286219052443828 0.37222041767625891 0 -0.4206655043551818 0.35605613516496148 0 -0.40286219052443828 0.37222041767625891 0 -0.4206655043551818 0.35605613516496148 0 -0.42810100534158663 0.37398848971860821 0 -0.4206655043551818 0.35605613516496148 0 -0.42810100534158663 0.37398848971860821 0 -0.4471103362367872 0.36015507968552862 0 -0.44557880415563422 0.38038898027784729 0 -0.42810100534158663 0.37398848971860821 0 -0.4471103362367872 0.36015507968552862 0 -0.46201334698503321 0.37889799509063737 0 -0.44557880415563422 0.38038898027784729 0 -0.4471103362367872 0.36015507968552862 0 -0.43620847317111799 0.34194410291109811 0 -0.4471103362367872 0.36015507968552862 0 -0.45970474012504142 0.34492472233680482 0 -0.4471103362367872 0.36015507968552862 0 -0.45970474012504142 0.34492472233680482 0 -0.47355516811839271 0.36425402420609448 0 -0.46201334698503321 0.37889799509063737 0 -0.4471103362367872 0.36015507968552862 0 -0.47355516811839271 0.36425402420609448 0 -0.4471103362367872 0.36015507968552862 0 -0.47355516811839271 0.36425402420609448 0 -0.47718790589269738 0.38586032735699782 0 -0.47355516811839271 0.36425402420609448 0 -0.49999999999999822 0.36835296872666018 0 -0.45970474012504142 0.34492472233680482 0 -0.47355516811839271 0.36425402420609448 0 -0.47341281624267928 0.34679689426055099 0 -0.47355516811839271 0.36425402420609448 0 -0.47341281624267928 0.34679689426055099 0 -0.48679711890909522 0.34714343418128107 0 -0.47355516811839271 0.36425402420609448 0 -0.48679711890909522 0.34714343418128107 0 -0.50000000000000144 0.36342147204453917 0 -0.48679711890909522 0.34714343418128107 0 -0.50000000000000144 0.36342147204453917 0 -0.5 0.34171187956590382 0 -0.48679711890909522 0.34714343418128107 0 -0.50000000000000144 0.36342147204453917 0 -0.47355516811839271 0.36425402420609448 0 -0.49999999999999822 0.36835296872666018 0 -0.47355516811839271 0.36425402420609448 0 -0.50000000000000144 0.36342147204453917 0 -0.49999999999999822 0.36835296872666018 0 -0.48443722932495759 0.31687542255032519 0 -0.5 0.32000228708726852 0 -0.48883788148227758 0.33122239323792391 0 -0.5 0.32000228708726852 0 -0.5 0.34171187956590382 0 -0.48883788148227758 0.33122239323792391 0 -0.48679711890909522 0.34714343418128107 0 -0.5 0.34171187956590382 0 -0.48883788148227758 0.33122239323792391 0 -0.48679711890909522 0.34714343418128107 0 -0.47359423781818799 0.3308653963180237 0 -0.45970474012504142 0.34492472233680482 0 -0.47341281624267928 0.34679689426055099 0 -0.47359423781818799 0.3308653963180237 0 -0.48679711890909522 0.34714343418128107 0 -0.48883788148227758 0.33122239323792391 0 -0.47359423781818799 0.3308653963180237 0 -0.47341281624267928 0.34679689426055099 0 -0.48679711890909522 0.34714343418128107 0 -0.47359423781818799 0.3308653963180237 0 -0.47359423781818799 0.3308653963180237 0 -0.47264581712595938 0.31671992269752891 0 -0.46039135672728082 0.31458735845476632 0 -0.48443722932495759 0.31687542255032519 0 -0.48883788148227758 0.33122239323792391 0 -0.47359423781818799 0.3308653963180237 0 -0.48443722932495759 0.31687542255032519 0 -0.47359423781818799 0.3308653963180237 0 -0.47264581712595938 0.31671992269752891 0 -0.48443722932495759 0.31687542255032519 0 -0.47264581712595938 0.31671992269752891 0 -0.47216044463341161 0.30455151346700049 0 -0.47359423781818799 0.3308653963180237 0 -0.46039135672728082 0.31458735845476632 0 -0.47359423781818799 0.3308653963180237 0 -0.46039135672728082 0.31458735845476632 0 -0.4608992614356977 0.32901526121317798 0 -0.46039135672728082 0.31458735845476632 0 -0.4608992614356977 0.32901526121317798 0 -0.44921264167741631 0.32840092545007737 0 -0.45970474012504142 0.34492472233680482 0 -0.4608992614356977 0.32901526121317798 0 -0.44921264167741631 0.32840092545007737 0 -0.45970474012504142 0.34492472233680482 0 -0.47359423781818799 0.3308653963180237 0 -0.4608992614356977 0.32901526121317798 0 -0.43620847317111799 0.34194410291109811 0 -0.45970474012504142 0.34492472233680482 0 -0.44921264167741631 0.32840092545007737 0 -0.43620847317111799 0.34194410291109811 0 -0.44921264167741631 0.32840092545007737 0 -0.43861783033176682 0.3281141633673893 0 -0.43219845517123362 0.32348926982994008 0 -0.43861783033176682 0.3281141633673893 0 -0.44432088926682312 0.31081033232536431 0 -0.46039135672728082 0.31458735845476632 0 -0.44921264167741631 0.32840092545007737 0 -0.44432088926682312 0.31081033232536431 0 -0.44921264167741631 0.32840092545007737 0 -0.43861783033176682 0.3281141633673893 0 -0.44432088926682312 0.31081033232536431 0 -0.43219845517123362 0.32348926982994008 0 -0.44432088926682312 0.31081033232536431 0 -0.44432088926682312 0.31081033232536431 0 -0.44371650413511771 0.29965447911541598 0 -0.43274424350808799 0.30058458220218709 0 -0.44432088926682312 0.31081033232536431 0 -0.44371650413511771 0.29965447911541598 0 -0.4552527322472365 0.29937664228707311 0 -0.44432088926682312 0.31081033232536431 0 -0.4552527322472365 0.29937664228707311 0 -0.44371650413511771 0.29965447911541598 0 -0.44254815151832222 0.28784635964703581 0 -0.43274424350808799 0.30058458220218709 0 -0.44371650413511771 0.29965447911541598 0 -0.44254815151832222 0.28784635964703581 0 -0.4552527322472365 0.29937664228707311 0 -0.44254815151832222 0.28784635964703581 0 -0.46618457522765222 0.28794295224878402 0 -0.4552527322472365 0.29937664228707311 0 -0.44254815151832222 0.28784635964703581 0 -0.46618457522765222 0.28794295224878402 0 -0.45348778201163131 0.27623694993016462 0 -0.44254815151832222 0.28784635964703581 0 -0.46618457522765222 0.28794295224878402 0 -0.46618457522765222 0.28794295224878402 0 -0.4552527322472365 0.29937664228707311 0 -0.46039135672728082 0.31458735845476632 0 -0.44432088926682312 0.31081033232536431 0 -0.47216044463341161 0.30455151346700049 0 -0.44432088926682312 0.31081033232536431 0 -0.47216044463341161 0.30455151346700049 0 -0.44432088926682312 0.31081033232536431 0 -0.4552527322472365 0.29937664228707311 0 -0.47216044463341161 0.30455151346700049 0 -0.46618457522765222 0.28794295224878402 0 -0.4552527322472365 0.29937664228707311 0 -0.47216044463341161 0.30455151346700049 0 -0.47264581712595938 0.31671992269752891 0 -0.46039135672728082 0.31458735845476632 0 -0.47216044463341161 0.30455151346700049 0 -0.46618457522765222 0.28794295224878402 0 -0.47216044463341161 0.30455151346700049 0 -0.48309228761382561 0.28801204730094082 0 -0.46618457522765222 0.28794295224878402 0 -0.48309228761382561 0.28801204730094082 0 -0.48309228761382877 0.27025905914618381 0 -0.46618457522765222 0.28794295224878402 0 -0.48309228761382561 0.28801204730094082 0 -0.48309228761382561 0.28801204730094082 0 -0.49999999999999889 0.2880811423530974 0 -0.49999999999999922 0.29829269460863311 0 -0.48309228761382561 0.28801204730094082 0 -0.49999999999999889 0.2880811423530974 0 -0.49154614380691353 0.27917010074964033 0 -0.48309228761382561 0.28801204730094082 0 -0.49999999999999889 0.2880811423530974 0 -0.47216044463341161 0.30455151346700049 0 -0.48309228761382561 0.28801204730094082 0 -0.49999999999999922 0.29829269460863311 0 -0.48443722932495759 0.31687542255032519 0 -0.5 0.32000228708726852 0 -0.49999999999999922 0.29829269460863311 0 -0.47216044463341161 0.30455151346700049 0 -0.49999999999999922 0.29829269460863311 0 -0.48443722932495759 0.31687542255032519 0 -0.47216044463341161 0.30455151346700049 0 -0.49999999999999922 0.29829269460863311 0 -0.50000000000000355 0.25257516604358171 0 -0.48309228761382877 0.27025905914618381 0 -0.50000000000000355 0.25257516604358171 0 -0.48309228761382877 0.27025905914618381 0 -0.47243170773416598 0.25252131008609718 0 -0.50000000000000355 0.25257516604358171 0 -0.5 0.27032815419833961 0 -0.48309228761382877 0.27025905914618381 0 -0.48309228761382561 0.28801204730094082 0 -0.49154614380691353 0.27917010074964033 0 -0.48309228761382877 0.27025905914618381 0 -0.49999999999999889 0.2880811423530974 0 -0.5 0.27032815419833961 0 -0.49154614380691353 0.27917010074964033 0 -0.5 0.27032815419833961 0 -0.49154614380691353 0.27917010074964033 0 -0.48309228761382877 0.27025905914618381 0 -0.46618457522765222 0.28794295224878402 0 -0.48309228761382877 0.27025905914618381 0 -0.46668787323784527 0.27080963386168561 0 -0.46618457522765222 0.28794295224878402 0 -0.48309228761382877 0.27025905914618381 0 -0.48309228761382877 0.27025905914618381 0 -0.47243170773416598 0.25252131008609718 0 -0.46668787323784527 0.27080963386168561 0 -0.47243170773416598 0.25252131008609718 0 -0.45447176510546028 0.26210261842800259 0 -0.46668787323784527 0.27080963386168561 0 -0.46618457522765222 0.28794295224878402 0 -0.46668787323784527 0.27080963386168561 0 -0.45348778201163131 0.27623694993016462 0 -0.45447176510546028 0.26210261842800259 0 -0.46668787323784527 0.27080963386168561 0 -0.45348778201163131 0.27623694993016462 0 -0.44254815151832222 0.28784635964703581 0 -0.45348778201163131 0.27623694993016462 0 -0.43566092072063228 0.2699905457307174 0 -0.45447176510546028 0.26210261842800259 0 -0.45348778201163131 0.27623694993016462 0 -0.43566092072063228 0.2699905457307174 0 -0.45447176510546028 0.26210261842800259 0 -0.43846763777347608 0.25139159902730851 0 -0.43566092072063228 0.2699905457307174 0 -0.43846763777347608 0.25139159902730851 0 -0.42186070460899672 0.25309052481387179 0 -0.43566092072063228 0.2699905457307174 0 -0.42186070460899672 0.25309052481387179 0 -0.41750954834922988 0.27017538504522087 0 -0.43566092072063228 0.2699905457307174 0 -0.4058641186269526 0.24719101802337209 0 -0.42186070460899672 0.25309052481387179 0 -0.40083419185370128 0.26677943909652108 0 -0.42186070460899672 0.25309052481387179 0 -0.41750954834922988 0.27017538504522087 0 -0.40083419185370128 0.26677943909652108 0 -0.41750954834922988 0.27017538504522087 0 -0.40093657290758961 0.28661841219936829 0 -0.40083419185370128 0.26677943909652108 0 -0.41750954834922988 0.27017538504522087 0 -0.43566092072063228 0.2699905457307174 0 -0.41891172780899222 0.28774976704528749 0 -0.44254815151832222 0.28784635964703581 0 -0.43566092072063228 0.2699905457307174 0 -0.41891172780899222 0.28774976704528749 0 -0.44254815151832222 0.28784635964703581 0 -0.41891172780899222 0.28774976704528749 0 -0.44254815151832222 0.28784635964703581 0 -0.43274424350808799 0.30058458220218709 0 -0.41891172780899222 0.28774976704528749 0 -0.42790797361430749 0.31450024276589378 0 -0.44432088926682312 0.31081033232536431 0 -0.43274424350808799 0.30058458220218709 0 -0.43274424350808799 0.30058458220218709 0 -0.41850050413787648 0.30277602932034992 0 -0.41891172780899222 0.28774976704528749 0 -0.42790797361430749 0.31450024276589378 0 -0.43274424350808799 0.30058458220218709 0 -0.41850050413787648 0.30277602932034992 0 -0.41850050413787648 0.30277602932034992 0 -0.40093657290758961 0.28661841219936829 0 -0.40457359345530219 0.31146894366726913 0 -0.42790797361430749 0.31450024276589378 0 -0.41850050413787648 0.30277602932034992 0 -0.40457359345530219 0.31146894366726913 0 -0.41750954834922988 0.27017538504522087 0 -0.41891172780899222 0.28774976704528749 0 -0.40093657290758961 0.28661841219936829 0 -0.41850050413787648 0.30277602932034992 0 -0.41891172780899222 0.28774976704528749 0 -0.40093657290758961 0.28661841219936829 0 -0.40457359345530219 0.31146894366726913 0 -0.37740526954597697 0.29988511697237552 0 -0.40093657290758961 0.28661841219936829 0 -0.40457359345530219 0.31146894366726913 0 -0.37740526954597697 0.29988511697237552 0 -0.38876715518139049 0.31878710207299171 0 -0.40457359345530219 0.31146894366726913 0 -0.37740526954597697 0.29988511697237552 0 -0.37578149950171208 0.31311525499370502 0 -0.38876715518139049 0.31878710207299171 0 -0.37740526954597697 0.29988511697237552 0 -0.37740526954597697 0.29988511697237552 0 -0.38255970199057582 0.28326929796902273 0 -0.36781326237388512 0.28424507279515338 0 -0.40093657290758961 0.28661841219936829 0 -0.37740526954597697 0.29988511697237552 0 -0.38255970199057582 0.28326929796902273 0 -0.38255970199057582 0.28326929796902273 0 -0.38731087667428082 0.27028903193159992 0 -0.37144618940786778 0.27264003028858419 0 -0.40093657290758961 0.28661841219936829 0 -0.38255970199057582 0.28326929796902273 0 -0.38731087667428082 0.27028903193159992 0 -0.38731087667428082 0.27028903193159992 0 -0.37627277756599359 0.25576698107499612 0 -0.37144618940786778 0.27264003028858419 0 -0.38890999743407823 0.2427193981317495 0 -0.37627277756599359 0.25576698107499612 0 -0.39181582631995732 0.25666003096110762 0 -0.38731087667428082 0.27028903193159992 0 -0.37627277756599359 0.25576698107499612 0 -0.39181582631995732 0.25666003096110762 0 -0.38731087667428082 0.27028903193159992 0 -0.39181582631995732 0.25666003096110762 0 -0.40083419185370128 0.26677943909652108 0 -0.4058641186269526 0.24719101802337209 0 -0.39181582631995732 0.25666003096110762 0 -0.40083419185370128 0.26677943909652108 0 -0.40093657290758961 0.28661841219936829 0 -0.38731087667428082 0.27028903193159992 0 -0.40083419185370128 0.26677943909652108 0 -0.35023694563665198 0.28830129027748203 0 -0.34115527656511913 0.26912753122311178 0 -0.3577765426805905 0.27576787636115602 0 -0.3589477142039037 0.26180195300715509 0 -0.34115527656511913 0.26912753122311178 0 -0.3577765426805905 0.27576787636115602 0 -0.35023694563665198 0.28830129027748203 0 -0.34115527656511913 0.26912753122311178 0 -0.34824261657673289 0.24684003078997019 0 -0.3589477142039037 0.26180195300715509 0 -0.34115527656511913 0.26912753122311178 0 -0.34824261657673289 0.24684003078997019 0 -0.36292965957869022 0.24700153722895329 0 -0.3589477142039037 0.26180195300715509 0 -0.36292965957869022 0.24700153722895329 0 -0.37627277756599359 0.25576698107499612 0 -0.3589477142039037 0.26180195300715509 0 -0.37627277756599359 0.25576698107499612 0 -0.3589477142039037 0.26180195300715509 0 -0.37144618940786778 0.27264003028858419 0 -0.3577765426805905 0.27576787636115602 0 -0.3589477142039037 0.26180195300715509 0 -0.37144618940786778 0.27264003028858419 0 -0.3577765426805905 0.27576787636115602 0 -0.37144618940786778 0.27264003028858419 0 -0.36781326237388512 0.28424507279515338 0 -0.38255970199057582 0.28326929796902273 0 -0.37144618940786778 0.27264003028858419 0 -0.36781326237388512 0.28424507279515338 0 -0.37740526954597697 0.29988511697237552 0 -0.36781326237388512 0.28424507279515338 0 -0.35023694563665198 0.28830129027748203 0 -0.37740526954597697 0.29988511697237552 0 -0.35023694563665198 0.28830129027748203 0 -0.37740526954597697 0.29988511697237552 0 -0.35709243412567682 0.30304314677720418 0 -0.35023694563665198 0.28830129027748203 0 -0.37578149950171208 0.31311525499370502 0 -0.37740526954597697 0.29988511697237552 0 -0.35709243412567682 0.30304314677720418 0 -0.37578149950171208 0.31311525499370502 0 -0.35709243412567682 0.30304314677720418 0 -0.36400673682023688 0.31775736611790389 0 -0.35709243412567682 0.30304314677720418 0 -0.36400673682023688 0.31775736611790389 0 -0.35709243412567682 0.30304314677720418 0 -0.3444992345986792 0.30646308275448292 0 -0.36400673682023688 0.31775736611790389 0 -0.3444992345986792 0.30646308275448292 0 -0.36400673682023688 0.31775736611790389 0 -0.35709243412567682 0.30304314677720418 0 -0.34813351616335581 0.29789210333375371 0 -0.3444992345986792 0.30646308275448292 0 -0.34813351616335581 0.29789210333375371 0 -0.3444992345986792 0.30646308275448292 0 -0.34070545029241528 0.29376089352584578 0 -0.3444992345986792 0.30646308275448292 0 -0.351052017028814 0.31540627098667767 0 -0.34532581149395131 0.3130827004918989 0 -0.3577765426805905 0.27576787636115602 0 -0.36781326237388512 0.28424507279515338 0 -0.35023694563665198 0.28830129027748203 0 -0.35709243412567682 0.30304314677720418 0 -0.35023694563665198 0.28830129027748203 0 -0.35709243412567682 0.30304314677720418 0 -0.34813351616335581 0.29789210333375371 0 -0.35023694563665198 0.28830129027748203 0 -0.34813351616335581 0.29789210333375371 0 -0.35023694563665198 0.28830129027748203 0 -0.34070545029241528 0.29376089352584578 0 -0.34070545029241528 0.29376089352584578 0 -0.33529009231047052 0.28213215458023211 0 -0.32499173237712159 0.29516879939106172 0 -0.35023694563665198 0.28830129027748203 0 -0.34070545029241528 0.29376089352584578 0 -0.33529009231047052 0.28213215458023211 0 -0.3444992345986792 0.30646308275448292 0 -0.32688830354676129 0.30683168260340521 0 -0.32499173237712159 0.29516879939106172 0 -0.3444992345986792 0.30646308275448292 0 -0.32499173237712159 0.29516879939106172 0 -0.3444992345986792 0.30646308275448292 0 -0.34033680093529323 0.3108945386121843 0 -0.32688830354676129 0.30683168260340521 0 -0.3444992345986792 0.30646308275448292 0 -0.34070545029241528 0.29376089352584578 0 -0.32499173237712159 0.29516879939106172 0 -0.3444992345986792 0.30646308275448292 0 -0.34033680093529323 0.3108945386121843 0 -0.34532581149395131 0.3130827004918989 0 -0.31611652273877461 0.29791372018525958 0 -0.3128306593774417 0.30780996527884852 0 -0.30861864703865222 0.29078205514389821 0 -0.32688830354676129 0.30683168260340521 0 -0.3128306593774417 0.30780996527884852 0 -0.32304672373342191 0.32232603545831301 0 -0.32688830354676129 0.30683168260340521 0 -0.31611652273877461 0.29791372018525958 0 -0.32499173237712159 0.29516879939106172 0 -0.32688830354676129 0.30683168260340521 0 -0.31611652273877461 0.29791372018525958 0 -0.3128306593774417 0.30780996527884852 0 -0.33529009231047052 0.28213215458023211 0 -0.32272624059089872 0.28224728311081981 0 -0.32499173237712159 0.29516879939106172 0 -0.32272624059089872 0.28224728311081981 0 -0.32499173237712159 0.29516879939106172 0 -0.31846697777256622 0.28960038322154302 0 -0.31611652273877461 0.29791372018525958 0 -0.32499173237712159 0.29516879939106172 0 -0.31846697777256622 0.28960038322154302 0 -0.31611652273877461 0.29791372018525958 0 -0.31846697777256622 0.28960038322154302 0 -0.31244299861246178 0.28896833078018391 0 -0.31846697777256622 0.28960038322154302 0 -0.31605739454357429 0.28370378264039031 0 -0.31244299861246178 0.28896833078018391 0 -0.32272624059089872 0.28224728311081981 0 -0.31846697777256622 0.28960038322154302 0 -0.31605739454357429 0.28370378264039031 0 -0.31605739454357429 0.28370378264039031 0 -0.31244299861246178 0.28896833078018391 0 -0.31102576664501591 0.2812828250670425 0 -0.32272624059089872 0.28224728311081981 0 -0.31605739454357429 0.28370378264039031 0 -0.31325657699857379 0.27418829140685252 0 -0.31605739454357429 0.28370378264039031 0 -0.31325657699857379 0.27418829140685252 0 -0.31102576664501591 0.2812828250670425 0 -0.31325657699857379 0.27418829140685252 0 -0.32587706162660812 0.26805700104009672 0 -0.31519362659259781 0.25982261629526332 0 -0.32272624059089872 0.28224728311081981 0 -0.31325657699857379 0.27418829140685252 0 -0.32587706162660812 0.26805700104009672 0 -0.33529009231047052 0.28213215458023211 0 -0.32272624059089872 0.28224728311081981 0 -0.32587706162660812 0.26805700104009672 0 -0.35023694563665198 0.28830129027748203 0 -0.33529009231047052 0.28213215458023211 0 -0.34115527656511913 0.26912753122311178 0 -0.33529009231047052 0.28213215458023211 0 -0.32587706162660812 0.26805700104009672 0 -0.34115527656511913 0.26912753122311178 0 -0.33213242169912183 0.24992613500971911 0 -0.34115527656511913 0.26912753122311178 0 -0.33213242169912183 0.24992613500971911 0 -0.32587706162660812 0.26805700104009672 0 -0.34115527656511913 0.26912753122311178 0 -0.34824261657673289 0.24684003078997019 0 -0.33213242169912183 0.24992613500971911 0 -0.34115527656511913 0.26912753122311178 0 -0.33213242169912183 0.24992613500971911 0 -0.30846245916933263 0.2451797241646857 0 -0.31519362659259781 0.25982261629526332 0 -0.33213242169912183 0.24992613500971911 0 -0.32587706162660812 0.26805700104009672 0 -0.31519362659259781 0.25982261629526332 0 -0.28924369278351397 0.24685883917450829 0 -0.30846245916933263 0.2451797241646857 0 -0.29915910949743851 0.26353543308035182 0 -0.30846245916933263 0.2451797241646857 0 -0.31519362659259781 0.25982261629526332 0 -0.29915910949743851 0.26353543308035182 0 -0.31325657699857379 0.27418829140685252 0 -0.29915910949743851 0.26353543308035182 0 -0.30322896420061962 0.28074858152769949 0 -0.29915910949743851 0.26353543308035182 0 -0.30322896420061962 0.28074858152769949 0 -0.29190860569478971 0.27678046567888659 0 -0.31325657699857379 0.27418829140685252 0 -0.31519362659259781 0.25982261629526332 0 -0.29915910949743851 0.26353543308035182 0 -0.31325657699857379 0.27418829140685252 0 -0.30322896420061962 0.28074858152769949 0 -0.31102576664501591 0.2812828250670425 0 -0.29915910949743851 0.26353543308035182 0 -0.29190860569478971 0.27678046567888659 0 -0.27894375475268302 0.27357869090854747 0 -0.29190860569478971 0.27678046567888659 0 -0.2770608724549985 0.27532776734952041 0 -0.30115032756820909 0.29071185552831408 0 -0.29190860569478971 0.27678046567888659 0 -0.27894375475268302 0.27357869090854747 0 -0.2770608724549985 0.27532776734952041 0 -0.28924369278351397 0.24685883917450829 0 -0.29915910949743851 0.26353543308035182 0 -0.27057909361132693 0.25823596006253607 0 -0.29915910949743851 0.26353543308035182 0 -0.27057909361132693 0.25823596006253607 0 -0.29915910949743851 0.26353543308035182 0 -0.27057909361132693 0.25823596006253607 0 -0.27894375475268302 0.27357869090854747 0 -0.2770608724549985 0.27532776734952041 0 -0.25952997509010678 0.26413212719712081 0 -0.27057909361132693 0.25823596006253607 0 -0.27894375475268302 0.27357869090854747 0 -0.2770608724549985 0.27532776734952041 0 -0.27057909361132693 0.25823596006253607 0 -0.2770608724549985 0.27532776734952041 0 -0.25952997509010678 0.26413212719712081 0 -0.27894375475268302 0.27357869090854747 0 -0.2770608724549985 0.27532776734952041 0 -0.2770608724549985 0.27532776734952041 0 -0.25952997509010678 0.26413212719712081 0 -0.25612174437497598 0.29477886934581687 0 -0.25952997509010678 0.26413212719712081 0 -0.25612174437497598 0.29477886934581687 0 -0.24013215390960629 0.27688613297126707 0 -0.27057909361132693 0.25823596006253607 0 -0.2419990777252152 0.25293648704472099 0 -0.25825314838481339 0.2425458797231245 0 -0.27057909361132693 0.25823596006253607 0 -0.2419990777252152 0.25293648704472099 0 -0.25952997509010678 0.26413212719712081 0 -0.2419990777252152 0.25293648704472099 0 -0.27057909361132693 0.25823596006253607 0 -0.25952997509010678 0.26413212719712081 0 -0.2419990777252152 0.25293648704472099 0 -0.26361768802922342 0.31212406153912858 0 -0.25612174437497598 0.29477886934581687 0 -0.23436961135623169 0.31498520059168772 0 -0.26361768802922342 0.31212406153912858 0 -0.25612174437497598 0.29477886934581687 0 -0.27258965791741868 0.29151054676198002 0 -0.2770608724549985 0.27532776734952041 0 -0.27258965791741868 0.29151054676198002 0 -0.28611816753393748 0.30145305834151293 0 -0.2770608724549985 0.27532776734952041 0 -0.25612174437497598 0.29477886934581687 0 -0.27258965791741868 0.29151054676198002 0 -0.2770608724549985 0.27532776734952041 0 -0.25612174437497598 0.29477886934581687 0 -0.26361768802922342 0.31212406153912858 0 -0.27258965791741868 0.29151054676198002 0 -0.28611816753393748 0.30145305834151293 0 -0.26361768802922342 0.31212406153912858 0 -0.28611816753393748 0.30145305834151293 0 -0.26361768802922342 0.31212406153912858 0 -0.28611816753393748 0.30145305834151293 0 -0.28190370938614318 0.31852221847294188 0 -0.2770608724549985 0.27532776734952041 0 -0.28611816753393748 0.30145305834151293 0 -0.30115032756820909 0.29071185552831408 0 -0.2770608724549985 0.27532776734952041 0 -0.30115032756820909 0.29071185552831408 0 -0.28611816753393748 0.30145305834151293 0 -0.30115032756820909 0.29071185552831408 0 -0.30861864703865222 0.29078205514389821 0 -0.28611816753393748 0.30145305834151293 0 -0.30861864703865222 0.29078205514389821 0 -0.30322896420061962 0.28074858152769949 0 -0.30115032756820909 0.29071185552831408 0 -0.30615257798896878 0.28717199236562518 0 -0.30322896420061962 0.28074858152769949 0 -0.29190860569478971 0.27678046567888659 0 -0.30115032756820909 0.29071185552831408 0 -0.31611652273877461 0.29791372018525958 0 -0.30861864703865222 0.29078205514389821 0 -0.31244299861246178 0.28896833078018391 0 -0.30861864703865222 0.29078205514389821 0 -0.30931283375884261 0.28890787624351011 0 -0.31244299861246178 0.28896833078018391 0 -0.30861864703865222 0.29078205514389821 0 -0.31244299861246178 0.28896833078018391 0 -0.30861864703865222 0.29078205514389821 0 -0.30931283375884261 0.28890787624351011 0 -0.30115032756820909 0.29071185552831408 0 -0.30861864703865222 0.29078205514389821 0 -0.30615257798896878 0.28717199236562518 0 -0.30615257798896878 0.28717199236562518 0 -0.30931283375884261 0.28890787624351011 0 -0.30845211737852068 0.28470959338470531 0 -0.30861864703865222 0.29078205514389821 0 -0.30615257798896878 0.28717199236562518 0 -0.30931283375884261 0.28890787624351011 0 -0.30931283375884261 0.28890787624351011 0 -0.31244299861246178 0.28896833078018391 0 -0.30845211737852068 0.28470959338470531 0 -0.31244299861246178 0.28896833078018391 0 -0.31102576664501591 0.2812828250670425 0 -0.30845211737852068 0.28470959338470531 0 -0.30322896420061962 0.28074858152769949 0 -0.31102576664501591 0.2812828250670425 0 -0.30845211737852068 0.28470959338470531 0 -0.30322896420061962 0.28074858152769949 0 -0.30615257798896878 0.28717199236562518 0 -0.30845211737852068 0.28470959338470531 0 -0.28611816753393748 0.30145305834151293 0 -0.30861864703865222 0.29078205514389821 0 -0.29854260818416711 0.31798554214723529 0 -0.30861864703865222 0.29078205514389821 0 -0.29854260818416711 0.31798554214723529 0 -0.3128306593774417 0.30780996527884852 0 -0.30861864703865222 0.29078205514389821 0 -0.29854260818416711 0.31798554214723529 0 -0.3128306593774417 0.30780996527884852 0 -0.29854260818416711 0.31798554214723529 0 -0.32304672373342191 0.32232603545831301 0 -0.29854260818416711 0.31798554214723529 0 -0.30575664653155071 0.33375753230444172 0 -0.32304672373342191 0.32232603545831301 0 -0.30575664653155071 0.33375753230444172 0 -0.28846656932968029 0.34518902915057159 0 -0.3041054378257747 0.35153638994353797 0 -0.30575664653155071 0.33375753230444172 0 -0.28846656932968029 0.34518902915057159 0 -0.29854260818416711 0.31798554214723529 0 -0.30575664653155071 0.33375753230444172 0 -0.28846656932968029 0.34518902915057159 0 -0.29854260818416711 0.31798554214723529 0 -0.28846656932968029 0.34518902915057159 0 -0.28611816753393748 0.30145305834151293 0 -0.29854260818416711 0.31798554214723529 0 -0.28190370938614318 0.31852221847294188 0 -0.29854260818416711 0.31798554214723529 0 -0.28190370938614318 0.31852221847294188 0 -0.28846656932968029 0.34518902915057159 0 -0.26361768802922342 0.31212406153912858 0 -0.28190370938614318 0.31852221847294188 0 -0.27206742811597701 0.33013049889133689 0 -0.28190370938614318 0.31852221847294188 0 -0.27206742811597701 0.33013049889133689 0 -0.28846656932968029 0.34518902915057159 0 -0.27206742811597701 0.33013049889133689 0 -0.2681619949663539 0.34773943884959019 0 -0.28846656932968029 0.34518902915057159 0 -0.27206742811597701 0.33013049889133689 0 -0.2631791069261773 0.33765391847382609 0 -0.2681619949663539 0.34773943884959019 0 -0.2631791069261773 0.33765391847382609 0 -0.25230409672890253 0.33574309273892178 0 -0.25909234631111477 0.32649215728561137 0 -0.27206742811597701 0.33013049889133689 0 -0.2631791069261773 0.33765391847382609 0 -0.25909234631111477 0.32649215728561137 0 -0.25230409672890253 0.33574309273892178 0 -0.25909234631111477 0.32649215728561137 0 -0.24111720852450971 0.32279506473674557 0 -0.2631791069261773 0.33765391847382609 0 -0.25230409672890253 0.33574309273892178 0 -0.2634909849332957 0.34869112074109782 0 -0.25230409672890253 0.33574309273892178 0 -0.2634909849332957 0.34869112074109782 0 -0.26361768802922342 0.31212406153912858 0 -0.27206742811597701 0.33013049889133689 0 -0.25909234631111477 0.32649215728561137 0 -0.26361768802922342 0.31212406153912858 0 -0.25909234631111477 0.32649215728561137 0 -0.24111720852450971 0.32279506473674557 0 -0.26361768802922342 0.31212406153912858 0 -0.24111720852450971 0.32279506473674557 0 -0.2620274014018274 0.36010090915767551 0 -0.26028792276529711 0.383831650878519 0 -0.2620274014018274 0.36010090915767551 0 -0.26827366003954672 0.37161780368733821 0 -0.26028792276529711 0.383831650878519 0 -0.2620274014018274 0.36010090915767551 0 -0.25290804108530268 0.3738556417100492 0 -0.26028792276529711 0.383831650878519 0 -0.2620274014018274 0.36010090915767551 0 -0.26410600543883272 0.36129524464265589 0 -0.26827366003954672 0.37161780368733821 0 -0.2620274014018274 0.36010090915767551 0 -0.26410600543883272 0.36129524464265589 0 -0.26327584899804768 0.35821787545842598 0 -0.2620274014018274 0.36010090915767551 0 -0.25290804108530268 0.3738556417100492 0 -0.2620274014018274 0.36010090915767551 0 -0.25290804108530268 0.3738556417100492 0 -0.25013698891243169 0.36042207492819578 0 -0.2620274014018274 0.36010090915767551 0 -0.25013698891243169 0.36042207492819578 0 -0.25638881925187118 0.35499186180119519 0 -0.25013698891243169 0.36042207492819578 0 -0.25638881925187118 0.35499186180119519 0 -0.24931110960080999 0.34956578338164179 0 -0.25638881925187118 0.35499186180119519 0 -0.25718509976155501 0.34956746112504511 0 -0.24931110960080999 0.34956578338164179 0 -0.25230409672890253 0.33574309273892178 0 -0.25718509976155501 0.34956746112504511 0 -0.2634909849332957 0.34869112074109782 0 -0.25230409672890253 0.33574309273892178 0 -0.25718509976155501 0.34956746112504511 0 -0.24931110960080999 0.34956578338164179 0 -0.2631791069261773 0.33765391847382609 0 -0.2634909849332957 0.34869112074109782 0 -0.2681619949663539 0.34773943884959019 0 -0.25718509976155501 0.34956746112504511 0 -0.2634909849332957 0.34869112074109782 0 -0.26254802102246583 0.35299838458921629 0 -0.2634909849332957 0.34869112074109782 0 -0.26254802102246583 0.35299838458921629 0 -0.2681619949663539 0.34773943884959019 0 -0.26254802102246583 0.35299838458921629 0 -0.26327584899804768 0.35821787545842598 0 -0.2681619949663539 0.34773943884959019 0 -0.26410600543883272 0.36129524464265589 0 -0.26327584899804768 0.35821787545842598 0 -0.2681619949663539 0.34773943884959019 0 -0.2620274014018274 0.36010090915767551 0 -0.25638881925187118 0.35499186180119519 0 -0.26254802102246583 0.35299838458921629 0 -0.25638881925187118 0.35499186180119519 0 -0.25718509976155501 0.34956746112504511 0 -0.26254802102246583 0.35299838458921629 0 -0.2620274014018274 0.36010090915767551 0 -0.26254802102246583 0.35299838458921629 0 -0.2620274014018274 0.36010090915767551 0 -0.26254802102246583 0.35299838458921629 0 -0.26327584899804768 0.35821787545842598 0 -0.2620274014018274 0.36010090915767551 0 -0.26327584899804768 0.35821787545842598 0 -0.26410600543883272 0.36129524464265589 0 -0.2681619949663539 0.34773943884959019 0 -0.28846656932968029 0.34518902915057159 0 -0.27521347850747579 0.36153214594551819 0 -0.28000767922184272 0.36802650630150652 0 -0.28846656932968029 0.34518902915057159 0 -0.26410600543883272 0.36129524464265589 0 -0.27521347850747579 0.36153214594551819 0 -0.28846656932968029 0.34518902915057159 0 -0.26410600543883272 0.36129524464265589 0 -0.28846656932968029 0.34518902915057159 0 -0.27521347850747579 0.36153214594551819 0 -0.26827366003954672 0.37161780368733821 0 -0.28000767922184272 0.36802650630150652 0 -0.26410600543883272 0.36129524464265589 0 -0.27521347850747579 0.36153214594551819 0 -0.26827366003954672 0.37161780368733821 0 -0.28000767922184272 0.36802650630150652 0 -0.28846656932968029 0.34518902915057159 0 -0.2969182424431504 0.37090505478451319 0 -0.28000767922184272 0.36802650630150652 0 -0.28846656932968029 0.34518902915057159 0 -0.28846656932968029 0.34518902915057159 0 -0.3041054378257747 0.35153638994353797 0 -0.2969182424431504 0.37090505478451319 0 -0.30575664653155071 0.33375753230444172 0 -0.3041054378257747 0.35153638994353797 0 -0.31642343812736118 0.34606288319997758 0 -0.3041054378257747 0.35153638994353797 0 -0.31296229269712961 0.36176745027818508 0 -0.31642343812736118 0.34606288319997758 0 -0.2969182424431504 0.37090505478451319 0 -0.31296229269712961 0.36176745027818508 0 -0.31513637375938253 0.38444066485979828 0 -0.3041054378257747 0.35153638994353797 0 -0.2969182424431504 0.37090505478451319 0 -0.31296229269712961 0.36176745027818508 0 -0.31296229269712961 0.36176745027818508 0 -0.32978211621601938 0.36434258303214617 0 -0.31513637375938253 0.38444066485979828 0 -0.34764373191620562 0.36091067885718892 0 -0.33589885594156482 0.38644176117037271 0 -0.32978211621601938 0.36434258303214617 0 -0.34764373191620562 0.36091067885718892 0 -0.33589885594156482 0.38644176117037271 0 -0.32978211621601938 0.36434258303214617 0 -0.33249508292647689 0.34343527267675139 0 -0.34764373191620562 0.36091067885718892 0 -0.33249508292647689 0.34343527267675139 0 -0.34774660372624711 0.33900961131040652 0 -0.34764373191620562 0.36091067885718892 0 -0.31296229269712961 0.36176745027818508 0 -0.32978211621601938 0.36434258303214617 0 -0.31642343812736118 0.34606288319997758 0 -0.32978211621601938 0.36434258303214617 0 -0.31642343812736118 0.34606288319997758 0 -0.33249508292647689 0.34343527267675139 0 -0.30575664653155071 0.33375753230444172 0 -0.31642343812736118 0.34606288319997758 0 -0.32304672373342191 0.32232603545831301 0 -0.31642343812736118 0.34606288319997758 0 -0.32304672373342191 0.32232603545831301 0 -0.33249508292647689 0.34343527267675139 0 -0.30575664653155071 0.33375753230444172 0 -0.32304672373342191 0.32232603545831301 0 -0.34033680093529323 0.3108945386121843 0 -0.32688830354676129 0.30683168260340521 0 -0.32304672373342191 0.32232603545831301 0 -0.34033680093529323 0.3108945386121843 0 -0.32304672373342191 0.32232603545831301 0 -0.33831408539238939 0.32823606731402988 0 -0.34033680093529323 0.3108945386121843 0 -0.33831408539238939 0.32823606731402988 0 -0.34541519341301891 0.31956690961425083 0 -0.34033680093529323 0.3108945386121843 0 -0.32304672373342191 0.32232603545831301 0 -0.34033680093529323 0.3108945386121843 0 -0.34532581149395131 0.3130827004918989 0 -0.34541519341301891 0.31956690961425083 0 -0.32304672373342191 0.32232603545831301 0 -0.33249508292647689 0.34343527267675139 0 -0.33831408539238939 0.32823606731402988 0 -0.33249508292647689 0.34343527267675139 0 -0.33831408539238939 0.32823606731402988 0 -0.34774660372624711 0.33900961131040652 0 -0.34774660372624711 0.33900961131040652 0 -0.35624387713182271 0.33226078983692442 0 -0.36393572936362911 0.3428684834504227 0 -0.34774660372624711 0.33900961131040652 0 -0.35624387713182271 0.33226078983692442 0 -0.34848262125113572 0.32769457727765772 0 -0.33831408539238939 0.32823606731402988 0 -0.34774660372624711 0.33900961131040652 0 -0.34848262125113572 0.32769457727765772 0 -0.35624387713182271 0.33226078983692442 0 -0.34848262125113572 0.32769457727765772 0 -0.35633036072664598 0.32494060448670198 0 -0.3444992345986792 0.30646308275448292 0 -0.35683516605591969 0.31729293706393341 0 -0.36400673682023688 0.31775736611790389 0 -0.3444992345986792 0.30646308275448292 0 -0.351052017028814 0.31540627098667767 0 -0.35683516605591969 0.31729293706393341 0 -0.351052017028814 0.31540627098667767 0 -0.34532581149395131 0.3130827004918989 0 -0.34541519341301891 0.31956690961425083 0 -0.351052017028814 0.31540627098667767 0 -0.34541519341301891 0.31956690961425083 0 -0.35162307169510681 0.32098025988584439 0 -0.33831408539238939 0.32823606731402988 0 -0.34541519341301891 0.31956690961425083 0 -0.34848262125113572 0.32769457727765772 0 -0.34541519341301891 0.31956690961425083 0 -0.34848262125113572 0.32769457727765772 0 -0.35162307169510681 0.32098025988584439 0 -0.34848262125113572 0.32769457727765772 0 -0.35633036072664598 0.32494060448670198 0 -0.35162307169510681 0.32098025988584439 0 -0.35633036072664598 0.32494060448670198 0 -0.35683516605591969 0.31729293706393341 0 -0.36095184795767687 0.32097028871907701 0 -0.35633036072664598 0.32494060448670198 0 -0.35162307169510681 0.32098025988584439 0 -0.35683516605591969 0.31729293706393341 0 -0.351052017028814 0.31540627098667767 0 -0.35162307169510681 0.32098025988584439 0 -0.35683516605591969 0.31729293706393341 0 -0.35683516605591969 0.31729293706393341 0 -0.36400673682023688 0.31775736611790389 0 -0.36095184795767687 0.32097028871907701 0 -0.36400673682023688 0.31775736611790389 0 -0.36537503389666781 0.32066921770948609 0 -0.36095184795767687 0.32097028871907701 0 -0.36400673682023688 0.31775736611790389 0 -0.36537503389666781 0.32066921770948609 0 -0.35633036072664598 0.32494060448670198 0 -0.36095184795767687 0.32097028871907701 0 -0.365995081839809 0.32948707576050512 0 -0.36537503389666781 0.32066921770948609 0 -0.36095184795767687 0.32097028871907701 0 -0.365995081839809 0.32948707576050512 0 -0.3788145725477623 0.32633067759603118 0 -0.36400673682023688 0.31775736611790389 0 -0.3788145725477623 0.32633067759603118 0 -0.36400673682023688 0.31775736611790389 0 -0.36537503389666781 0.32066921770948609 0 -0.3788145725477623 0.32633067759603118 0 -0.36537503389666781 0.32066921770948609 0 -0.365995081839809 0.32948707576050512 0 -0.37578149950171208 0.31311525499370502 0 -0.3788145725477623 0.32633067759603118 0 -0.36400673682023688 0.31775736611790389 0 -0.35624387713182271 0.33226078983692442 0 -0.35633036072664598 0.32494060448670198 0 -0.365995081839809 0.32948707576050512 0 -0.35624387713182271 0.33226078983692442 0 -0.36393572936362911 0.3428684834504227 0 -0.365995081839809 0.32948707576050512 0 -0.37913388308317869 0.33980033822586803 0 -0.3788145725477623 0.32633067759603118 0 -0.365995081839809 0.32948707576050512 0 -0.37913388308317869 0.33980033822586803 0 -0.36393572936362911 0.3428684834504227 0 -0.365995081839809 0.32948707576050512 0 -0.37672549974694008 0.35622492463845878 0 -0.37913388308317869 0.33980033822586803 0 -0.36393572936362911 0.3428684834504227 0 -0.37672549974694008 0.35622492463845878 0 -0.36393572936362911 0.3428684834504227 0 -0.36481504158517469 0.36290719650509867 0 -0.37519100471246991 0.3709854683288385 0 -0.37672549974694008 0.35622492463845878 0 -0.36481504158517469 0.36290719650509867 0 -0.37519100471246991 0.3709854683288385 0 -0.36481504158517469 0.36290719650509867 0 -0.36057924218662879 0.38354642725058452 0 -0.36481504158517469 0.36290719650509867 0 -0.34764373191620562 0.36091067885718892 0 -0.36057924218662879 0.38354642725058452 0 -0.34774660372624711 0.33900961131040652 0 -0.36393572936362911 0.3428684834504227 0 -0.34764373191620562 0.36091067885718892 0 -0.36393572936362911 0.3428684834504227 0 -0.36481504158517469 0.36290719650509867 0 -0.34764373191620562 0.36091067885718892 0 -0.35710293298350892 0.40294030475805531 0 -0.36057924218662879 0.38354642725058452 0 -0.34310604851199838 0.40050804040373339 0 -0.35710293298350892 0.40294030475805531 0 -0.3476787854432668 0.41265477830065223 0 -0.34310604851199838 0.40050804040373339 0 -0.34764373191620562 0.36091067885718892 0 -0.36057924218662879 0.38354642725058452 0 -0.33589885594156482 0.38644176117037271 0 -0.36057924218662879 0.38354642725058452 0 -0.34310604851199838 0.40050804040373339 0 -0.33589885594156482 0.38644176117037271 0 -0.3867137524410672 0.38688217771584499 0 -0.37519100471246991 0.3709854683288385 0 -0.36057924218662879 0.38354642725058452 0 -0.3867137524410672 0.38688217771584499 0 -0.36057924218662879 0.38354642725058452 0 -0.3705653143576963 0.40154393775543129 0 -0.35710293298350892 0.40294030475805531 0 -0.36057924218662879 0.38354642725058452 0 -0.3705653143576963 0.40154393775543129 0 -0.35710293298350892 0.40294030475805531 0 -0.3705653143576963 0.40154393775543129 0 -0.35441687627432628 0.4162056977950187 0 -0.3705653143576963 0.40154393775543129 0 -0.36984470262962321 0.41265242782660189 0 -0.35441687627432628 0.4162056977950187 0 -0.3798144567514633 0.40772155113995728 0 -0.3705653143576963 0.40154393775543129 0 -0.36984470262962321 0.41265242782660189 0 -0.3705653143576963 0.40154393775543129 0 -0.35441687627432628 0.4162056977950187 0 -0.3827523434658453 0.41826117133637652 0 -0.36984470262962321 0.41265242782660189 0 -0.36785192000822192 0.42328585742754588 0 -0.36984470262962321 0.41265242782660189 0 -0.36785192000822192 0.42328585742754588 0 -0.36785192000822192 0.42328585742754588 0 -0.35441687627432628 0.4162056977950187 0 -0.36984470262962321 0.41265242782660189 0 -0.36785192000822192 0.42328585742754588 0 -0.35441687627432628 0.4162056977950187 0 -0.36785192000822192 0.42328585742754588 0 -0.35840405020933419 0.42492678281148311 0 -0.35441687627432628 0.4162056977950187 0 -0.36785192000822192 0.42328585742754588 0 -0.35840405020933419 0.42492678281148311 0 -0.36483391986759101 0.43938981763191159 0 -0.36785192000822192 0.42328585742754588 0 -0.36483391986759101 0.43938981763191159 0 -0.37717856875035488 0.43646572130173161 0 -0.36785192000822192 0.42328585742754588 0 -0.36483391986759101 0.43938981763191159 0 -0.35081753161354018 0.43079190134805728 0 -0.36483391986759101 0.43938981763191159 0 -0.35840405020933419 0.42492678281148311 0 -0.35081753161354018 0.43079190134805728 0 -0.36483391986759101 0.43938981763191159 0 -0.35840405020933419 0.42492678281148311 0 -0.35081753161354018 0.43079190134805728 0 -0.35441687627432628 0.4162056977950187 0 -0.35441687627432628 0.4162056977950187 0 -0.33964677515101499 0.42961601508467567 0 -0.35081753161354018 0.43079190134805728 0 -0.35441687627432628 0.4162056977950187 0 -0.33964677515101499 0.42961601508467567 0 -0.35081753161354018 0.43079190134805728 0 -0.33964677515101499 0.42961601508467567 0 -0.34460848101734648 0.43787887615672372 0 -0.35081753161354018 0.43079190134805728 0 -0.34460848101734648 0.43787887615672372 0 -0.35329417083808762 0.44272955033713368 0 -0.35441687627432628 0.4162056977950187 0 -0.3476787854432668 0.41265477830065223 0 -0.33964677515101499 0.42961601508467567 0 -0.35710293298350892 0.40294030475805531 0 -0.35441687627432628 0.4162056977950187 0 -0.3476787854432668 0.41265477830065223 0 -0.35441687627432628 0.4162056977950187 0 -0.3476787854432668 0.41265477830065223 0 -0.3476787854432668 0.41265477830065223 0 -0.33199806346126393 0.42227960460212538 0 -0.33964677515101499 0.42961601508467567 0 -0.33199806346126393 0.42227960460212538 0 -0.32415397996692402 0.41197284348355628 0 -0.34310604851199838 0.40050804040373339 0 -0.3476787854432668 0.41265477830065223 0 -0.33199806346126393 0.42227960460212538 0 -0.34310604851199838 0.40050804040373339 0 -0.33199806346126393 0.42227960460212538 0 -0.33964677515101499 0.42961601508467567 0 -0.32487667402770459 0.44302633237433381 0 -0.33964677515101499 0.42961601508467567 0 -0.3367027099777144 0.44313791075801068 0 -0.34460848101734648 0.43787887615672372 0 -0.33964677515101499 0.42961601508467567 0 -0.32487667402770459 0.44302633237433381 0 -0.33199806346126393 0.42227960460212538 0 -0.31240910399228322 0.43750392579674002 0 -0.32487667402770459 0.44302633237433381 0 -0.32415397996692402 0.41197284348355628 0 -0.31240910399228322 0.43750392579674002 0 -0.32415397996692402 0.41197284348355628 0 -0.30739597146189029 0.42213535649593859 0 -0.31240910399228322 0.43750392579674002 0 -0.33199806346126393 0.42227960460212538 0 -0.32415397996692402 0.41197284348355628 0 -0.31240910399228322 0.43750392579674002 0 -0.32415397996692402 0.41197284348355628 0 -0.30725672201245108 0.40587634723818822 0 -0.30739597146189029 0.42213535649593859 0 -0.32415397996692402 0.41197284348355628 0 -0.33589885594156482 0.38644176117037271 0 -0.31513637375938253 0.38444066485979828 0 -0.32415397996692402 0.41197284348355628 0 -0.31513637375938253 0.38444066485979828 0 -0.30725672201245108 0.40587634723818822 0 -0.32415397996692402 0.41197284348355628 0 -0.33589885594156482 0.38644176117037271 0 -0.32415397996692402 0.41197284348355628 0 -0.34310604851199838 0.40050804040373339 0 -0.33589885594156482 0.38644176117037271 0 -0.32978211621601938 0.36434258303214617 0 -0.33589885594156482 0.38644176117037271 0 -0.31513637375938253 0.38444066485979828 0 -0.2969182424431504 0.37090505478451319 0 -0.31513637375938253 0.38444066485979828 0 -0.29898240703843809 0.38977861403162661 0 -0.31513637375938253 0.38444066485979828 0 -0.29898240703843809 0.38977861403162661 0 -0.30725672201245108 0.40587634723818822 0 -0.29898240703843809 0.38977861403162661 0 -0.30725672201245108 0.40587634723818822 0 -0.28836376322748097 0.40524005999358059 0 -0.29898240703843809 0.38977861403162661 0 -0.28836376322748097 0.40524005999358059 0 -0.27154878911400387 0.39086398345244089 0 -0.2969182424431504 0.37090505478451319 0 -0.29898240703843809 0.38977861403162661 0 -0.27154878911400387 0.39086398345244089 0 -0.28000767922184272 0.36802650630150652 0 -0.2969182424431504 0.37090505478451319 0 -0.27154878911400387 0.39086398345244089 0 -0.26827366003954672 0.37161780368733821 0 -0.27154878911400387 0.39086398345244089 0 -0.26028792276529711 0.383831650878519 0 -0.28000767922184272 0.36802650630150652 0 -0.27154878911400387 0.39086398345244089 0 -0.26827366003954672 0.37161780368733821 0 -0.28000767922184272 0.36802650630150652 0 -0.27154878911400387 0.39086398345244089 0 -0.27154878911400387 0.39086398345244089 0 -0.26260716915057719 0.41500474412007088 0 -0.27406892944141142 0.4079891850190322 0 -0.27154878911400387 0.39086398345244089 0 -0.26260716915057719 0.41500474412007088 0 -0.28836376322748097 0.40524005999358059 0 -0.27154878911400387 0.39086398345244089 0 -0.27406892944141142 0.4079891850190322 0 -0.27154878911400387 0.39086398345244089 0 -0.25854844412876848 0.40756239259936272 0 -0.26260716915057719 0.41500474412007088 0 -0.25854844412876848 0.40756239259936272 0 -0.24378868076877391 0.38761037426242018 0 -0.26028792276529711 0.383831650878519 0 -0.25854844412876848 0.40756239259936272 0 -0.24378868076877391 0.38761037426242018 0 -0.27154878911400387 0.39086398345244089 0 -0.26028792276529711 0.383831650878519 0 -0.25854844412876848 0.40756239259936272 0 -0.26028792276529711 0.383831650878519 0 -0.25854844412876848 0.40756239259936272 0 -0.25290804108530268 0.3738556417100492 0 -0.26028792276529711 0.383831650878519 0 -0.24378868076877391 0.38761037426242018 0 -0.25650706503281162 0.43541179474966613 0 -0.25804637789612622 0.41441180359152341 0 -0.25650706503281162 0.43541179474966613 0 -0.25059996062830647 0.42641743371929303 0 -0.25804637789612622 0.41441180359152341 0 -0.25876689418163368 0.42537279367958231 0 -0.25650706503281162 0.43541179474966613 0 -0.25804637789612622 0.41441180359152341 0 -0.25876689418163368 0.42537279367958231 0 -0.26544090832943301 0.43060703621748248 0 -0.2642079780894766 0.41521286250246908 0 -0.26544090832943301 0.43060703621748248 0 -0.25650706503281162 0.43541179474966613 0 -0.27012863850171509 0.44372989779681399 0 -0.25876689418163368 0.42537279367958231 0 -0.26544090832943301 0.43060703621748248 0 -0.25650706503281162 0.43541179474966613 0 -0.25059996062830647 0.42641743371929303 0 -0.25804637789612622 0.41441180359152341 0 -0.24299842589361209 0.42296427722315849 0 -0.25854844412876848 0.40756239259936272 0 -0.25804637789612622 0.41441180359152341 0 -0.25854844412876848 0.40756239259936272 0 -0.26260716915057719 0.41500474412007088 0 -0.25854844412876848 0.40756239259936272 0 -0.25804637789612622 0.41441180359152341 0 -0.26260716915057719 0.41500474412007088 0 -0.25876689418163368 0.42537279367958231 0 -0.26260716915057719 0.41500474412007088 0 -0.2642079780894766 0.41521286250246908 0 -0.25876689418163368 0.42537279367958231 0 -0.25804637789612622 0.41441180359152341 0 -0.26260716915057719 0.41500474412007088 0 -0.25876689418163368 0.42537279367958231 0 -0.26260716915057719 0.41500474412007088 0 -0.25804637789612622 0.41441180359152341 0 -0.26260716915057719 0.41500474412007088 0 -0.26260716915057719 0.41500474412007088 0 -0.2642079780894766 0.41521286250246908 0 -0.2642079780894766 0.41521286250246908 0 -0.2806297690639486 0.41734783094914069 0 -0.2642079780894766 0.41521286250246908 0 -0.27406892944141142 0.4079891850190322 0 -0.2806297690639486 0.41734783094914069 0 -0.26260716915057719 0.41500474412007088 0 -0.2642079780894766 0.41521286250246908 0 -0.27406892944141142 0.4079891850190322 0 -0.28836376322748097 0.40524005999358059 0 -0.27406892944141142 0.4079891850190322 0 -0.2806297690639486 0.41734783094914069 0 -0.2642079780894766 0.41521286250246908 0 -0.27759396584152762 0.43330783235888048 0 -0.2642079780894766 0.41521286250246908 0 -0.2806297690639486 0.41734783094914069 0 -0.27759396584152762 0.43330783235888048 0 -0.26544090832943301 0.43060703621748248 0 -0.2642079780894766 0.41521286250246908 0 -0.27759396584152762 0.43330783235888048 0 -0.26544090832943301 0.43060703621748248 0 -0.27759396584152762 0.43330783235888048 0 -0.27012863850171509 0.44372989779681399 0 -0.27759396584152762 0.43330783235888048 0 -0.2878459465608173 0.42649483231730739 0 -0.29610849129937239 0.435840866565397 0 -0.2806297690639486 0.41734783094914069 0 -0.27759396584152762 0.43330783235888048 0 -0.2878459465608173 0.42649483231730739 0 -0.2878459465608173 0.42649483231730739 0 -0.29610849129937239 0.435840866565397 0 -0.29705156003842059 0.41948279939581151 0 -0.2806297690639486 0.41734783094914069 0 -0.2878459465608173 0.42649483231730739 0 -0.29705156003842059 0.41948279939581151 0 -0.2806297690639486 0.41734783094914069 0 -0.29705156003842059 0.41948279939581151 0 -0.28836376322748097 0.40524005999358059 0 -0.2806297690639486 0.41734783094914069 0 -0.29705156003842059 0.41948279939581151 0 -0.30725672201245108 0.40587634723818822 0 -0.28836376322748097 0.40524005999358059 0 -0.29705156003842059 0.41948279939581151 0 -0.30725672201245108 0.40587634723818822 0 -0.29705156003842059 0.41948279939581151 0 -0.30739597146189029 0.42213535649593859 0 -0.29610849129937239 0.435840866565397 0 -0.29705156003842059 0.41948279939581151 0 -0.30739597146189029 0.42213535649593859 0 -0.29610849129937239 0.435840866565397 0 -0.30739597146189029 0.42213535649593859 0 -0.31240910399228322 0.43750392579674002 0 -0.30295941231266271 0.44481052759696688 0 -0.31234010036541721 0.45449451581043843 0 -0.2909799535935777 0.4514028022152925 0 -0.29610849129937239 0.435840866565397 0 -0.31240910399228322 0.43750392579674002 0 -0.30295941231266271 0.44481052759696688 0 -0.31240910399228322 0.43750392579674002 0 -0.30295941231266271 0.44481052759696688 0 -0.31234010036541721 0.45449451581043843 0 -0.31234010036541721 0.45449451581043843 0 -0.2909799535935777 0.4514028022152925 0 -0.30436594134562778 0.46949777207170462 0 -0.2909799535935777 0.4514028022152925 0 -0.30436594134562778 0.46949777207170462 0 -0.31234010036541721 0.45449451581043843 0 -0.30436594134562778 0.46949777207170462 0 -0.31784154853414542 0.46675816179249952 0 -0.28863295306311088 0.46578716309770191 0 -0.2909799535935777 0.4514028022152925 0 -0.30436594134562778 0.46949777207170462 0 -0.28863295306311088 0.46578716309770191 0 -0.2909799535935777 0.4514028022152925 0 -0.27612665239948481 0.45564060305112192 0 -0.27759396584152762 0.43330783235888048 0 -0.2909799535935777 0.4514028022152925 0 -0.27759396584152762 0.43330783235888048 0 -0.2909799535935777 0.4514028022152925 0 -0.27909594563663248 0.44663691103322339 0 -0.27759396584152762 0.43330783235888048 0 -0.29610849129937239 0.435840866565397 0 -0.2909799535935777 0.4514028022152925 0 -0.29610849129937239 0.435840866565397 0 -0.30295941231266271 0.44481052759696688 0 -0.2909799535935777 0.4514028022152925 0 -0.2909799535935777 0.4514028022152925 0 -0.27909594563663248 0.44663691103322339 0 -0.27612665239948481 0.45564060305112192 0 -0.27759396584152762 0.43330783235888048 0 -0.27012863850171509 0.44372989779681399 0 -0.27909594563663248 0.44663691103322339 0 -0.27012863850171509 0.44372989779681399 0 -0.27612665239948481 0.45564060305112192 0 -0.26413281477365202 0.45078555543729681 0 -0.27012863850171509 0.44372989779681399 0 -0.27909594563663248 0.44663691103322339 0 -0.27612665239948481 0.45564060305112192 0 -0.28863295306311088 0.46578716309770191 0 -0.27612665239948481 0.45564060305112192 0 -0.26293396576474998 0.46273369568107342 0 -0.28863295306311088 0.46578716309770191 0 -0.26293396576474998 0.46273369568107342 0 -0.27334555514248549 0.47380874842581489 0 -0.28863295306311088 0.46578716309770191 0 -0.26293396576474998 0.46273369568107342 0 -0.27612665239948481 0.45564060305112192 0 -0.26293396576474998 0.46273369568107342 0 -0.26413281477365202 0.45078555543729681 0 -0.26293396576474998 0.46273369568107342 0 -0.25496775216949857 0.45641178590780879 0 -0.23723497846638911 0.45968022826444532 0 -0.26293396576474998 0.46273369568107342 0 -0.23723497846638911 0.45968022826444532 0 -0.26293396576474998 0.46273369568107342 0 -0.25496775216949857 0.45641178590780879 0 -0.26413281477365202 0.45078555543729681 0 -0.26293396576474998 0.46273369568107342 0 -0.25658680314654969 0.47327500690366958 0 -0.23723497846638911 0.45968022826444532 0 -0.25650706503281162 0.43541179474966613 0 -0.25496775216949857 0.45641178590780879 0 -0.25650706503281162 0.43541179474966613 0 -0.25496775216949857 0.45641178590780879 0 -0.2445193356415174 0.4455358069413623 0 -0.25650706503281162 0.43541179474966613 0 -0.25496775216949857 0.45641178590780879 0 -0.26413281477365202 0.45078555543729681 0 -0.25650706503281162 0.43541179474966613 0 -0.27012863850171509 0.44372989779681399 0 -0.26413281477365202 0.45078555543729681 0 -0.27453203683748661 0.5 0 -0.26608230303987801 0.4856092473520624 0 -0.24821767325543501 0.5 0 -0.25030165867090959 0.4837517237055165 0 -0.26608230303987801 0.4856092473520624 0 -0.24821767325543501 0.5 0 -0.26293396576474998 0.46273369568107342 0 -0.25658680314654969 0.47327500690366958 0 -0.27334555514248549 0.47380874842581489 0 -0.25658680314654969 0.47327500690366958 0 -0.27334555514248549 0.47380874842581489 0 -0.26608230303987801 0.4856092473520624 0 -0.25030165867090959 0.4837517237055165 0 -0.25658680314654969 0.47327500690366958 0 -0.26608230303987801 0.4856092473520624 0 -0.25030165867090959 0.4837517237055165 0 -0.25658680314654969 0.47327500690366958 0 -0.24515571949348289 0.47537835920254562 0 -0.27334555514248549 0.47380874842581489 0 -0.26608230303987801 0.4856092473520624 0 -0.28734523070608842 0.48266340545820441 0 -0.27453203683748661 0.5 0 -0.26608230303987801 0.4856092473520624 0 -0.28734523070608842 0.48266340545820441 0 -0.27453203683748661 0.5 0 -0.28734523070608842 0.48266340545820441 0 -0.30084640041953808 0.5 0 -0.28863295306311088 0.46578716309770191 0 -0.27334555514248549 0.47380874842581489 0 -0.28734523070608842 0.48266340545820441 0 -0.28863295306311088 0.46578716309770191 0 -0.28734523070608842 0.48266340545820441 0 -0.30436594134562778 0.46949777207170462 0 -0.28734523070608842 0.48266340545820441 0 -0.30436594134562778 0.46949777207170462 0 -0.30265097838973321 0.48380098708060498 0 -0.30436594134562778 0.46949777207170462 0 -0.30265097838973321 0.48380098708060498 0 -0.31804634108767832 0.48304277079251101 0 -0.28734523070608842 0.48266340545820441 0 -0.30265097838973321 0.48380098708060498 0 -0.30084640041953808 0.5 0 -0.30265097838973321 0.48380098708060498 0 -0.30084640041953808 0.5 0 -0.31804634108767832 0.48304277079251101 0 -0.30084640041953808 0.5 0 -0.32716076400158978 0.5 0 -0.31804634108767832 0.48304277079251101 0 -0.32716076400158978 0.5 0 -0.33920218584201978 0.48464023757875091 0 -0.3534751275836413 0.49999999999999878 0 -0.32716076400158978 0.5 0 -0.33920218584201978 0.48464023757875091 0 -0.31804634108767832 0.48304277079251101 0 -0.33920218584201978 0.48464023757875091 0 -0.32946526020550537 0.47134900962393789 0 -0.31804634108767832 0.48304277079251101 0 -0.33920218584201978 0.48464023757875091 0 -0.32946526020550537 0.47134900962393789 0 -0.34430864220961099 0.46594404311087101 0 -0.30436594134562778 0.46949777207170462 0 -0.31804634108767832 0.48304277079251101 0 -0.31784154853414542 0.46675816179249952 0 -0.32946526020550537 0.47134900962393789 0 -0.31804634108767832 0.48304277079251101 0 -0.31784154853414542 0.46675816179249952 0 -0.32946526020550537 0.47134900962393789 0 -0.31784154853414542 0.46675816179249952 0 -0.33004176634922527 0.45564057889047732 0 -0.31234010036541721 0.45449451581043843 0 -0.31784154853414542 0.46675816179249952 0 -0.33004176634922527 0.45564057889047732 0 -0.31234010036541721 0.45449451581043843 0 -0.32487667402770459 0.44302633237433381 0 -0.33004176634922527 0.45564057889047732 0 -0.31240910399228322 0.43750392579674002 0 -0.31234010036541721 0.45449451581043843 0 -0.32487667402770459 0.44302633237433381 0 -0.33964677515101499 0.42961601508467567 0 -0.32487667402770459 0.44302633237433381 0 -0.3367027099777144 0.44313791075801068 0 -0.32487667402770459 0.44302633237433381 0 -0.3367027099777144 0.44313791075801068 0 -0.33004176634922527 0.45564057889047732 0 -0.3367027099777144 0.44313791075801068 0 -0.33004176634922527 0.45564057889047732 0 -0.34447300263438452 0.45001296842709659 0 -0.3367027099777144 0.44313791075801068 0 -0.34460848101734648 0.43787887615672372 0 -0.34447300263438452 0.45001296842709659 0 -0.32946526020550537 0.47134900962393789 0 -0.33004176634922527 0.45564057889047732 0 -0.34430864220961099 0.46594404311087101 0 -0.33004176634922527 0.45564057889047732 0 -0.34430864220961099 0.46594404311087101 0 -0.34447300263438452 0.45001296842709659 0 -0.34430864220961099 0.46594404311087101 0 -0.34447300263438452 0.45001296842709659 0 -0.3610476557729419 0.45959321175460749 0 -0.34430864220961099 0.46594404311087101 0 -0.3610476557729419 0.45959321175460749 0 -0.35726139167829152 0.47979660587730311 0 -0.34447300263438452 0.45001296842709659 0 -0.35329417083808762 0.44272955033713368 0 -0.3610476557729419 0.45959321175460749 0 -0.34460848101734648 0.43787887615672372 0 -0.34447300263438452 0.45001296842709659 0 -0.35329417083808762 0.44272955033713368 0 -0.35081753161354018 0.43079190134805728 0 -0.35329417083808762 0.44272955033713368 0 -0.36483391986759101 0.43938981763191159 0 -0.36483391986759101 0.43938981763191159 0 -0.36982508649130652 0.45078168270744129 0 -0.3610476557729419 0.45959321175460749 0 -0.36483391986759101 0.43938981763191159 0 -0.3610476557729419 0.45959321175460749 0 -0.35329417083808762 0.44272955033713368 0 -0.36483391986759101 0.43938981763191159 0 -0.3610476557729419 0.45959321175460749 0 -0.38224190079936271 0.45006820067963232 0 -0.36483391986759101 0.43938981763191159 0 -0.38224190079936271 0.45006820067963232 0 -0.36483391986759101 0.43938981763191159 0 -0.36982508649130652 0.45078168270744129 0 -0.38224190079936271 0.45006820067963232 0 -0.37717856875035488 0.43646572130173161 0 -0.36483391986759101 0.43938981763191159 0 -0.37606570410381668 0.47366176847889557 0 -0.37722236811798338 0.46009136062209011 0 -0.3610476557729419 0.45959321175460749 0 -0.37722236811798338 0.46009136062209011 0 -0.36982508649130652 0.45078168270744129 0 -0.3610476557729419 0.45959321175460749 0 -0.37606570410381668 0.47366176847889557 0 -0.3610476557729419 0.45959321175460749 0 -0.35726139167829152 0.47979660587730311 0 -0.37606570410381668 0.47366176847889557 0 -0.3534751275836413 0.49999999999999878 0 -0.35726139167829152 0.47979660587730311 0 -0.33920218584201978 0.48464023757875091 0 -0.3534751275836413 0.49999999999999878 0 -0.35726139167829152 0.47979660587730311 0 -0.3534751275836413 0.49999999999999878 0 -0.35726139167829152 0.47979660587730311 0 -0.3610476557729419 0.45959321175460749 0 -0.35726139167829152 0.47979660587730311 0 -0.33920218584201978 0.48464023757875091 0 -0.34430864220961099 0.46594404311087101 0 -0.35726139167829152 0.47979660587730311 0 -0.14074422522680519 0.47879457849721951 0 -0.1525287557788256 0.46243479849400582 0 -0.16033737588042549 0.48336075324267158 0 -0.1389051124483377 0.5 0 -0.16033737588042549 0.48336075324267158 0 -0.167624060821566 0.499999999999999 0 -0.14074422522680519 0.47879457849721951 0 -0.1389051124483377 0.5 0 -0.16033737588042549 0.48336075324267158 0 -0.14074422522680519 0.47879457849721951 0 -0.1389051124483377 0.5 0 -0.1251989796214896 0.48343113578115859 0 -0.14074422522680519 0.47879457849721951 0 -0.1251989796214896 0.48343113578115859 0 -0.12859057658337589 0.46069914291469699 0 -0.12859057658337589 0.46069914291469699 0 -0.1525287557788256 0.46243479849400582 0 -0.14074422522680519 0.47879457849721951 0 -0.12859057658337589 0.46069914291469699 0 -0.1525287557788256 0.46243479849400582 0 -0.12859057658337589 0.46069914291469699 0 -0.14501086790572379 0.44334818002460891 0 -0.12774258126637361 0.43196655821060898 0 -0.14501086790572379 0.44334818002460891 0 -0.1525287557788256 0.46243479849400582 0 -0.16289800859892981 0.4473349573461155 0 -0.14501086790572379 0.44334818002460891 0 -0.16289800859892981 0.4473349573461155 0 -0.15693904437447709 0.43076927195765408 0 -0.12859057658337589 0.46069914291469699 0 -0.14501086790572379 0.44334818002460891 0 -0.1525287557788256 0.46243479849400582 0 -0.1525287557788256 0.46243479849400582 0 -0.17116507124605071 0.46350946990546521 0 -0.16289800859892981 0.4473349573461155 0 -0.17116507124605071 0.46350946990546521 0 -0.16289800859892981 0.4473349573461155 0 -0.17844818379536559 0.44929710834515268 0 -0.16289800859892981 0.4473349573461155 0 -0.17329612849313619 0.43465091534980699 0 -0.15693904437447709 0.43076927195765408 0 -0.16289800859892981 0.4473349573461155 0 -0.17844818379536559 0.44929710834515268 0 -0.17329612849313619 0.43465091534980699 0 -0.17844818379536559 0.44929710834515268 0 -0.1878478987239891 0.45885169976324902 0 -0.18975402272338099 0.44864736319382442 0 -0.17844818379536559 0.44929710834515268 0 -0.18740826922785739 0.43733359046116332 0 -0.17329612849313619 0.43465091534980699 0 -0.17844818379536559 0.44929710834515268 0 -0.18975402272338099 0.44864736319382442 0 -0.18740826922785739 0.43733359046116332 0 -0.17116507124605071 0.46350946990546521 0 -0.18452312836754931 0.47700061596283239 0 -0.1878478987239891 0.45885169976324902 0 -0.17116507124605071 0.46350946990546521 0 -0.17844818379536559 0.44929710834515268 0 -0.1878478987239891 0.45885169976324902 0 -0.17116507124605071 0.46350946990546521 0 -0.18452312836754931 0.47700061596283239 0 -0.16033737588042549 0.48336075324267158 0 -0.1525287557788256 0.46243479849400582 0 -0.17116507124605071 0.46350946990546521 0 -0.16033737588042549 0.48336075324267158 0 -0.16033737588042549 0.48336075324267158 0 -0.167624060821566 0.499999999999999 0 -0.17002912715607979 0.49886192019447412 0 -0.18452312836754931 0.47700061596283239 0 -0.16033737588042549 0.48336075324267158 0 -0.17002912715607979 0.49886192019447412 0 -0.167624060821566 0.499999999999999 0 -0.17002912715607979 0.49886192019447412 0 -0.17002912715607979 0.49886192019447412 0 -0.19558894609133179 0.5 0 -0.19095988421122859 0.48895746492981268 0 -0.17002912715607979 0.49886192019447412 0 -0.19095988421122859 0.48895746492981268 0 -0.18452312836754931 0.47700061596283239 0 -0.17002912715607979 0.49886192019447412 0 -0.18452312836754931 0.47700061596283239 0 -0.17002912715607979 0.49886192019447412 0 -0.19095988421122859 0.48895746492981268 0 -0.19558894609133179 0.5 0 -0.19095988421122859 0.48895746492981268 0 -0.21189064126637641 0.47905300966514941 0 -0.19095988421122859 0.48895746492981268 0 -0.1978274015659173 0.47672329503604838 0 -0.21189064126637641 0.47905300966514941 0 -0.18452312836754931 0.47700061596283239 0 -0.1978274015659173 0.47672329503604838 0 -0.1990171295790176 0.45513931173119021 0 -0.1978274015659173 0.47672329503604838 0 -0.21189064126637641 0.47905300966514941 0 -0.1990171295790176 0.45513931173119021 0 -0.19095988421122859 0.48895746492981268 0 -0.21189064126637641 0.47905300966514941 0 -0.18452312836754931 0.47700061596283239 0 -0.19095988421122859 0.48895746492981268 0 -0.1978274015659173 0.47672329503604838 0 -0.19558894609133179 0.5 0 -0.21189064126637641 0.47905300966514941 0 -0.22190330967338351 0.5 0 -0.21189064126637641 0.47905300966514941 0 -0.22190330967338351 0.5 0 -0.2354657944192021 0.48449600506930479 0 -0.21189064126637641 0.47905300966514941 0 -0.23282139832152429 0.46914855440048608 0 -0.2354657944192021 0.48449600506930479 0 -0.21189064126637641 0.47905300966514941 0 -0.23282139832152429 0.46914855440048608 0 -0.25658680314654969 0.47327500690366958 0 -0.24515571949348289 0.47537835920254562 0 -0.23723497846638911 0.45968022826444532 0 -0.23282139832152429 0.46914855440048608 0 -0.24515571949348289 0.47537835920254562 0 -0.2354657944192021 0.48449600506930479 0 -0.25030165867090959 0.4837517237055165 0 -0.24515571949348289 0.47537835920254562 0 -0.2354657944192021 0.48449600506930479 0 -0.25030165867090959 0.4837517237055165 0 -0.24821767325543501 0.5 0 -0.2354657944192021 0.48449600506930479 0 -0.22190330967338351 0.5 0 -0.24821767325543501 0.5 0 -0.2354657944192021 0.48449600506930479 0 -0.2445193356415174 0.4455358069413623 0 -0.23723497846638911 0.45968022826444532 0 -0.2283264819684625 0.44202446297585779 0 -0.2445193356415174 0.4455358069413623 0 -0.2283264819684625 0.44202446297585779 0 -0.24252929423762939 0.43360278573544547 0 -0.25650706503281162 0.43541179474966613 0 -0.2445193356415174 0.4455358069413623 0 -0.24252929423762939 0.43360278573544547 0 -0.25496775216949857 0.45641178590780879 0 -0.2445193356415174 0.4455358069413623 0 -0.23723497846638911 0.45968022826444532 0 -0.23282139832152429 0.46914855440048608 0 -0.24515571949348289 0.47537835920254562 0 -0.23723497846638911 0.45968022826444532 0 -0.24515571949348289 0.47537835920254562 0 -0.23723497846638911 0.45968022826444532 0 -0.23282139832152429 0.46914855440048608 0 -0.23723497846638911 0.45968022826444532 0 -0.2181260540227038 0.45740976999781402 0 -0.21189064126637641 0.47905300966514941 0 -0.23282139832152429 0.46914855440048608 0 -0.2181260540227038 0.45740976999781402 0 -0.23723497846638911 0.45968022826444532 0 -0.2181260540227038 0.45740976999781402 0 -0.23723497846638911 0.45968022826444532 0 -0.2283264819684625 0.44202446297585779 0 -0.2181260540227038 0.45740976999781402 0 -0.23723497846638911 0.45968022826444532 0 -0.2283264819684625 0.44202446297585779 0 -0.2283264819684625 0.44202446297585779 0 -0.2092175575247788 0.43975400470923109 0 -0.2181260540227038 0.45740976999781402 0 -0.2092175575247788 0.43975400470923109 0 -0.2181260540227038 0.45740976999781402 0 -0.1990171295790176 0.45513931173119021 0 -0.2092175575247788 0.43975400470923109 0 -0.1990171295790176 0.45513931173119021 0 -0.2181260540227038 0.45740976999781402 0 -0.1990171295790176 0.45513931173119021 0 -0.21189064126637641 0.47905300966514941 0 -0.2181260540227038 0.45740976999781402 0 -0.1990171295790176 0.45513931173119021 0 -0.18452312836754931 0.47700061596283239 0 -0.1990171295790176 0.45513931173119021 0 -0.1878478987239891 0.45885169976324902 0 -0.18452312836754931 0.47700061596283239 0 -0.1990171295790176 0.45513931173119021 0 -0.1990171295790176 0.45513931173119021 0 -0.1878478987239891 0.45885169976324902 0 -0.18975402272338099 0.44864736319382442 0 -0.2092175575247788 0.43975400470923109 0 -0.1990171295790176 0.45513931173119021 0 -0.19909658388642329 0.44406925373068717 0 -0.1990171295790176 0.45513931173119021 0 -0.19909658388642329 0.44406925373068717 0 -0.18975402272338099 0.44864736319382442 0 -0.19909658388642329 0.44406925373068717 0 -0.18975402272338099 0.44864736319382442 0 -0.18740826922785739 0.43733359046116332 0 -0.19909658388642329 0.44406925373068717 0 -0.20048926588598009 0.42594532692747028 0 -0.18740826922785739 0.43733359046116332 0 -0.20048926588598009 0.42594532692747028 0 -0.1833454982117661 0.42085425028779871 0 -0.18740826922785739 0.43733359046116332 0 -0.2092175575247788 0.43975400470923109 0 -0.19909658388642329 0.44406925373068717 0 -0.20048926588598009 0.42594532692747028 0 -0.20048926588598009 0.42594532692747028 0 -0.19486434893031629 0.40619761803476301 0 -0.1833454982117661 0.42085425028779871 0 -0.21132955935436279 0.40833823136845998 0 -0.19486434893031629 0.40619761803476301 0 -0.20048926588598009 0.42594532692747028 0 -0.21132955935436279 0.40833823136845998 0 -0.19486434893031629 0.40619761803476301 0 -0.20048926588598009 0.42594532692747028 0 -0.21132955935436279 0.40833823136845998 0 -0.21941798547053701 0.42436869768726992 0 -0.21132955935436279 0.40833823136845998 0 -0.21941798547053701 0.42436869768726992 0 -0.2092175575247788 0.43975400470923109 0 -0.20048926588598009 0.42594532692747028 0 -0.21941798547053701 0.42436869768726992 0 -0.2092175575247788 0.43975400470923109 0 -0.21941798547053701 0.42436869768726992 0 -0.2283264819684625 0.44202446297585779 0 -0.23158720667105651 0.42817995472838932 0 -0.21941798547053701 0.42436869768726992 0 -0.2283264819684625 0.44202446297585779 0 -0.21941798547053701 0.42436869768726992 0 -0.2283264819684625 0.44202446297585779 0 -0.2092175575247788 0.43975400470923109 0 -0.21941798547053701 0.42436869768726992 0 -0.2283264819684625 0.44202446297585779 0 -0.23158720667105651 0.42817995472838932 0 -0.24252929423762939 0.43360278573544547 0 -0.21132955935436279 0.40833823136845998 0 -0.22856089411213629 0.41057844719260839 0 -0.2189001512750211 0.40091762296778061 0 -0.21941798547053701 0.42436869768726992 0 -0.22856089411213629 0.41057844719260839 0 -0.21132955935436279 0.40833823136845998 0 -0.21941798547053701 0.42436869768726992 0 -0.22856089411213629 0.41057844719260839 0 -0.23158720667105651 0.42817995472838932 0 -0.21941798547053701 0.42436869768726992 0 -0.22856089411213629 0.41057844719260839 0 -0.21132955935436279 0.40833823136845998 0 -0.22856089411213629 0.41057844719260839 0 -0.25854844412876848 0.40756239259936272 0 -0.25804637789612622 0.41441180359152341 0 -0.22856089411213629 0.41057844719260839 0 -0.25804637789612622 0.41441180359152341 0 -0.22856089411213629 0.41057844719260839 0 -0.23158720667105651 0.42817995472838932 0 -0.22856089411213629 0.41057844719260839 0 -0.24299842589361209 0.42296427722315849 0 -0.25804637789612622 0.41441180359152341 0 -0.22856089411213629 0.41057844719260839 0 -0.24299842589361209 0.42296427722315849 0 -0.25059996062830647 0.42641743371929303 0 -0.24299842589361209 0.42296427722315849 0 -0.24252929423762939 0.43360278573544547 0 -0.25650706503281162 0.43541179474966613 0 -0.25059996062830647 0.42641743371929303 0 -0.24252929423762939 0.43360278573544547 0 -0.23158720667105651 0.42817995472838932 0 -0.24299842589361209 0.42296427722315849 0 -0.24252929423762939 0.43360278573544547 0 -0.23739305070524519 0.38471179273785477 0 -0.24378868076877391 0.38761037426242018 0 -0.23119885757998021 0.3903619350973514 0 -0.23739305070524519 0.38471179273785477 0 -0.23756097464447151 0.37848409563832158 0 -0.24271981770988271 0.38616550181898318 0 -0.23739305070524519 0.38471179273785477 0 -0.24271981770988271 0.38616550181898318 0 -0.24378868076877391 0.38761037426242018 0 -0.23756097464447151 0.37848409563832158 0 -0.24271981770988271 0.38616550181898318 0 -0.24437978108753519 0.37268013198276051 0 -0.23739305070524519 0.38471179273785477 0 -0.23756097464447151 0.37848409563832158 0 -0.23167959020988649 0.38191612672804248 0 -0.25290804108530268 0.3738556417100492 0 -0.24271981770988271 0.38616550181898318 0 -0.24437978108753519 0.37268013198276051 0 -0.25290804108530268 0.3738556417100492 0 -0.24271981770988271 0.38616550181898318 0 -0.24378868076877391 0.38761037426242018 0 -0.25290804108530268 0.3738556417100492 0 -0.24378868076877391 0.38761037426242018 0 -0.24271981770988271 0.38616550181898318 0 -0.24378868076877391 0.38761037426242018 0 -0.22856089411213629 0.41057844719260839 0 -0.24378868076877391 0.38761037426242018 0 -0.23119885757998021 0.3903619350973514 0 -0.22856089411213629 0.41057844719260839 0 -0.24378868076877391 0.38761037426242018 0 -0.25854844412876848 0.40756239259936272 0 -0.22856089411213629 0.41057844719260839 0 -0.24378868076877391 0.38761037426242018 0 -0.22856089411213629 0.41057844719260839 0 -0.2232124820461181 0.39403621301794528 0 -0.23119885757998021 0.3903619350973514 0 -0.22856089411213629 0.41057844719260839 0 -0.2189001512750211 0.40091762296778061 0 -0.2232124820461181 0.39403621301794528 0 -0.2189001512750211 0.40091762296778061 0 -0.2232124820461181 0.39403621301794528 0 -0.21414419274657409 0.39211836991671001 0 -0.2232124820461181 0.39403621301794528 0 -0.22255844763771909 0.3833186566452369 0 -0.23119885757998021 0.3903619350973514 0 -0.2232124820461181 0.39403621301794528 0 -0.22255844763771909 0.3833186566452369 0 -0.21414419274657409 0.39211836991671001 0 -0.23739305070524519 0.38471179273785477 0 -0.23119885757998021 0.3903619350973514 0 -0.23167959020988649 0.38191612672804248 0 -0.22255844763771909 0.3833186566452369 0 -0.23119885757998021 0.3903619350973514 0 -0.23167959020988649 0.38191612672804248 0 -0.22255844763771909 0.3833186566452369 0 -0.23167959020988649 0.38191612672804248 0 -0.22969731770877591 0.37447434519136508 0 -0.23756097464447151 0.37848409563832158 0 -0.23167959020988649 0.38191612672804248 0 -0.22969731770877591 0.37447434519136508 0 -0.22255844763771909 0.3833186566452369 0 -0.22020829545972739 0.37274929056908179 0 -0.22969731770877591 0.37447434519136508 0 -0.22255844763771909 0.3833186566452369 0 -0.2105831245280709 0.381802810003806 0 -0.22020829545972739 0.37274929056908179 0 -0.2105831245280709 0.381802810003806 0 -0.21047234143722779 0.37204181356124832 0 -0.22020829545972739 0.37274929056908179 0 -0.22255844763771909 0.3833186566452369 0 -0.2105831245280709 0.381802810003806 0 -0.21414419274657409 0.39211836991671001 0 -0.2105831245280709 0.381802810003806 0 -0.21414419274657409 0.39211836991671001 0 -0.20360141312730179 0.39302180441216927 0 -0.2105831245280709 0.381802810003806 0 -0.20360141312730179 0.39302180441216927 0 -0.20086912161820161 0.38329517663812301 0 -0.2105831245280709 0.381802810003806 0 -0.19943229032995041 0.37312591810137219 0 -0.21047234143722779 0.37204181356124832 0 -0.2105831245280709 0.381802810003806 0 -0.20086912161820161 0.38329517663812301 0 -0.19943229032995041 0.37312591810137219 0 -0.21132955935436279 0.40833823136845998 0 -0.20360141312730179 0.39302180441216927 0 -0.19486434893031629 0.40619761803476301 0 -0.21132955935436279 0.40833823136845998 0 -0.2189001512750211 0.40091762296778061 0 -0.21414419274657409 0.39211836991671001 0 -0.21132955935436279 0.40833823136845998 0 -0.21414419274657409 0.39211836991671001 0 -0.20360141312730179 0.39302180441216927 0 -0.21132955935436279 0.40833823136845998 0 -0.20360141312730179 0.39302180441216927 0 -0.20360141312730179 0.39302180441216927 0 -0.19486434893031629 0.40619761803476301 0 -0.1877112454818621 0.39682397913574557 0 -0.20360141312730179 0.39302180441216927 0 -0.1877112454818621 0.39682397913574557 0 -0.18985965848748329 0.38523017403514459 0 -0.18985965848748329 0.38523017403514459 0 -0.1887085335126239 0.36947516734503449 0 -0.19943229032995041 0.37312591810137219 0 -0.20086912161820161 0.38329517663812301 0 -0.18985965848748329 0.38523017403514459 0 -0.19943229032995041 0.37312591810137219 0 -0.20360141312730179 0.39302180441216927 0 -0.20086912161820161 0.38329517663812301 0 -0.18985965848748329 0.38523017403514459 0 -0.18985965848748329 0.38523017403514459 0 -0.17556941793498981 0.37336007291772211 0 -0.1887085335126239 0.36947516734503449 0 -0.18985965848748329 0.38523017403514459 0 -0.17642159248316461 0.38995159067756829 0 -0.17556941793498981 0.37336007291772211 0 -0.16218396038267571 0.38954757926818168 0 -0.15350510409007651 0.37579406406054011 0 -0.16413677363352891 0.37158314056209829 0 -0.17642159248316461 0.38995159067756829 0 -0.16218396038267571 0.38954757926818168 0 -0.17556941793498981 0.37336007291772211 0 -0.16218396038267571 0.38954757926818168 0 -0.17556941793498981 0.37336007291772211 0 -0.16218396038267571 0.38954757926818168 0 -0.16413677363352891 0.37158314056209829 0 -0.17556941793498981 0.37336007291772211 0 -0.16218396038267571 0.38954757926818168 0 -0.16447737850430391 0.40251100716897059 0 -0.1493495066599603 0.39977691111673053 0 -0.17642159248316461 0.38995159067756829 0 -0.16218396038267571 0.38954757926818168 0 -0.16447737850430391 0.40251100716897059 0 -0.19486434893031629 0.40619761803476301 0 -0.1877112454818621 0.39682397913574557 0 -0.17839913850626979 0.40405700470106631 0 -0.19486434893031629 0.40619761803476301 0 -0.17839913850626979 0.40405700470106631 0 -0.17642159248316461 0.38995159067756829 0 -0.16447737850430391 0.40251100716897059 0 -0.17839913850626979 0.40405700470106631 0 -0.1877112454818621 0.39682397913574557 0 -0.18985965848748329 0.38523017403514459 0 -0.17642159248316461 0.38995159067756829 0 -0.1877112454818621 0.39682397913574557 0 -0.17642159248316461 0.38995159067756829 0 -0.17839913850626979 0.40405700470106631 0 -0.17839913850626979 0.40405700470106631 0 -0.1833454982117661 0.42085425028779871 0 -0.16770997162977111 0.41795230513206932 0 -0.19486434893031629 0.40619761803476301 0 -0.17839913850626979 0.40405700470106631 0 -0.1833454982117661 0.42085425028779871 0 -0.1833454982117661 0.42085425028779871 0 -0.18740826922785739 0.43733359046116332 0 -0.17329612849313619 0.43465091534980699 0 -0.1833454982117661 0.42085425028779871 0 -0.17329612849313619 0.43465091534980699 0 -0.16770997162977111 0.41795230513206932 0 -0.17329612849313619 0.43465091534980699 0 -0.15693904437447709 0.43076927195765408 0 -0.16770997162977111 0.41795230513206932 0 -0.15693904437447709 0.43076927195765408 0 -0.16770997162977111 0.41795230513206932 0 -0.15280010136398209 0.41378065211820769 0 -0.16447737850430391 0.40251100716897059 0 -0.17839913850626979 0.40405700470106631 0 -0.16770997162977111 0.41795230513206932 0 -0.16447737850430391 0.40251100716897059 0 -0.16770997162977111 0.41795230513206932 0 -0.15280010136398209 0.41378065211820769 0 -0.15280010136398209 0.41378065211820769 0 -0.14199277348474171 0.42363298598113303 0 -0.13745591264119639 0.40953448361945199 0 -0.15280010136398209 0.41378065211820769 0 -0.13745591264119639 0.40953448361945199 0 -0.1493495066599603 0.39977691111673053 0 -0.14501086790572379 0.44334818002460891 0 -0.15693904437447709 0.43076927195765408 0 -0.14199277348474171 0.42363298598113303 0 -0.15693904437447709 0.43076927195765408 0 -0.15280010136398209 0.41378065211820769 0 -0.14199277348474171 0.42363298598113303 0 -0.14501086790572379 0.44334818002460891 0 -0.14199277348474171 0.42363298598113303 0 -0.12774258126637361 0.43196655821060898 0 -0.14199277348474171 0.42363298598113303 0 -0.12774258126637361 0.43196655821060898 0 -0.12626538229327941 0.41751927109444859 0 -0.12626538229327941 0.41751927109444859 0 -0.13745591264119639 0.40953448361945199 0 -0.12082572697990961 0.40660523088268802 0 -0.14199277348474171 0.42363298598113303 0 -0.12626538229327941 0.41751927109444859 0 -0.13745591264119639 0.40953448361945199 0 -0.13745591264119639 0.40953448361945199 0 -0.1334006945047167 0.39596166816184108 0 -0.1493495066599603 0.39977691111673053 0 -0.13745591264119639 0.40953448361945199 0 -0.1334006945047167 0.39596166816184108 0 -0.12082572697990961 0.40660523088268802 0 -0.1334006945047167 0.39596166816184108 0 -0.12169056730583371 0.39481169775787001 0 -0.12082572697990961 0.40660523088268802 0 -0.1334006945047167 0.39596166816184108 0 -0.1230736302473963 0.38318059764092671 0 -0.12169056730583371 0.39481169775787001 0 -0.1334006945047167 0.39596166816184108 0 -0.1430260472012212 0.38525677025339772 0 -0.1230736302473963 0.38318059764092671 0 -0.1430260472012212 0.38525677025339772 0 -0.13578162110228301 0.37275117300411681 0 -0.1230736302473963 0.38318059764092671 0 -0.13578162110228301 0.37275117300411681 0 -0.12296577242776111 0.37403941816587571 0 -0.1230736302473963 0.38318059764092671 0 -0.15350510409007651 0.37579406406054011 0 -0.1430260472012212 0.38525677025339772 0 -0.13578162110228301 0.37275117300411681 0 -0.16218396038267571 0.38954757926818168 0 -0.15350510409007651 0.37579406406054011 0 -0.1430260472012212 0.38525677025339772 0 -0.1334006945047167 0.39596166816184108 0 -0.1430260472012212 0.38525677025339772 0 -0.1493495066599603 0.39977691111673053 0 -0.16218396038267571 0.38954757926818168 0 -0.1430260472012212 0.38525677025339772 0 -0.1493495066599603 0.39977691111673053 0 -0.16447737850430391 0.40251100716897059 0 -0.15280010136398209 0.41378065211820769 0 -0.1493495066599603 0.39977691111673053 0 -0.1428843656714115 0.34706315433005902 0 -0.16631830912670331 0.34731303947048142 0 -0.1410999396266128 0.35893913972579711 0 -0.14491470097235229 0.34935738400776728 0 -0.16234657347154871 0.36015256631142162 0 -0.1428843656714115 0.34706315433005902 0 -0.14491470097235229 0.34935738400776728 0 -0.16631830912670331 0.34731303947048142 0 -0.1410999396266128 0.35893913972579711 0 -0.1428843656714115 0.34706315433005902 0 -0.14491470097235229 0.34935738400776728 0 -0.1428843656714115 0.34706315433005902 0 -0.14491470097235229 0.34935738400776728 0 -0.15350510409007651 0.37579406406054011 0 -0.13578162110228301 0.37275117300411681 0 -0.16234657347154871 0.36015256631142162 0 -0.13578162110228301 0.37275117300411681 0 -0.16234657347154871 0.36015256631142162 0 -0.1410999396266128 0.35893913972579711 0 -0.13578162110228301 0.37275117300411681 0 -0.16234657347154871 0.36015256631142162 0 -0.1410999396266128 0.35893913972579711 0 -0.13578162110228301 0.37275117300411681 0 -0.12541893198456541 0.36256701212732789 0 -0.13578162110228301 0.37275117300411681 0 -0.12541893198456541 0.36256701212732789 0 -0.12296577242776111 0.37403941816587571 0 -0.1410999396266128 0.35893913972579711 0 -0.1428843656714115 0.34706315433005902 0 -0.12541893198456541 0.36256701212732789 0 -0.1428843656714115 0.34706315433005902 0 -0.1233244569280421 0.34685457950984999 0 -0.1428843656714115 0.34706315433005902 0 -0.12541893198456541 0.36256701212732789 0 -0.1233244569280421 0.34685457950984999 0 -0.1428843656714115 0.34706315433005902 0 -0.12541893198456541 0.36256701212732789 0 -0.13762904156263481 0.3324767652746291 0 -0.13357863635577469 0.33654790576064919 0 -0.1200149295023538 0.32122124578067102 0 -0.1428843656714115 0.34706315433005902 0 -0.13357863635577469 0.33654790576064919 0 -0.1233244569280421 0.34685457950984999 0 -0.13357863635577469 0.33654790576064919 0 -0.1233244569280421 0.34685457950984999 0 -0.13357863635577469 0.33654790576064919 0 -0.1200149295023538 0.32122124578067102 0 -0.13762904156263481 0.3324767652746291 0 -0.13357863635577469 0.33654790576064919 0 -0.13762904156263481 0.3324767652746291 0 -0.14138759889620839 0.32869896672157578 0 -0.13762904156263481 0.3324767652746291 0 -0.1408724196979067 0.3351484720948788 0 -0.14138759889620839 0.32869896672157578 0 -0.13762904156263481 0.3324767652746291 0 -0.13357863635577469 0.33654790576064919 0 -0.1408724196979067 0.3351484720948788 0 -0.1428843656714115 0.34706315433005902 0 -0.13357863635577469 0.33654790576064919 0 -0.1408724196979067 0.3351484720948788 0 -0.1428843656714115 0.34706315433005902 0 -0.13357863635577469 0.33654790576064919 0 -0.13762904156263481 0.3324767652746291 0 -0.14153783749322921 0.30828147096186159 0 -0.13762904156263481 0.3324767652746291 0 -0.14153783749322921 0.30828147096186159 0 -0.1200149295023538 0.32122124578067102 0 -0.13762904156263481 0.3324767652746291 0 -0.14138759889620839 0.32869896672157578 0 -0.14153783749322921 0.30828147096186159 0 -0.15390821799736731 0.32163012621833098 0 -0.14138759889620839 0.32869896672157578 0 -0.14153783749322921 0.30828147096186159 0 -0.15390821799736731 0.32163012621833098 0 -0.1579847350986246 0.31633475918929083 0 -0.14153783749322921 0.30828147096186159 0 -0.15390821799736731 0.32163012621833098 0 -0.14138759889620839 0.32869896672157578 0 -0.1482398499157013 0.33093676768602409 0 -0.15545517759327521 0.32785866820686771 0 -0.15390821799736731 0.32163012621833098 0 -0.1482398499157013 0.33093676768602409 0 -0.1428843656714115 0.34706315433005902 0 -0.15155239359649139 0.33472630926263941 0 -0.1645813707379335 0.3294187289111295 0 -0.1428843656714115 0.34706315433005902 0 -0.1645813707379335 0.3294187289111295 0 -0.1428843656714115 0.34706315433005902 0 -0.145760477322955 0.33834526218693878 0 -0.1408724196979067 0.3351484720948788 0 -0.1428843656714115 0.34706315433005902 0 -0.145760477322955 0.33834526218693878 0 -0.15155239359649139 0.33472630926263941 0 -0.1408724196979067 0.3351484720948788 0 -0.14138759889620839 0.32869896672157578 0 -0.1482398499157013 0.33093676768602409 0 -0.145760477322955 0.33834526218693878 0 -0.1408724196979067 0.3351484720948788 0 -0.1482398499157013 0.33093676768602409 0 -0.145760477322955 0.33834526218693878 0 -0.1482398499157013 0.33093676768602409 0 -0.15155239359649139 0.33472630926263941 0 -0.15545517759327521 0.32785866820686771 0 -0.1482398499157013 0.33093676768602409 0 -0.15155239359649139 0.33472630926263941 0 -0.1645813707379335 0.3294187289111295 0 -0.17248684443749321 0.33720122695469978 0 -0.16631830912670331 0.34731303947048142 0 -0.1428843656714115 0.34706315433005902 0 -0.1645813707379335 0.3294187289111295 0 -0.16631830912670331 0.34731303947048142 0 -0.15545517759327521 0.32785866820686771 0 -0.15155239359649139 0.33472630926263941 0 -0.1645813707379335 0.3294187289111295 0 -0.1645813707379335 0.3294187289111295 0 -0.17248684443749321 0.33720122695469978 0 -0.17255437102990259 0.32871626499449003 0 -0.1579847350986246 0.31633475918929083 0 -0.16881672061678399 0.32163868358561631 0 -0.15390821799736731 0.32163012621833098 0 -0.1579847350986246 0.31633475918929083 0 -0.15970103420221479 0.32415772963659018 0 -0.15545517759327521 0.32785866820686771 0 -0.1645813707379335 0.3294187289111295 0 -0.15970103420221479 0.32415772963659018 0 -0.1579847350986246 0.31633475918929083 0 -0.15970103420221479 0.32415772963659018 0 -0.16881672061678399 0.32163868358561631 0 -0.15545517759327521 0.32785866820686771 0 -0.15390821799736731 0.32163012621833098 0 -0.15970103420221479 0.32415772963659018 0 -0.1645813707379335 0.3294187289111295 0 -0.15970103420221479 0.32415772963659018 0 -0.16881672061678399 0.32163868358561631 0 -0.1645813707379335 0.3294187289111295 0 -0.16881672061678399 0.32163868358561631 0 -0.17255437102990259 0.32871626499449003 0 -0.1579847350986246 0.31633475918929083 0 -0.16881672061678399 0.32163868358561631 0 -0.16741700534784271 0.313583066958524 0 -0.16881672061678399 0.32163868358561631 0 -0.16741700534784271 0.313583066958524 0 -0.17421600553906061 0.31597224189195228 0 -0.17421600553906061 0.31597224189195228 0 -0.18085654929183709 0.32051846040107451 0 -0.18129620578495889 0.30783812483036188 0 -0.16881672061678399 0.32163868358561631 0 -0.17421600553906061 0.31597224189195228 0 -0.18085654929183709 0.32051846040107451 0 -0.16881672061678399 0.32163868358561631 0 -0.18085654929183709 0.32051846040107451 0 -0.17255437102990259 0.32871626499449003 0 -0.18085654929183709 0.32051846040107451 0 -0.17255437102990259 0.32871626499449003 0 -0.17958410155823071 0.33254315379729299 0 -0.185145212308329 0.32705195644964369 0 -0.18085654929183709 0.32051846040107451 0 -0.17958410155823071 0.33254315379729299 0 -0.185145212308329 0.32705195644964369 0 -0.18085654929183709 0.32051846040107451 0 -0.1923952675718674 0.32413375498961278 0 -0.18085654929183709 0.32051846040107451 0 -0.18983841364249041 0.3148084349979593 0 -0.18129620578495889 0.30783812483036188 0 -0.1793731837509375 0.33976311090655481 0 -0.17248684443749321 0.33720122695469978 0 -0.16631830912670331 0.34731303947048142 0 -0.1793731837509375 0.33976311090655481 0 -0.17248684443749321 0.33720122695469978 0 -0.17958410155823071 0.33254315379729299 0 -0.17248684443749321 0.33720122695469978 0 -0.17255437102990259 0.32871626499449003 0 -0.17958410155823071 0.33254315379729299 0 -0.185145212308329 0.32705195644964369 0 -0.17958410155823071 0.33254315379729299 0 -0.18956513779144579 0.33420417469157387 0 -0.1793731837509375 0.33976311090655481 0 -0.17958410155823071 0.33254315379729299 0 -0.18956513779144579 0.33420417469157387 0 -0.1793731837509375 0.33976311090655481 0 -0.18891152584081439 0.34755395961872609 0 -0.18956513779144579 0.33420417469157387 0 -0.16234657347154871 0.36015256631142162 0 -0.1758484651531971 0.36209020946479442 0 -0.18891152584081439 0.34755395961872609 0 -0.16631830912670331 0.34731303947048142 0 -0.16234657347154871 0.36015256631142162 0 -0.18891152584081439 0.34755395961872609 0 -0.16234657347154871 0.36015256631142162 0 -0.18891152584081439 0.34755395961872609 0 -0.1793731837509375 0.33976311090655481 0 -0.16631830912670331 0.34731303947048142 0 -0.18891152584081439 0.34755395961872609 0 -0.16631830912670331 0.34731303947048142 0 -0.18891152584081439 0.34755395961872609 0 -0.1758484651531971 0.36209020946479442 0 -0.18891152584081439 0.34755395961872609 0 -0.18895487548730391 0.35717256656726237 0 -0.14491470097235229 0.34935738400776728 0 -0.16631830912670331 0.34731303947048142 0 -0.16234657347154871 0.36015256631142162 0 -0.15350510409007651 0.37579406406054011 0 -0.16234657347154871 0.36015256631142162 0 -0.16413677363352891 0.37158314056209829 0 -0.16234657347154871 0.36015256631142162 0 -0.16413677363352891 0.37158314056209829 0 -0.1758484651531971 0.36209020946479442 0 -0.16413677363352891 0.37158314056209829 0 -0.17556941793498981 0.37336007291772211 0 -0.1758484651531971 0.36209020946479442 0 -0.17556941793498981 0.37336007291772211 0 -0.1758484651531971 0.36209020946479442 0 -0.18895487548730391 0.35717256656726237 0 -0.17556941793498981 0.37336007291772211 0 -0.18895487548730391 0.35717256656726237 0 -0.17556941793498981 0.37336007291772211 0 -0.1887085335126239 0.36947516734503449 0 -0.18895487548730391 0.35717256656726237 0 -0.1887085335126239 0.36947516734503449 0 -0.19403110810591151 0.36544491593512268 0 -0.19943229032995041 0.37312591810137219 0 -0.1887085335126239 0.36947516734503449 0 -0.19403110810591151 0.36544491593512268 0 -0.18895487548730391 0.35717256656726237 0 -0.19403110810591151 0.36544491593512268 0 -0.1990287330937679 0.36200601172682167 0 -0.18895487548730391 0.35717256656726237 0 -0.19403110810591151 0.36544491593512268 0 -0.1990287330937679 0.36200601172682167 0 -0.19943229032995041 0.37312591810137219 0 -0.1990287330937679 0.36200601172682167 0 -0.19943229032995041 0.37312591810137219 0 -0.20447906623287371 0.36726335424727902 0 -0.18895487548730391 0.35717256656726237 0 -0.19919131104944551 0.3476635769170362 0 -0.19683860913770521 0.34763848915284212 0 -0.18891152584081439 0.34755395961872609 0 -0.19683860913770521 0.34763848915284212 0 -0.18891152584081439 0.34755395961872609 0 -0.18895487548730391 0.35717256656726237 0 -0.19683860913770521 0.34763848915284212 0 -0.18895487548730391 0.35717256656726237 0 -0.19919131104944551 0.3476635769170362 0 -0.18895487548730391 0.35717256656726237 0 -0.19683860913770521 0.34763848915284212 0 -0.1990287330937679 0.36200601172682167 0 -0.19919131104944551 0.3476635769170362 0 -0.2063862942472999 0.35513297594545679 0 -0.1990287330937679 0.36200601172682167 0 -0.18895487548730391 0.35717256656726237 0 -0.19919131104944551 0.3476635769170362 0 -0.18891152584081439 0.34755395961872609 0 -0.19683860913770521 0.34763848915284212 0 -0.20206798448888391 0.34131442093363279 0 -0.18891152584081439 0.34755395961872609 0 -0.20206798448888391 0.34131442093363279 0 -0.19919131104944551 0.3476635769170362 0 -0.19683860913770521 0.34763848915284212 0 -0.20206798448888391 0.34131442093363279 0 -0.19683860913770521 0.34763848915284212 0 -0.20206798448888391 0.34131442093363279 0 -0.19919131104944551 0.3476635769170362 0 -0.19683860913770521 0.34763848915284212 0 -0.19919131104944551 0.3476635769170362 0 -0.21218322392106359 0.34780211467439331 0 -0.21015481537899311 0.33747918718810788 0 -0.19919131104944551 0.3476635769170362 0 -0.21218322392106359 0.34780211467439331 0 -0.19919131104944551 0.3476635769170362 0 -0.2063862942472999 0.35513297594545679 0 -0.21218322392106359 0.34780211467439331 0 -0.2063862942472999 0.35513297594545679 0 -0.21655684370411191 0.3535600745968992 0 -0.20991500494565829 0.36229611192001188 0 -0.2063862942472999 0.35513297594545679 0 -0.21655684370411191 0.3535600745968992 0 -0.21218322392106359 0.34780211467439331 0 -0.21655684370411191 0.3535600745968992 0 -0.21218322392106359 0.34780211467439331 0 -0.21763880722213191 0.34156719967384458 0 -0.21047234143722779 0.37204181356124832 0 -0.20447906623287371 0.36726335424727902 0 -0.20991500494565829 0.36229611192001188 0 -0.19943229032995041 0.37312591810137219 0 -0.21047234143722779 0.37204181356124832 0 -0.20447906623287371 0.36726335424727902 0 -0.1990287330937679 0.36200601172682167 0 -0.20447906623287371 0.36726335424727902 0 -0.20991500494565829 0.36229611192001188 0 -0.1990287330937679 0.36200601172682167 0 -0.2063862942472999 0.35513297594545679 0 -0.20991500494565829 0.36229611192001188 0 -0.21047234143722779 0.37204181356124832 0 -0.20991500494565829 0.36229611192001188 0 -0.21844689384747601 0.36418923709297391 0 -0.21655684370411191 0.3535600745968992 0 -0.20991500494565829 0.36229611192001188 0 -0.21844689384747601 0.36418923709297391 0 -0.21047234143722779 0.37204181356124832 0 -0.21844689384747601 0.36418923709297391 0 -0.22020829545972739 0.37274929056908179 0 -0.22020829545972739 0.37274929056908179 0 -0.22969731770877591 0.37447434519136508 0 -0.22751765044067249 0.36694176310520238 0 -0.21844689384747601 0.36418923709297391 0 -0.22020829545972739 0.37274929056908179 0 -0.22751765044067249 0.36694176310520238 0 -0.22969731770877591 0.37447434519136508 0 -0.22751765044067249 0.36694176310520238 0 -0.2363782431787369 0.37020284557565031 0 -0.22751765044067249 0.36694176310520238 0 -0.2363782431787369 0.37020284557565031 0 -0.23443223533832311 0.36170954208896672 0 -0.22751765044067249 0.36694176310520238 0 -0.2251783145570726 0.35767262075029632 0 -0.23443223533832311 0.36170954208896672 0 -0.21844689384747601 0.36418923709297391 0 -0.22751765044067249 0.36694176310520238 0 -0.2251783145570726 0.35767262075029632 0 -0.21655684370411191 0.3535600745968992 0 -0.21844689384747601 0.36418923709297391 0 -0.2251783145570726 0.35767262075029632 0 -0.21655684370411191 0.3535600745968992 0 -0.2251783145570726 0.35767262075029632 0 -0.2259415599017861 0.34541428636038352 0 -0.21655684370411191 0.3535600745968992 0 -0.2259415599017861 0.34541428636038352 0 -0.21763880722213191 0.34156719967384458 0 -0.2259415599017861 0.34541428636038352 0 -0.2319311782442918 0.35164072461913493 0 -0.23817818013140279 0.34125229153523851 0 -0.2251783145570726 0.35767262075029632 0 -0.2319311782442918 0.35164072461913493 0 -0.23443223533832311 0.36170954208896672 0 -0.2251783145570726 0.35767262075029632 0 -0.2259415599017861 0.34541428636038352 0 -0.2319311782442918 0.35164072461913493 0 -0.2319311782442918 0.35164072461913493 0 -0.2401512479996504 0.35485552222905631 0 -0.23443223533832311 0.36170954208896672 0 -0.2319311782442918 0.35164072461913493 0 -0.2401512479996504 0.35485552222905631 0 -0.23817818013140279 0.34125229153523851 0 -0.2401512479996504 0.35485552222905631 0 -0.24931110960080999 0.34956578338164179 0 -0.23817818013140279 0.34125229153523851 0 -0.25013698891243169 0.36042207492819578 0 -0.2401512479996504 0.35485552222905631 0 -0.24931110960080999 0.34956578338164179 0 -0.25013698891243169 0.36042207492819578 0 -0.2401512479996504 0.35485552222905631 0 -0.24109569930333549 0.36397402336092588 0 -0.25013698891243169 0.36042207492819578 0 -0.24437978108753519 0.37268013198276051 0 -0.24109569930333549 0.36397402336092588 0 -0.25290804108530268 0.3738556417100492 0 -0.25013698891243169 0.36042207492819578 0 -0.24437978108753519 0.37268013198276051 0 -0.24437978108753519 0.37268013198276051 0 -0.2363782431787369 0.37020284557565031 0 -0.24109569930333549 0.36397402336092588 0 -0.23756097464447151 0.37848409563832158 0 -0.24437978108753519 0.37268013198276051 0 -0.2363782431787369 0.37020284557565031 0 -0.23756097464447151 0.37848409563832158 0 -0.22969731770877591 0.37447434519136508 0 -0.2363782431787369 0.37020284557565031 0 -0.2363782431787369 0.37020284557565031 0 -0.23443223533832311 0.36170954208896672 0 -0.24109569930333549 0.36397402336092588 0 -0.2401512479996504 0.35485552222905631 0 -0.23443223533832311 0.36170954208896672 0 -0.24109569930333549 0.36397402336092588 0 -0.26361768802922342 0.31212406153912858 0 -0.24111720852450971 0.32279506473674557 0 -0.23779655217768911 0.3183518374477855 0 -0.26361768802922342 0.31212406153912858 0 -0.23779655217768911 0.3183518374477855 0 -0.23436961135623169 0.31498520059168772 0 -0.24111720852450971 0.32279506473674557 0 -0.23436961135623169 0.31498520059168772 0 -0.24111720852450971 0.32279506473674557 0 -0.23779655217768911 0.3183518374477855 0 -0.23436961135623169 0.31498520059168772 0 -0.23779655217768911 0.3183518374477855 0 -0.23436961135623169 0.31498520059168772 0 -0.25230409672890253 0.33574309273892178 0 -0.24111720852450971 0.32279506473674557 0 -0.23817818013140279 0.34125229153523851 0 -0.25230409672890253 0.33574309273892178 0 -0.24111720852450971 0.32279506473674557 0 -0.24111720852450971 0.32279506473674557 0 -0.23817818013140279 0.34125229153523851 0 -0.2273712029837818 0.32931419998667583 0 -0.25230409672890253 0.33574309273892178 0 -0.24931110960080999 0.34956578338164179 0 -0.23817818013140279 0.34125229153523851 0 -0.2259415599017861 0.34541428636038352 0 -0.2273712029837818 0.32931419998667583 0 -0.21763880722213191 0.34156719967384458 0 -0.2259415599017861 0.34541428636038352 0 -0.23817818013140279 0.34125229153523851 0 -0.2273712029837818 0.32931419998667583 0 -0.2273712029837818 0.32931419998667583 0 -0.21333009062427899 0.33452956089868618 0 -0.2273712029837818 0.32931419998667583 0 -0.21763880722213191 0.34156719967384458 0 -0.21333009062427899 0.33452956089868618 0 -0.2273712029837818 0.32931419998667583 0 -0.23436961135623169 0.31498520059168772 0 -0.21333009062427899 0.33452956089868618 0 -0.23436961135623169 0.31498520059168772 0 -0.21333009062427899 0.33452956089868618 0 -0.23095511348401401 0.31103316198585901 0 -0.23436961135623169 0.31498520059168772 0 -0.21333009062427899 0.33452956089868618 0 -0.24111720852450971 0.32279506473674557 0 -0.2273712029837818 0.32931419998667583 0 -0.23436961135623169 0.31498520059168772 0 -0.24111720852450971 0.32279506473674557 0 -0.2273712029837818 0.32931419998667583 0 -0.23436961135623169 0.31498520059168772 0 -0.23095511348401401 0.31103316198585901 0 -0.23436961135623169 0.31498520059168772 0 -0.23324890844559501 0.3111807439700171 0 -0.21333009062427899 0.33452956089868618 0 -0.20782105187013319 0.30954472436532471 0 -0.23095511348401401 0.31103316198585901 0 -0.21333009062427899 0.33452956089868618 0 -0.21108687226168621 0.3304075615658662 0 -0.20782105187013319 0.30954472436532471 0 -0.21333009062427899 0.33452956089868618 0 -0.20782105187013319 0.30954472436532471 0 -0.20324196905272149 0.32237139571303869 0 -0.21108687226168621 0.3304075615658662 0 -0.20782105187013319 0.30954472436532471 0 -0.20324196905272149 0.32237139571303869 0 -0.21108687226168621 0.3304075615658662 0 -0.20053484459300119 0.33086437552815651 0 -0.21218322392106359 0.34780211467439331 0 -0.21763880722213191 0.34156719967384458 0 -0.21015481537899311 0.33747918718810788 0 -0.21763880722213191 0.34156719967384458 0 -0.21333009062427899 0.33452956089868618 0 -0.21015481537899311 0.33747918718810788 0 -0.21333009062427899 0.33452956089868618 0 -0.21015481537899311 0.33747918718810788 0 -0.21333009062427899 0.33452956089868618 0 -0.21108687226168621 0.3304075615658662 0 -0.21015481537899311 0.33747918718810788 0 -0.21108687226168621 0.3304075615658662 0 -0.20206798448888391 0.34131442093363279 0 -0.20053484459300119 0.33086437552815651 0 -0.21108687226168621 0.3304075615658662 0 -0.20206798448888391 0.34131442093363279 0 -0.19919131104944551 0.3476635769170362 0 -0.21015481537899311 0.33747918718810788 0 -0.20206798448888391 0.34131442093363279 0 -0.21015481537899311 0.33747918718810788 0 -0.20206798448888391 0.34131442093363279 0 -0.19919131104944551 0.3476635769170362 0 -0.21015481537899311 0.33747918718810788 0 -0.21108687226168621 0.3304075615658662 0 -0.21015481537899311 0.33747918718810788 0 -0.20206798448888391 0.34131442093363279 0 -0.18891152584081439 0.34755395961872609 0 -0.20206798448888391 0.34131442093363279 0 -0.1952698731785362 0.33848423269302202 0 -0.20206798448888391 0.34131442093363279 0 -0.20053484459300119 0.33086437552815651 0 -0.1952698731785362 0.33848423269302202 0 -0.185145212308329 0.32705195644964369 0 -0.18956513779144579 0.33420417469157387 0 -0.1923952675718674 0.32413375498961278 0 -0.20053484459300119 0.33086437552815651 0 -0.18956513779144579 0.33420417469157387 0 -0.1952698731785362 0.33848423269302202 0 -0.20053484459300119 0.33086437552815651 0 -0.18956513779144579 0.33420417469157387 0 -0.1923952675718674 0.32413375498961278 0 -0.18891152584081439 0.34755395961872609 0 -0.18956513779144579 0.33420417469157387 0 -0.1952698731785362 0.33848423269302202 0 -0.1982137340385926 0.31841575160056651 0 -0.18983841364249041 0.3148084349979593 0 -0.20782105187013319 0.30954472436532471 0 -0.20324196905272149 0.32237139571303869 0 -0.1982137340385926 0.31841575160056651 0 -0.20782105187013319 0.30954472436532471 0 -0.20324196905272149 0.32237139571303869 0 -0.20053484459300119 0.33086437552815651 0 -0.1985964538140457 0.32394631945784358 0 -0.20324196905272149 0.32237139571303869 0 -0.1982137340385926 0.31841575160056651 0 -0.1985964538140457 0.32394631945784358 0 -0.20053484459300119 0.33086437552815651 0 -0.1985964538140457 0.32394631945784358 0 -0.1923952675718674 0.32413375498961278 0 -0.1982137340385926 0.31841575160056651 0 -0.1985964538140457 0.32394631945784358 0 -0.1923952675718674 0.32413375498961278 0 -0.1982137340385926 0.31841575160056651 0 -0.1923952675718674 0.32413375498961278 0 -0.18983841364249041 0.3148084349979593 0 -0.18085654929183709 0.32051846040107451 0 -0.1923952675718674 0.32413375498961278 0 -0.18983841364249041 0.3148084349979593 0 -0.20782105187013319 0.30954472436532471 0 -0.18129620578495889 0.30783812483036188 0 -0.20782105187013319 0.30954472436532471 0 -0.20512060648249131 0.29729754485027621 0 -0.18129620578495889 0.30783812483036188 0 -0.18983841364249041 0.3148084349979593 0 -0.20782105187013319 0.30954472436532471 0 -0.18129620578495889 0.30783812483036188 0 -0.20512060648249131 0.29729754485027621 0 -0.1770120885195243 0.29561212733020042 0 -0.18129620578495889 0.30783812483036188 0 -0.19888730759529799 0.29058631156216919 0 -0.20512060648249131 0.29729754485027621 0 -0.1770120885195243 0.29561212733020042 0 -0.20512060648249131 0.29729754485027621 0 -0.1770120885195243 0.29561212733020042 0 -0.19888730759529799 0.29058631156216919 0 -0.18971533855842251 0.28027900102146153 0 -0.1770120885195243 0.29561212733020042 0 -0.19888730759529799 0.29058631156216919 0 -0.20188151216473829 0.28260746085252603 0 -0.20512060648249131 0.29729754485027621 0 -0.19888730759529799 0.29058631156216919 0 -0.20188151216473829 0.28260746085252603 0 -0.18971533855842251 0.28027900102146153 0 -0.19888730759529799 0.29058631156216919 0 -0.20188151216473829 0.28260746085252603 0 -0.20188151216473829 0.28260746085252603 0 -0.20512060648249131 0.29729754485027621 0 -0.21985086836803661 0.29818078748476767 0 -0.20188151216473829 0.28260746085252603 0 -0.21985086836803661 0.29818078748476767 0 -0.20324850884328399 0.27896473632728491 0 -0.21985086836803661 0.29818078748476767 0 -0.20324850884328399 0.27896473632728491 0 -0.21985086836803661 0.29818078748476767 0 -0.2200276237484329 0.29033234993457691 0 -0.20324850884328399 0.27896473632728491 0 -0.20188151216473829 0.28260746085252603 0 -0.20512060648249131 0.29729754485027621 0 -0.20782105187013319 0.30954472436532471 0 -0.20512060648249131 0.29729754485027621 0 -0.21985086836803661 0.29818078748476767 0 -0.20782105187013319 0.30954472436532471 0 -0.20512060648249131 0.29729754485027621 0 -0.20512060648249131 0.29729754485027621 0 -0.21985086836803661 0.29818078748476767 0 -0.23324890844559501 0.3111807439700171 0 -0.2200276237484329 0.29033234993457691 0 -0.23694379911766311 0.29641863380189992 0 -0.23324890844559501 0.3111807439700171 0 -0.2200276237484329 0.29033234993457691 0 -0.23324890844559501 0.3111807439700171 0 -0.22252503121021719 0.29834113321739142 0 -0.2200276237484329 0.29033234993457691 0 -0.20782105187013319 0.30954472436532471 0 -0.23095511348401401 0.31103316198585901 0 -0.20782105187013319 0.30954472436532471 0 -0.23095511348401401 0.31103316198585901 0 -0.21985086836803661 0.29818078748476767 0 -0.23324890844559501 0.3111807439700171 0 -0.23095511348401401 0.31103316198585901 0 -0.22252503121021719 0.29834113321739142 0 -0.23436961135623169 0.31498520059168772 0 -0.23324890844559501 0.3111807439700171 0 -0.23095511348401401 0.31103316198585901 0 -0.23436961135623169 0.31498520059168772 0 -0.23324890844559501 0.3111807439700171 0 -0.23476681729957999 0.31127840570709142 0 -0.23324890844559501 0.3111807439700171 0 -0.23476681729957999 0.31127840570709142 0 -0.23324890844559501 0.3111807439700171 0 -0.23095511348401401 0.31103316198585901 0 -0.23095511348401401 0.31103316198585901 0 -0.22252503121021719 0.29834113321739142 0 -0.21985086836803661 0.29818078748476767 0 -0.23095511348401401 0.31103316198585901 0 -0.21985086836803661 0.29818078748476767 0 -0.22252503121021719 0.29834113321739142 0 -0.21985086836803661 0.29818078748476767 0 -0.2200276237484329 0.29033234993457691 0 -0.23694379911766311 0.29641863380189992 0 -0.24013215390960629 0.27688613297126707 0 -0.22252503121021719 0.29834113321739142 0 -0.21985086836803661 0.29818078748476767 0 -0.2200276237484329 0.29033234993457691 0 -0.25612174437497598 0.29477886934581687 0 -0.23694379911766311 0.29641863380189992 0 -0.24013215390960629 0.27688613297126707 0 -0.25612174437497598 0.29477886934581687 0 -0.23436961135623169 0.31498520059168772 0 -0.23476681729957999 0.31127840570709142 0 -0.25612174437497598 0.29477886934581687 0 -0.23694379911766311 0.29641863380189992 0 -0.23476681729957999 0.31127840570709142 0 -0.25612174437497598 0.29477886934581687 0 -0.23436961135623169 0.31498520059168772 0 -0.23324890844559501 0.3111807439700171 0 -0.23694379911766311 0.29641863380189992 0 -0.23476681729957999 0.31127840570709142 0 -0.2419990777252152 0.25293648704472099 0 -0.24013215390960629 0.27688613297126707 0 -0.22517260394651531 0.26614107237684492 0 -0.25952997509010678 0.26413212719712081 0 -0.2419990777252152 0.25293648704472099 0 -0.24013215390960629 0.27688613297126707 0 -0.2200276237484329 0.29033234993457691 0 -0.24013215390960629 0.27688613297126707 0 -0.22517260394651531 0.26614107237684492 0 -0.2419990777252152 0.25293648704472099 0 -0.21490162638859439 0.2479119197812811 0 -0.2419990777252152 0.25293648704472099 0 -0.22517260394651531 0.26614107237684492 0 -0.21490162638859439 0.2479119197812811 0 -0.20680633905127091 0.26948395589913671 0 -0.1969000237016991 0.25386287439473609 0 -0.21490162638859439 0.2479119197812811 0 -0.20680633905127091 0.26948395589913671 0 -0.21490162638859439 0.2479119197812811 0 -0.22517260394651531 0.26614107237684492 0 -0.20680633905127091 0.26948395589913671 0 -0.21490162638859439 0.2479119197812811 0 -0.2200276237484329 0.29033234993457691 0 -0.20680633905127091 0.26948395589913671 0 -0.2200276237484329 0.29033234993457691 0 -0.20680633905127091 0.26948395589913671 0 -0.20324850884328399 0.27896473632728491 0 -0.2200276237484329 0.29033234993457691 0 -0.22517260394651531 0.26614107237684492 0 -0.20680633905127091 0.26948395589913671 0 -0.20680633905127091 0.26948395589913671 0 -0.20324850884328399 0.27896473632728491 0 -0.20680633905127091 0.26948395589913671 0 -0.20324850884328399 0.27896473632728491 0 -0.20033467627648729 0.27559218222830578 0 -0.20033467627648729 0.27559218222830578 0 -0.18971533855842251 0.28027900102146153 0 -0.1872646715440206 0.2604645806850896 0 -0.20188151216473829 0.28260746085252603 0 -0.20033467627648729 0.27559218222830578 0 -0.18971533855842251 0.28027900102146153 0 -0.20188151216473829 0.28260746085252603 0 -0.20033467627648729 0.27559218222830578 0 -0.20188151216473829 0.28260746085252603 0 -0.20324850884328399 0.27896473632728491 0 -0.20033467627648729 0.27559218222830578 0 -0.20188151216473829 0.28260746085252603 0 -0.20324850884328399 0.27896473632728491 0 -0.20324850884328399 0.27896473632728491 0 -0.20033467627648729 0.27559218222830578 0 -0.20033467627648729 0.27559218222830578 0 -0.19699554568844041 0.26044840930728608 0 -0.20680633905127091 0.26948395589913671 0 -0.20033467627648729 0.27559218222830578 0 -0.19699554568844041 0.26044840930728608 0 -0.20033467627648729 0.27559218222830578 0 -0.1872646715440206 0.2604645806850896 0 -0.1969000237016991 0.25386287439473609 0 -0.19422753500318671 0.24927008917741861 0 -0.21490162638859439 0.2479119197812811 0 -0.1969000237016991 0.25386287439473609 0 -0.19699554568844041 0.26044840930728608 0 -0.19207355326670039 0.2563579636235741 0 -0.20680633905127091 0.26948395589913671 0 -0.1969000237016991 0.25386287439473609 0 -0.20680633905127091 0.26948395589913671 0 -0.1969000237016991 0.25386287439473609 0 -0.19699554568844041 0.26044840930728608 0 -0.20033467627648729 0.27559218222830578 0 -0.19699554568844041 0.26044840930728608 0 -0.1872646715440206 0.2604645806850896 0 -0.19699554568844041 0.26044840930728608 0 -0.19207355326670039 0.2563579636235741 0 -0.1872646715440206 0.2604645806850896 0 -0.19207355326670039 0.2563579636235741 0 -0.18950928732507449 0.25308855862167973 0 -0.1872646715440206 0.2604645806850896 0 -0.19207355326670039 0.2563579636235741 0 -0.18950928732507449 0.25308855862167973 0 -0.19422753500318671 0.24927008917741861 0 -0.1969000237016991 0.25386287439473609 0 -0.19207355326670039 0.2563579636235741 0 -0.19422753500318671 0.24927008917741861 0 -0.1872646715440206 0.2604645806850896 0 -0.16692061718588039 0.26216235265565202 0 -0.17419466681155291 0.24533697914187419 0 -0.1872646715440206 0.2604645806850896 0 -0.17419466681155291 0.24533697914187419 0 -0.18523891074017471 0.24700351220784261 0 -0.18950928732507449 0.25308855862167973 0 -0.1872646715440206 0.2604645806850896 0 -0.18523891074017471 0.24700351220784261 0 -0.1872646715440206 0.2604645806850896 0 -0.17419466681155291 0.24533697914187419 0 -0.15080605250994189 0.2509115815981382 0 -0.15020312497912239 0.2546436794913306 0 -0.17419466681155291 0.24533697914187419 0 -0.16692061718588039 0.26216235265565202 0 -0.15020312497912239 0.2546436794913306 0 -0.17419466681155291 0.24533697914187419 0 -0.16484959687625761 0.27726751789666942 0 -0.15676194440302049 0.28433257382407401 0 -0.1477491970139613 0.26983339785823662 0 -0.16692061718588039 0.26216235265565202 0 -0.16484959687625761 0.27726751789666942 0 -0.1477491970139613 0.26983339785823662 0 -0.16692061718588039 0.26216235265565202 0 -0.16484959687625761 0.27726751789666942 0 -0.17715246253682099 0.27515711591781461 0 -0.1872646715440206 0.2604645806850896 0 -0.16692061718588039 0.26216235265565202 0 -0.17715246253682099 0.27515711591781461 0 -0.18971533855842251 0.28027900102146153 0 -0.1872646715440206 0.2604645806850896 0 -0.17715246253682099 0.27515711591781461 0 -0.18971533855842251 0.28027900102146153 0 -0.17715246253682099 0.27515711591781461 0 -0.1770120885195243 0.29561212733020042 0 -0.16484959687625761 0.27726751789666942 0 -0.17715246253682099 0.27515711591781461 0 -0.1770120885195243 0.29561212733020042 0 -0.16741700534784271 0.313583066958524 0 -0.17421600553906061 0.31597224189195228 0 -0.18129620578495889 0.30783812483036188 0 -0.1770120885195243 0.29561212733020042 0 -0.18129620578495889 0.30783812483036188 0 -0.15477135969978459 0.30613152529539928 0 -0.18129620578495889 0.30783812483036188 0 -0.15477135969978459 0.30613152529539928 0 -0.16741700534784271 0.313583066958524 0 -0.18129620578495889 0.30783812483036188 0 -0.15477135969978459 0.30613152529539928 0 -0.1770120885195243 0.29561212733020042 0 -0.14890357055655751 0.29392670981012209 0 -0.15477135969978459 0.30613152529539928 0 -0.1579847350986246 0.31633475918929083 0 -0.16741700534784271 0.313583066958524 0 -0.15477135969978459 0.30613152529539928 0 -0.1770120885195243 0.29561212733020042 0 -0.14890357055655751 0.29392670981012209 0 -0.1770120885195243 0.29561212733020042 0 -0.15676194440302049 0.28433257382407401 0 -0.14890357055655751 0.29392670981012209 0 -0.16484959687625761 0.27726751789666942 0 -0.1770120885195243 0.29561212733020042 0 -0.15676194440302049 0.28433257382407401 0 -0.15676194440302049 0.28433257382407401 0 -0.14890357055655751 0.29392670981012209 0 -0.14529526904879969 0.28502311622514259 0 -0.14390529397997651 0.29362700767273542 0 -0.14529526904879969 0.28502311622514259 0 -0.14890357055655751 0.29392670981012209 0 -0.14529526904879969 0.28502311622514259 0 -0.14890357055655751 0.29392670981012209 0 -0.14390529397997651 0.29362700767273542 0 -0.14529526904879969 0.28502311622514259 0 -0.14890357055655751 0.29392670981012209 0 -0.14390529397997651 0.29362700767273542 0 -0.14390529397997651 0.29362700767273542 0 -0.14529526904879969 0.28502311622514259 0 -0.13423183353405599 0.28540722228863619 0 -0.1579847350986246 0.31633475918929083 0 -0.14153783749322921 0.30828147096186159 0 -0.1579847350986246 0.31633475918929083 0 -0.14890357055655751 0.29392670981012209 0 -0.15477135969978459 0.30613152529539928 0 -0.1579847350986246 0.31633475918929083 0 -0.14890357055655751 0.29392670981012209 0 -0.1579847350986246 0.31633475918929083 0 -0.14890357055655751 0.29392670981012209 0 -0.14153783749322921 0.30828147096186159 0 -0.14890357055655751 0.29392670981012209 0 -0.14390529397997651 0.29362700767273542 0 -0.14153783749322921 0.30828147096186159 0 -0.14390529397997651 0.29362700767273542 0 -0.14153783749322921 0.30828147096186159 0 -0.14153783749322921 0.30828147096186159 0 -0.1243204009912955 0.29985088532714921 0 -0.1200149295023538 0.32122124578067102 0 -0.14153783749322921 0.30828147096186159 0 -0.1243204009912955 0.29985088532714921 0 -0.14390529397997651 0.29362700767273542 0 -0.14153783749322921 0.30828147096186159 0 -0.1243204009912955 0.29985088532714921 0 -0.14390529397997651 0.29362700767273542 0 -0.12550412923466861 0.2925236536825867 0 -0.1243204009912955 0.29985088532714921 0 -0.14390529397997651 0.29362700767273542 0 -0.12550412923466861 0.2925236536825867 0 -0.14390529397997651 0.29362700767273542 0 -0.13423183353405599 0.28540722228863619 0 -0.12550412923466861 0.2925236536825867 0 -0.14529526904879969 0.28502311622514259 0 -0.13423183353405599 0.28540722228863619 0 -0.1330037197495082 0.27569099839950217 0 -0.13423183353405599 0.28540722228863619 0 -0.12550412923466861 0.2925236536825867 0 -0.1234507556573279 0.28017133546321421 0 -0.1355266931395111 0.26033690063920339 0 -0.11831606392684139 0.27095355460316778 0 -0.1330037197495082 0.27569099839950217 0 -0.1249246084536931 0.2743639077932753 0 -0.1234507556573279 0.28017133546321421 0 -0.14529526904879969 0.28502311622514259 0 -0.1355266931395111 0.26033690063920339 0 -0.13423183353405599 0.28540722228863619 0 -0.1330037197495082 0.27569099839950217 0 -0.1234507556573279 0.28017133546321421 0 -0.1290752114230965 0.26961104510022887 0 -0.1355266931395111 0.26033690063920339 0 -0.11831606392684139 0.27095355460316778 0 -0.14529526904879969 0.28502311622514259 0 -0.1330037197495082 0.27569099839950217 0 -0.1355266931395111 0.26033690063920339 0 -0.1330037197495082 0.27569099839950217 0 -0.1290752114230965 0.26961104510022887 0 -0.1355266931395111 0.26033690063920339 0 -0.1330037197495082 0.27569099839950217 0 -0.1290752114230965 0.26961104510022887 0 -0.1249246084536931 0.2743639077932753 0 -0.1355266931395111 0.26033690063920339 0 -0.1204693105274901 0.25832786696498372 0 -0.12654932572426339 0.23876693159931081 0 -0.1355266931395111 0.26033690063920339 0 -0.15020312497912239 0.2546436794913306 0 -0.1477491970139613 0.26983339785823662 0 -0.16692061718588039 0.26216235265565202 0 -0.15020312497912239 0.2546436794913306 0 -0.1477491970139613 0.26983339785823662 0 -0.1355266931395111 0.26033690063920339 0 -0.15080605250994189 0.2509115815981382 0 -0.13753920806889611 0.24804208742008771 0 -0.1355266931395111 0.26033690063920339 0 -0.15080605250994189 0.2509115815981382 0 -0.15020312497912239 0.2546436794913306 0 -0.1355266931395111 0.26033690063920339 0 -0.15020312497912239 0.2546436794913306 0 -0.1355266931395111 0.26033690063920339 0 -0.15080605250994189 0.2509115815981382 0 -0.15080605250994189 0.2509115815981382 0 -0.15020312497912239 0.2546436794913306 0 -0.15020312497912239 0.2546436794913306 0 -0.1477491970139613 0.26983339785823662 0 -0.14529526904879969 0.28502311622514259 0 -0.1355266931395111 0.26033690063920339 0 -0.1477491970139613 0.26983339785823662 0 -0.15676194440302049 0.28433257382407401 0 -0.14529526904879969 0.28502311622514259 0 -0.1477491970139613 0.26983339785823662 0 -0.14529526904879969 0.28502311622514259 0 -0.1477491970139613 0.26983339785823662 0 -0.1018839670273729 0.27188498094534558 0 -0.1041885249694095 0.2640934756760609 0 -0.1108986617350682 0.26989050540870929 0 -0.1018839670273729 0.27188498094534558 0 -0.1108986617350682 0.26989050540870929 0 -0.1012912518496599 0.28145558427282669 0 -0.09638562342688281 0.27531518231215307 0 -0.1012912518496599 0.28145558427282669 0 -0.093259782363701721 0.28092606518439278 0 -0.1018839670273729 0.27188498094534558 0 -0.09638562342688281 0.27531518231215307 0 -0.1012912518496599 0.28145558427282669 0 -0.1018839670273729 0.27188498094534558 0 -0.096164990964494629 0.26761781546297991 0 -0.1041885249694095 0.2640934756760609 0 -0.1018839670273729 0.27188498094534558 0 -0.09638562342688281 0.27531518231215307 0 -0.096164990964494629 0.26761781546297991 0 -0.096164990964494629 0.26761781546297991 0 -0.09737855826487482 0.25720975253264677 0 -0.08783196166619564 0.26043889480308002 0 -0.096164990964494629 0.26761781546297991 0 -0.09737855826487482 0.25720975253264677 0 -0.1041885249694095 0.2640934756760609 0 -0.09737855826487482 0.25720975253264677 0 -0.1000966024206025 0.24603533827206769 0 -0.09001103415809375 0.24995591684023821 0 -0.09737855826487482 0.25720975253264677 0 -0.1059782354104529 0.25511707414145401 0 -0.1000966024206025 0.24603533827206769 0 -0.1041885249694095 0.2640934756760609 0 -0.112085834079476 0.26045841366712852 0 -0.1108986617350682 0.26989050540870929 0 -0.1059782354104529 0.25511707414145401 0 -0.1041885249694095 0.2640934756760609 0 -0.112085834079476 0.26045841366712852 0 -0.09737855826487482 0.25720975253264677 0 -0.1059782354104529 0.25511707414145401 0 -0.1041885249694095 0.2640934756760609 0 -0.1355266931395111 0.26033690063920339 0 -0.1108986617350682 0.26989050540870929 0 -0.112085834079476 0.26045841366712852 0 -0.1204693105274901 0.25832786696498372 0 -0.1108986617350682 0.26989050540870929 0 -0.1355266931395111 0.26033690063920339 0 -0.1204693105274901 0.25832786696498372 0 -0.1108986617350682 0.26989050540870929 0 -0.1059782354104529 0.25511707414145401 0 -0.112085834079476 0.26045841366712852 0 -0.1118507546894966 0.24845023294428681 0 -0.112085834079476 0.26045841366712852 0 -0.1204693105274901 0.25832786696498372 0 -0.1118507546894966 0.24845023294428681 0 -0.11831606392684139 0.27095355460316778 0 -0.1108986617350682 0.26989050540870929 0 -0.1012912518496599 0.28145558427282669 0 -0.11831606392684139 0.27095355460316778 0 -0.1012912518496599 0.28145558427282669 0 -0.1355266931395111 0.26033690063920339 0 -0.11831606392684139 0.27095355460316778 0 -0.1108986617350682 0.26989050540870929 0 -0.11831606392684139 0.27095355460316778 0 -0.1129626587512412 0.28132561724835009 0 -0.1012912518496599 0.28145558427282669 0 -0.1290752114230965 0.26961104510022887 0 -0.11831606392684139 0.27095355460316778 0 -0.1249246084536931 0.2743639077932753 0 -0.11831606392684139 0.27095355460316778 0 -0.1193163840466625 0.27686455163511459 0 -0.1129626587512412 0.28132561724835009 0 -0.1193163840466625 0.27686455163511459 0 -0.1234507556573279 0.28017133546321421 0 -0.1129626587512412 0.28132561724835009 0 -0.11831606392684139 0.27095355460316778 0 -0.1193163840466625 0.27686455163511459 0 -0.1249246084536931 0.2743639077932753 0 -0.1193163840466625 0.27686455163511459 0 -0.1249246084536931 0.2743639077932753 0 -0.1234507556573279 0.28017133546321421 0 -0.12550412923466861 0.2925236536825867 0 -0.1129626587512412 0.28132561724835009 0 -0.1071029644893606 0.29142029969243921 0 -0.12550412923466861 0.2925236536825867 0 -0.1234507556573279 0.28017133546321421 0 -0.1129626587512412 0.28132561724835009 0 -0.12550412923466861 0.2925236536825867 0 -0.1071029644893606 0.29142029969243921 0 -0.1243204009912955 0.29985088532714921 0 -0.1071029644893606 0.29142029969243921 0 -0.12550412923466861 0.2925236536825867 0 -0.1243204009912955 0.29985088532714921 0 -0.1071029644893606 0.29142029969243921 0 -0.1243204009912955 0.29985088532714921 0 -0.1064512226489296 0.30589458580069567 0 -0.1071029644893606 0.29142029969243921 0 -0.1243204009912955 0.29985088532714921 0 -0.1064512226489296 0.30589458580069567 0 -0.1200149295023538 0.32122124578067102 0 -0.1064512226489296 0.30589458580069567 0 -0.092275405543860017 0.30640893924871992 0 -0.10105370920257301 0.32465452415714158 0 -0.1064512226489296 0.30589458580069567 0 -0.09288751579550529 0.29056792582072039 0 -0.092275405543860017 0.30640893924871992 0 -0.1064512226489296 0.30589458580069567 0 -0.09288751579550529 0.29056792582072039 0 -0.1071638920678781 0.28470762709100428 0 -0.1071029644893606 0.29142029969243921 0 -0.098997533701894735 0.28745144356497337 0 -0.1071638920678781 0.28470762709100428 0 -0.098997533701894735 0.28745144356497337 0 -0.1012912518496599 0.28145558427282669 0 -0.1129626587512412 0.28132561724835009 0 -0.1071638920678781 0.28470762709100428 0 -0.1071029644893606 0.29142029969243921 0 -0.1129626587512412 0.28132561724835009 0 -0.1071638920678781 0.28470762709100428 0 -0.1012912518496599 0.28145558427282669 0 -0.1071029644893606 0.29142029969243921 0 -0.098997533701894735 0.28745144356497337 0 -0.1064512226489296 0.30589458580069567 0 -0.1071029644893606 0.29142029969243921 0 -0.09288751579550529 0.29056792582072039 0 -0.1071029644893606 0.29142029969243921 0 -0.09288751579550529 0.29056792582072039 0 -0.1071029644893606 0.29142029969243921 0 -0.098997533701894735 0.28745144356497337 0 -0.09288751579550529 0.29056792582072039 0 -0.098997533701894735 0.28745144356497337 0 -0.1012912518496599 0.28145558427282669 0 -0.093259782363701721 0.28092606518439278 0 -0.098997533701894735 0.28745144356497337 0 -0.09288751579550529 0.29056792582072039 0 -0.093259782363701721 0.28092606518439278 0 -0.09288751579550529 0.29056792582072039 0 -0.081003241175594431 0.27713898355763678 0 -0.09288751579550529 0.29056792582072039 0 -0.069788545433559113 0.28918288626100219 0 -0.09288751579550529 0.29056792582072039 0 -0.069788545433559113 0.28918288626100219 0 -0.081003241175594431 0.27713898355763678 0 -0.09288751579550529 0.29056792582072039 0 -0.080651490978062235 0.30026763512215521 0 -0.069788545433559113 0.28918288626100219 0 -0.09288751579550529 0.29056792582072039 0 -0.081003241175594431 0.27713898355763678 0 -0.093259782363701721 0.28092606518439278 0 -0.09288751579550529 0.29056792582072039 0 -0.092275405543860017 0.30640893924871992 0 -0.080651490978062235 0.30026763512215521 0 -0.092275405543860017 0.30640893924871992 0 -0.080651490978062235 0.30026763512215521 0 -0.078004369378311414 0.31598930823932792 0 -0.068250117772607574 0.30162375820359011 0 -0.057990039490294798 0.31110589033109293 0 -0.078004369378311414 0.31598930823932792 0 -0.080651490978062235 0.30026763512215521 0 -0.068250117772607574 0.30162375820359011 0 -0.078004369378311414 0.31598930823932792 0 -0.080651490978062235 0.30026763512215521 0 -0.068250117772607574 0.30162375820359011 0 -0.069788545433559113 0.28918288626100219 0 -0.068250117772607574 0.30162375820359011 0 -0.069788545433559113 0.28918288626100219 0 -0.05788742368789801 0.29820619175006952 0 -0.064859725488673525 0.27335016847815591 0 -0.081003241175594431 0.27713898355763678 0 -0.076912573476577956 0.26486425980272982 0 -0.069788545433559113 0.28918288626100219 0 -0.064859725488673525 0.27335016847815591 0 -0.081003241175594431 0.27713898355763678 0 -0.088641776525075669 0.27216926309349659 0 -0.08783196166619564 0.26043889480308002 0 -0.076912573476577956 0.26486425980272982 0 -0.081003241175594431 0.27713898355763678 0 -0.088641776525075669 0.27216926309349659 0 -0.076912573476577956 0.26486425980272982 0 -0.096164990964494629 0.26761781546297991 0 -0.088641776525075669 0.27216926309349659 0 -0.08783196166619564 0.26043889480308002 0 -0.09638562342688281 0.27531518231215307 0 -0.096164990964494629 0.26761781546297991 0 -0.088641776525075669 0.27216926309349659 0 -0.081003241175594431 0.27713898355763678 0 -0.088641776525075669 0.27216926309349659 0 -0.093259782363701721 0.28092606518439278 0 -0.09638562342688281 0.27531518231215307 0 -0.088641776525075669 0.27216926309349659 0 -0.093259782363701721 0.28092606518439278 0 -0.08783196166619564 0.26043889480308002 0 -0.076912573476577956 0.26486425980272982 0 -0.077543192831836513 0.2490590682366626 0 -0.09737855826487482 0.25720975253264677 0 -0.08783196166619564 0.26043889480308002 0 -0.09001103415809375 0.24995591684023821 0 -0.08783196166619564 0.26043889480308002 0 -0.077543192831836513 0.2490590682366626 0 -0.09001103415809375 0.24995591684023821 0 -0.076912573476577956 0.26486425980272982 0 -0.062235378715942993 0.2575407036156 0 -0.077543192831836513 0.2490590682366626 0 -0.064859725488673525 0.27335016847815591 0 -0.076912573476577956 0.26486425980272982 0 -0.062235378715942993 0.2575407036156 0 -0.062235378715942993 0.2575407036156 0 -0.047541637402478777 0.25235478858570443 0 -0.046945053321640888 0.26834754077662148 0 -0.062235378715942993 0.2575407036156 0 -0.047541637402478777 0.25235478858570443 0 -0.063122606478691751 0.2425446012462259 0 -0.064859725488673525 0.27335016847815591 0 -0.046945053321640888 0.26834754077662148 0 -0.046689575071612921 0.287797846701284 0 -0.064859725488673525 0.27335016847815591 0 -0.062235378715942993 0.2575407036156 0 -0.046945053321640888 0.26834754077662148 0 -0.046945053321640888 0.26834754077662148 0 -0.033744549417732639 0.2791280462328477 0 -0.033158238182537131 0.25447225048241212 0 -0.046945053321640888 0.26834754077662148 0 -0.033744549417732639 0.2791280462328477 0 -0.046689575071612921 0.287797846701284 0 -0.047541637402478777 0.25235478858570443 0 -0.046945053321640888 0.26834754077662148 0 -0.033158238182537131 0.25447225048241212 0 -0.033158238182537131 0.25447225048241212 0 -0.019810624336267221 0.2755507448036309 0 -0.016725929346704929 0.2556928351502844 0 -0.019810624336267221 0.2755507448036309 0 -0.033158238182537131 0.25447225048241212 0 -0.016725929346704929 0.2556928351502844 0 -0.019810624336267221 0.2755507448036309 0 -0.033744549417732639 0.2791280462328477 0 -0.033158238182537131 0.25447225048241212 0 -0.019810624336267221 0.2755507448036309 0 -0.016725929346704929 0.2556928351502844 0 -0.019810624336267221 0.2755507448036309 0 -0.0086793527695252833 0.26659395542764408 0 -0.019810624336267221 0.2755507448036309 0 -0.0086793527695252833 0.26659395542764408 0 -0.002429867640735646 0.27818434943237969 0 -0.0086793527695252833 0.26659395542764408 0 -0.002429867640735646 0.27818434943237969 0 0.00013404393218866101 0.26668544968263141 0 -0.0086793527695252833 0.26659395542764408 0 -0.004564386456106905 0.25685639806929428 0 0.00013404393218866101 0.26668544968263141 0 -0.004564386456106905 0.25685639806929428 0 -0.0066167852236678039 0.24551400104462359 0 0.003791674785571924 0.24772290422529519 0 -0.016725929346704929 0.2556928351502844 0 -0.004564386456106905 0.25685639806929428 0 -0.0066167852236678039 0.24551400104462359 0 -0.016725929346704929 0.2556928351502844 0 -0.0086793527695252833 0.26659395542764408 0 -0.004564386456106905 0.25685639806929428 0 -0.00032039209777558631 0.30632963564433752 0 -0.024797042878766801 0.30765111428773101 0 -0.0073196809387918917 0.31630478116898952 0 -0.00032039209777558631 0.30632963564433752 0 -0.024797042878766801 0.30765111428773101 0 -0.00032039209777558631 0.30632963564433752 0 -0.010065508217021291 0.2909401902239841 0 -0.024797042878766801 0.30765111428773101 0 -0.00032039209777558631 0.30632963564433752 0 -0.010065508217021291 0.2909401902239841 0 0.002272398575433739 0.29367378081891471 0 -0.00032039209777558631 0.30632963564433752 0 -0.010065508217021291 0.2909401902239841 0 -0.019810624336267221 0.2755507448036309 0 -0.002429867640735646 0.27818434943237969 0 -0.010065508217021291 0.2909401902239841 0 -0.002429867640735646 0.27818434943237969 0 -0.010065508217021291 0.2909401902239841 0 0.002272398575433739 0.29367378081891471 0 -0.019810624336267221 0.2755507448036309 0 -0.010065508217021291 0.2909401902239841 0 -0.033744549417732639 0.2791280462328477 0 -0.022303833607517039 0.29160092954568101 0 -0.033559971986820293 0.29699896508745699 0 -0.033744549417732639 0.2791280462328477 0 -0.019810624336267221 0.2755507448036309 0 -0.022303833607517039 0.29160092954568101 0 -0.019810624336267221 0.2755507448036309 0 -0.022303833607517039 0.29160092954568101 0 -0.010065508217021291 0.2909401902239841 0 -0.022303833607517039 0.29160092954568101 0 -0.024797042878766801 0.30765111428773101 0 -0.019810624336267221 0.2755507448036309 0 -0.010065508217021291 0.2909401902239841 0 -0.022303833607517039 0.29160092954568101 0 -0.024797042878766801 0.30765111428773101 0 -0.035080465030515179 0.30820630964007201 0 -0.033559971986820293 0.29699896508745699 0 -0.022303833607517039 0.29160092954568101 0 -0.024797042878766801 0.30765111428773101 0 -0.033559971986820293 0.29699896508745699 0 -0.022303833607517039 0.29160092954568101 0 -0.024797042878766801 0.30765111428773101 0 -0.024797042878766801 0.30765111428773101 0 -0.035080465030515179 0.30820630964007201 0 -0.035080465030515179 0.30820630964007201 0 -0.033559971986820293 0.29699896508745699 0 -0.046718840671415643 0.30132057725337819 0 -0.035080465030515179 0.30820630964007201 0 -0.046718840671415643 0.30132057725337819 0 -0.046224983532875519 0.31095755650060808 0 -0.033744549417732639 0.2791280462328477 0 -0.033559971986820293 0.29699896508745699 0 -0.046689575071612921 0.287797846701284 0 -0.033559971986820293 0.29699896508745699 0 -0.046718840671415643 0.30132057725337819 0 -0.046689575071612921 0.287797846701284 0 -0.069788545433559113 0.28918288626100219 0 -0.064859725488673525 0.27335016847815591 0 -0.046689575071612921 0.287797846701284 0 -0.069788545433559113 0.28918288626100219 0 -0.046689575071612921 0.287797846701284 0 -0.069788545433559113 0.28918288626100219 0 -0.046689575071612921 0.287797846701284 0 -0.05788742368789801 0.29820619175006952 0 -0.046718840671415643 0.30132057725337819 0 -0.046689575071612921 0.287797846701284 0 -0.05788742368789801 0.29820619175006952 0 -0.046718840671415643 0.30132057725337819 0 -0.046224983532875519 0.31095755650060808 0 -0.057990039490294798 0.31110589033109293 0 -0.046718840671415643 0.30132057725337819 0 -0.05788742368789801 0.29820619175006952 0 -0.057990039490294798 0.31110589033109293 0 -0.068250117772607574 0.30162375820359011 0 -0.05788742368789801 0.29820619175006952 0 -0.057990039490294798 0.31110589033109293 0 -0.057990039490294798 0.31110589033109293 0 -0.045110588939276441 0.32319744877788908 0 -0.064047286880262039 0.32684540546392088 0 -0.046224983532875519 0.31095755650060808 0 -0.057990039490294798 0.31110589033109293 0 -0.045110588939276441 0.32319744877788908 0 -0.056408554639371847 0.34192227679241999 0 -0.045110588939276441 0.32319744877788908 0 -0.064047286880262039 0.32684540546392088 0 -0.056408554639371847 0.34192227679241999 0 -0.045110588939276441 0.32319744877788908 0 -0.029745462152803701 0.33950686119404511 0 -0.045110588939276441 0.32319744877788908 0 -0.027271252515784449 0.32357898774088822 0 -0.029745462152803701 0.33950686119404511 0 -0.056408554639371847 0.34192227679241999 0 -0.029745462152803701 0.33950686119404511 0 -0.035080465030515179 0.30820630964007201 0 -0.045110588939276441 0.32319744877788908 0 -0.027271252515784449 0.32357898774088822 0 -0.035080465030515179 0.30820630964007201 0 -0.046224983532875519 0.31095755650060808 0 -0.045110588939276441 0.32319744877788908 0 -0.024797042878766801 0.30765111428773101 0 -0.017017764890708761 0.32036778384122028 0 -0.027271252515784449 0.32357898774088822 0 -0.024797042878766801 0.30765111428773101 0 -0.027271252515784449 0.32357898774088822 0 -0.024797042878766801 0.30765111428773101 0 -0.035080465030515179 0.30820630964007201 0 -0.027271252515784449 0.32357898774088822 0 -0.024797042878766801 0.30765111428773101 0 -0.017017764890708761 0.32036778384122028 0 -0.0073196809387918917 0.31630478116898952 0 -0.017017764890708761 0.32036778384122028 0 -0.027271252515784449 0.32357898774088822 0 -0.01959498458670619 0.32968211546373433 0 -0.017017764890708761 0.32036778384122028 0 -0.01959498458670619 0.32968211546373433 0 -0.012145355212834301 0.32930739653553792 0 -0.027271252515784449 0.32357898774088822 0 -0.029745462152803701 0.33950686119404511 0 -0.02415363030457127 0.33900029587809288 0 -0.027271252515784449 0.32357898774088822 0 -0.02415363030457127 0.33900029587809288 0 -0.01959498458670619 0.32968211546373433 0 -0.027271252515784449 0.32357898774088822 0 -0.029745462152803701 0.33950686119404511 0 -0.029745462152803701 0.33950686119404511 0 -0.02415363030457127 0.33900029587809288 0 -0.029745462152803701 0.33950686119404511 0 -0.02415363030457127 0.33900029587809288 0 -0.025089257807807089 0.34635543622108239 0 -0.02415363030457127 0.33900029587809288 0 -0.016183554124338331 0.34221439479260951 0 -0.025089257807807089 0.34635543622108239 0 -0.02415363030457127 0.33900029587809288 0 -0.017887924409333809 0.33599171701546371 0 -0.016183554124338331 0.34221439479260951 0 -0.02415363030457127 0.33900029587809288 0 -0.017887924409333809 0.33599171701546371 0 -0.01959498458670619 0.32968211546373433 0 -0.017887924409333809 0.33599171701546371 0 -0.01959498458670619 0.32968211546373433 0 -0.012145355212834301 0.32930739653553792 0 -0.017887924409333809 0.33599171701546371 0 -0.012145355212834301 0.32930739653553792 0 -0.01018667915839656 0.33605890644529829 0 -0.012145355212834301 0.32930739653553792 0 -0.01018667915839656 0.33605890644529829 0 -0.0050053922650978933 0.32930959642776192 0 -0.016183554124338331 0.34221439479260951 0 -0.01018667915839656 0.33605890644529829 0 -0.0097171709973471829 0.34352630725604932 0 -0.017887924409333809 0.33599171701546371 0 -0.016183554124338331 0.34221439479260951 0 -0.01018667915839656 0.33605890644529829 0 -0.01018667915839656 0.33605890644529829 0 -0.0097171709973471829 0.34352630725604932 0 -0.0022169591028925739 0.34003475710261488 0 -0.01018667915839656 0.33605890644529829 0 -0.0022169591028925739 0.34003475710261488 0 -0.0050053922650978933 0.32930959642776192 0 -0.0022169591028925739 0.34003475710261488 0 -0.0050053922650978933 0.32930959642776192 0 0.0032683553199878181 0.33129555223838958 0 -0.0050053922650978933 0.32930959642776192 0 -0.00096930810877692583 0.32313220051569053 0 0.0032683553199878181 0.33129555223838958 0 -0.0050053922650978933 0.32930959642776192 0 -0.0073344624523362994 0.32321460206398672 0 -0.00096930810877692583 0.32313220051569053 0 -0.0073344624523362994 0.32321460206398672 0 -0.00096930810877692583 0.32313220051569053 0 -0.0073196809387918917 0.31630478116898952 0 -0.00096930810877692583 0.32313220051569053 0 -0.0073196809387918917 0.31630478116898952 0 0.0065208847956155381 0.31713335066096943 0 -0.00032039209777558631 0.30632963564433752 0 -0.0073196809387918917 0.31630478116898952 0 0.0065208847956155381 0.31713335066096943 0 -0.017017764890708761 0.32036778384122028 0 -0.0073344624523362994 0.32321460206398672 0 -0.0073196809387918917 0.31630478116898952 0 -0.017017764890708761 0.32036778384122028 0 -0.012145355212834301 0.32930739653553792 0 -0.0073344624523362994 0.32321460206398672 0 -0.012145355212834301 0.32930739653553792 0 -0.0050053922650978933 0.32930959642776192 0 -0.0073344624523362994 0.32321460206398672 0 -0.0076686872235991448 0.37344720763265937 0 -0.0073873219459194631 0.36168333091019972 0 -0.01861608957053662 0.36476063077242882 0 -0.0073873219459194631 0.36168333091019972 0 -0.014762174057493129 0.35750226177021799 0 -0.01861608957053662 0.36476063077242882 0 -0.0076686872235991448 0.37344720763265937 0 -0.0073873219459194631 0.36168333091019972 0 0.0030432833389739309 0.3686872213646244 0 -0.0073873219459194631 0.36168333091019972 0 0.001025247234433042 0.35787708659393203 0 0.0030432833389739309 0.3686872213646244 0 -0.0073873219459194631 0.36168333091019972 0 -0.0062651488388395593 0.35121833234929339 0 0.001025247234433042 0.35787708659393203 0 -0.0022169591028925739 0.34003475710261488 0 -0.0062651488388395593 0.35121833234929339 0 0.0066219711490996831 0.34891505666914191 0 -0.0097171709973471829 0.34352630725604932 0 -0.0022169591028925739 0.34003475710261488 0 -0.0062651488388395593 0.35121833234929339 0 -0.0097171709973471829 0.34352630725604932 0 -0.0062651488388395593 0.35121833234929339 0 -0.01688746127572234 0.34988561547910502 0 -0.016183554124338331 0.34221439479260951 0 -0.0097171709973471829 0.34352630725604932 0 -0.01688746127572234 0.34988561547910502 0 -0.0062651488388395593 0.35121833234929339 0 -0.014762174057493129 0.35750226177021799 0 -0.01688746127572234 0.34988561547910502 0 -0.0073873219459194631 0.36168333091019972 0 -0.0062651488388395593 0.35121833234929339 0 -0.014762174057493129 0.35750226177021799 0 -0.014762174057493129 0.35750226177021799 0 -0.01688746127572234 0.34988561547910502 0 -0.024405278689527549 0.35663257260671982 0 -0.01688746127572234 0.34988561547910502 0 -0.025089257807807089 0.34635543622108239 0 -0.024405278689527549 0.35663257260671982 0 -0.016183554124338331 0.34221439479260951 0 -0.01688746127572234 0.34988561547910502 0 -0.025089257807807089 0.34635543622108239 0 -0.025089257807807089 0.34635543622108239 0 -0.024405278689527549 0.35663257260671982 0 -0.031411090243902748 0.35022944227939129 0 -0.029745462152803701 0.33950686119404511 0 -0.031411090243902748 0.35022944227939129 0 -0.029745462152803701 0.33950686119404511 0 -0.025089257807807089 0.34635543622108239 0 -0.031411090243902748 0.35022944227939129 0 -0.024405278689527549 0.35663257260671982 0 -0.034943092971367017 0.3650212258081893 0 -0.031411090243902748 0.35022944227939129 0 -0.024163526534932981 0.37380641121506342 0 -0.01861608957053662 0.36476063077242882 0 -0.034943092971367017 0.3650212258081893 0 -0.0076686872235991448 0.37344720763265937 0 -0.024163526534932981 0.37380641121506342 0 -0.01861608957053662 0.36476063077242882 0 -0.024405278689527549 0.35663257260671982 0 -0.01861608957053662 0.36476063077242882 0 -0.034943092971367017 0.3650212258081893 0 -0.014762174057493129 0.35750226177021799 0 -0.024405278689527549 0.35663257260671982 0 -0.01861608957053662 0.36476063077242882 0 -0.034943092971367017 0.3650212258081893 0 -0.055339640862150583 0.36330732969928092 0 -0.043770308492812993 0.38053909799841701 0 -0.024163526534932981 0.37380641121506342 0 -0.034943092971367017 0.3650212258081893 0 -0.043770308492812993 0.38053909799841701 0 -0.034943092971367017 0.3650212258081893 0 -0.041569568173919193 0.35199742715466531 0 -0.055339640862150583 0.36330732969928092 0 -0.056408554639371847 0.34192227679241999 0 -0.029745462152803701 0.33950686119404511 0 -0.041569568173919193 0.35199742715466531 0 -0.029745462152803701 0.33950686119404511 0 -0.031411090243902748 0.35022944227939129 0 -0.041569568173919193 0.35199742715466531 0 -0.034943092971367017 0.3650212258081893 0 -0.031411090243902748 0.35022944227939129 0 -0.041569568173919193 0.35199742715466531 0 -0.056408554639371847 0.34192227679241999 0 -0.041569568173919193 0.35199742715466531 0 -0.055339640862150583 0.36330732969928092 0 -0.055339640862150583 0.36330732969928092 0 -0.071896364411212027 0.3771855066284231 0 -0.043770308492812993 0.38053909799841701 0 -0.055339640862150583 0.36330732969928092 0 -0.076761971411841837 0.36028292396265182 0 -0.071896364411212027 0.3771855066284231 0 -0.076761971411841837 0.36028292396265182 0 -0.085780831888840309 0.37252567947064358 0 -0.092595481949522357 0.36439707468599147 0 -0.085780831888840309 0.37252567947064358 0 -0.092595481949522357 0.36439707468599147 0 -0.10242827258793551 0.36785773789170878 0 -0.076761971411841837 0.36028292396265182 0 -0.092595481949522357 0.36439707468599147 0 -0.092698221134687661 0.35480053989376981 0 -0.076761971411841837 0.36028292396265182 0 -0.085780831888840309 0.37252567947064358 0 -0.071896364411212027 0.3771855066284231 0 -0.076761971411841837 0.36028292396265182 0 -0.083071647125939924 0.34433769239079531 0 -0.092698221134687661 0.35480053989376981 0 -0.056408554639371847 0.34192227679241999 0 -0.055339640862150583 0.36330732969928092 0 -0.076761971411841837 0.36028292396265182 0 -0.056408554639371847 0.34192227679241999 0 -0.076761971411841837 0.36028292396265182 0 -0.083071647125939924 0.34433769239079531 0 -0.083071647125939924 0.34433769239079531 0 -0.064047286880262039 0.32684540546392088 0 -0.078004369378311414 0.31598930823932792 0 -0.056408554639371847 0.34192227679241999 0 -0.083071647125939924 0.34433769239079531 0 -0.056408554639371847 0.34192227679241999 0 -0.083071647125939924 0.34433769239079531 0 -0.064047286880262039 0.32684540546392088 0 -0.057990039490294798 0.31110589033109293 0 -0.064047286880262039 0.32684540546392088 0 -0.078004369378311414 0.31598930823932792 0 -0.092275405543860017 0.30640893924871992 0 -0.078004369378311414 0.31598930823932792 0 -0.10105370920257301 0.32465452415714158 0 -0.083071647125939924 0.34433769239079531 0 -0.078004369378311414 0.31598930823932792 0 -0.10105370920257301 0.32465452415714158 0 -0.10105370920257301 0.32465452415714158 0 -0.1097347396125079 0.34675310798917058 0 -0.1066096221582484 0.34647000288988122 0 -0.083071647125939924 0.34433769239079531 0 -0.10105370920257301 0.32465452415714158 0 -0.1066096221582484 0.34647000288988122 0 -0.1064512226489296 0.30589458580069567 0 -0.10105370920257301 0.32465452415714158 0 -0.1200149295023538 0.32122124578067102 0 -0.10105370920257301 0.32465452415714158 0 -0.1200149295023538 0.32122124578067102 0 -0.1175413869550218 0.33519758545627881 0 -0.1064512226489296 0.30589458580069567 0 -0.1200149295023538 0.32122124578067102 0 -0.13357863635577469 0.33654790576064919 0 -0.1175413869550218 0.33519758545627881 0 -0.1233244569280421 0.34685457950984999 0 -0.13357863635577469 0.33654790576064919 0 -0.1200149295023538 0.32122124578067102 0 -0.1175413869550218 0.33519758545627881 0 -0.10105370920257301 0.32465452415714158 0 -0.1175413869550218 0.33519758545627881 0 -0.1097347396125079 0.34675310798917058 0 -0.1175413869550218 0.33519758545627881 0 -0.1233244569280421 0.34685457950984999 0 -0.1097347396125079 0.34675310798917058 0 -0.1233244569280421 0.34685457950984999 0 -0.10242827258793551 0.36785773789170878 0 -0.1045707468566409 0.35468806785020818 0 -0.12541893198456541 0.36256701212732789 0 -0.1233244569280421 0.34685457950984999 0 -0.10242827258793551 0.36785773789170878 0 -0.1233244569280421 0.34685457950984999 0 -0.1097347396125079 0.34675310798917058 0 -0.1045707468566409 0.35468806785020818 0 -0.1233244569280421 0.34685457950984999 0 -0.10242827258793551 0.36785773789170878 0 -0.1233244569280421 0.34685457950984999 0 -0.1097347396125079 0.34675310798917058 0 -0.12541893198456541 0.36256701212732789 0 -0.10242827258793551 0.36785773789170878 0 -0.1075889063767998 0.37765888989113172 0 -0.12541893198456541 0.36256701212732789 0 -0.1075889063767998 0.37765888989113172 0 -0.12541893198456541 0.36256701212732789 0 -0.12296577242776111 0.37403941816587571 0 -0.1075889063767998 0.37765888989113172 0 -0.092595481949522357 0.36439707468599147 0 -0.10242827258793551 0.36785773789170878 0 -0.1045707468566409 0.35468806785020818 0 -0.092698221134687661 0.35480053989376981 0 -0.1066096221582484 0.34647000288988122 0 -0.1045707468566409 0.35468806785020818 0 -0.083071647125939924 0.34433769239079531 0 -0.1066096221582484 0.34647000288988122 0 -0.092595481949522357 0.36439707468599147 0 -0.092698221134687661 0.35480053989376981 0 -0.1045707468566409 0.35468806785020818 0 -0.083071647125939924 0.34433769239079531 0 -0.092698221134687661 0.35480053989376981 0 -0.1066096221582484 0.34647000288988122 0 -0.1097347396125079 0.34675310798917058 0 -0.1066096221582484 0.34647000288988122 0 -0.1045707468566409 0.35468806785020818 0 -0.1097347396125079 0.34675310798917058 0 -0.1066096221582484 0.34647000288988122 0 -0.1037417565082928 0.39080808423435348 0 -0.1133160668901174 0.38884776321146919 0 -0.11048547401226411 0.39777954653306408 0 -0.1037417565082928 0.39080808423435348 0 -0.099471428486036476 0.40095149097095778 0 -0.11048547401226411 0.39777954653306408 0 -0.099471428486036476 0.40095149097095778 0 -0.11048547401226411 0.39777954653306408 0 -0.10756742271486661 0.40772702681560918 0 -0.099471428486036476 0.40095149097095778 0 -0.097342726513010625 0.4122462048574117 0 -0.08872943259465231 0.40254705436776678 0 -0.1037417565082928 0.39080808423435348 0 -0.099471428486036476 0.40095149097095778 0 -0.089758880769034238 0.3927507676549355 0 -0.10242827258793551 0.36785773789170878 0 -0.1075889063767998 0.37765888989113172 0 -0.089758880769034238 0.3927507676549355 0 -0.1037417565082928 0.39080808423435348 0 -0.1075889063767998 0.37765888989113172 0 -0.089758880769034238 0.3927507676549355 0 -0.1075889063767998 0.37765888989113172 0 -0.089758880769034238 0.3927507676549355 0 -0.1037417565082928 0.39080808423435348 0 -0.1075889063767998 0.37765888989113172 0 -0.1133160668901174 0.38884776321146919 0 -0.1075889063767998 0.37765888989113172 0 -0.1133160668901174 0.38884776321146919 0 -0.1230736302473963 0.38318059764092671 0 -0.12296577242776111 0.37403941816587571 0 -0.1075889063767998 0.37765888989113172 0 -0.1230736302473963 0.38318059764092671 0 -0.1133160668901174 0.38884776321146919 0 -0.1230736302473963 0.38318059764092671 0 -0.12169056730583371 0.39481169775787001 0 -0.1133160668901174 0.38884776321146919 0 -0.12169056730583371 0.39481169775787001 0 -0.11048547401226411 0.39777954653306408 0 -0.11048547401226411 0.39777954653306408 0 -0.12082572697990961 0.40660523088268802 0 -0.10756742271486661 0.40772702681560918 0 -0.12169056730583371 0.39481169775787001 0 -0.11048547401226411 0.39777954653306408 0 -0.12082572697990961 0.40660523088268802 0 -0.12626538229327941 0.41751927109444859 0 -0.12082572697990961 0.40660523088268802 0 -0.109711757583112 0.42105266083392501 0 -0.12082572697990961 0.40660523088268802 0 -0.109711757583112 0.42105266083392501 0 -0.10756742271486661 0.40772702681560918 0 -0.12774258126637361 0.43196655821060898 0 -0.109711757583112 0.42105266083392501 0 -0.1139830273234793 0.44205060688803338 0 -0.12774258126637361 0.43196655821060898 0 -0.12626538229327941 0.41751927109444859 0 -0.109711757583112 0.42105266083392501 0 -0.109711757583112 0.42105266083392501 0 -0.093402607744937 0.42613481156479688 0 -0.1014012365235671 0.43783226536693592 0 -0.109711757583112 0.42105266083392501 0 -0.1014012365235671 0.43783226536693592 0 -0.1139830273234793 0.44205060688803338 0 -0.109711757583112 0.42105266083392501 0 -0.097342726513010625 0.4122462048574117 0 -0.093402607744937 0.42613481156479688 0 -0.109711757583112 0.42105266083392501 0 -0.10756742271486661 0.40772702681560918 0 -0.097342726513010625 0.4122462048574117 0 -0.099471428486036476 0.40095149097095778 0 -0.10756742271486661 0.40772702681560918 0 -0.097342726513010625 0.4122462048574117 0 -0.097342726513010625 0.4122462048574117 0 -0.08792649551044196 0.41581777554148719 0 -0.08872943259465231 0.40254705436776678 0 -0.08792649551044196 0.41581777554148719 0 -0.093402607744937 0.42613481156479688 0 -0.077841435976202467 0.42223553683588982 0 -0.097342726513010625 0.4122462048574117 0 -0.08792649551044196 0.41581777554148719 0 -0.093402607744937 0.42613481156479688 0 -0.08792649551044196 0.41581777554148719 0 -0.078709576319330204 0.40700250786042902 0 -0.077841435976202467 0.42223553683588982 0 -0.08792649551044196 0.41581777554148719 0 -0.078709576319330204 0.40700250786042902 0 -0.08872943259465231 0.40254705436776678 0 -0.093402607744937 0.42613481156479688 0 -0.085256392578380802 0.44095976021253552 0 -0.1014012365235671 0.43783226536693592 0 -0.093402607744937 0.42613481156479688 0 -0.077841435976202467 0.42223553683588982 0 -0.085256392578380802 0.44095976021253552 0 -0.077841435976202467 0.42223553683588982 0 -0.070305114503580485 0.43484466263193511 0 -0.085256392578380802 0.44095976021253552 0 -0.077841435976202467 0.42223553683588982 0 -0.070305114503580485 0.43484466263193511 0 -0.060818557027946557 0.42663654893408298 0 -0.070305114503580485 0.43484466263193511 0 -0.060818557027946557 0.42663654893408298 0 -0.059037903421098631 0.43899232806748201 0 -0.077841435976202467 0.42223553683588982 0 -0.060635903907721563 0.40986405465542602 0 -0.060818557027946557 0.42663654893408298 0 -0.078709576319330204 0.40700250786042902 0 -0.077841435976202467 0.42223553683588982 0 -0.060635903907721563 0.40986405465542602 0 -0.08153208824782851 0.38886089627356751 0 -0.059700930103258269 0.39110300484557708 0 -0.060635903907721563 0.40986405465542602 0 -0.078709576319330204 0.40700250786042902 0 -0.08153208824782851 0.38886089627356751 0 -0.060635903907721563 0.40986405465542602 0 -0.08153208824782851 0.38886089627356751 0 -0.060635903907721563 0.40986405465542602 0 -0.078709576319330204 0.40700250786042902 0 -0.08872943259465231 0.40254705436776678 0 -0.08153208824782851 0.38886089627356751 0 -0.089758880769034238 0.3927507676549355 0 -0.08872943259465231 0.40254705436776678 0 -0.08153208824782851 0.38886089627356751 0 -0.099471428486036476 0.40095149097095778 0 -0.089758880769034238 0.3927507676549355 0 -0.08872943259465231 0.40254705436776678 0 -0.10242827258793551 0.36785773789170878 0 -0.089758880769034238 0.3927507676549355 0 -0.08153208824782851 0.38886089627356751 0 -0.10242827258793551 0.36785773789170878 0 -0.08153208824782851 0.38886089627356751 0 -0.085780831888840309 0.37252567947064358 0 -0.08153208824782851 0.38886089627356751 0 -0.071896364411212027 0.3771855066284231 0 -0.085780831888840309 0.37252567947064358 0 -0.10242827258793551 0.36785773789170878 0 -0.08153208824782851 0.38886089627356751 0 -0.08153208824782851 0.38886089627356751 0 -0.071896364411212027 0.3771855066284231 0 -0.059700930103258269 0.39110300484557708 0 -0.071896364411212027 0.3771855066284231 0 -0.043770308492812993 0.38053909799841701 0 -0.059700930103258269 0.39110300484557708 0 -0.040669985456716247 0.39906546867205211 0 -0.043770308492812993 0.38053909799841701 0 -0.071896364411212027 0.3771855066284231 0 -0.059700930103258269 0.39110300484557708 0 -0.043770308492812993 0.38053909799841701 0 -0.059700930103258269 0.39110300484557708 0 -0.040669985456716247 0.39906546867205211 0 -0.060635903907721563 0.40986405465542602 0 -0.040669985456716247 0.39906546867205211 0 -0.043770308492812993 0.38053909799841701 0 -0.023492557925130549 0.39481507974969032 0 -0.043770308492812993 0.38053909799841701 0 -0.015644252574413951 0.38389268936841081 0 -0.023492557925130549 0.39481507974969032 0 -0.0076686872235991448 0.37344720763265937 0 -0.024163526534932981 0.37380641121506342 0 -0.015644252574413951 0.38389268936841081 0 -0.024163526534932981 0.37380641121506342 0 -0.043770308492812993 0.38053909799841701 0 -0.015644252574413951 0.38389268936841081 0 -0.043770308492812993 0.38053909799841701 0 -0.015644252574413951 0.38389268936841081 0 -0.015644252574413951 0.38389268936841081 0 -0.023492557925130549 0.39481507974969032 0 -0.0103240943211206 0.38834871657323011 0 -0.0103240943211206 0.38834871657323011 0 -0.025031906944368042 0.40960796480525707 0 -0.040669985456716247 0.39906546867205211 0 -0.023492557925130549 0.39481507974969032 0 -0.025031906944368042 0.40960796480525707 0 -0.01280205951620886 0.40347902325538387 0 -0.0103240943211206 0.38834871657323011 0 -0.025031906944368042 0.40960796480525707 0 -0.023492557925130549 0.39481507974969032 0 -0.0103240943211206 0.38834871657323011 0 -0.025031906944368042 0.40960796480525707 0 -0.01280205951620886 0.40347902325538387 0 -0.0072461172275262997 0.39895558191686659 0 -0.0103240943211206 0.38834871657323011 0 -0.01280205951620886 0.40347902325538387 0 -0.0072461172275262997 0.39895558191686659 0 -0.0062698827988422884 0.40687083329545848 0 -0.0072461172275262997 0.39895558191686659 0 -0.0062698827988422884 0.40687083329545848 0 0.0019362671598315191 0.39720683037777738 0 -0.0072461172275262997 0.39895558191686659 0 -0.0103240943211206 0.38834871657323011 0 0.0019362671598315191 0.39720683037777738 0 -0.0076686872235991448 0.37344720763265937 0 -0.015644252574413951 0.38389268936841081 0 0.012481803343984891 0.38724628073840472 0 -0.015644252574413951 0.38389268936841081 0 -0.0103240943211206 0.38834871657323011 0 0.012481803343984891 0.38724628073840472 0 -0.015644252574413951 0.38389268936841081 0 0.012481803343984891 0.38724628073840472 0 -0.015439552706762789 0.42408249941583381 0 -0.01249245218021542 0.43142762754182712 0 -0.0080640383630453498 0.42020559079123732 0 -0.01249245218021542 0.43142762754182712 0 -0.0033847971853434139 0.43093556859388288 0 -0.0080640383630453498 0.42020559079123732 0 -0.01249245218021542 0.43142762754182712 0 -0.016846456926664179 0.44083414641674012 0 -0.0073226350732990709 0.4383012970811524 0 -0.01249245218021542 0.43142762754182712 0 -0.0033847971853434139 0.43093556859388288 0 -0.0073226350732990709 0.4383012970811524 0 -0.0033847971853434139 0.43093556859388288 0 -0.00033789435619270938 0.43757237590417902 0 -0.0073226350732990709 0.4383012970811524 0 -0.0033847971853434139 0.43093556859388288 0 -0.0080640383630453498 0.42020559079123732 0 0.0056028285917074346 0.42165407256078619 0 -0.00096918350646317563 0.41465633725833412 0 -0.0080640383630453498 0.42020559079123732 0 0.0056028285917074346 0.42165407256078619 0 -0.00096918350646317563 0.41465633725833412 0 -0.0062698827988422884 0.40687083329545848 0 -0.0080640383630453498 0.42020559079123732 0 -0.00096918350646317563 0.41465633725833412 0 -0.0062698827988422884 0.40687083329545848 0 0.0062110592726292973 0.41010007649745189 0 -0.0062698827988422884 0.40687083329545848 0 -0.01513829628918709 0.41361201968610678 0 -0.0080640383630453498 0.42020559079123732 0 -0.01280205951620886 0.40347902325538387 0 -0.0062698827988422884 0.40687083329545848 0 -0.01513829628918709 0.41361201968610678 0 -0.015439552706762789 0.42408249941583381 0 -0.01513829628918709 0.41361201968610678 0 -0.0080640383630453498 0.42020559079123732 0 -0.015439552706762789 0.42408249941583381 0 -0.01513829628918709 0.41361201968610678 0 -0.022103022583682911 0.42087581371226812 0 -0.01513829628918709 0.41361201968610678 0 -0.022103022583682911 0.42087581371226812 0 -0.025031906944368042 0.40960796480525707 0 -0.022103022583682911 0.42087581371226812 0 -0.025031906944368042 0.40960796480525707 0 -0.039739719567614677 0.4308672130372847 0 -0.01280205951620886 0.40347902325538387 0 -0.01513829628918709 0.41361201968610678 0 -0.025031906944368042 0.40960796480525707 0 -0.022103022583682911 0.42087581371226812 0 -0.02324651953077464 0.43184838008081999 0 -0.035855072897683311 0.43477174641707139 0 -0.022103022583682911 0.42087581371226812 0 -0.035855072897683311 0.43477174641707139 0 -0.015439552706762789 0.42408249941583381 0 -0.022103022583682911 0.42087581371226812 0 -0.02324651953077464 0.43184838008081999 0 -0.015439552706762789 0.42408249941583381 0 -0.01249245218021542 0.43142762754182712 0 -0.02324651953077464 0.43184838008081999 0 -0.01249245218021542 0.43142762754182712 0 -0.02324651953077464 0.43184838008081999 0 -0.016846456926664179 0.44083414641674012 0 -0.02324651953077464 0.43184838008081999 0 -0.02626313167212321 0.43750900095123268 0 -0.016846456926664179 0.44083414641674012 0 -0.02324651953077464 0.43184838008081999 0 -0.035855072897683311 0.43477174641707139 0 -0.02626313167212321 0.43750900095123268 0 -0.035855072897683311 0.43477174641707139 0 -0.031635147800528667 0.43901327461822742 0 -0.022103022583682911 0.42087581371226812 0 -0.035855072897683311 0.43477174641707139 0 -0.039739719567614677 0.4308672130372847 0 -0.035855072897683311 0.43477174641707139 0 -0.031635147800528667 0.43901327461822742 0 -0.02626313167212321 0.43750900095123268 0 -0.035855072897683311 0.43477174641707139 0 -0.039739719567614677 0.4308672130372847 0 -0.040669985456716247 0.39906546867205211 0 -0.025031906944368042 0.40960796480525707 0 -0.041184439137046593 0.41303076208244272 0 -0.025031906944368042 0.40960796480525707 0 -0.039739719567614677 0.4308672130372847 0 -0.025031906944368042 0.40960796480525707 0 -0.039739719567614677 0.4308672130372847 0 -0.041184439137046593 0.41303076208244272 0 -0.039739719567614677 0.4308672130372847 0 -0.041184439137046593 0.41303076208244272 0 -0.060635903907721563 0.40986405465542602 0 -0.040669985456716247 0.39906546867205211 0 -0.041184439137046593 0.41303076208244272 0 -0.060635903907721563 0.40986405465542602 0 -0.039739719567614677 0.4308672130372847 0 -0.060635903907721563 0.40986405465542602 0 -0.039739719567614677 0.4308672130372847 0 -0.060818557027946557 0.42663654893408298 0 -0.059037903421098631 0.43899232806748201 0 -0.039739719567614677 0.4308672130372847 0 -0.060635903907721563 0.40986405465542602 0 -0.060818557027946557 0.42663654893408298 0 -0.039739719567614677 0.4308672130372847 0 -0.059037903421098631 0.43899232806748201 0 -0.05632887096349537 0.45545975392418431 0 -0.039739719567614677 0.4308672130372847 0 -0.05632887096349537 0.45545975392418431 0 -0.059037903421098631 0.43899232806748201 0 -0.05632887096349537 0.45545975392418431 0 -0.070417933538512584 0.44550335176896072 0 -0.057740284855762672 0.45688593489485391 0 -0.052602622555938193 0.46562114260525023 0 -0.058749162537518329 0.47381198931568042 0 -0.05632887096349537 0.45545975392418431 0 -0.048190084851704083 0.46303305198939249 0 -0.040088203484183189 0.46056432170757777 0 -0.057740284855762672 0.45688593489485391 0 -0.05632887096349537 0.45545975392418431 0 -0.052602622555938193 0.46562114260525023 0 -0.057740284855762672 0.45688593489485391 0 -0.05632887096349537 0.45545975392418431 0 -0.05632887096349537 0.45545975392418431 0 -0.048190084851704083 0.46303305198939249 0 -0.052602622555938193 0.46562114260525023 0 -0.048190084851704083 0.46303305198939249 0 -0.052602622555938193 0.46562114260525023 0 -0.043740642403197708 0.47048698972055969 0 -0.05632887096349537 0.45545975392418431 0 -0.040088203484183189 0.46056432170757777 0 -0.033508988212780817 0.45380518126466751 0 -0.05632887096349537 0.45545975392418431 0 -0.033508988212780817 0.45380518126466751 0 -0.048190084851704083 0.46303305198939249 0 -0.040088203484183189 0.46056432170757777 0 -0.043740642403197708 0.47048698972055969 0 -0.040088203484183189 0.46056432170757777 0 -0.031665320753723358 0.46052837149624432 0 -0.033508988212780817 0.45380518126466751 0 -0.040088203484183189 0.46056432170757777 0 -0.031486775258480072 0.46757037194391682 0 -0.043740642403197708 0.47048698972055969 0 -0.040088203484183189 0.46056432170757777 0 -0.031665320753723358 0.46052837149624432 0 -0.031486775258480072 0.46757037194391682 0 -0.035855072897683311 0.43477174641707139 0 -0.05632887096349537 0.45545975392418431 0 -0.05632887096349537 0.45545975392418431 0 -0.033508988212780817 0.45380518126466751 0 -0.035003262161986813 0.44615934404612251 0 -0.035855072897683311 0.43477174641707139 0 -0.05632887096349537 0.45545975392418431 0 -0.035003262161986813 0.44615934404612251 0 -0.035855072897683311 0.43477174641707139 0 -0.039739719567614677 0.4308672130372847 0 -0.05632887096349537 0.45545975392418431 0 -0.033508988212780817 0.45380518126466751 0 -0.035003262161986813 0.44615934404612251 0 -0.028042397000470232 0.45066633222321673 0 -0.035855072897683311 0.43477174641707139 0 -0.035003262161986813 0.44615934404612251 0 -0.031635147800528667 0.43901327461822742 0 -0.035003262161986813 0.44615934404612251 0 -0.031635147800528667 0.43901327461822742 0 -0.027472302926090261 0.44279698103165038 0 -0.016846456926664179 0.44083414641674012 0 -0.028042397000470232 0.45066633222321673 0 -0.003662180686688134 0.44777646677072458 0 -0.027472302926090261 0.44279698103165038 0 -0.02626313167212321 0.43750900095123268 0 -0.016846456926664179 0.44083414641674012 0 -0.028042397000470232 0.45066633222321673 0 -0.003662180686688134 0.44777646677072458 0 -0.027472302926090261 0.44279698103165038 0 -0.016846456926664179 0.44083414641674012 0 -0.028042397000470232 0.45066633222321673 0 -0.033508988212780817 0.45380518126466751 0 -0.01068910546206637 0.45215060860514888 0 -0.031635147800528667 0.43901327461822742 0 -0.027472302926090261 0.44279698103165038 0 -0.02626313167212321 0.43750900095123268 0 -0.033508988212780817 0.45380518126466751 0 -0.028042397000470232 0.45066633222321673 0 -0.01068910546206637 0.45215060860514888 0 -0.035003262161986813 0.44615934404612251 0 -0.027472302926090261 0.44279698103165038 0 -0.028042397000470232 0.45066633222321673 0 -0.031665320753723358 0.46052837149624432 0 -0.033508988212780817 0.45380518126466751 0 -0.021577316059449372 0.46017361106881532 0 -0.033508988212780817 0.45380518126466751 0 -0.021577316059449372 0.46017361106881532 0 -0.01068910546206637 0.45215060860514888 0 -0.031486775258480072 0.46757037194391682 0 -0.021577316059449372 0.46017361106881532 0 -0.0205992538548363 0.47366305482565169 0 -0.031665320753723358 0.46052837149624432 0 -0.031486775258480072 0.46757037194391682 0 -0.021577316059449372 0.46017361106881532 0 -0.021577316059449372 0.46017361106881532 0 -0.0094517430675019921 0.46743856230645392 0 -0.0205992538548363 0.47366305482565169 0 -0.021577316059449372 0.46017361106881532 0 -0.0094517430675019921 0.46743856230645392 0 -0.01068910546206637 0.45215060860514888 0 -0.0094517430675019921 0.46743856230645392 0 0.002334760443109415 0.47154344293807721 0 0.0014539775662769251 0.46057763459147982 0 -0.0094517430675019921 0.46743856230645392 0 -0.01068910546206637 0.45215060860514888 0 0.0014539775662769251 0.46057763459147982 0 -0.003662180686688134 0.44777646677072458 0 -0.01068910546206637 0.45215060860514888 0 0.01213077728864808 0.4504960359456302 0 -0.028042397000470232 0.45066633222321673 0 -0.003662180686688134 0.44777646677072458 0 -0.01068910546206637 0.45215060860514888 0 -0.003662180686688134 0.44777646677072458 0 -0.00033789435619270938 0.43757237590417902 0 -0.0073226350732990709 0.4383012970811524 0 -0.016846456926664179 0.44083414641674012 0 -0.003662180686688134 0.44777646677072458 0 -0.0073226350732990709 0.4383012970811524 0 -0.0064975003056543766 0.48465894610548932 0 -0.02402931895542371 0.5 0 0.0046896294178049858 0.5 0 -0.0094517430675019921 0.46743856230645392 0 -0.0064975003056543766 0.48465894610548932 0 0.002334760443109415 0.47154344293807721 0 -0.0094517430675019921 0.46743856230645392 0 -0.0064975003056543766 0.48465894610548932 0 -0.0205992538548363 0.47366305482565169 0 -0.031486775258480072 0.46757037194391682 0 -0.0205992538548363 0.47366305482565169 0 -0.034088727847501818 0.48114040672817732 0 -0.0064975003056543766 0.48465894610548932 0 -0.0205992538548363 0.47366305482565169 0 -0.02402931895542371 0.5 0 -0.0205992538548363 0.47366305482565169 0 -0.02402931895542371 0.5 0 -0.034088727847501818 0.48114040672817732 0 -0.02402931895542371 0.5 0 -0.034088727847501818 0.48114040672817732 0 -0.052748267328652232 0.5 0 -0.034088727847501818 0.48114040672817732 0 -0.049626144380444812 0.48210042655998381 0 -0.052748267328652232 0.5 0 -0.031486775258480072 0.46757037194391682 0 -0.034088727847501818 0.48114040672817732 0 -0.043740642403197708 0.47048698972055969 0 -0.034088727847501818 0.48114040672817732 0 -0.043740642403197708 0.47048698972055969 0 -0.049626144380444812 0.48210042655998381 0 -0.049626144380444812 0.48210042655998381 0 -0.058749162537518329 0.47381198931568042 0 -0.065809656052592175 0.48780033096783959 0 -0.052602622555938193 0.46562114260525023 0 -0.043740642403197708 0.47048698972055969 0 -0.051088541014488113 0.47385125477368789 0 -0.052602622555938193 0.46562114260525023 0 -0.051088541014488113 0.47385125477368789 0 -0.058749162537518329 0.47381198931568042 0 -0.043740642403197708 0.47048698972055969 0 -0.051088541014488113 0.47385125477368789 0 -0.049626144380444812 0.48210042655998381 0 -0.051088541014488113 0.47385125477368789 0 -0.049626144380444812 0.48210042655998381 0 -0.058749162537518329 0.47381198931568042 0 -0.049626144380444812 0.48210042655998381 0 -0.052748267328652232 0.5 0 -0.065809656052592175 0.48780033096783959 0 -0.052748267328652232 0.5 0 -0.065809656052592175 0.48780033096783959 0 -0.081467215701880979 0.5 0 -0.065809656052592175 0.48780033096783959 0 -0.077379812790901226 0.48899417301105019 0 -0.081467215701880979 0.5 0 -0.065809656052592175 0.48780033096783959 0 -0.077379812790901226 0.48899417301105019 0 -0.074185840368506589 0.48065698473855317 0 -0.081467215701880979 0.5 0 -0.088056539040625159 0.48751937633780812 0 -0.11018616407510939 0.5 0 -0.077379812790901226 0.48899417301105019 0 -0.081467215701880979 0.5 0 -0.088056539040625159 0.48751937633780812 0 -0.077379812790901226 0.48899417301105019 0 -0.088056539040625159 0.48751937633780812 0 -0.074185840368506589 0.48065698473855317 0 -0.088056539040625159 0.48751937633780812 0 -0.090567936112822447 0.47131154054064323 0 -0.072898411948193964 0.47220265561633101 0 -0.088056539040625159 0.48751937633780812 0 -0.072898411948193964 0.47220265561633101 0 -0.088056539040625159 0.48751937633780812 0 -0.072898411948193964 0.47220265561633101 0 -0.074185840368506589 0.48065698473855317 0 -0.057740284855762672 0.45688593489485391 0 -0.072898411948193964 0.47220265561633101 0 -0.074185840368506589 0.48065698473855317 0 -0.057740284855762672 0.45688593489485391 0 -0.074185840368506589 0.48065698473855317 0 -0.057740284855762672 0.45688593489485391 0 -0.058749162537518329 0.47381198931568042 0 -0.074185840368506589 0.48065698473855317 0 -0.058749162537518329 0.47381198931568042 0 -0.065809656052592175 0.48780033096783959 0 -0.074185840368506589 0.48065698473855317 0 -0.057740284855762672 0.45688593489485391 0 -0.05632887096349537 0.45545975392418431 0 -0.080714218192476539 0.45722783175607951 0 -0.057740284855762672 0.45688593489485391 0 -0.072898411948193964 0.47220265561633101 0 -0.05632887096349537 0.45545975392418431 0 -0.080714218192476539 0.45722783175607951 0 -0.057740284855762672 0.45688593489485391 0 -0.072898411948193964 0.47220265561633101 0 -0.080714218192476539 0.45722783175607951 0 -0.05632887096349537 0.45545975392418431 0 -0.070417933538512584 0.44550335176896072 0 -0.080714218192476539 0.45722783175607951 0 -0.070305114503580485 0.43484466263193511 0 -0.059037903421098631 0.43899232806748201 0 -0.070417933538512584 0.44550335176896072 0 -0.070305114503580485 0.43484466263193511 0 -0.070417933538512584 0.44550335176896072 0 -0.085256392578380802 0.44095976021253552 0 -0.070417933538512584 0.44550335176896072 0 -0.085256392578380802 0.44095976021253552 0 -0.080714218192476539 0.45722783175607951 0 -0.085256392578380802 0.44095976021253552 0 -0.080714218192476539 0.45722783175607951 0 -0.1046523973879262 0.45896348733538828 0 -0.090567936112822447 0.47131154054064323 0 -0.072898411948193964 0.47220265561633101 0 -0.080714218192476539 0.45722783175607951 0 -0.080714218192476539 0.45722783175607951 0 -0.1046523973879262 0.45896348733538828 0 -0.090567936112822447 0.47131154054064323 0 -0.080714218192476539 0.45722783175607951 0 -0.1046523973879262 0.45896348733538828 0 -0.1046523973879262 0.45896348733538828 0 -0.1014012365235671 0.43783226536693592 0 -0.1139830273234793 0.44205060688803338 0 -0.085256392578380802 0.44095976021253552 0 -0.1046523973879262 0.45896348733538828 0 -0.1014012365235671 0.43783226536693592 0 -0.12859057658337589 0.46069914291469699 0 -0.12774258126637361 0.43196655821060898 0 -0.1139830273234793 0.44205060688803338 0 -0.12859057658337589 0.46069914291469699 0 -0.1046523973879262 0.45896348733538828 0 -0.12859057658337589 0.46069914291469699 0 -0.1046523973879262 0.45896348733538828 0 -0.1139830273234793 0.44205060688803338 0 -0.12859057658337589 0.46069914291469699 0 -0.1046523973879262 0.45896348733538828 0 -0.10756881977382 0.47766195749387652 0 -0.1251989796214896 0.48343113578115859 0 -0.12859057658337589 0.46069914291469699 0 -0.10756881977382 0.47766195749387652 0 -0.1389051124483377 0.5 0 -0.1251989796214896 0.48343113578115859 0 -0.11018616407510939 0.5 0 -0.1251989796214896 0.48343113578115859 0 -0.11018616407510939 0.5 0 -0.10756881977382 0.47766195749387652 0 -0.088056539040625159 0.48751937633780812 0 -0.11018616407510939 0.5 0 -0.10756881977382 0.47766195749387652 0 -0.090567936112822447 0.47131154054064323 0 -0.1046523973879262 0.45896348733538828 0 -0.10756881977382 0.47766195749387652 0 -0.088056539040625159 0.48751937633780812 0 -0.090567936112822447 0.47131154054064323 0 -0.10756881977382 0.47766195749387652 0 -0.16667453092926049 0.091067064751970003 0 -0.16526333526843739 0.068459433131343977 0 -0.14511349618049041 0.084123127738330833 0 -0.16667453092926049 0.091067064751970003 0 -0.16526333526843739 0.068459433131343977 0 -0.17782243958881219 0.08133434583691046 0 -0.16526333526843739 0.068459433131343977 0 -0.18334941338716551 0.069111255833377558 0 -0.17782243958881219 0.08133434583691046 0 -0.16526333526843739 0.068459433131343977 0 -0.18334941338716551 0.069111255833377558 0 -0.18541317435638441 0.052795738524357157 0 -0.18334941338716551 0.069111255833377558 0 -0.17782243958881219 0.08133434583691046 0 -0.1912471069594148 0.080798770948406221 0 -0.16667453092926049 0.091067064751970003 0 -0.17782243958881219 0.08133434583691046 0 -0.18257781139978299 0.097235204519454568 0 -0.17782243958881219 0.08133434583691046 0 -0.18257781139978299 0.097235204519454568 0 -0.1912471069594148 0.080798770948406221 0 -0.18257781139978299 0.097235204519454568 0 -0.17136278407969571 0.1114512224444392 0 -0.1895518980050237 0.1151226267716067 0 -0.16667453092926049 0.091067064751970003 0 -0.18257781139978299 0.097235204519454568 0 -0.17136278407969571 0.1114512224444392 0 -0.1895518980050237 0.1151226267716067 0 -0.19434096616379359 0.1315084048054635 0 -0.1774270875202196 0.12794909696787951 0 -0.17136278407969571 0.1114512224444392 0 -0.1895518980050237 0.1151226267716067 0 -0.1774270875202196 0.12794909696787951 0 -0.17136278407969571 0.1114512224444392 0 -0.15862950761492059 0.1082855062774002 0 -0.156711790986029 0.1266486597490438 0 -0.17136278407969571 0.1114512224444392 0 -0.156711790986029 0.1266486597490438 0 -0.1774270875202196 0.12794909696787951 0 -0.16667453092926049 0.091067064751970003 0 -0.17136278407969571 0.1114512224444392 0 -0.15862950761492059 0.1082855062774002 0 -0.16667453092926049 0.091067064751970003 0 -0.15862950761492059 0.1082855062774002 0 -0.15296810313452061 0.097596719298821452 0 -0.15296810313452061 0.097596719298821452 0 -0.14063334412426109 0.1006974005130126 0 -0.14511349618049041 0.084123127738330833 0 -0.15862950761492059 0.1082855062774002 0 -0.15296810313452061 0.097596719298821452 0 -0.14679787046225301 0.11078363960680029 0 -0.15296810313452061 0.097596719298821452 0 -0.14063334412426109 0.1006974005130126 0 -0.14679787046225301 0.11078363960680029 0 -0.14679787046225301 0.11078363960680029 0 -0.14056994565931541 0.1241699255409693 0 -0.156711790986029 0.1266486597490438 0 -0.15862950761492059 0.1082855062774002 0 -0.14679787046225301 0.11078363960680029 0 -0.156711790986029 0.1266486597490438 0 -0.14056994565931541 0.1241699255409693 0 -0.13283149307853759 0.1116874834401934 0 -0.12538013163551431 0.1235615211388761 0 -0.14679787046225301 0.11078363960680029 0 -0.14056994565931541 0.1241699255409693 0 -0.13283149307853759 0.1116874834401934 0 -0.13283149307853759 0.1116874834401934 0 -0.12538013163551431 0.1235615211388761 0 -0.1203286734786395 0.1140085367330374 0 -0.14063334412426109 0.1006974005130126 0 -0.13283149307853759 0.1116874834401934 0 -0.12496365709254351 0.099786822345317605 0 -0.14063334412426109 0.1006974005130126 0 -0.14511349618049041 0.084123127738330833 0 -0.12496365709254351 0.099786822345317605 0 -0.14063334412426109 0.1006974005130126 0 -0.14679787046225301 0.11078363960680029 0 -0.13283149307853759 0.1116874834401934 0 -0.13283149307853759 0.1116874834401934 0 -0.12496365709254351 0.099786822345317605 0 -0.1203286734786395 0.1140085367330374 0 -0.12819293178220359 0.086370742676851742 0 -0.14511349618049041 0.084123127738330833 0 -0.12496365709254351 0.099786822345317605 0 -0.14511349618049041 0.084123127738330833 0 -0.12496365709254351 0.099786822345317605 0 -0.12507013881000539 0.089626186415924514 0 -0.12819293178220359 0.086370742676851742 0 -0.12496365709254351 0.099786822345317605 0 -0.12819293178220359 0.086370742676851742 0 -0.1257527236209417 0.085016396217428403 0 -0.1216068506933829 0.089672221297597041 0 -0.12819293178220359 0.086370742676851742 0 -0.1218107812678077 0.091921798454556253 0 -0.12507013881000539 0.089626186415924514 0 -0.12819293178220359 0.086370742676851742 0 -0.1218107812678077 0.091921798454556253 0 -0.1274383000896771 0.080256685286637694 0 -0.12670438843014881 0.076799680774201962 0 -0.12485635251832949 0.078351939813024546 0 -0.1274383000896771 0.080256685286637694 0 -0.12487663512593079 0.081391171732444381 0 -0.12485635251832949 0.078351939813024546 0 -0.1274383000896771 0.080256685286637694 0 -0.12553973240708449 0.083487465722660095 0 -0.12487663512593079 0.081391171732444381 0 -0.1274383000896771 0.080256685286637694 0 -0.12795615124755361 0.082407051699447065 0 -0.13105527497339781 0.079543894337821205 0 -0.12819293178220359 0.086370742676851742 0 -0.12795615124755361 0.082407051699447065 0 -0.12553973240708449 0.083487465722660095 0 -0.1274383000896771 0.080256685286637694 0 -0.12795615124755361 0.082407051699447065 0 -0.12553973240708449 0.083487465722660095 0 -0.12819293178220359 0.086370742676851742 0 -0.12553973240708449 0.083487465722660095 0 -0.1257527236209417 0.085016396217428403 0 -0.12819293178220359 0.086370742676851742 0 -0.12795615124755361 0.082407051699447065 0 -0.13105527497339781 0.079543894337821205 0 -0.1274383000896771 0.080256685286637694 0 -0.13105527497339781 0.079543894337821205 0 -0.12925999599444521 0.077032649067396819 0 -0.12819293178220359 0.086370742676851742 0 -0.14511349618049041 0.084123127738330833 0 -0.1490118197004501 0.065565408412650905 0 -0.16667453092926049 0.091067064751970003 0 -0.15296810313452061 0.097596719298821452 0 -0.14511349618049041 0.084123127738330833 0 -0.12819293178220359 0.086370742676851742 0 -0.1490118197004501 0.065565408412650905 0 -0.14703098366294429 0.066514125147222658 0 -0.16526333526843739 0.068459433131343977 0 -0.14511349618049041 0.084123127738330833 0 -0.16526333526843739 0.068459433131343977 0 -0.14511349618049041 0.084123127738330833 0 -0.1490118197004501 0.065565408412650905 0 -0.14703098366294429 0.066514125147222658 0 -0.1419384174890034 0.065870714333301689 0 -0.1377808952583166 0.07060535669392895 0 -0.14703098366294429 0.066514125147222658 0 -0.14451951639672889 0.063702406861364566 0 -0.14775880618976051 0.060117427161460298 0 -0.14451951639672889 0.063702406861364566 0 -0.1419384174890034 0.065870714333301689 0 -0.14167870498430879 0.062059228787699407 0 -0.14703098366294429 0.066514125147222658 0 -0.14451951639672889 0.063702406861364566 0 -0.1419384174890034 0.065870714333301689 0 -0.1419384174890034 0.065870714333301689 0 -0.1373518483985352 0.065726389066509544 0 -0.14167870498430879 0.062059228787699407 0 -0.12819293178220359 0.086370742676851742 0 -0.13105527497339781 0.079543894337821205 0 -0.14703098366294429 0.066514125147222658 0 -0.12819293178220359 0.086370742676851742 0 -0.14703098366294429 0.066514125147222658 0 -0.13105527497339781 0.079543894337821205 0 -0.14703098366294429 0.066514125147222658 0 -0.1377808952583166 0.07060535669392895 0 -0.12819293178220359 0.086370742676851742 0 -0.1490118197004501 0.065565408412650905 0 -0.1373518483985352 0.065726389066509544 0 -0.12987677580399101 0.066971745259348264 0 -0.13557407051914391 0.05738375743153358 0 -0.1419384174890034 0.065870714333301689 0 -0.1373518483985352 0.065726389066509544 0 -0.1377808952583166 0.07060535669392895 0 -0.1373518483985352 0.065726389066509544 0 -0.13353133164218031 0.070685430785599954 0 -0.12987677580399101 0.066971745259348264 0 -0.1373518483985352 0.065726389066509544 0 -0.1377808952583166 0.07060535669392895 0 -0.13353133164218031 0.070685430785599954 0 -0.13105527497339781 0.079543894337821205 0 -0.1377808952583166 0.07060535669392895 0 -0.1321122724136011 0.075096229777755763 0 -0.1377808952583166 0.07060535669392895 0 -0.13353133164218031 0.070685430785599954 0 -0.1321122724136011 0.075096229777755763 0 -0.13105527497339781 0.079543894337821205 0 -0.12925999599444521 0.077032649067396819 0 -0.1321122724136011 0.075096229777755763 0 -0.12925999599444521 0.077032649067396819 0 -0.1321122724136011 0.075096229777755763 0 -0.1289897440654012 0.073466755160567443 0 -0.13353133164218031 0.070685430785599954 0 -0.1289897440654012 0.073466755160567443 0 -0.12987677580399101 0.066971745259348264 0 -0.13353133164218031 0.070685430785599954 0 -0.1321122724136011 0.075096229777755763 0 -0.1289897440654012 0.073466755160567443 0 -0.1289897440654012 0.073466755160567443 0 -0.12987677580399101 0.066971745259348264 0 -0.1226215052325052 0.073936349983915309 0 -0.1289897440654012 0.073466755160567443 0 -0.12670438843014881 0.076799680774201962 0 -0.1226215052325052 0.073936349983915309 0 -0.12925999599444521 0.077032649067396819 0 -0.1289897440654012 0.073466755160567443 0 -0.12670438843014881 0.076799680774201962 0 -0.1274383000896771 0.080256685286637694 0 -0.12925999599444521 0.077032649067396819 0 -0.12670438843014881 0.076799680774201962 0 -0.13557407051914391 0.05738375743153358 0 -0.13430865049500881 0.045465367544568022 0 -0.1197864358152651 0.053282202866922403 0 -0.12987677580399101 0.066971745259348264 0 -0.13557407051914391 0.05738375743153358 0 -0.1197864358152651 0.053282202866922403 0 -0.1373518483985352 0.065726389066509544 0 -0.13557407051914391 0.05738375743153358 0 -0.14167870498430879 0.062059228787699407 0 -0.13557407051914391 0.05738375743153358 0 -0.14264962174837839 0.057176221125366133 0 -0.14269659830178691 0.051420214059066167 0 -0.13557407051914391 0.05738375743153358 0 -0.14167870498430879 0.062059228787699407 0 -0.14264962174837839 0.057176221125366133 0 -0.13557407051914391 0.05738375743153358 0 -0.13430865049500881 0.045465367544568022 0 -0.14269659830178691 0.051420214059066167 0 -0.128895210172768 0.032880780971351282 0 -0.13430865049500881 0.045465367544568022 0 -0.1197864358152651 0.053282202866922403 0 -0.128895210172768 0.032880780971351282 0 -0.1390257380427467 0.037204695217623672 0 -0.13430865049500881 0.045465367544568022 0 -0.128895210172768 0.032880780971351282 0 -0.1390257380427467 0.037204695217623672 0 -0.1391655650141633 0.029395878277285691 0 -0.1390257380427467 0.037204695217623672 0 -0.13430865049500881 0.045465367544568022 0 -0.14545664780969769 0.043655247382139842 0 -0.13430865049500881 0.045465367544568022 0 -0.14545664780969769 0.043655247382139842 0 -0.14269659830178691 0.051420214059066167 0 -0.14545664780969769 0.043655247382139842 0 -0.14730261672209591 0.03462620191277356 0 -0.1519875103267323 0.040138102807254328 0 -0.1390257380427467 0.037204695217623672 0 -0.14545664780969769 0.043655247382139842 0 -0.14730261672209591 0.03462620191277356 0 -0.1390257380427467 0.037204695217623672 0 -0.14730261672209591 0.03462620191277356 0 -0.1391655650141633 0.029395878277285691 0 -0.14730261672209591 0.03462620191277356 0 -0.1519875103267323 0.040138102807254328 0 -0.15719461041450569 0.035005091616041317 0 -0.14730261672209591 0.03462620191277356 0 -0.15295002147725789 0.02943269054907274 0 -0.15719461041450569 0.035005091616041317 0 -0.14545664780969769 0.043655247382139842 0 -0.15198701724311961 0.045138124839463681 0 -0.1519875103267323 0.040138102807254328 0 -0.14545664780969769 0.043655247382139842 0 -0.15198701724311961 0.045138124839463681 0 -0.14986068991450849 0.049684027915639903 0 -0.1519875103267323 0.040138102807254328 0 -0.15666668185469079 0.04229589094091641 0 -0.15719461041450569 0.035005091616041317 0 -0.15198701724311961 0.045138124839463681 0 -0.1519875103267323 0.040138102807254328 0 -0.15666668185469079 0.04229589094091641 0 -0.15198701724311961 0.045138124839463681 0 -0.1553432811445972 0.047690691994382382 0 -0.15666668185469079 0.04229589094091641 0 -0.14703098366294429 0.066514125147222658 0 -0.1542481713148034 0.054214291431465687 0 -0.16690953771003481 0.047679342297204927 0 -0.1490118197004501 0.065565408412650905 0 -0.14703098366294429 0.066514125147222658 0 -0.16690953771003481 0.047679342297204927 0 -0.15198701724311961 0.045138124839463681 0 -0.1553432811445972 0.047690691994382382 0 -0.14986068991450849 0.049684027915639903 0 -0.1553432811445972 0.047690691994382382 0 -0.14986068991450849 0.049684027915639903 0 -0.1542481713148034 0.054214291431465687 0 -0.14986068991450849 0.049684027915639903 0 -0.1542481713148034 0.054214291431465687 0 -0.1481782216428216 0.055725866464508132 0 -0.14703098366294429 0.066514125147222658 0 -0.1542481713148034 0.054214291431465687 0 -0.14775880618976051 0.060117427161460298 0 -0.1542481713148034 0.054214291431465687 0 -0.1481782216428216 0.055725866464508132 0 -0.14775880618976051 0.060117427161460298 0 -0.1481782216428216 0.055725866464508132 0 -0.1448171379315045 0.060430445902740527 0 -0.14264962174837839 0.057176221125366133 0 -0.1481782216428216 0.055725866464508132 0 -0.14775880618976051 0.060117427161460298 0 -0.1448171379315045 0.060430445902740527 0 -0.14451951639672889 0.063702406861364566 0 -0.14775880618976051 0.060117427161460298 0 -0.1448171379315045 0.060430445902740527 0 -0.1448171379315045 0.060430445902740527 0 -0.14167870498430879 0.062059228787699407 0 -0.14264962174837839 0.057176221125366133 0 -0.14451951639672889 0.063702406861364566 0 -0.1448171379315045 0.060430445902740527 0 -0.14167870498430879 0.062059228787699407 0 -0.1481782216428216 0.055725866464508132 0 -0.14264962174837839 0.057176221125366133 0 -0.14269659830178691 0.051420214059066167 0 -0.14545664780969769 0.043655247382139842 0 -0.14986068991450849 0.049684027915639903 0 -0.14269659830178691 0.051420214059066167 0 -0.14986068991450849 0.049684027915639903 0 -0.1481782216428216 0.055725866464508132 0 -0.14269659830178691 0.051420214059066167 0 -0.14263431330638721 -0.0026543475024554258 0 -0.1296905307002188 -0.00029615891624961121 0 -0.13737113239023321 0.0066873079309429807 0 -0.1296905307002188 -0.00029615891624961121 0 -0.13737113239023321 0.0066873079309429807 0 -0.12688342370485001 0.01070171800265522 0 -0.1195315168135004 -0.0024303773624146621 0 -0.1296905307002188 -0.00029615891624961121 0 -0.12688342370485001 0.01070171800265522 0 -0.13737113239023321 0.0066873079309429807 0 -0.13451732322943211 0.0201794642440477 0 -0.14286676982687729 0.015003223074219189 0 -0.13737113239023321 0.0066873079309429807 0 -0.12688342370485001 0.01070171800265522 0 -0.13451732322943211 0.0201794642440477 0 -0.12688342370485001 0.01070171800265522 0 -0.13451732322943211 0.0201794642440477 0 -0.1242230929734665 0.023393682950198631 0 -0.128895210172768 0.032880780971351282 0 -0.13451732322943211 0.0201794642440477 0 -0.1242230929734665 0.023393682950198631 0 -0.128895210172768 0.032880780971351282 0 -0.13451732322943211 0.0201794642440477 0 -0.1391655650141633 0.029395878277285691 0 -0.13451732322943211 0.0201794642440477 0 -0.1391655650141633 0.029395878277285691 0 -0.1473711077332375 0.02355402125048545 0 -0.14730261672209591 0.03462620191277356 0 -0.1391655650141633 0.029395878277285691 0 -0.1473711077332375 0.02355402125048545 0 -0.1473711077332375 0.02355402125048545 0 -0.15295002147725789 0.02943269054907274 0 -0.15993175103919269 0.024545447416990641 0 -0.14730261672209591 0.03462620191277356 0 -0.1473711077332375 0.02355402125048545 0 -0.15295002147725789 0.02943269054907274 0 -0.1473711077332375 0.02355402125048545 0 -0.1522075159546063 0.0095920988714006342 0 -0.15993175103919269 0.024545447416990641 0 -0.1473711077332375 0.02355402125048545 0 -0.14286676982687729 0.015003223074219189 0 -0.1522075159546063 0.0095920988714006342 0 -0.13451732322943211 0.0201794642440477 0 -0.1473711077332375 0.02355402125048545 0 -0.14286676982687729 0.015003223074219189 0 -0.13737113239023321 0.0066873079309429807 0 -0.14286676982687729 0.015003223074219189 0 -0.1522075159546063 0.0095920988714006342 0 -0.15288594458857521 -0.0057362803360174394 0 -0.14263431330638721 -0.0026543475024554258 0 -0.1522075159546063 0.0095920988714006342 0 -0.14263431330638721 -0.0026543475024554258 0 -0.13737113239023321 0.0066873079309429807 0 -0.1522075159546063 0.0095920988714006342 0 -0.16664299870092189 -0.00098725277767185864 0 -0.1522075159546063 0.0095920988714006342 0 -0.17060107900225699 0.015300224281148829 0 -0.15288594458857521 -0.0057362803360174394 0 -0.16664299870092189 -0.00098725277767185864 0 -0.1522075159546063 0.0095920988714006342 0 -0.1522075159546063 0.0095920988714006342 0 -0.17060107900225699 0.015300224281148829 0 -0.15993175103919269 0.024545447416990641 0 -0.17060107900225699 0.015300224281148829 0 -0.15993175103919269 0.024545447416990641 0 -0.17471210158793971 0.02940441131841641 0 -0.15993175103919269 0.024545447416990641 0 -0.15719461041450569 0.035005091616041317 0 -0.16444464809090731 0.033382629238682307 0 -0.15295002147725789 0.02943269054907274 0 -0.15993175103919269 0.024545447416990641 0 -0.15719461041450569 0.035005091616041317 0 -0.15993175103919269 0.024545447416990641 0 -0.17471210158793971 0.02940441131841641 0 -0.16444464809090731 0.033382629238682307 0 -0.17060107900225699 0.015300224281148829 0 -0.17471210158793971 0.02940441131841641 0 -0.19064959553694311 0.023954739884249229 0 -0.17060107900225699 0.015300224281148829 0 -0.18590658937504029 0.0026401256165909611 0 -0.19064959553694311 0.023954739884249229 0 -0.16664299870092189 -0.00098725277767185864 0 -0.17060107900225699 0.015300224281148829 0 -0.18590658937504029 0.0026401256165909611 0 -0.16526333526843739 0.068459433131343977 0 -0.16690953771003481 0.047679342297204927 0 -0.16983070761869659 0.044760074148450069 0 -0.1490118197004501 0.065565408412650905 0 -0.16690953771003481 0.047679342297204927 0 -0.14703098366294429 0.066514125147222658 0 -0.16690953771003481 0.047679342297204927 0 -0.16526333526843739 0.068459433131343977 0 -0.1490118197004501 0.065565408412650905 0 -0.16690953771003481 0.047679342297204927 0 -0.1553432811445972 0.047690691994382382 0 -0.1542481713148034 0.054214291431465687 0 -0.1605154985578609 0.045755128638589701 0 -0.1542481713148034 0.054214291431465687 0 -0.16690953771003481 0.047679342297204927 0 -0.1605154985578609 0.045755128638589701 0 -0.1553432811445972 0.047690691994382382 0 -0.15666668185469079 0.04229589094091641 0 -0.1605154985578609 0.045755128638589701 0 -0.15666668185469079 0.04229589094091641 0 -0.16284294944854361 0.039584317592061768 0 -0.1605154985578609 0.045755128638589701 0 -0.16284294944854361 0.039584317592061768 0 -0.1605154985578609 0.045755128638589701 0 -0.16550768156407261 0.043210112185032221 0 -0.15666668185469079 0.04229589094091641 0 -0.16284294944854361 0.039584317592061768 0 -0.15719461041450569 0.035005091616041317 0 -0.16284294944854361 0.039584317592061768 0 -0.15719461041450569 0.035005091616041317 0 -0.16444464809090731 0.033382629238682307 0 -0.17471210158793971 0.02940441131841641 0 -0.16754182796435471 0.03837387824990144 0 -0.16983070761869659 0.044760074148450069 0 -0.17471210158793971 0.02940441131841641 0 -0.16444464809090731 0.033382629238682307 0 -0.16754182796435471 0.03837387824990144 0 -0.16284294944854361 0.039584317592061768 0 -0.16444464809090731 0.033382629238682307 0 -0.16754182796435471 0.03837387824990144 0 -0.16690953771003481 0.047679342297204927 0 -0.1605154985578609 0.045755128638589701 0 -0.16550768156407261 0.043210112185032221 0 -0.16690953771003481 0.047679342297204927 0 -0.16550768156407261 0.043210112185032221 0 -0.16983070761869659 0.044760074148450069 0 -0.16754182796435471 0.03837387824990144 0 -0.16550768156407261 0.043210112185032221 0 -0.16983070761869659 0.044760074148450069 0 -0.16284294944854361 0.039584317592061768 0 -0.16754182796435471 0.03837387824990144 0 -0.16550768156407261 0.043210112185032221 0 -0.16690953771003481 0.047679342297204927 0 -0.16983070761869659 0.044760074148450069 0 -0.16983070761869659 0.044760074148450069 0 -0.18541317435638441 0.052795738524357157 0 -0.19064959553694311 0.023954739884249229 0 -0.16983070761869659 0.044760074148450069 0 -0.19064959553694311 0.023954739884249229 0 -0.17471210158793971 0.02940441131841641 0 -0.16983070761869659 0.044760074148450069 0 -0.19064959553694311 0.023954739884249229 0 -0.16526333526843739 0.068459433131343977 0 -0.16983070761869659 0.044760074148450069 0 -0.18541317435638441 0.052795738524357157 0 -0.16526333526843739 0.068459433131343977 0 -0.18541317435638441 0.052795738524357157 0 -0.18541317435638441 0.052795738524357157 0 -0.212003188180026 0.045459358316512939 0 -0.20084988603359241 0.064238746366122021 0 -0.18334941338716551 0.069111255833377558 0 -0.18541317435638441 0.052795738524357157 0 -0.20084988603359241 0.064238746366122021 0 -0.18541317435638441 0.052795738524357157 0 -0.212003188180026 0.045459358316512939 0 -0.19064959553694311 0.023954739884249229 0 -0.212003188180026 0.045459358316512939 0 -0.2202950493619435 0.065540231179995606 0 -0.20084988603359241 0.064238746366122021 0 -0.18590658937504029 0.0026401256165909611 0 -0.19064959553694311 0.023954739884249229 0 -0.21146848345518951 0.003149405620048396 0 -0.19064959553694311 0.023954739884249229 0 -0.21146848345518951 0.003149405620048396 0 -0.19064959553694311 0.023954739884249229 0 -0.21836653901732489 0.023447964772470659 0 -0.21146848345518951 0.003149405620048396 0 -0.212003188180026 0.045459358316512939 0 -0.19064959553694311 0.023954739884249229 0 -0.21836653901732489 0.023447964772470659 0 -0.21836653901732489 0.023447964772470659 0 -0.21146848345518951 0.003149405620048396 0 -0.24496178883302311 0.01237944270509766 0 -0.21836653901732489 0.023447964772470659 0 -0.24496178883302311 0.01237944270509766 0 -0.23243935723684681 0.034580329818073442 0 -0.25457044692415531 0.039847410896771858 0 -0.24496178883302311 0.01237944270509766 0 -0.23243935723684681 0.034580329818073442 0 -0.212003188180026 0.045459358316512939 0 -0.23593583031384649 0.054100596417343112 0 -0.2202950493619435 0.065540231179995606 0 -0.212003188180026 0.045459358316512939 0 -0.23243935723684681 0.034580329818073442 0 -0.23593583031384649 0.054100596417343112 0 -0.212003188180026 0.045459358316512939 0 -0.21836653901732489 0.023447964772470659 0 -0.23243935723684681 0.034580329818073442 0 -0.25457044692415531 0.039847410896771858 0 -0.23243935723684681 0.034580329818073442 0 -0.23593583031384649 0.054100596417343112 0 -0.25797894661879511 0.062645041705594595 0 -0.25457044692415531 0.039847410896771858 0 -0.23593583031384649 0.054100596417343112 0 -0.25797894661879511 0.062645041705594595 0 -0.23593583031384649 0.054100596417343112 0 -0.24155975252329931 0.073837244407682759 0 -0.24155975252329931 0.073837244407682759 0 -0.22740017521243619 0.083596905565955004 0 -0.24211114701042519 0.09453997081764981 0 -0.22740017521243619 0.083596905565955004 0 -0.2226730059828548 0.1015290852565431 0 -0.24211114701042519 0.09453997081764981 0 -0.22740017521243619 0.083596905565955004 0 -0.21036192118365829 0.082537996167903832 0 -0.2226730059828548 0.1015290852565431 0 -0.22740017521243619 0.083596905565955004 0 -0.2202950493619435 0.065540231179995606 0 -0.21036192118365829 0.082537996167903832 0 -0.24155975252329931 0.073837244407682759 0 -0.22740017521243619 0.083596905565955004 0 -0.2202950493619435 0.065540231179995606 0 -0.23593583031384649 0.054100596417343112 0 -0.24155975252329931 0.073837244407682759 0 -0.2202950493619435 0.065540231179995606 0 -0.2202950493619435 0.065540231179995606 0 -0.21036192118365829 0.082537996167903832 0 -0.20084988603359241 0.064238746366122021 0 -0.18257781139978299 0.097235204519454568 0 -0.1912471069594148 0.080798770948406221 0 -0.20161825686011489 0.099426740396407046 0 -0.21036192118365829 0.082537996167903832 0 -0.1912471069594148 0.080798770948406221 0 -0.20161825686011489 0.099426740396407046 0 -0.18334941338716551 0.069111255833377558 0 -0.1912471069594148 0.080798770948406221 0 -0.20084988603359241 0.064238746366122021 0 -0.21036192118365829 0.082537996167903832 0 -0.1912471069594148 0.080798770948406221 0 -0.20084988603359241 0.064238746366122021 0 -0.1895518980050237 0.1151226267716067 0 -0.20998448200653561 0.12316509149599671 0 -0.19434096616379359 0.1315084048054635 0 -0.1895518980050237 0.1151226267716067 0 -0.20161825686011489 0.099426740396407046 0 -0.20998448200653561 0.12316509149599671 0 -0.18257781139978299 0.097235204519454568 0 -0.1895518980050237 0.1151226267716067 0 -0.20161825686011489 0.099426740396407046 0 -0.20161825686011489 0.099426740396407046 0 -0.20998448200653561 0.12316509149599671 0 -0.2226730059828548 0.1015290852565431 0 -0.21036192118365829 0.082537996167903832 0 -0.20161825686011489 0.099426740396407046 0 -0.2226730059828548 0.1015290852565431 0 -0.22892009829693391 0.1206968140226765 0 -0.2226730059828548 0.1015290852565431 0 -0.24007097381998019 0.1107183825947216 0 -0.20998448200653561 0.12316509149599671 0 -0.22892009829693391 0.1206968140226765 0 -0.2226730059828548 0.1015290852565431 0 -0.2226730059828548 0.1015290852565431 0 -0.24211114701042519 0.09453997081764981 0 -0.24007097381998019 0.1107183825947216 0 -0.25813148535304709 0.1137235584372733 0 -0.24211114701042519 0.09453997081764981 0 -0.24007097381998019 0.1107183825947216 0 -0.25813148535304709 0.1137235584372733 0 -0.24007097381998019 0.1107183825947216 0 -0.24645927362986639 0.1322616828522806 0 -0.22892009829693391 0.1206968140226765 0 -0.24007097381998019 0.1107183825947216 0 -0.24645927362986639 0.1322616828522806 0 -0.22892009829693391 0.1206968140226765 0 -0.24645927362986639 0.1322616828522806 0 -0.22727076960377021 0.1407272603990129 0 -0.20998448200653561 0.12316509149599671 0 -0.22892009829693391 0.1206968140226765 0 -0.22727076960377021 0.1407272603990129 0 -0.22727076960377021 0.1407272603990129 0 -0.24172537073617961 0.1498083737734853 0 -0.2327985481080396 0.1657027679543413 0 -0.22727076960377021 0.1407272603990129 0 -0.2327985481080396 0.1657027679543413 0 -0.21083925957963481 0.14978172045773511 0 -0.25799286945900141 0.15886893947765879 0 -0.24645927362986639 0.1322616828522806 0 -0.24172537073617961 0.1498083737734853 0 -0.24645927362986639 0.1322616828522806 0 -0.22727076960377021 0.1407272603990129 0 -0.24172537073617961 0.1498083737734853 0 -0.25799286945900141 0.15886893947765879 0 -0.24172537073617961 0.1498083737734853 0 -0.2327985481080396 0.1657027679543413 0 -0.25771628892770448 0.1781885867772483 0 -0.25799286945900141 0.15886893947765879 0 -0.2327985481080396 0.1657027679543413 0 -0.25771628892770448 0.1781885867772483 0 -0.23807852779806479 0.18615093052029949 0 -0.2327985481080396 0.1657027679543413 0 -0.23807852779806479 0.18615093052029949 0 -0.2327985481080396 0.1657027679543413 0 -0.2122352646949715 0.17861803039921961 0 -0.2327985481080396 0.1657027679543413 0 -0.2122352646949715 0.17861803039921961 0 -0.21083925957963481 0.14978172045773511 0 -0.2122352646949715 0.17861803039921961 0 -0.19344280684722351 0.16730730133756089 0 -0.21083925957963481 0.14978172045773511 0 -0.1939016413080776 0.184184334175128 0 -0.19344280684722351 0.16730730133756089 0 -0.1760463541148122 0.18483288221738681 0 -0.2122352646949715 0.17861803039921961 0 -0.1939016413080776 0.184184334175128 0 -0.19344280684722351 0.16730730133756089 0 -0.2122352646949715 0.17861803039921961 0 -0.1939016413080776 0.184184334175128 0 -0.20109745657390221 0.19819464053519739 0 -0.19344280684722351 0.16730730133756089 0 -0.21083925957963481 0.14978172045773511 0 -0.19344280684722351 0.16730730133756089 0 -0.1897292010882938 0.1474887291484186 0 -0.21083925957963481 0.14978172045773511 0 -0.1897292010882938 0.1474887291484186 0 -0.19434096616379359 0.1315084048054635 0 -0.21083925957963481 0.14978172045773511 0 -0.20998448200653561 0.12316509149599671 0 -0.19434096616379359 0.1315084048054635 0 -0.21083925957963481 0.14978172045773511 0 -0.20998448200653561 0.12316509149599671 0 -0.22727076960377021 0.1407272603990129 0 -0.21083925957963481 0.14978172045773511 0 -0.2419990777252152 0.25293648704472099 0 -0.22075493884011671 0.23936948420655149 0 -0.22262726019175141 0.22732492336095411 0 -0.21490162638859439 0.2479119197812811 0 -0.2419990777252152 0.25293648704472099 0 -0.22075493884011671 0.23936948420655149 0 -0.21490162638859439 0.2479119197812811 0 -0.22075493884011671 0.23936948420655149 0 -0.22262726019175141 0.22732492336095411 0 -0.21490162638859439 0.2479119197812811 0 -0.25825314838481339 0.2425458797231245 0 -0.2419990777252152 0.25293648704472099 0 -0.2408074769917862 0.23465833815203779 0 -0.2419990777252152 0.25293648704472099 0 -0.22075493884011671 0.23936948420655149 0 -0.2408074769917862 0.23465833815203779 0 -0.26474309448668609 0.22322285005153111 0 -0.2408074769917862 0.23465833815203779 0 -0.2417097275862935 0.21883514260066619 0 -0.2408074769917862 0.23465833815203779 0 -0.2417097275862935 0.21883514260066619 0 -0.22262726019175141 0.22732492336095411 0 -0.22075493884011671 0.23936948420655149 0 -0.2408074769917862 0.23465833815203779 0 -0.22262726019175141 0.22732492336095411 0 -0.22262726019175141 0.22732492336095411 0 -0.2303528939949081 0.20673792694062679 0 -0.2172976349730853 0.21361451564698869 0 -0.22262726019175141 0.22732492336095411 0 -0.2303528939949081 0.20673792694062679 0 -0.2417097275862935 0.21883514260066619 0 -0.22262726019175141 0.22732492336095411 0 -0.2303528939949081 0.20673792694062679 0 -0.2303528939949081 0.20673792694062679 0 -0.2168908574661382 0.19801621008371681 0 -0.2172976349730853 0.21361451564698869 0 -0.25001791226633591 0.20223167449818141 0 -0.2417097275862935 0.21883514260066619 0 -0.2303528939949081 0.20673792694062679 0 -0.25001791226633591 0.20223167449818141 0 -0.25771628892770448 0.1781885867772483 0 -0.23807852779806479 0.18615093052029949 0 -0.25001791226633591 0.20223167449818141 0 -0.23807852779806479 0.18615093052029949 0 -0.2303528939949081 0.20673792694062679 0 -0.23807852779806479 0.18615093052029949 0 -0.2122352646949715 0.17861803039921961 0 -0.2168908574661382 0.19801621008371681 0 -0.23807852779806479 0.18615093052029949 0 -0.2303528939949081 0.20673792694062679 0 -0.23807852779806479 0.18615093052029949 0 -0.2303528939949081 0.20673792694062679 0 -0.2168908574661382 0.19801621008371681 0 -0.2168908574661382 0.19801621008371681 0 -0.20109745657390221 0.19819464053519739 0 -0.20633716536348279 0.210271938072049 0 -0.2122352646949715 0.17861803039921961 0 -0.2168908574661382 0.19801621008371681 0 -0.20109745657390221 0.19819464053519739 0 -0.1939016413080776 0.184184334175128 0 -0.20109745657390221 0.19819464053519739 0 -0.18613787467600559 0.19822009325801199 0 -0.20109745657390221 0.19819464053519739 0 -0.1939603052279267 0.20882006281885979 0 -0.18613787467600559 0.19822009325801199 0 -0.20109745657390221 0.19819464053519739 0 -0.1939603052279267 0.20882006281885979 0 -0.20633716536348279 0.210271938072049 0 -0.1939603052279267 0.20882006281885979 0 -0.18847779311200399 0.21792875794108491 0 -0.19811422496977341 0.21947291992985701 0 -0.1939603052279267 0.20882006281885979 0 -0.18847779311200399 0.21792875794108491 0 -0.18222167222780239 0.21020269739657929 0 -0.1939603052279267 0.20882006281885979 0 -0.20633716536348279 0.210271938072049 0 -0.19811422496977341 0.21947291992985701 0 -0.20633716536348279 0.210271938072049 0 -0.20865288678017779 0.22409257537152411 0 -0.19811422496977341 0.21947291992985701 0 -0.20633716536348279 0.210271938072049 0 -0.2172976349730853 0.21361451564698869 0 -0.20865288678017779 0.22409257537152411 0 -0.2168908574661382 0.19801621008371681 0 -0.20633716536348279 0.210271938072049 0 -0.2172976349730853 0.21361451564698869 0 -0.22262726019175141 0.22732492336095411 0 -0.2172976349730853 0.21361451564698869 0 -0.20865288678017779 0.22409257537152411 0 -0.22262726019175141 0.22732492336095411 0 -0.2130663116774654 0.23367141518584331 0 -0.20865288678017779 0.22409257537152411 0 -0.20865288678017779 0.22409257537152411 0 -0.19917816863304411 0.2293848171664909 0 -0.20608347334933769 0.2353562422296161 0 -0.2130663116774654 0.23367141518584331 0 -0.20865288678017779 0.22409257537152411 0 -0.20608347334933769 0.2353562422296161 0 -0.19811422496977341 0.21947291992985701 0 -0.19207903070200519 0.226339368209133 0 -0.19917816863304411 0.2293848171664909 0 -0.20865288678017779 0.22409257537152411 0 -0.19811422496977341 0.21947291992985701 0 -0.19917816863304411 0.2293848171664909 0 -0.18847779311200399 0.21792875794108491 0 -0.19811422496977341 0.21947291992985701 0 -0.19207903070200519 0.226339368209133 0 -0.18847779311200399 0.21792875794108491 0 -0.19207903070200519 0.226339368209133 0 -0.18383749952494771 0.22732102123223061 0 -0.19207903070200519 0.226339368209133 0 -0.1903100476331743 0.23316716615974639 0 -0.19917816863304411 0.2293848171664909 0 -0.19207903070200519 0.226339368209133 0 -0.1903100476331743 0.23316716615974639 0 -0.18383749952494771 0.22732102123223061 0 -0.1903100476331743 0.23316716615974639 0 -0.19917816863304411 0.2293848171664909 0 -0.1978197221739024 0.2384599270529186 0 -0.18964531453629549 0.24322874732524691 0 -0.21490162638859439 0.2479119197812811 0 -0.18964531453629549 0.24322874732524691 0 -0.19422753500318671 0.24927008917741861 0 -0.21490162638859439 0.2479119197812811 0 -0.19917816863304411 0.2293848171664909 0 -0.1978197221739024 0.2384599270529186 0 -0.20608347334933769 0.2353562422296161 0 -0.1978197221739024 0.2384599270529186 0 -0.18964531453629549 0.24322874732524691 0 -0.21490162638859439 0.2479119197812811 0 -0.1978197221739024 0.2384599270529186 0 -0.1893173920268863 0.2382955116118049 0 -0.18964531453629549 0.24322874732524691 0 -0.1903100476331743 0.23316716615974639 0 -0.1978197221739024 0.2384599270529186 0 -0.1893173920268863 0.2382955116118049 0 -0.1893173920268863 0.2382955116118049 0 -0.18964531453629549 0.24322874732524691 0 -0.18481608155232521 0.24121676356881799 0 -0.1903100476331743 0.23316716615974639 0 -0.1893173920268863 0.2382955116118049 0 -0.1839957942387343 0.2354049539522946 0 -0.18964531453629549 0.24322874732524691 0 -0.19422753500318671 0.24927008917741861 0 -0.18523891074017471 0.24700351220784261 0 -0.18950928732507449 0.25308855862167973 0 -0.19422753500318671 0.24927008917741861 0 -0.18523891074017471 0.24700351220784261 0 -0.1978197221739024 0.2384599270529186 0 -0.20608347334933769 0.2353562422296161 0 -0.21490162638859439 0.2479119197812811 0 -0.22262726019175141 0.22732492336095411 0 -0.2130663116774654 0.23367141518584331 0 -0.21490162638859439 0.2479119197812811 0 -0.2130663116774654 0.23367141518584331 0 -0.20608347334933769 0.2353562422296161 0 -0.21490162638859439 0.2479119197812811 0 -0.15080605250994189 0.2509115815981382 0 -0.15930165715754269 0.23591263980146401 0 -0.168909596971867 0.23974411847412649 0 -0.15080605250994189 0.2509115815981382 0 -0.168909596971867 0.23974411847412649 0 -0.15020312497912239 0.2546436794913306 0 -0.17419466681155291 0.24533697914187419 0 -0.15080605250994189 0.2509115815981382 0 -0.168909596971867 0.23974411847412649 0 -0.17202190357501451 0.24282216012207219 0 -0.15080605250994189 0.2509115815981382 0 -0.17202190357501451 0.24282216012207219 0 -0.17419466681155291 0.24533697914187419 0 -0.15930165715754269 0.23591263980146401 0 -0.168909596971867 0.23974411847412649 0 -0.1660143559521027 0.23433630842767669 0 -0.168909596971867 0.23974411847412649 0 -0.16936268573043661 0.23351088203887591 0 -0.1660143559521027 0.23433630842767669 0 -0.168909596971867 0.23974411847412649 0 -0.17382324073125771 0.23767057170070849 0 -0.16936268573043661 0.23351088203887591 0 -0.168909596971867 0.23974411847412649 0 -0.17202190357501451 0.24282216012207219 0 -0.17382324073125771 0.23767057170070849 0 -0.17419466681155291 0.24533697914187419 0 -0.18481608155232521 0.24121676356881799 0 -0.17202190357501451 0.24282216012207219 0 -0.17419466681155291 0.24533697914187419 0 -0.17482613322758561 0.24138010050451131 0 -0.17202190357501451 0.24282216012207219 0 -0.17419466681155291 0.24533697914187419 0 -0.17419466681155291 0.24533697914187419 0 -0.18523891074017471 0.24700351220784261 0 -0.18481608155232521 0.24121676356881799 0 -0.18964531453629549 0.24322874732524691 0 -0.18523891074017471 0.24700351220784261 0 -0.18481608155232521 0.24121676356881799 0 -0.1893173920268863 0.2382955116118049 0 -0.1839957942387343 0.2354049539522946 0 -0.18481608155232521 0.24121676356881799 0 -0.1839957942387343 0.2354049539522946 0 -0.18481608155232521 0.24121676356881799 0 -0.17926472179251679 0.23969069105339089 0 -0.1839957942387343 0.2354049539522946 0 -0.17926472179251679 0.23969069105339089 0 -0.17830126745910169 0.23272013781420789 0 -0.17926472179251679 0.23969069105339089 0 -0.17382324073125771 0.23767057170070849 0 -0.17830126745910169 0.23272013781420789 0 -0.17419466681155291 0.24533697914187419 0 -0.18481608155232521 0.24121676356881799 0 -0.17926472179251679 0.23969069105339089 0 -0.17419466681155291 0.24533697914187419 0 -0.17926472179251679 0.23969069105339089 0 -0.17482613322758561 0.24138010050451131 0 -0.17926472179251679 0.23969069105339089 0 -0.17482613322758561 0.24138010050451131 0 -0.17382324073125771 0.23767057170070849 0 -0.17202190357501451 0.24282216012207219 0 -0.17482613322758561 0.24138010050451131 0 -0.17382324073125771 0.23767057170070849 0 -0.17830126745910169 0.23272013781420789 0 -0.18383749952494771 0.22732102123223061 0 -0.17554200255941491 0.2258592730727971 0 -0.17382324073125771 0.23767057170070849 0 -0.17318416260149039 0.23114371662499139 0 -0.17830126745910169 0.23272013781420789 0 -0.17382324073125771 0.23767057170070849 0 -0.17318416260149039 0.23114371662499139 0 -0.16936268573043661 0.23351088203887591 0 -0.17318416260149039 0.23114371662499139 0 -0.17830126745910169 0.23272013781420789 0 -0.17554200255941491 0.2258592730727971 0 -0.1903100476331743 0.23316716615974639 0 -0.1839957942387343 0.2354049539522946 0 -0.18383749952494771 0.22732102123223061 0 -0.1839957942387343 0.2354049539522946 0 -0.17830126745910169 0.23272013781420789 0 -0.18383749952494771 0.22732102123223061 0 -0.18847779311200399 0.21792875794108491 0 -0.18383749952494771 0.22732102123223061 0 -0.17871268680567601 0.21882546242884421 0 -0.18383749952494771 0.22732102123223061 0 -0.17871268680567601 0.21882546242884421 0 -0.17554200255941491 0.2258592730727971 0 -0.17871268680567601 0.21882546242884421 0 -0.17554200255941491 0.2258592730727971 0 -0.17144747170191799 0.22031686639816009 0 -0.17554200255941491 0.2258592730727971 0 -0.17144747170191799 0.22031686639816009 0 -0.1664834839485646 0.22817759339624061 0 -0.17144747170191799 0.22031686639816009 0 -0.1664834839485646 0.22817759339624061 0 -0.16448058214886341 0.21575549750331341 0 -0.17318416260149039 0.23114371662499139 0 -0.17554200255941491 0.2258592730727971 0 -0.1664834839485646 0.22817759339624061 0 -0.17318416260149039 0.23114371662499139 0 -0.16936268573043661 0.23351088203887591 0 -0.1664834839485646 0.22817759339624061 0 -0.16936268573043661 0.23351088203887591 0 -0.1660143559521027 0.23433630842767669 0 -0.1664834839485646 0.22817759339624061 0 -0.15930165715754269 0.23591263980146401 0 -0.1664834839485646 0.22817759339624061 0 -0.15472797694617119 0.2266350223476751 0 -0.15930165715754269 0.23591263980146401 0 -0.1660143559521027 0.23433630842767669 0 -0.1664834839485646 0.22817759339624061 0 -0.1664834839485646 0.22817759339624061 0 -0.16448058214886341 0.21575549750331341 0 -0.15472797694617119 0.2266350223476751 0 -0.16448058214886341 0.21575549750331341 0 -0.1586499013824004 0.20235846309721189 0 -0.15472797694617119 0.2266350223476751 0 -0.1586499013824004 0.20235846309721189 0 -0.15472797694617119 0.2266350223476751 0 -0.15625209502719051 0.20477406758042471 0 -0.1586499013824004 0.20235846309721189 0 -0.15671433240212579 0.20283502727580779 0 -0.15625209502719051 0.20477406758042471 0 -0.1586499013824004 0.20235846309721189 0 -0.16448058214886341 0.21575549750331341 0 -0.1726822853517519 0.2042186011297204 0 -0.1586499013824004 0.20235846309721189 0 -0.17144747170191799 0.22031686639816009 0 -0.16448058214886341 0.21575549750331341 0 -0.17335908819345039 0.21320320680295471 0 -0.16448058214886341 0.21575549750331341 0 -0.17335908819345039 0.21320320680295471 0 -0.1726822853517519 0.2042186011297204 0 -0.17871268680567601 0.21882546242884421 0 -0.17144747170191799 0.22031686639816009 0 -0.17335908819345039 0.21320320680295471 0 -0.17871268680567601 0.21882546242884421 0 -0.17335908819345039 0.21320320680295471 0 -0.18222167222780239 0.21020269739657929 0 -0.18847779311200399 0.21792875794108491 0 -0.17871268680567601 0.21882546242884421 0 -0.18222167222780239 0.21020269739657929 0 -0.1939603052279267 0.20882006281885979 0 -0.18222167222780239 0.21020269739657929 0 -0.18613787467600559 0.19822009325801199 0 -0.18222167222780239 0.21020269739657929 0 -0.1726822853517519 0.2042186011297204 0 -0.18613787467600559 0.19822009325801199 0 -0.17335908819345039 0.21320320680295471 0 -0.18222167222780239 0.21020269739657929 0 -0.1726822853517519 0.2042186011297204 0 -0.1939016413080776 0.184184334175128 0 -0.18613787467600559 0.19822009325801199 0 -0.1760463541148122 0.18483288221738681 0 -0.1726822853517519 0.2042186011297204 0 -0.18613787467600559 0.19822009325801199 0 -0.1760463541148122 0.18483288221738681 0 -0.1726822853517519 0.2042186011297204 0 -0.1586499013824004 0.20235846309721189 0 -0.1760463541148122 0.18483288221738681 0 -0.1586499013824004 0.20235846309721189 0 -0.1760463541148122 0.18483288221738681 0 -0.1586499013824004 0.20235846309721189 0 -0.15872483237309171 0.19258522385612789 0 -0.1760463541148122 0.18483288221738681 0 -0.1586499013824004 0.20235846309721189 0 -0.1566993159213764 0.19868883267045079 0 -0.15872483237309171 0.19258522385612789 0 -0.1586499013824004 0.20235846309721189 0 -0.1570333757816342 0.20109971380806679 0 -0.1566993159213764 0.19868883267045079 0 -0.1570333757816342 0.20109971380806679 0 -0.1566993159213764 0.19868883267045079 0 -0.15521841888297569 0.20054085502647021 0 -0.1570333757816342 0.20109971380806679 0 -0.15671433240212579 0.20283502727580779 0 -0.15521841888297569 0.20054085502647021 0 -0.1586499013824004 0.20235846309721189 0 -0.1570333757816342 0.20109971380806679 0 -0.15671433240212579 0.20283502727580779 0 -0.1566993159213764 0.19868883267045079 0 -0.15872483237309171 0.19258522385612789 0 -0.1537238295927088 0.19763880642858139 0 -0.15872483237309171 0.19258522385612789 0 -0.15102720710703721 0.18870604719475539 0 -0.1624985338649263 0.18351522854017871 0 -0.15222182225810399 0.19366855523670479 0 -0.15102720710703721 0.18870604719475539 0 -0.1469088543994384 0.19508168871727349 0 -0.15872483237309171 0.19258522385612789 0 -0.15222182225810399 0.19366855523670479 0 -0.1537238295927088 0.19763880642858139 0 -0.15872483237309171 0.19258522385612789 0 -0.15222182225810399 0.19366855523670479 0 -0.15102720710703721 0.18870604719475539 0 -0.1566993159213764 0.19868883267045079 0 -0.1537238295927088 0.19763880642858139 0 -0.15521841888297569 0.20054085502647021 0 -0.15439841449526701 0.20270277200284051 0 -0.15183164926568571 0.2005874979001443 0 -0.15197557689835731 0.2047764122313557 0 -0.15671433240212579 0.20283502727580779 0 -0.15439841449526701 0.20270277200284051 0 -0.15521841888297569 0.20054085502647021 0 -0.1537238295927088 0.19763880642858139 0 -0.15521841888297569 0.20054085502647021 0 -0.15183164926568571 0.2005874979001443 0 -0.15439841449526701 0.20270277200284051 0 -0.15521841888297569 0.20054085502647021 0 -0.15183164926568571 0.2005874979001443 0 -0.15183164926568571 0.2005874979001443 0 -0.1475730844213943 0.2012818992841762 0 -0.15197557689835731 0.2047764122313557 0 -0.15183164926568571 0.2005874979001443 0 -0.15024157900641241 0.1975023220007403 0 -0.1475730844213943 0.2012818992841762 0 -0.15222182225810399 0.19366855523670479 0 -0.1537238295927088 0.19763880642858139 0 -0.15024157900641241 0.1975023220007403 0 -0.15222182225810399 0.19366855523670479 0 -0.15024157900641241 0.1975023220007403 0 -0.1469088543994384 0.19508168871727349 0 -0.1537238295927088 0.19763880642858139 0 -0.15183164926568571 0.2005874979001443 0 -0.15024157900641241 0.1975023220007403 0 -0.1475730844213943 0.2012818992841762 0 -0.142459758460356 0.19861630251190041 0 -0.1469088543994384 0.19508168871727349 0 -0.15024157900641241 0.1975023220007403 0 -0.1475730844213943 0.2012818992841762 0 -0.1469088543994384 0.19508168871727349 0 -0.1475730844213943 0.2012818992841762 0 -0.142459758460356 0.19861630251190041 0 -0.1422524041805979 0.20557671918207521 0 -0.142459758460356 0.19861630251190041 0 -0.14277473457382139 0.19147263870309431 0 -0.1469088543994384 0.19508168871727349 0 -0.15102720710703721 0.18870604719475539 0 -0.14277473457382139 0.19147263870309431 0 -0.14510958151321579 0.18473702583469009 0 -0.15102720710703721 0.18870604719475539 0 -0.14277473457382139 0.19147263870309431 0 -0.1469088543994384 0.19508168871727349 0 -0.14277473457382139 0.19147263870309431 0 -0.14510958151321579 0.18473702583469009 0 -0.13738299589340741 0.18684063542023191 0 -0.14277473457382139 0.19147263870309431 0 -0.13663742332151391 0.19504812727950649 0 -0.13738299589340741 0.18684063542023191 0 -0.13663742332151391 0.19504812727950649 0 -0.13021038504640209 0.1899495558224244 0 -0.13738299589340741 0.18684063542023191 0 -0.142459758460356 0.19861630251190041 0 -0.14277473457382139 0.19147263870309431 0 -0.13663742332151391 0.19504812727950649 0 -0.13021038504640209 0.1899495558224244 0 -0.12628518295623711 0.1986577485311721 0 -0.1203201157405142 0.18832216793770121 0 -0.13663742332151391 0.19504812727950649 0 -0.13021038504640209 0.1899495558224244 0 -0.12628518295623711 0.1986577485311721 0 -0.13663742332151391 0.19504812727950649 0 -0.12628518295623711 0.1986577485311721 0 -0.13575416762199999 0.20338220950197691 0 -0.142459758460356 0.19861630251190041 0 -0.13663742332151391 0.19504812727950649 0 -0.13575416762199999 0.20338220950197691 0 -0.142459758460356 0.19861630251190041 0 -0.13575416762199999 0.20338220950197691 0 -0.1422524041805979 0.20557671918207521 0 -0.13575416762199999 0.20338220950197691 0 -0.13715251862486369 0.2142629011141817 0 -0.1422524041805979 0.20557671918207521 0 -0.13575416762199999 0.20338220950197691 0 -0.12720779712011451 0.2115545862877653 0 -0.13715251862486369 0.2142629011141817 0 -0.12628518295623711 0.1986577485311721 0 -0.13575416762199999 0.20338220950197691 0 -0.12720779712011451 0.2115545862877653 0 -0.12720779712011451 0.2115545862877653 0 -0.13715251862486369 0.2142629011141817 0 -0.1296598984145699 0.22322764612401089 0 -0.13715251862486369 0.2142629011141817 0 -0.14582200189910571 0.2157621105174789 0 -0.1422524041805979 0.20557671918207521 0 -0.1586499013824004 0.20235846309721189 0 -0.15312676923622531 0.21141248737819321 0 -0.15472797694617119 0.2266350223476751 0 -0.14582200189910571 0.2157621105174789 0 -0.1422524041805979 0.20557671918207521 0 -0.14855187711415421 0.20764050282341801 0 -0.1475730844213943 0.2012818992841762 0 -0.1422524041805979 0.20557671918207521 0 -0.14855187711415421 0.20764050282341801 0 -0.15625209502719051 0.20477406758042471 0 -0.1586499013824004 0.20235846309721189 0 -0.15312676923622531 0.21141248737819321 0 -0.14855187711415421 0.20764050282341801 0 -0.15197557689835731 0.2047764122313557 0 -0.15312676923622531 0.21141248737819321 0 -0.1475730844213943 0.2012818992841762 0 -0.14855187711415421 0.20764050282341801 0 -0.15197557689835731 0.2047764122313557 0 -0.15625209502719051 0.20477406758042471 0 -0.15197557689835731 0.2047764122313557 0 -0.15312676923622531 0.21141248737819321 0 -0.15625209502719051 0.20477406758042471 0 -0.15439841449526701 0.20270277200284051 0 -0.15197557689835731 0.2047764122313557 0 -0.15625209502719051 0.20477406758042471 0 -0.15671433240212579 0.20283502727580779 0 -0.15439841449526701 0.20270277200284051 0 -0.14582200189910571 0.2157621105174789 0 -0.14855187711415421 0.20764050282341801 0 -0.15312676923622531 0.21141248737819321 0 -0.14582200189910571 0.2157621105174789 0 -0.15312676923622531 0.21141248737819321 0 -0.15472797694617119 0.2266350223476751 0 -0.13715251862486369 0.2142629011141817 0 -0.14582200189910571 0.2157621105174789 0 -0.13948351795492009 0.22976039825060321 0 -0.14582200189910571 0.2157621105174789 0 -0.15472797694617119 0.2266350223476751 0 -0.13948351795492009 0.22976039825060321 0 -0.13715251862486369 0.2142629011141817 0 -0.1296598984145699 0.22322764612401089 0 -0.13948351795492009 0.22976039825060321 0 -0.1296598984145699 0.22322764612401089 0 -0.13948351795492009 0.22976039825060321 0 -0.12654932572426339 0.23876693159931081 0 -0.13948351795492009 0.22976039825060321 0 -0.12654932572426339 0.23876693159931081 0 -0.13753920806889611 0.24804208742008771 0 -0.1355266931395111 0.26033690063920339 0 -0.12654932572426339 0.23876693159931081 0 -0.1355266931395111 0.26033690063920339 0 -0.12654932572426339 0.23876693159931081 0 -0.13753920806889611 0.24804208742008771 0 -0.15080605250994189 0.2509115815981382 0 -0.15472797694617119 0.2266350223476751 0 -0.15080605250994189 0.2509115815981382 0 -0.15472797694617119 0.2266350223476751 0 -0.13948351795492009 0.22976039825060321 0 -0.15080605250994189 0.2509115815981382 0 -0.13948351795492009 0.22976039825060321 0 -0.13753920806889611 0.24804208742008771 0 -0.15080605250994189 0.2509115815981382 0 -0.15930165715754269 0.23591263980146401 0 -0.15472797694617119 0.2266350223476751 0 -0.17016966632502151 0.1425906406239692 0 -0.1727078759886217 0.1635159625805189 0 -0.15479480147704111 0.14877441537490779 0 -0.17016966632502151 0.1425906406239692 0 -0.156711790986029 0.1266486597490438 0 -0.15479480147704111 0.14877441537490779 0 -0.17016966632502151 0.1425906406239692 0 -0.156711790986029 0.1266486597490438 0 -0.1774270875202196 0.12794909696787951 0 -0.1897292010882938 0.1474887291484186 0 -0.17016966632502151 0.1425906406239692 0 -0.1774270875202196 0.12794909696787951 0 -0.1897292010882938 0.1474887291484186 0 -0.19434096616379359 0.1315084048054635 0 -0.1774270875202196 0.12794909696787951 0 -0.1897292010882938 0.1474887291484186 0 -0.17016966632502151 0.1425906406239692 0 -0.1727078759886217 0.1635159625805189 0 -0.19344280684722351 0.16730730133756089 0 -0.1897292010882938 0.1474887291484186 0 -0.1727078759886217 0.1635159625805189 0 -0.19344280684722351 0.16730730133756089 0 -0.1760463541148122 0.18483288221738681 0 -0.19344280684722351 0.16730730133756089 0 -0.1727078759886217 0.1635159625805189 0 -0.1760463541148122 0.18483288221738681 0 -0.1727078759886217 0.1635159625805189 0 -0.1760463541148122 0.18483288221738681 0 -0.1627814863248977 0.17229025068481149 0 -0.15872483237309171 0.19258522385612789 0 -0.1760463541148122 0.18483288221738681 0 -0.1624985338649263 0.18351522854017871 0 -0.1760463541148122 0.18483288221738681 0 -0.1627814863248977 0.17229025068481149 0 -0.1624985338649263 0.18351522854017871 0 -0.1627814863248977 0.17229025068481149 0 -0.1624985338649263 0.18351522854017871 0 -0.1510981177836104 0.17841622344843561 0 -0.1727078759886217 0.1635159625805189 0 -0.1627814863248977 0.17229025068481149 0 -0.1516852083633734 0.16505188354202269 0 -0.1727078759886217 0.1635159625805189 0 -0.1516852083633734 0.16505188354202269 0 -0.15479480147704111 0.14877441537490779 0 -0.1516852083633734 0.16505188354202269 0 -0.1436479678556514 0.15651666866212771 0 -0.15479480147704111 0.14877441537490779 0 -0.1516852083633734 0.16505188354202269 0 -0.1427650808483264 0.16988633757392221 0 -0.1510981177836104 0.17841622344843561 0 -0.1516852083633734 0.16505188354202269 0 -0.1427650808483264 0.16988633757392221 0 -0.1436479678556514 0.15651666866212771 0 -0.15102720710703721 0.18870604719475539 0 -0.1510981177836104 0.17841622344843561 0 -0.14510958151321579 0.18473702583469009 0 -0.15102720710703721 0.18870604719475539 0 -0.1624985338649263 0.18351522854017871 0 -0.1510981177836104 0.17841622344843561 0 -0.1627814863248977 0.17229025068481149 0 -0.1516852083633734 0.16505188354202269 0 -0.1510981177836104 0.17841622344843561 0 -0.1427650808483264 0.16988633757392221 0 -0.1510981177836104 0.17841622344843561 0 -0.14005406830228401 0.17897193226320099 0 -0.14510958151321579 0.18473702583469009 0 -0.13738299589340741 0.18684063542023191 0 -0.14005406830228401 0.17897193226320099 0 -0.1510981177836104 0.17841622344843561 0 -0.14510958151321579 0.18473702583469009 0 -0.14005406830228401 0.17897193226320099 0 -0.13738299589340741 0.18684063542023191 0 -0.14005406830228401 0.17897193226320099 0 -0.12951178260320709 0.1808645326184754 0 -0.1427650808483264 0.16988633757392221 0 -0.14005406830228401 0.17897193226320099 0 -0.1340479657066237 0.1729312702008465 0 -0.14005406830228401 0.17897193226320099 0 -0.1340479657066237 0.1729312702008465 0 -0.12951178260320709 0.1808645326184754 0 -0.1340479657066237 0.1729312702008465 0 -0.12951178260320709 0.1808645326184754 0 -0.1247956241436135 0.17006290188343631 0 -0.13021038504640209 0.1899495558224244 0 -0.12951178260320709 0.1808645326184754 0 -0.1203201157405142 0.18832216793770121 0 -0.13021038504640209 0.1899495558224244 0 -0.13738299589340741 0.18684063542023191 0 -0.12951178260320709 0.1808645326184754 0 -0.1436479678556514 0.15651666866212771 0 -0.13342151489906609 0.1626312772112001 0 -0.13294798084696621 0.15093404654434869 0 -0.1427650808483264 0.16988633757392221 0 -0.1436479678556514 0.15651666866212771 0 -0.13342151489906609 0.1626312772112001 0 -0.1427650808483264 0.16988633757392221 0 -0.1340479657066237 0.1729312702008465 0 -0.13342151489906609 0.1626312772112001 0 -0.1340479657066237 0.1729312702008465 0 -0.13342151489906609 0.1626312772112001 0 -0.1247956241436135 0.17006290188343631 0 -0.13342151489906609 0.1626312772112001 0 -0.1214987380049684 0.15644039856243491 0 -0.1247956241436135 0.17006290188343631 0 -0.13342151489906609 0.1626312772112001 0 -0.13294798084696621 0.15093404654434869 0 -0.1214987380049684 0.15644039856243491 0 -0.13294798084696621 0.15093404654434869 0 -0.14094508899050701 0.13963414602223739 0 -0.1252265944846383 0.13944774226374321 0 -0.1436479678556514 0.15651666866212771 0 -0.13294798084696621 0.15093404654434869 0 -0.14094508899050701 0.13963414602223739 0 -0.13294798084696621 0.15093404654434869 0 -0.1252265944846383 0.13944774226374321 0 -0.1214987380049684 0.15644039856243491 0 -0.1436479678556514 0.15651666866212771 0 -0.15479480147704111 0.14877441537490779 0 -0.14094508899050701 0.13963414602223739 0 -0.14056994565931541 0.1241699255409693 0 -0.156711790986029 0.1266486597490438 0 -0.14094508899050701 0.13963414602223739 0 -0.156711790986029 0.1266486597490438 0 -0.15479480147704111 0.14877441537490779 0 -0.14094508899050701 0.13963414602223739 0 -0.14056994565931541 0.1241699255409693 0 -0.12538013163551431 0.1235615211388761 0 -0.13290305712755529 0.13159023000872161 0 -0.12538013163551431 0.1235615211388761 0 -0.13290305712755529 0.13159023000872161 0 -0.1252265944846383 0.13944774226374321 0 -0.14056994565931541 0.1241699255409693 0 -0.14094508899050701 0.13963414602223739 0 -0.13290305712755529 0.13159023000872161 0 -0.14094508899050701 0.13963414602223739 0 -0.13290305712755529 0.13159023000872161 0 -0.1252265944846383 0.13944774226374321 0 -0.12538013163551431 0.1235615211388761 0 -0.1252265944846383 0.13944774226374321 0 -0.11181489964393899 0.13061983955501469 0 -0.1252265944846383 0.13944774226374321 0 -0.11181489964393899 0.13061983955501469 0 -0.1125643846587014 0.14499842961927459 0 -0.098675296712537372 0.14093847934672071 0 -0.088954900836533152 0.1277786171536919 0 -0.1048138180045957 0.11545051695230341 0 -0.098675296712537372 0.14093847934672071 0 -0.1048138180045957 0.11545051695230341 0 -0.11181489964393899 0.13061983955501469 0 -0.098675296712537372 0.14093847934672071 0 -0.1048138180045957 0.11545051695230341 0 -0.11181489964393899 0.13061983955501469 0 -0.098675296712537372 0.14093847934672071 0 -0.1125643846587014 0.14499842961927459 0 -0.098675296712537372 0.14093847934672071 0 -0.10692124939154329 0.15605533526566129 0 -0.092536775420480694 0.16642644174113849 0 -0.098675296712537372 0.14093847934672071 0 -0.092536775420480694 0.16642644174113849 0 -0.098675296712537372 0.14093847934672071 0 -0.10692124939154329 0.15605533526566129 0 -0.1125643846587014 0.14499842961927459 0 -0.1252265944846383 0.13944774226374321 0 -0.1125643846587014 0.14499842961927459 0 -0.1214987380049684 0.15644039856243491 0 -0.10692124939154329 0.15605533526566129 0 -0.1125643846587014 0.14499842961927459 0 -0.1214987380049684 0.15644039856243491 0 -0.1214987380049684 0.15644039856243491 0 -0.1247956241436135 0.17006290188343631 0 -0.1119607620492676 0.16849222085314161 0 -0.10692124939154329 0.15605533526566129 0 -0.1214987380049684 0.15644039856243491 0 -0.1119607620492676 0.16849222085314161 0 -0.12951178260320709 0.1808645326184754 0 -0.1188874919739711 0.17829513798277949 0 -0.1203201157405142 0.18832216793770121 0 -0.1247956241436135 0.17006290188343631 0 -0.1119607620492676 0.16849222085314161 0 -0.1188874919739711 0.17829513798277949 0 -0.12951178260320709 0.1808645326184754 0 -0.1247956241436135 0.17006290188343631 0 -0.1188874919739711 0.17829513798277949 0 -0.1119607620492676 0.16849222085314161 0 -0.1188874919739711 0.17829513798277949 0 -0.1089148061258528 0.18260394543368769 0 -0.1188874919739711 0.17829513798277949 0 -0.1089148061258528 0.18260394543368769 0 -0.1203201157405142 0.18832216793770121 0 -0.1089148061258528 0.18260394543368769 0 -0.092536775420480694 0.16642644174113849 0 -0.095233025263948209 0.18962245195312349 0 -0.1119607620492676 0.16849222085314161 0 -0.1089148061258528 0.18260394543368769 0 -0.092536775420480694 0.16642644174113849 0 -0.10692124939154329 0.15605533526566129 0 -0.1119607620492676 0.16849222085314161 0 -0.092536775420480694 0.16642644174113849 0 -0.092536775420480694 0.16642644174113849 0 -0.078689711957602437 0.16119924808953071 0 -0.082523425647492196 0.17920335578055269 0 -0.092536775420480694 0.16642644174113849 0 -0.078689711957602437 0.16119924808953071 0 -0.086283654562253106 0.1544634671161238 0 -0.092536775420480694 0.16642644174113849 0 -0.082523425647492196 0.17920335578055269 0 -0.095233025263948209 0.18962245195312349 0 -0.082523425647492196 0.17920335578055269 0 -0.095233025263948209 0.18962245195312349 0 -0.082652546369612043 0.19225848759055891 0 -0.082523425647492196 0.17920335578055269 0 -0.072652816779257348 0.18551595552690289 0 -0.082652546369612043 0.19225848759055891 0 -0.072652816779257348 0.18551595552690289 0 -0.06325286245422429 0.17640452023889161 0 -0.062892950309537093 0.1921629392189097 0 -0.082523425647492196 0.17920335578055269 0 -0.072652816779257348 0.18551595552690289 0 -0.071762506402018422 0.1739008197561655 0 -0.072652816779257348 0.18551595552690289 0 -0.071762506402018422 0.1739008197561655 0 -0.06325286245422429 0.17640452023889161 0 -0.078689711957602437 0.16119924808953071 0 -0.082523425647492196 0.17920335578055269 0 -0.071762506402018422 0.1739008197561655 0 -0.078689711957602437 0.16119924808953071 0 -0.068732386464718478 0.1642711893310555 0 -0.072170112182664517 0.15369097573594701 0 -0.078689711957602437 0.16119924808953071 0 -0.071762506402018422 0.1739008197561655 0 -0.068732386464718478 0.1642711893310555 0 -0.071762506402018422 0.1739008197561655 0 -0.06325286245422429 0.17640452023889161 0 -0.068732386464718478 0.1642711893310555 0 -0.06325286245422429 0.17640452023889161 0 -0.068732386464718478 0.1642711893310555 0 -0.060459637862541403 0.16318967354390851 0 -0.068732386464718478 0.1642711893310555 0 -0.066156987922566995 0.15804526239776689 0 -0.060459637862541403 0.16318967354390851 0 -0.066156987922566995 0.15804526239776689 0 -0.061596475178262222 0.15480559796366139 0 -0.060459637862541403 0.16318967354390851 0 -0.068732386464718478 0.1642711893310555 0 -0.066156987922566995 0.15804526239776689 0 -0.072170112182664517 0.15369097573594701 0 -0.066156987922566995 0.15804526239776689 0 -0.067393933209380918 0.15369557567401601 0 -0.061596475178262222 0.15480559796366139 0 -0.073095983668468742 0.14010671735507799 0 -0.057927073871760222 0.15189843288886329 0 -0.061596475178262222 0.15480559796366139 0 -0.067393933209380918 0.15369557567401601 0 -0.069562075321682654 0.1481210291528044 0 -0.061596475178262222 0.15480559796366139 0 -0.067393933209380918 0.15369557567401601 0 -0.072170112182664517 0.15369097573594701 0 -0.069562075321682654 0.1481210291528044 0 -0.066156987922566995 0.15804526239776689 0 -0.067393933209380918 0.15369557567401601 0 -0.072170112182664517 0.15369097573594701 0 -0.078689711957602437 0.16119924808953071 0 -0.072170112182664517 0.15369097573594701 0 -0.078708042233962799 0.1495635652378309 0 -0.072170112182664517 0.15369097573594701 0 -0.073954558753691585 0.14822108798279271 0 -0.069562075321682654 0.1481210291528044 0 -0.072170112182664517 0.15369097573594701 0 -0.073954558753691585 0.14822108798279271 0 -0.078708042233962799 0.1495635652378309 0 -0.072652622459931718 0.14533802261107659 0 -0.069562075321682654 0.1481210291528044 0 -0.073095983668468742 0.14010671735507799 0 -0.075096912384927661 0.14392977076255911 0 -0.073095983668468742 0.14010671735507799 0 -0.079291386284776735 0.1429169322817179 0 -0.073095983668468742 0.14010671735507799 0 -0.079291386284776735 0.1429169322817179 0 -0.075096912384927661 0.14392977076255911 0 -0.073954558753691585 0.14822108798279271 0 -0.078708042233962799 0.1495635652378309 0 -0.075096912384927661 0.14392977076255911 0 -0.078708042233962799 0.1495635652378309 0 -0.079291386284776735 0.1429169322817179 0 -0.075096912384927661 0.14392977076255911 0 -0.072652622459931718 0.14533802261107659 0 -0.073954558753691585 0.14822108798279271 0 -0.072652622459931718 0.14533802261107659 0 -0.073954558753691585 0.14822108798279271 0 -0.069562075321682654 0.1481210291528044 0 -0.075096912384927661 0.14392977076255911 0 -0.072652622459931718 0.14533802261107659 0 -0.073095983668468742 0.14010671735507799 0 -0.073095983668468742 0.14010671735507799 0 -0.057927073871760222 0.15189843288886329 0 -0.073095983668468742 0.14010671735507799 0 -0.061596475178262222 0.15480559796366139 0 -0.066013549276071365 0.14127858148192371 0 -0.063609121398287671 0.14396039451383719 0 -0.073095983668468742 0.14010671735507799 0 -0.069562075321682654 0.1481210291528044 0 -0.073095983668468742 0.14010671735507799 0 -0.061596475178262222 0.15480559796366139 0 -0.063609121398287671 0.14396039451383719 0 -0.073095983668468742 0.14010671735507799 0 -0.057927073871760222 0.15189843288886329 0 -0.066013549276071365 0.14127858148192371 0 -0.063318768110466758 0.14108651402025579 0 -0.065206669672699766 0.13958700273497759 0 -0.063609121398287671 0.14396039451383719 0 -0.063318768110466758 0.14108651402025579 0 -0.061398733784099171 0.1419338591134465 0 -0.066013549276071365 0.14127858148192371 0 -0.063609121398287671 0.14396039451383719 0 -0.063318768110466758 0.14108651402025579 0 -0.065206669672699766 0.13958700273497759 0 -0.073095983668468742 0.14010671735507799 0 -0.057285523882284708 0.1361478487512002 0 -0.066013549276071365 0.14127858148192371 0 -0.065206669672699766 0.13958700273497759 0 -0.073095983668468742 0.14010671735507799 0 -0.068613208653190552 0.12988713064543181 0 -0.073095983668468742 0.14010671735507799 0 -0.050142980039125443 0.12969530789466091 0 -0.063318768110466758 0.14108651402025579 0 -0.065206669672699766 0.13958700273497759 0 -0.060882603078859822 0.13920726406735609 0 -0.068613208653190552 0.12988713064543181 0 -0.076141641869118704 0.12724262890974189 0 -0.074446782334335812 0.1201945938608048 0 -0.068613208653190552 0.12988713064543181 0 -0.076141641869118704 0.12724262890974189 0 -0.073095983668468742 0.14010671735507799 0 -0.073095983668468742 0.14010671735507799 0 -0.085418019862415318 0.1229528176220613 0 -0.076141641869118704 0.12724262890974189 0 -0.073095983668468742 0.14010671735507799 0 -0.085418019862415318 0.1229528176220613 0 -0.073095983668468742 0.14010671735507799 0 -0.085367930406962805 0.1395975446511481 0 -0.088954900836533152 0.1277786171536919 0 -0.073095983668468742 0.14010671735507799 0 -0.088954900836533152 0.1277786171536919 0 -0.085418019862415318 0.1229528176220613 0 -0.073095983668468742 0.14010671735507799 0 -0.088954900836533152 0.1277786171536919 0 -0.098675296712537372 0.14093847934672071 0 -0.085367930406962805 0.1395975446511481 0 -0.088954900836533152 0.1277786171536919 0 -0.098675296712537372 0.14093847934672071 0 -0.092536775420480694 0.16642644174113849 0 -0.086283654562253106 0.1544634671161238 0 -0.098675296712537372 0.14093847934672071 0 -0.085367930406962805 0.1395975446511481 0 -0.085995782752212369 0.145710563267229 0 -0.098675296712537372 0.14093847934672071 0 -0.085995782752212369 0.145710563267229 0 -0.086283654562253106 0.1544634671161238 0 -0.078689711957602437 0.16119924808953071 0 -0.086283654562253106 0.1544634671161238 0 -0.078708042233962799 0.1495635652378309 0 -0.085995782752212369 0.145710563267229 0 -0.086283654562253106 0.1544634671161238 0 -0.078708042233962799 0.1495635652378309 0 -0.085995782752212369 0.145710563267229 0 -0.078708042233962799 0.1495635652378309 0 -0.079291386284776735 0.1429169322817179 0 -0.073095983668468742 0.14010671735507799 0 -0.085367930406962805 0.1395975446511481 0 -0.079291386284776735 0.1429169322817179 0 -0.085367930406962805 0.1395975446511481 0 -0.085995782752212369 0.145710563267229 0 -0.079291386284776735 0.1429169322817179 0 -0.1000966024206025 0.24603533827206769 0 -0.1059265219145431 0.2325567605954193 0 -0.089125644819594091 0.2374289880770758 0 -0.1000966024206025 0.24603533827206769 0 -0.1118507546894966 0.24845023294428681 0 -0.1059265219145431 0.2325567605954193 0 -0.1059782354104529 0.25511707414145401 0 -0.1000966024206025 0.24603533827206769 0 -0.1118507546894966 0.24845023294428681 0 -0.12654932572426339 0.23876693159931081 0 -0.1118507546894966 0.24845023294428681 0 -0.1059265219145431 0.2325567605954193 0 -0.1204693105274901 0.25832786696498372 0 -0.12654932572426339 0.23876693159931081 0 -0.1118507546894966 0.24845023294428681 0 -0.12654932572426339 0.23876693159931081 0 -0.11790633264868761 0.22179341336819339 0 -0.1059265219145431 0.2325567605954193 0 -0.1296598984145699 0.22322764612401089 0 -0.12654932572426339 0.23876693159931081 0 -0.11790633264868761 0.22179341336819339 0 -0.12720779712011451 0.2115545862877653 0 -0.1296598984145699 0.22322764612401089 0 -0.11790633264868761 0.22179341336819339 0 -0.11790633264868761 0.22179341336819339 0 -0.1059265219145431 0.2325567605954193 0 -0.1067122161343947 0.21778822184191951 0 -0.1059265219145431 0.2325567605954193 0 -0.1067122161343947 0.21778822184191951 0 -0.090685116858437734 0.22057533849017749 0 -0.1059265219145431 0.2325567605954193 0 -0.090685116858437734 0.22057533849017749 0 -0.089125644819594091 0.2374289880770758 0 -0.1010041363312659 0.20655127276092941 0 -0.1067122161343947 0.21778822184191951 0 -0.090685116858437734 0.22057533849017749 0 -0.1010041363312659 0.20655127276092941 0 -0.1151733327202607 0.20873360476419869 0 -0.11192433113086429 0.19605638579521281 0 -0.1010041363312659 0.20655127276092941 0 -0.1067122161343947 0.21778822184191951 0 -0.1151733327202607 0.20873360476419869 0 -0.11790633264868761 0.22179341336819339 0 -0.1067122161343947 0.21778822184191951 0 -0.1151733327202607 0.20873360476419869 0 -0.12720779712011451 0.2115545862877653 0 -0.11790633264868761 0.22179341336819339 0 -0.1151733327202607 0.20873360476419869 0 -0.12628518295623711 0.1986577485311721 0 -0.12720779712011451 0.2115545862877653 0 -0.1151733327202607 0.20873360476419869 0 -0.12628518295623711 0.1986577485311721 0 -0.1151733327202607 0.20873360476419869 0 -0.11192433113086429 0.19605638579521281 0 -0.12628518295623711 0.1986577485311721 0 -0.11192433113086429 0.19605638579521281 0 -0.1203201157405142 0.18832216793770121 0 -0.1089148061258528 0.18260394543368769 0 -0.11192433113086429 0.19605638579521281 0 -0.1203201157405142 0.18832216793770121 0 -0.1089148061258528 0.18260394543368769 0 -0.11192433113086429 0.19605638579521281 0 -0.095233025263948209 0.18962245195312349 0 -0.1010041363312659 0.20655127276092941 0 -0.095233025263948209 0.18962245195312349 0 -0.086819117877388552 0.20387273598036529 0 -0.1010041363312659 0.20655127276092941 0 -0.11192433113086429 0.19605638579521281 0 -0.095233025263948209 0.18962245195312349 0 -0.095233025263948209 0.18962245195312349 0 -0.082652546369612043 0.19225848759055891 0 -0.086819117877388552 0.20387273598036529 0 -0.082652546369612043 0.19225848759055891 0 -0.074155684386979698 0.19898303356642 0 -0.086819117877388552 0.20387273598036529 0 -0.072652816779257348 0.18551595552690289 0 -0.082652546369612043 0.19225848759055891 0 -0.074155684386979698 0.19898303356642 0 -0.072652816779257348 0.18551595552690289 0 -0.062892950309537093 0.1921629392189097 0 -0.074155684386979698 0.19898303356642 0 -0.062892950309537093 0.1921629392189097 0 -0.074155684386979698 0.19898303356642 0 -0.064116017013221421 0.20669599525243099 0 -0.074155684386979698 0.19898303356642 0 -0.064116017013221421 0.20669599525243099 0 -0.075800657972861701 0.2133920878293524 0 -0.064116017013221421 0.20669599525243099 0 -0.075800657972861701 0.2133920878293524 0 -0.065188024070148662 0.2189827111984082 0 -0.1010041363312659 0.20655127276092941 0 -0.086819117877388552 0.20387273598036529 0 -0.090685116858437734 0.22057533849017749 0 -0.075800657972861701 0.2133920878293524 0 -0.086819117877388552 0.20387273598036529 0 -0.090685116858437734 0.22057533849017749 0 -0.074155684386979698 0.19898303356642 0 -0.075800657972861701 0.2133920878293524 0 -0.086819117877388552 0.20387273598036529 0 -0.090685116858437734 0.22057533849017749 0 -0.074258404447879178 0.22959650565582951 0 -0.089125644819594091 0.2374289880770758 0 -0.075800657972861701 0.2133920878293524 0 -0.090685116858437734 0.22057533849017749 0 -0.074258404447879178 0.22959650565582951 0 -0.074258404447879178 0.22959650565582951 0 -0.065188024070148662 0.2189827111984082 0 -0.058529759729243423 0.22916273311840141 0 -0.074258404447879178 0.22959650565582951 0 -0.063122606478691751 0.2425446012462259 0 -0.058529759729243423 0.22916273311840141 0 -0.075800657972861701 0.2133920878293524 0 -0.074258404447879178 0.22959650565582951 0 -0.065188024070148662 0.2189827111984082 0 -0.074258404447879178 0.22959650565582951 0 -0.063122606478691751 0.2425446012462259 0 -0.077543192831836513 0.2490590682366626 0 -0.062235378715942993 0.2575407036156 0 -0.063122606478691751 0.2425446012462259 0 -0.077543192831836513 0.2490590682366626 0 -0.077543192831836513 0.2490590682366626 0 -0.089125644819594091 0.2374289880770758 0 -0.09001103415809375 0.24995591684023821 0 -0.074258404447879178 0.22959650565582951 0 -0.077543192831836513 0.2490590682366626 0 -0.089125644819594091 0.2374289880770758 0 -0.1000966024206025 0.24603533827206769 0 -0.089125644819594091 0.2374289880770758 0 -0.09001103415809375 0.24995591684023821 0 -0.047541637402478777 0.25235478858570443 0 -0.033158238182537131 0.25447225048241212 0 -0.033085366406212867 0.23876012578048469 0 -0.033085366406212867 0.23876012578048469 0 -0.048837352944825121 0.23811101009733529 0 -0.04234686416137521 0.2264640537768042 0 -0.047541637402478777 0.25235478858570443 0 -0.033085366406212867 0.23876012578048469 0 -0.048837352944825121 0.23811101009733529 0 -0.047541637402478777 0.25235478858570443 0 -0.063122606478691751 0.2425446012462259 0 -0.048837352944825121 0.23811101009733529 0 -0.063122606478691751 0.2425446012462259 0 -0.048837352944825121 0.23811101009733529 0 -0.058529759729243423 0.22916273311840141 0 -0.058529759729243423 0.22916273311840141 0 -0.04234686416137521 0.2264640537768042 0 -0.053235281187537647 0.21606623413602671 0 -0.048837352944825121 0.23811101009733529 0 -0.058529759729243423 0.22916273311840141 0 -0.04234686416137521 0.2264640537768042 0 -0.065188024070148662 0.2189827111984082 0 -0.058529759729243423 0.22916273311840141 0 -0.053235281187537647 0.21606623413602671 0 -0.04234686416137521 0.2264640537768042 0 -0.038435250742214572 0.21070572751982269 0 -0.027831305290541019 0.2239523232852631 0 -0.033085366406212867 0.23876012578048469 0 -0.04234686416137521 0.2264640537768042 0 -0.027831305290541019 0.2239523232852631 0 -0.04234686416137521 0.2264640537768042 0 -0.038435250742214572 0.21070572751982269 0 -0.053235281187537647 0.21606623413602671 0 -0.064116017013221421 0.20669599525243099 0 -0.065188024070148662 0.2189827111984082 0 -0.053235281187537647 0.21606623413602671 0 -0.064116017013221421 0.20669599525243099 0 -0.053235281187537647 0.21606623413602671 0 -0.05208351099898792 0.20063422860096039 0 -0.038435250742214572 0.21070572751982269 0 -0.053235281187537647 0.21606623413602671 0 -0.05208351099898792 0.20063422860096039 0 -0.062892950309537093 0.1921629392189097 0 -0.064116017013221421 0.20669599525243099 0 -0.05208351099898792 0.20063422860096039 0 -0.062892950309537093 0.1921629392189097 0 -0.05208351099898792 0.20063422860096039 0 -0.052267988714031578 0.1852279051183541 0 -0.05208351099898792 0.20063422860096039 0 -0.039872067672989578 0.19628936175125089 0 -0.052267988714031578 0.1852279051183541 0 -0.038435250742214572 0.21070572751982269 0 -0.039872067672989578 0.19628936175125089 0 -0.016939116554871191 0.1959990679102552 0 -0.038435250742214572 0.21070572751982269 0 -0.05208351099898792 0.20063422860096039 0 -0.039872067672989578 0.19628936175125089 0 -0.039872067672989578 0.19628936175125089 0 -0.016939116554871191 0.1959990679102552 0 -0.031471652138452051 0.18527326181809359 0 -0.016939116554871191 0.1959990679102552 0 0.00573739542641201 0.21085128121663901 0 0.0032606068272224781 0.1901318216684702 0 -0.016939116554871191 0.1959990679102552 0 -0.0099845809253535419 0.21944673001565129 0 0.00573739542641201 0.21085128121663901 0 -0.016939116554871191 0.1959990679102552 0 -0.027831305290541019 0.2239523232852631 0 -0.0099845809253535419 0.21944673001565129 0 -0.016939116554871191 0.1959990679102552 0 -0.027831305290541019 0.2239523232852631 0 -0.038435250742214572 0.21070572751982269 0 -0.016939116554871191 0.1959990679102552 0 -0.027831305290541019 0.2239523232852631 0 -0.033085366406212867 0.23876012578048469 0 -0.027831305290541019 0.2239523232852631 0 -0.013641234357142269 0.23583492549693799 0 -0.027831305290541019 0.2239523232852631 0 -0.0099845809253535419 0.21944673001565129 0 -0.013641234357142269 0.23583492549693799 0 -0.0099845809253535419 0.21944673001565129 0 -0.013641234357142269 0.23583492549693799 0 0.002751356149374766 0.2305960521691611 0 -0.0099845809253535419 0.21944673001565129 0 0.002751356149374766 0.2305960521691611 0 0.00573739542641201 0.21085128121663901 0 -0.016725929346704929 0.2556928351502844 0 -0.013641234357142269 0.23583492549693799 0 -0.0066167852236678039 0.24551400104462359 0 0.003791674785571924 0.24772290422529519 0 0.002751356149374766 0.2305960521691611 0 -0.013641234357142269 0.23583492549693799 0 -0.0066167852236678039 0.24551400104462359 0 0.002751356149374766 0.2305960521691611 0 -0.016725929346704929 0.2556928351502844 0 -0.013641234357142269 0.23583492549693799 0 -0.0066167852236678039 0.24551400104462359 0 -0.033158238182537131 0.25447225048241212 0 -0.016725929346704929 0.2556928351502844 0 -0.033085366406212867 0.23876012578048469 0 -0.016725929346704929 0.2556928351502844 0 -0.033085366406212867 0.23876012578048469 0 -0.013641234357142269 0.23583492549693799 0 -0.044337925263059637 0.14457543423579111 0 -0.041423394377863937 0.15084618800460309 0 -0.036443618539109428 0.14362502091179979 0 -0.044337925263059637 0.14457543423579111 0 -0.036443618539109428 0.14362502091179979 0 -0.04415317337721502 0.13790331021974439 0 -0.044337925263059637 0.14457543423579111 0 -0.04415317337721502 0.13790331021974439 0 -0.049720376744925111 0.14191225340005009 0 -0.044337925263059637 0.14457543423579111 0 -0.041423394377863937 0.15084618800460309 0 -0.048945289872966868 0.14782974822067441 0 -0.041423394377863937 0.15084618800460309 0 -0.050318961739572662 0.1540783556775161 0 -0.045554580821105917 0.15875852874296409 0 -0.041423394377863937 0.15084618800460309 0 -0.036443618539109428 0.14362502091179979 0 -0.028558016532013501 0.15427881982697761 0 -0.041423394377863937 0.15084618800460309 0 -0.037162976241824783 0.16324392053475739 0 -0.028558016532013501 0.15427881982697761 0 -0.03554102789105397 0.13487916664293129 0 -0.042660964834944352 0.12961760334818559 0 -0.020238980638423301 0.1293847395988435 0 -0.036443618539109428 0.14362502091179979 0 -0.03554102789105397 0.13487916664293129 0 -0.04415317337721502 0.13790331021974439 0 -0.042660964834944352 0.12961760334818559 0 -0.020238980638423301 0.1293847395988435 0 -0.042660964834944352 0.12961760334818559 0 -0.045441570218125227 0.12756276334937661 0 -0.027138786001938388 0.1192606786280228 0 -0.036443618539109428 0.14362502091179979 0 -0.03554102789105397 0.13487916664293129 0 -0.025038953161321251 0.14007216569520231 0 -0.03554102789105397 0.13487916664293129 0 -0.042660964834944352 0.12961760334818559 0 -0.042660964834944352 0.12961760334818559 0 -0.047810849383085573 0.13386011054201141 0 -0.050142980039125443 0.12969530789466091 0 -0.042660964834944352 0.12961760334818559 0 -0.045441570218125227 0.12756276334937661 0 -0.050142980039125443 0.12969530789466091 0 -0.042660964834944352 0.12961760334818559 0 -0.050142980039125443 0.12969530789466091 0 -0.042660964834944352 0.12961760334818559 0 -0.045441570218125227 0.12756276334937661 0 -0.03554102789105397 0.13487916664293129 0 -0.042660964834944352 0.12961760334818559 0 -0.04415317337721502 0.13790331021974439 0 -0.042660964834944352 0.12961760334818559 0 -0.04415317337721502 0.13790331021974439 0 -0.047810849383085573 0.13386011054201141 0 -0.068613208653190552 0.12988713064543181 0 -0.050142980039125443 0.12969530789466091 0 -0.073095983668468742 0.14010671735507799 0 -0.050142980039125443 0.12969530789466091 0 -0.04415317337721502 0.13790331021974439 0 -0.051004799636549782 0.1368223647585477 0 -0.049720376744925111 0.14191225340005009 0 -0.073095983668468742 0.14010671735507799 0 -0.050142980039125443 0.12969530789466091 0 -0.057285523882284708 0.1361478487512002 0 -0.04415317337721502 0.13790331021974439 0 -0.047810849383085573 0.13386011054201141 0 -0.051004799636549782 0.1368223647585477 0 -0.047810849383085573 0.13386011054201141 0 -0.051345151094591618 0.13383616934516801 0 -0.051004799636549782 0.1368223647585477 0 -0.051345151094591618 0.13383616934516801 0 -0.050142980039125443 0.12969530789466091 0 -0.057285523882284708 0.1361478487512002 0 -0.051345151094591618 0.13383616934516801 0 -0.051004799636549782 0.1368223647585477 0 -0.057285523882284708 0.1361478487512002 0 -0.051004799636549782 0.1368223647585477 0 -0.054961269516098199 0.1396039224943515 0 -0.049720376744925111 0.14191225340005009 0 -0.051004799636549782 0.1368223647585477 0 -0.054961269516098199 0.1396039224943515 0 -0.057285523882284708 0.1361478487512002 0 -0.045441570218125227 0.12756276334937661 0 -0.050142980039125443 0.12969530789466091 0 -0.047810849383085573 0.13386011054201141 0 -0.051345151094591618 0.13383616934516801 0 -0.050142980039125443 0.12969530789466091 0 -0.065206669672699766 0.13958700273497759 0 -0.057285523882284708 0.1361478487512002 0 -0.060882603078859822 0.13920726406735609 0 -0.054961269516098199 0.1396039224943515 0 -0.057285523882284708 0.1361478487512002 0 -0.058655173952209767 0.1395654074006473 0 -0.057285523882284708 0.1361478487512002 0 -0.058655173952209767 0.1395654074006473 0 -0.060882603078859822 0.13920726406735609 0 -0.058655173952209767 0.1395654074006473 0 -0.060882603078859822 0.13920726406735609 0 -0.061398733784099171 0.1419338591134465 0 -0.063318768110466758 0.14108651402025579 0 -0.060882603078859822 0.13920726406735609 0 -0.061398733784099171 0.1419338591134465 0 -0.063609121398287671 0.14396039451383719 0 -0.059688743362501941 0.1457995050088291 0 -0.057927073871760222 0.15189843288886329 0 -0.063609121398287671 0.14396039451383719 0 -0.061398733784099171 0.1419338591134465 0 -0.059688743362501941 0.1457995050088291 0 -0.061398733784099171 0.1419338591134465 0 -0.059688743362501941 0.1457995050088291 0 -0.057646774114007412 0.1432845138968189 0 -0.058655173952209767 0.1395654074006473 0 -0.061398733784099171 0.1419338591134465 0 -0.057646774114007412 0.1432845138968189 0 -0.056568916683532949 0.147325569141152 0 -0.054053686597514097 0.1450292408489913 0 -0.053817394514865752 0.15053701715709489 0 -0.059688743362501941 0.1457995050088291 0 -0.056568916683532949 0.147325569141152 0 -0.057927073871760222 0.15189843288886329 0 -0.059688743362501941 0.1457995050088291 0 -0.056568916683532949 0.147325569141152 0 -0.057646774114007412 0.1432845138968189 0 -0.056568916683532949 0.147325569141152 0 -0.057646774114007412 0.1432845138968189 0 -0.054053686597514097 0.1450292408489913 0 -0.054961269516098199 0.1396039224943515 0 -0.057646774114007412 0.1432845138968189 0 -0.054053686597514097 0.1450292408489913 0 -0.054961269516098199 0.1396039224943515 0 -0.058655173952209767 0.1395654074006473 0 -0.057646774114007412 0.1432845138968189 0 -0.054961269516098199 0.1396039224943515 0 -0.054053686597514097 0.1450292408489913 0 -0.049720376744925111 0.14191225340005009 0 -0.054053686597514097 0.1450292408489913 0 -0.048945289872966868 0.14782974822067441 0 -0.049720376744925111 0.14191225340005009 0 -0.054053686597514097 0.1450292408489913 0 -0.048945289872966868 0.14782974822067441 0 -0.053817394514865752 0.15053701715709489 0 -0.044337925263059637 0.14457543423579111 0 -0.048945289872966868 0.14782974822067441 0 -0.049720376744925111 0.14191225340005009 0 -0.041423394377863937 0.15084618800460309 0 -0.048945289872966868 0.14782974822067441 0 -0.050318961739572662 0.1540783556775161 0 -0.048945289872966868 0.14782974822067441 0 -0.050318961739572662 0.1540783556775161 0 -0.053817394514865752 0.15053701715709489 0 -0.050318961739572662 0.1540783556775161 0 -0.053817394514865752 0.15053701715709489 0 -0.056248158309316239 0.15592677857655091 0 -0.053817394514865752 0.15053701715709489 0 -0.056248158309316239 0.15592677857655091 0 -0.057927073871760222 0.15189843288886329 0 -0.056248158309316239 0.15592677857655091 0 -0.057927073871760222 0.15189843288886329 0 -0.061596475178262222 0.15480559796366139 0 -0.056568916683532949 0.147325569141152 0 -0.053817394514865752 0.15053701715709489 0 -0.057927073871760222 0.15189843288886329 0 -0.056248158309316239 0.15592677857655091 0 -0.061596475178262222 0.15480559796366139 0 -0.060459637862541403 0.16318967354390851 0 -0.056248158309316239 0.15592677857655091 0 -0.060459637862541403 0.16318967354390851 0 -0.053369406688895199 0.16105159422826101 0 -0.060459637862541403 0.16318967354390851 0 -0.054001750647465832 0.17056315917694501 0 -0.053369406688895199 0.16105159422826101 0 -0.06325286245422429 0.17640452023889161 0 -0.060459637862541403 0.16318967354390851 0 -0.054001750647465832 0.17056315917694501 0 -0.054001750647465832 0.17056315917694501 0 -0.042638001993217767 0.1749655088756388 0 -0.046545343278501898 0.16571654231171329 0 -0.054001750647465832 0.17056315917694501 0 -0.053369406688895199 0.16105159422826101 0 -0.046545343278501898 0.16571654231171329 0 -0.050318961739572662 0.1540783556775161 0 -0.053369406688895199 0.16105159422826101 0 -0.045554580821105917 0.15875852874296409 0 -0.053369406688895199 0.16105159422826101 0 -0.045554580821105917 0.15875852874296409 0 -0.046545343278501898 0.16571654231171329 0 -0.050318961739572662 0.1540783556775161 0 -0.056248158309316239 0.15592677857655091 0 -0.053369406688895199 0.16105159422826101 0 -0.06325286245422429 0.17640452023889161 0 -0.062892950309537093 0.1921629392189097 0 -0.052267988714031578 0.1852279051183541 0 -0.06325286245422429 0.17640452023889161 0 -0.054001750647465832 0.17056315917694501 0 -0.052267988714031578 0.1852279051183541 0 -0.054001750647465832 0.17056315917694501 0 -0.052267988714031578 0.1852279051183541 0 -0.042638001993217767 0.1749655088756388 0 -0.039872067672989578 0.19628936175125089 0 -0.031471652138452051 0.18527326181809359 0 -0.042638001993217767 0.1749655088756388 0 -0.031471652138452051 0.18527326181809359 0 -0.042638001993217767 0.1749655088756388 0 -0.024269456675860741 0.17189172527252669 0 -0.039872067672989578 0.19628936175125089 0 -0.052267988714031578 0.1852279051183541 0 -0.042638001993217767 0.1749655088756388 0 -0.042638001993217767 0.1749655088756388 0 -0.037162976241824783 0.16324392053475739 0 -0.024269456675860741 0.17189172527252669 0 -0.041423394377863937 0.15084618800460309 0 -0.045554580821105917 0.15875852874296409 0 -0.037162976241824783 0.16324392053475739 0 -0.045554580821105917 0.15875852874296409 0 -0.046545343278501898 0.16571654231171329 0 -0.037162976241824783 0.16324392053475739 0 -0.042638001993217767 0.1749655088756388 0 -0.046545343278501898 0.16571654231171329 0 -0.037162976241824783 0.16324392053475739 0 -0.024269456675860741 0.17189172527252669 0 -0.01439483312764874 0.15542621048378391 0 -0.028558016532013501 0.15427881982697761 0 -0.037162976241824783 0.16324392053475739 0 -0.024269456675860741 0.17189172527252669 0 -0.028558016532013501 0.15427881982697761 0 -0.016939116554871191 0.1959990679102552 0 -0.031471652138452051 0.18527326181809359 0 -0.024269456675860741 0.17189172527252669 0 -0.016939116554871191 0.1959990679102552 0 -0.024269456675860741 0.17189172527252669 0 -0.0060469278192012664 0.16804581253524711 0 -0.016939116554871191 0.1959990679102552 0 -0.0060469278192012664 0.16804581253524711 0 -0.016939116554871191 0.1959990679102552 0 -0.0060469278192012664 0.16804581253524711 0 0.0032606068272224781 0.1901318216684702 0 -0.024269456675860741 0.17189172527252669 0 -0.0060469278192012664 0.16804581253524711 0 -0.01439483312764874 0.15542621048378391 0 -0.0060469278192012664 0.16804581253524711 0 -0.01439483312764874 0.15542621048378391 0 0.0048452609164686524 0.140092557160239 0 -0.0060469278192012664 0.16804581253524711 0 0.0048452609164686524 0.140092557160239 0 -0.01137128241224456 0.14239628308200561 0 -0.01439483312764874 0.15542621048378391 0 0.0048452609164686524 0.140092557160239 0 -0.01439483312764874 0.15542621048378391 0 -0.028558016532013501 0.15427881982697761 0 -0.025038953161321251 0.14007216569520231 0 -0.01137128241224456 0.14239628308200561 0 -0.01439483312764874 0.15542621048378391 0 -0.025038953161321251 0.14007216569520231 0 -0.036443618539109428 0.14362502091179979 0 -0.028558016532013501 0.15427881982697761 0 -0.025038953161321251 0.14007216569520231 0 -0.042660964834944352 0.12961760334818559 0 -0.020238980638423301 0.1293847395988435 0 -0.027138786001938388 0.1192606786280228 0 -0.03554102789105397 0.13487916664293129 0 -0.025038953161321251 0.14007216569520231 0 -0.020238980638423301 0.1293847395988435 0 -0.01137128241224456 0.14239628308200561 0 -0.025038953161321251 0.14007216569520231 0 -0.020238980638423301 0.1293847395988435 0 -0.01137128241224456 0.14239628308200561 0 -0.020238980638423301 0.1293847395988435 0 -0.01137128241224456 0.14239628308200561 0 -0.0034601198776373419 0.12921048256644549 0 0.0048452609164686524 0.140092557160239 0 -0.01137128241224456 0.14239628308200561 0 -0.020238980638423301 0.1293847395988435 0 -0.0034601198776373419 0.12921048256644549 0 -0.020238980638423301 0.1293847395988435 0 -0.0034601198776373419 0.12921048256644549 0 -0.020238980638423301 0.1293847395988435 0 -0.0034601198776373419 0.12921048256644549 0 -0.010515535131794519 0.1117204248918658 0 -0.0034601198776373419 0.12921048256644549 0 -0.010515535131794519 0.1117204248918658 0 0.0013627004030162689 0.1185368260370173 0 -0.010515535131794519 0.1117204248918658 0 0.006107715738348357 0.1041801711557067 0 0.0013627004030162689 0.1185368260370173 0 -0.010515535131794519 0.1117204248918658 0 0.006107715738348357 0.1041801711557067 0 -0.0083279745294388089 0.097834444903363946 0 0.00037005245518714931 0.084402723746065167 0 0.006107715738348357 0.1041801711557067 0 -0.010515535131794519 0.1117204248918658 0 -0.0083279745294388089 0.097834444903363946 0 0.006107715738348357 0.1041801711557067 0 -0.010515535131794519 0.1117204248918658 0 -0.0083279745294388089 0.097834444903363946 0 -0.022413439261593809 0.1029774544450017 0 -0.022413439261593809 0.1029774544450017 0 -0.021341737843158421 0.088575661153132368 0 -0.042353274809232802 0.096936510885628491 0 -0.022413439261593809 0.1029774544450017 0 -0.027138786001938388 0.1192606786280228 0 -0.042353274809232802 0.096936510885628491 0 -0.0083279745294388089 0.097834444903363946 0 -0.022413439261593809 0.1029774544450017 0 -0.021341737843158421 0.088575661153132368 0 -0.010515535131794519 0.1117204248918658 0 -0.022413439261593809 0.1029774544450017 0 -0.027138786001938388 0.1192606786280228 0 -0.010515535131794519 0.1117204248918658 0 -0.027138786001938388 0.1192606786280228 0 -0.020238980638423301 0.1293847395988435 0 -0.010515535131794519 0.1117204248918658 0 -0.027138786001938388 0.1192606786280228 0 -0.020238980638423301 0.1293847395988435 0 -0.027138786001938388 0.1192606786280228 0 -0.0053676108279740262 0.064625276336423676 0 -0.01532891332521525 0.074951768036590316 0 -0.016265395509468841 0.05675055313603064 0 -0.0053676108279740262 0.064625276336423676 0 0.00037005245518714931 0.084402723746065167 0 -0.0053676108279740262 0.064625276336423676 0 -0.01532891332521525 0.074951768036590316 0 0.00037005245518714931 0.084402723746065167 0 -0.01532891332521525 0.074951768036590316 0 -0.021341737843158421 0.088575661153132368 0 0.00037005245518714931 0.084402723746065167 0 -0.0083279745294388089 0.097834444903363946 0 -0.021341737843158421 0.088575661153132368 0 0.00037005245518714931 0.084402723746065167 0 -0.01532891332521525 0.074951768036590316 0 -0.021341737843158421 0.088575661153132368 0 -0.036492494119237759 0.079220873351185328 0 -0.01532891332521525 0.074951768036590316 0 -0.026297438582637139 0.065702150101104945 0 -0.016265395509468841 0.05675055313603064 0 -0.01532891332521525 0.074951768036590316 0 -0.026297438582637139 0.065702150101104945 0 -0.036492494119237759 0.079220873351185328 0 -0.026297438582637139 0.065702150101104945 0 -0.047250261561067187 0.066145496669263351 0 -0.036962816676788267 0.056993149040489133 0 -0.026297438582637139 0.065702150101104945 0 -0.036492494119237759 0.079220873351185328 0 -0.047250261561067187 0.066145496669263351 0 -0.036492494119237759 0.079220873351185328 0 -0.057567763616527518 0.074612343143234339 0 -0.042353274809232802 0.096936510885628491 0 -0.021341737843158421 0.088575661153132368 0 -0.036492494119237759 0.079220873351185328 0 -0.042353274809232802 0.096936510885628491 0 -0.057567763616527518 0.074612343143234339 0 -0.042353274809232802 0.096936510885628491 0 -0.058195033979556977 0.098359774558933022 0 -0.057567763616527518 0.074612343143234339 0 -0.042353274809232802 0.096936510885628491 0 -0.057567763616527518 0.074612343143234339 0 -0.058195033979556977 0.098359774558933022 0 -0.069992063618862399 0.090801042719595493 0 -0.057567763616527518 0.074612343143234339 0 -0.047250261561067187 0.066145496669263351 0 -0.057532226660207159 0.05464003229954064 0 -0.036492494119237759 0.079220873351185328 0 -0.057567763616527518 0.074612343143234339 0 -0.047250261561067187 0.066145496669263351 0 -0.045441570218125227 0.12756276334937661 0 -0.027138786001938388 0.1192606786280228 0 -0.045441570218125227 0.12756276334937661 0 -0.027138786001938388 0.1192606786280228 0 -0.049562877740072057 0.11123703521795709 0 -0.027138786001938388 0.1192606786280228 0 -0.042353274809232802 0.096936510885628491 0 -0.027138786001938388 0.1192606786280228 0 -0.042353274809232802 0.096936510885628491 0 -0.049562877740072057 0.11123703521795709 0 -0.058195033979556977 0.098359774558933022 0 -0.049562877740072057 0.11123703521795709 0 -0.067741476357105201 0.1110833522897335 0 -0.042353274809232802 0.096936510885628491 0 -0.058195033979556977 0.098359774558933022 0 -0.049562877740072057 0.11123703521795709 0 -0.045441570218125227 0.12756276334937661 0 -0.067741476357105201 0.1110833522897335 0 -0.045441570218125227 0.12756276334937661 0 -0.050142980039125443 0.12969530789466091 0 -0.067741476357105201 0.1110833522897335 0 -0.045441570218125227 0.12756276334937661 0 -0.049562877740072057 0.11123703521795709 0 -0.067741476357105201 0.1110833522897335 0 -0.068613208653190552 0.12988713064543181 0 -0.050142980039125443 0.12969530789466091 0 -0.067741476357105201 0.1110833522897335 0 -0.068613208653190552 0.12988713064543181 0 -0.067741476357105201 0.1110833522897335 0 -0.074446782334335812 0.1201945938608048 0 -0.067741476357105201 0.1110833522897335 0 -0.081411571639234084 0.1155497484440247 0 -0.083590089728109412 0.1076213640038662 0 -0.067741476357105201 0.1110833522897335 0 -0.074446782334335812 0.1201945938608048 0 -0.081411571639234084 0.1155497484440247 0 -0.076141641869118704 0.12724262890974189 0 -0.074446782334335812 0.1201945938608048 0 -0.079354503926275979 0.1214849472091582 0 -0.081411571639234084 0.1155497484440247 0 -0.083590089728109412 0.1076213640038662 0 -0.09811844269531228 0.1059705528652832 0 -0.085418019862415318 0.1229528176220613 0 -0.095465393046778188 0.1166667054728838 0 -0.09811844269531228 0.1059705528652832 0 -0.085418019862415318 0.1229528176220613 0 -0.09811844269531228 0.1059705528652832 0 -0.085418019862415318 0.1229528176220613 0 -0.081411571639234084 0.1155497484440247 0 -0.09811844269531228 0.1059705528652832 0 -0.076141641869118704 0.12724262890974189 0 -0.079354503926275979 0.1214849472091582 0 -0.085418019862415318 0.1229528176220613 0 -0.079354503926275979 0.1214849472091582 0 -0.085418019862415318 0.1229528176220613 0 -0.081411571639234084 0.1155497484440247 0 -0.074446782334335812 0.1201945938608048 0 -0.079354503926275979 0.1214849472091582 0 -0.081411571639234084 0.1155497484440247 0 -0.088954900836533152 0.1277786171536919 0 -0.085418019862415318 0.1229528176220613 0 -0.095465393046778188 0.1166667054728838 0 -0.067741476357105201 0.1110833522897335 0 -0.090041382496085426 0.094603941230090513 0 -0.083590089728109412 0.1076213640038662 0 -0.067741476357105201 0.1110833522897335 0 -0.090041382496085426 0.094603941230090513 0 -0.090041382496085426 0.094603941230090513 0 -0.083590089728109412 0.1076213640038662 0 -0.09811844269531228 0.1059705528652832 0 -0.058195033979556977 0.098359774558933022 0 -0.067741476357105201 0.1110833522897335 0 -0.069992063618862399 0.090801042719595493 0 -0.067741476357105201 0.1110833522897335 0 -0.090041382496085426 0.094603941230090513 0 -0.069992063618862399 0.090801042719595493 0 -0.057567763616527518 0.074612343143234339 0 -0.069992063618862399 0.090801042719595493 0 -0.077531315938522416 0.078548610220147586 0 -0.057567763616527518 0.074612343143234339 0 -0.072782252423822316 0.052288175400840069 0 -0.057567763616527518 0.074612343143234339 0 -0.077531315938522416 0.078548610220147586 0 -0.072782252423822316 0.052288175400840069 0 -0.077531315938522416 0.078548610220147586 0 -0.089274923487953489 0.070238970672130377 0 -0.072782252423822316 0.052288175400840069 0 -0.089274923487953489 0.070238970672130377 0 -0.091372747124010709 0.07935852700424946 0 -0.099646588525249657 0.073603033747595997 0 -0.077531315938522416 0.078548610220147586 0 -0.089274923487953489 0.070238970672130377 0 -0.091372747124010709 0.07935852700424946 0 -0.090041382496085426 0.094603941230090513 0 -0.077531315938522416 0.078548610220147586 0 -0.091372747124010709 0.07935852700424946 0 -0.090041382496085426 0.094603941230090513 0 -0.069992063618862399 0.090801042719595493 0 -0.077531315938522416 0.078548610220147586 0 -0.090041382496085426 0.094603941230090513 0 -0.11234128863506559 0.078124530170447515 0 -0.11034587660406039 0.088900705289990195 0 -0.090041382496085426 0.094603941230090513 0 -0.1003695251722425 0.079798079151282841 0 -0.11234128863506559 0.078124530170447515 0 -0.090041382496085426 0.094603941230090513 0 -0.11234128863506559 0.078124530170447515 0 -0.090041382496085426 0.094603941230090513 0 -0.091372747124010709 0.07935852700424946 0 -0.1003695251722425 0.079798079151282841 0 -0.089274923487953489 0.070238970672130377 0 -0.09920452150476039 0.067048460864157791 0 -0.099646588525249657 0.073603033747595997 0 -0.089274923487953489 0.070238970672130377 0 -0.09920452150476039 0.067048460864157791 0 -0.094163924989242462 0.060669630188739908 0 -0.09920452150476039 0.067048460864157791 0 -0.1045204229746596 0.060438390130880558 0 -0.094163924989242462 0.060669630188739908 0 -0.091372747124010709 0.07935852700424946 0 -0.1003695251722425 0.079798079151282841 0 -0.099646588525249657 0.073603033747595997 0 -0.09920452150476039 0.067048460864157791 0 -0.099646588525249657 0.073603033747595997 0 -0.1084167475466967 0.070292279581442102 0 -0.1003695251722425 0.079798079151282841 0 -0.1084167475466967 0.070292279581442102 0 -0.11234128863506559 0.078124530170447515 0 -0.1003695251722425 0.079798079151282841 0 -0.099646588525249657 0.073603033747595997 0 -0.1084167475466967 0.070292279581442102 0 -0.09920452150476039 0.067048460864157791 0 -0.1084167475466967 0.070292279581442102 0 -0.1045204229746596 0.060438390130880558 0 -0.1084167475466967 0.070292279581442102 0 -0.11234128863506559 0.078124530170447515 0 -0.1197864358152651 0.053282202866922403 0 -0.11234128863506559 0.078124530170447515 0 -0.1226215052325052 0.073936349983915309 0 -0.1197864358152651 0.053282202866922403 0 -0.12987677580399101 0.066971745259348264 0 -0.1226215052325052 0.073936349983915309 0 -0.1197864358152651 0.053282202866922403 0 -0.11234128863506559 0.078124530170447515 0 -0.1197864358152651 0.053282202866922403 0 -0.11234128863506559 0.078124530170447515 0 -0.1226215052325052 0.073936349983915309 0 -0.1175470653554001 0.0788765013925143 0 -0.1226215052325052 0.073936349983915309 0 -0.1175470653554001 0.0788765013925143 0 -0.1202172161668984 0.07877946373430833 0 -0.1226215052325052 0.073936349983915309 0 -0.12263842300944321 0.079533008487134071 0 -0.12485635251832949 0.078351939813024546 0 -0.1226215052325052 0.073936349983915309 0 -0.1202172161668984 0.07877946373430833 0 -0.12263842300944321 0.079533008487134071 0 -0.12670438843014881 0.076799680774201962 0 -0.1226215052325052 0.073936349983915309 0 -0.12485635251832949 0.078351939813024546 0 -0.1132958581690087 0.089498212194009413 0 -0.111201319362597 0.092158650511771273 0 -0.1140227235076972 0.082704393195051767 0 -0.11234128863506559 0.078124530170447515 0 -0.11034587660406039 0.088900705289990195 0 -0.111201319362597 0.092158650511771273 0 -0.1132958581690087 0.089498212194009413 0 -0.11378085232143639 0.086441902608053053 0 -0.1132108403912115 0.084392763848658361 0 -0.1132958581690087 0.089498212194009413 0 -0.1162100372664229 0.088093727355605222 0 -0.1147576002707448 0.090098345760499604 0 -0.1132958581690087 0.089498212194009413 0 -0.11378085232143639 0.086441902608053053 0 -0.1162100372664229 0.088093727355605222 0 -0.11378085232143639 0.086441902608053053 0 -0.1162100372664229 0.088093727355605222 0 -0.1171147246949405 0.085298117077510796 0 -0.1162100372664229 0.088093727355605222 0 -0.11646971391085489 0.090265707578524743 0 -0.1185762933299014 0.090379701665158199 0 -0.1162100372664229 0.088093727355605222 0 -0.11646971391085489 0.090265707578524743 0 -0.1147576002707448 0.090098345760499604 0 -0.11646971391085489 0.090265707578524743 0 -0.1171006642709333 0.092221866620121273 0 -0.1149177106288306 0.091703158515746411 0 -0.11646971391085489 0.090265707578524743 0 -0.1147576002707448 0.090098345760499604 0 -0.1149177106288306 0.091703158515746411 0 -0.1171006642709333 0.092221866620121273 0 -0.113227287030465 0.093543737967718643 0 -0.11559188789181241 0.094006220936823787 0 -0.1149177106288306 0.091703158515746411 0 -0.1132429924652662 0.091266624887511222 0 -0.113227287030465 0.093543737967718643 0 -0.1171006642709333 0.092221866620121273 0 -0.1149177106288306 0.091703158515746411 0 -0.113227287030465 0.093543737967718643 0 -0.1147576002707448 0.090098345760499604 0 -0.1149177106288306 0.091703158515746411 0 -0.1132429924652662 0.091266624887511222 0 -0.1132958581690087 0.089498212194009413 0 -0.1147576002707448 0.090098345760499604 0 -0.1132429924652662 0.091266624887511222 0 -0.1132958581690087 0.089498212194009413 0 -0.1132429924652662 0.091266624887511222 0 -0.111201319362597 0.092158650511771273 0 -0.1132429924652662 0.091266624887511222 0 -0.113227287030465 0.093543737967718643 0 -0.111201319362597 0.092158650511771273 0 -0.113227287030465 0.093543737967718643 0 -0.111201319362597 0.092158650511771273 0 -0.1118040116283671 0.095408335197246341 0 -0.11234128863506559 0.078124530170447515 0 -0.11034587660406039 0.088900705289990195 0 -0.11234128863506559 0.078124530170447515 0 -0.111201319362597 0.092158650511771273 0 -0.1140227235076972 0.082704393195051767 0 -0.11234128863506559 0.078124530170447515 0 -0.1147547694703366 0.080514347215115772 0 -0.1175470653554001 0.0788765013925143 0 -0.11234128863506559 0.078124530170447515 0 -0.1147547694703366 0.080514347215115772 0 -0.1140227235076972 0.082704393195051767 0 -0.1147547694703366 0.080514347215115772 0 -0.1169613932321613 0.080605075161227752 0 -0.1140227235076972 0.082704393195051767 0 -0.1169613932321613 0.080605075161227752 0 -0.11592459920130049 0.082728136852895096 0 -0.11787252522746269 0.082612983941153934 0 -0.1169613932321613 0.080605075161227752 0 -0.1140227235076972 0.082704393195051767 0 -0.11592459920130049 0.082728136852895096 0 -0.1147547694703366 0.080514347215115772 0 -0.1169613932321613 0.080605075161227752 0 -0.1175470653554001 0.0788765013925143 0 -0.1132958581690087 0.089498212194009413 0 -0.1132108403912115 0.084392763848658361 0 -0.1140227235076972 0.082704393195051767 0 -0.11378085232143639 0.086441902608053053 0 -0.11522389832659891 0.085099225807041046 0 -0.1140227235076972 0.082704393195051767 0 -0.11378085232143639 0.086441902608053053 0 -0.1132108403912115 0.084392763848658361 0 -0.1140227235076972 0.082704393195051767 0 -0.1140227235076972 0.082704393195051767 0 -0.11592459920130049 0.082728136852895096 0 -0.1171147246949405 0.085298117077510796 0 -0.11592459920130049 0.082728136852895096 0 -0.1171147246949405 0.085298117077510796 0 -0.11787252522746269 0.082612983941153934 0 -0.11522389832659891 0.085099225807041046 0 -0.1140227235076972 0.082704393195051767 0 -0.1171147246949405 0.085298117077510796 0 -0.11378085232143639 0.086441902608053053 0 -0.11522389832659891 0.085099225807041046 0 -0.1171147246949405 0.085298117077510796 0 -0.1171147246949405 0.085298117077510796 0 -0.1200206832845218 0.082719624809560327 0 -0.1192038596807011 0.084802365787214229 0 -0.1171147246949405 0.085298117077510796 0 -0.1192038596807011 0.084802365787214229 0 -0.1203389290860734 0.08696472212682127 0 -0.1171147246949405 0.085298117077510796 0 -0.11787252522746269 0.082612983941153934 0 -0.1200206832845218 0.082719624809560327 0 -0.1192038596807011 0.084802365787214229 0 -0.1212926759793669 0.084742084687313451 0 -0.1203389290860734 0.08696472212682127 0 -0.1200206832845218 0.082719624809560327 0 -0.1192038596807011 0.084802365787214229 0 -0.1212926759793669 0.084742084687313451 0 -0.1169613932321613 0.080605075161227752 0 -0.1175470653554001 0.0788765013925143 0 -0.1202172161668984 0.07877946373430833 0 -0.1169613932321613 0.080605075161227752 0 -0.11787252522746269 0.082612983941153934 0 -0.1200206832845218 0.082719624809560327 0 -0.1169613932321613 0.080605075161227752 0 -0.1194641382938227 0.081020210509610238 0 -0.1202172161668984 0.07877946373430833 0 -0.1169613932321613 0.080605075161227752 0 -0.1200206832845218 0.082719624809560327 0 -0.1194641382938227 0.081020210509610238 0 -0.1210087889670472 0.081279234188838631 0 -0.1194641382938227 0.081020210509610238 0 -0.1202172161668984 0.07877946373430833 0 -0.1200206832845218 0.082719624809560327 0 -0.1210087889670472 0.081279234188838631 0 -0.1194641382938227 0.081020210509610238 0 -0.1210087889670472 0.081279234188838631 0 -0.1202172161668984 0.07877946373430833 0 -0.12263842300944321 0.079533008487134071 0 -0.1210087889670472 0.081279234188838631 0 -0.12263842300944321 0.079533008487134071 0 -0.1225639624650177 0.082212402110561023 0 -0.12263842300944321 0.079533008487134071 0 -0.12487663512593079 0.081391171732444381 0 -0.1225639624650177 0.082212402110561023 0 -0.12263842300944321 0.079533008487134071 0 -0.12487663512593079 0.081391171732444381 0 -0.12485635251832949 0.078351939813024546 0 -0.1212926759793669 0.084742084687313451 0 -0.1234240149047192 0.08464872897060495 0 -0.1226034513081532 0.086743946682511008 0 -0.1200206832845218 0.082719624809560327 0 -0.1212926759793669 0.084742084687313451 0 -0.1225639624650177 0.082212402110561023 0 -0.1212926759793669 0.084742084687313451 0 -0.1225639624650177 0.082212402110561023 0 -0.1234240149047192 0.08464872897060495 0 -0.1200206832845218 0.082719624809560327 0 -0.1210087889670472 0.081279234188838631 0 -0.1225639624650177 0.082212402110561023 0 -0.12487663512593079 0.081391171732444381 0 -0.1225639624650177 0.082212402110561023 0 -0.1234240149047192 0.08464872897060495 0 -0.12553973240708449 0.083487465722660095 0 -0.12487663512593079 0.081391171732444381 0 -0.1234240149047192 0.08464872897060495 0 -0.1257527236209417 0.085016396217428403 0 -0.1234240149047192 0.08464872897060495 0 -0.1226034513081532 0.086743946682511008 0 -0.12553973240708449 0.083487465722660095 0 -0.1257527236209417 0.085016396217428403 0 -0.1234240149047192 0.08464872897060495 0 -0.12819293178220359 0.086370742676851742 0 -0.1216068506933829 0.089672221297597041 0 -0.1189381939685949 0.091995365943585011 0 -0.12819293178220359 0.086370742676851742 0 -0.1189381939685949 0.091995365943585011 0 -0.1218107812678077 0.091921798454556253 0 -0.1257527236209417 0.085016396217428403 0 -0.1216068506933829 0.089672221297597041 0 -0.1226034513081532 0.086743946682511008 0 -0.1212926759793669 0.084742084687313451 0 -0.1226034513081532 0.086743946682511008 0 -0.1203389290860734 0.08696472212682127 0 -0.1216068506933829 0.089672221297597041 0 -0.1226034513081532 0.086743946682511008 0 -0.1203389290860734 0.08696472212682127 0 -0.1203389290860734 0.08696472212682127 0 -0.1200711894585632 0.088490938926863952 0 -0.1184596449732859 0.088111810974922933 0 -0.1216068506933829 0.089672221297597041 0 -0.1200711894585632 0.088490938926863952 0 -0.1185762933299014 0.090379701665158199 0 -0.1216068506933829 0.089672221297597041 0 -0.1203389290860734 0.08696472212682127 0 -0.1200711894585632 0.088490938926863952 0 -0.1162100372664229 0.088093727355605222 0 -0.1184596449732859 0.088111810974922933 0 -0.1185762933299014 0.090379701665158199 0 -0.1200711894585632 0.088490938926863952 0 -0.1184596449732859 0.088111810974922933 0 -0.1185762933299014 0.090379701665158199 0 -0.1162100372664229 0.088093727355605222 0 -0.1171147246949405 0.085298117077510796 0 -0.1184596449732859 0.088111810974922933 0 -0.1171147246949405 0.085298117077510796 0 -0.1203389290860734 0.08696472212682127 0 -0.1184596449732859 0.088111810974922933 0 -0.1171006642709333 0.092221866620121273 0 -0.1189381939685949 0.091995365943585011 0 -0.11559188789181241 0.094006220936823787 0 -0.11646971391085489 0.090265707578524743 0 -0.1171006642709333 0.092221866620121273 0 -0.1185762933299014 0.090379701665158199 0 -0.1171006642709333 0.092221866620121273 0 -0.1189381939685949 0.091995365943585011 0 -0.1185762933299014 0.090379701665158199 0 -0.1216068506933829 0.089672221297597041 0 -0.1189381939685949 0.091995365943585011 0 -0.1185762933299014 0.090379701665158199 0 -0.1218107812678077 0.091921798454556253 0 -0.12496365709254351 0.099786822345317605 0 -0.1149555794736646 0.10179266978620501 0 -0.12507013881000539 0.089626186415924514 0 -0.1218107812678077 0.091921798454556253 0 -0.12496365709254351 0.099786822345317605 0 -0.12496365709254351 0.099786822345317605 0 -0.1048138180045957 0.11545051695230341 0 -0.12496365709254351 0.099786822345317605 0 -0.1149555794736646 0.10179266978620501 0 -0.1048138180045957 0.11545051695230341 0 -0.1218107812678077 0.091921798454556253 0 -0.1149555794736646 0.10179266978620501 0 -0.1074781025270187 0.1043880508493526 0 -0.11034587660406039 0.088900705289990195 0 -0.111201319362597 0.092158650511771273 0 -0.1074781025270187 0.1043880508493526 0 -0.1189381939685949 0.091995365943585011 0 -0.1218107812678077 0.091921798454556253 0 -0.1074781025270187 0.1043880508493526 0 -0.111201319362597 0.092158650511771273 0 -0.1118040116283671 0.095408335197246341 0 -0.1074781025270187 0.1043880508493526 0 -0.11559188789181241 0.094006220936823787 0 -0.1118040116283671 0.095408335197246341 0 -0.1074781025270187 0.1043880508493526 0 -0.1189381939685949 0.091995365943585011 0 -0.11559188789181241 0.094006220936823787 0 -0.1074781025270187 0.1043880508493526 0 -0.1218107812678077 0.091921798454556253 0 -0.1074781025270187 0.1043880508493526 0 -0.113227287030465 0.093543737967718643 0 -0.11559188789181241 0.094006220936823787 0 -0.1118040116283671 0.095408335197246341 0 -0.12496365709254351 0.099786822345317605 0 -0.1203286734786395 0.1140085367330374 0 -0.1048138180045957 0.11545051695230341 0 -0.12538013163551431 0.1235615211388761 0 -0.1203286734786395 0.1140085367330374 0 -0.114054858854355 0.1207060156786082 0 -0.11181489964393899 0.13061983955501469 0 -0.114054858854355 0.1207060156786082 0 -0.1048138180045957 0.11545051695230341 0 -0.12538013163551431 0.1235615211388761 0 -0.11181489964393899 0.13061983955501469 0 -0.114054858854355 0.1207060156786082 0 -0.1203286734786395 0.1140085367330374 0 -0.114054858854355 0.1207060156786082 0 -0.1048138180045957 0.11545051695230341 0 -0.1048138180045957 0.11545051695230341 0 -0.10227800434990381 0.110137135992551 0 -0.1074781025270187 0.1043880508493526 0 -0.088954900836533152 0.1277786171536919 0 -0.1048138180045957 0.11545051695230341 0 -0.095465393046778188 0.1166667054728838 0 -0.1048138180045957 0.11545051695230341 0 -0.1074781025270187 0.1043880508493526 0 -0.088954900836533152 0.1277786171536919 0 -0.1048138180045957 0.11545051695230341 0 -0.1048138180045957 0.11545051695230341 0 -0.10227800434990381 0.110137135992551 0 -0.095465393046778188 0.1166667054728838 0 -0.10227800434990381 0.110137135992551 0 -0.095465393046778188 0.1166667054728838 0 -0.09811844269531228 0.1059705528652832 0 -0.11034587660406039 0.088900705289990195 0 -0.09811844269531228 0.1059705528652832 0 -0.11034587660406039 0.088900705289990195 0 -0.09811844269531228 0.1059705528652832 0 -0.1074781025270187 0.1043880508493526 0 -0.090041382496085426 0.094603941230090513 0 -0.11034587660406039 0.088900705289990195 0 -0.09811844269531228 0.1059705528652832 0 -0.11034587660406039 0.088900705289990195 0 -0.1074781025270187 0.1043880508493526 0 -0.10227800434990381 0.110137135992551 0 -0.09811844269531228 0.1059705528652832 0 -0.1074781025270187 0.1043880508493526 0 -0.1149555794736646 0.10179266978620501 0 -0.1048138180045957 0.11545051695230341 0 -0.1074781025270187 0.1043880508493526 0 -0.099696523322329381 0.012796957140885631 0 -0.1027340189904121 0.031457353993626119 0 -0.087996741231116365 0.029964007658445341 0 -0.099696523322329381 0.012796957140885631 0 -0.087996741231116365 0.029964007658445341 0 -0.099696523322329381 0.012796957140885631 0 -0.11596694612224891 0.016676389169406291 0 -0.1027340189904121 0.031457353993626119 0 -0.1027340189904121 0.031457353993626119 0 -0.087996741231116365 0.029964007658445341 0 -0.1113963054135417 -0.0043700933766745859 0 -0.099696523322329381 0.012796957140885631 0 -0.11596694612224891 0.016676389169406291 0 -0.1113963054135417 -0.0043700933766745859 0 -0.099696523322329381 0.012796957140885631 0 -0.1113963054135417 -0.0043700933766745859 0 -0.099696523322329381 0.012796957140885631 0 -0.095042178018154802 0.0009823759069313182 0 -0.1195315168135004 -0.0024303773624146621 0 -0.12688342370485001 0.01070171800265522 0 -0.11596694612224891 0.016676389169406291 0 -0.1195315168135004 -0.0024303773624146621 0 -0.11596694612224891 0.016676389169406291 0 -0.1113963054135417 -0.0043700933766745859 0 -0.1195315168135004 -0.0024303773624146621 0 -0.11596694612224891 0.016676389169406291 0 -0.12688342370485001 0.01070171800265522 0 -0.1242230929734665 0.023393682950198631 0 -0.11596694612224891 0.016676389169406291 0 -0.11596694612224891 0.016676389169406291 0 -0.1164988123418689 0.033847720949779107 0 -0.1027340189904121 0.031457353993626119 0 -0.1242230929734665 0.023393682950198631 0 -0.11596694612224891 0.016676389169406291 0 -0.1164988123418689 0.033847720949779107 0 -0.128895210172768 0.032880780971351282 0 -0.1242230929734665 0.023393682950198631 0 -0.1164988123418689 0.033847720949779107 0 -0.128895210172768 0.032880780971351282 0 -0.1164988123418689 0.033847720949779107 0 -0.1197864358152651 0.053282202866922403 0 -0.1164988123418689 0.033847720949779107 0 -0.1197864358152651 0.053282202866922403 0 -0.1053044231539355 0.044738838161835721 0 -0.1197864358152651 0.053282202866922403 0 -0.1045204229746596 0.060438390130880558 0 -0.1053044231539355 0.044738838161835721 0 -0.1084167475466967 0.070292279581442102 0 -0.1197864358152651 0.053282202866922403 0 -0.1045204229746596 0.060438390130880558 0 -0.1045204229746596 0.060438390130880558 0 -0.093753240721328956 0.050488232397772552 0 -0.1053044231539355 0.044738838161835721 0 -0.1045204229746596 0.060438390130880558 0 -0.093753240721328956 0.050488232397772552 0 -0.094163924989242462 0.060669630188739908 0 -0.1164988123418689 0.033847720949779107 0 -0.1027340189904121 0.031457353993626119 0 -0.1053044231539355 0.044738838161835721 0 -0.093753240721328956 0.050488232397772552 0 -0.1053044231539355 0.044738838161835721 0 -0.093797648613622608 0.03996438843176757 0 -0.1027340189904121 0.031457353993626119 0 -0.093797648613622608 0.03996438843176757 0 -0.087996741231116365 0.029964007658445341 0 -0.1027340189904121 0.031457353993626119 0 -0.1053044231539355 0.044738838161835721 0 -0.093797648613622608 0.03996438843176757 0 -0.093797648613622608 0.03996438843176757 0 -0.072782252423822316 0.052288175400840069 0 -0.087996741231116365 0.029964007658445341 0 -0.072782252423822316 0.052288175400840069 0 -0.087996741231116365 0.029964007658445341 0 -0.093753240721328956 0.050488232397772552 0 -0.093797648613622608 0.03996438843176757 0 -0.072782252423822316 0.052288175400840069 0 -0.093753240721328956 0.050488232397772552 0 -0.094163924989242462 0.060669630188739908 0 -0.072782252423822316 0.052288175400840069 0 -0.089274923487953489 0.070238970672130377 0 -0.094163924989242462 0.060669630188739908 0 -0.072782252423822316 0.052288175400840069 0 -0.057567763616527518 0.074612343143234339 0 -0.072782252423822316 0.052288175400840069 0 -0.057532226660207159 0.05464003229954064 0 -0.072782252423822316 0.052288175400840069 0 -0.065290729066978942 0.02766317974397078 0 -0.057532226660207159 0.05464003229954064 0 -0.072782252423822316 0.052288175400840069 0 -0.065290729066978942 0.02766317974397078 0 -0.087996741231116365 0.029964007658445341 0 -0.065290729066978942 0.02766317974397078 0 -0.067939656911554083 0.01055717571291113 0 -0.054547717246899663 0.016202824831207469 0 -0.065290729066978942 0.02766317974397078 0 -0.087996741231116365 0.029964007658445341 0 -0.065290729066978942 0.02766317974397078 0 -0.083574623097334794 0.01381806606100805 0 -0.067939656911554083 0.01055717571291113 0 -0.065290729066978942 0.02766317974397078 0 -0.087996741231116365 0.029964007658445341 0 -0.083574623097334794 0.01381806606100805 0 -0.099696523322329381 0.012796957140885631 0 -0.087996741231116365 0.029964007658445341 0 -0.083574623097334794 0.01381806606100805 0 -0.099696523322329381 0.012796957140885631 0 -0.095042178018154802 0.0009823759069313182 0 -0.083574623097334794 0.01381806606100805 0 -0.095042178018154802 0.0009823759069313182 0 -0.083574623097334794 0.01381806606100805 0 -0.082085834664370957 0.00072418305549578471 0 -0.083574623097334794 0.01381806606100805 0 -0.082085834664370957 0.00072418305549578471 0 -0.067939656911554083 0.01055717571291113 0 -0.070517512630694557 -0.002546413074365927 0 -0.082085834664370957 0.00072418305549578471 0 -0.067939656911554083 0.01055717571291113 0 -0.070517512630694557 -0.002546413074365927 0 -0.067939656911554083 0.01055717571291113 0 -0.055813665327939861 0.004961667931764239 0 -0.070517512630694557 -0.002546413074365927 0 -0.055813665327939861 0.004961667931764239 0 -0.055813665327939861 0.004961667931764239 0 -0.054547717246899663 0.016202824831207469 0 -0.041109818025184541 0.01246974893789313 0 -0.055813665327939861 0.004961667931764239 0 -0.041109818025184541 0.01246974893789313 0 -0.067939656911554083 0.01055717571291113 0 -0.055813665327939861 0.004961667931764239 0 -0.054547717246899663 0.016202824831207469 0 -0.065290729066978942 0.02766317974397078 0 -0.054547717246899663 0.016202824831207469 0 -0.042584716902841602 0.02536235182949604 0 -0.065290729066978942 0.02766317974397078 0 -0.042584716902841602 0.02536235182949604 0 -0.042584716902841602 0.02536235182949604 0 -0.041109818025184541 0.01246974893789313 0 -0.042584716902841602 0.02536235182949604 0 -0.031187306778866161 0.034255068436600089 0 -0.020286024172819061 0.023102798090223149 0 -0.042584716902841602 0.02536235182949604 0 -0.020286024172819061 0.023102798090223149 0 -0.042584716902841602 0.02536235182949604 0 -0.041109818025184541 0.01246974893789313 0 -0.020286024172819061 0.023102798090223149 0 -0.054547717246899663 0.016202824831207469 0 -0.042584716902841602 0.02536235182949604 0 -0.041109818025184541 0.01246974893789313 0 -0.038065540254775793 -0.01414133944257338 0 -0.041109818025184541 0.01246974893789313 0 -0.02332930609282181 0.002293464424054465 0 -0.038065540254775793 -0.01414133944257338 0 -0.055813665327939861 0.004961667931764239 0 -0.041109818025184541 0.01246974893789313 0 -0.047250261561067187 0.066145496669263351 0 -0.057532226660207159 0.05464003229954064 0 -0.044917489231954613 0.045753924249379671 0 -0.065290729066978942 0.02766317974397078 0 -0.057532226660207159 0.05464003229954064 0 -0.044917489231954613 0.045753924249379671 0 -0.065290729066978942 0.02766317974397078 0 -0.042584716902841602 0.02536235182949604 0 -0.044917489231954613 0.045753924249379671 0 -0.044917489231954613 0.045753924249379671 0 -0.025594665142677619 0.045775131773195393 0 -0.031187306778866161 0.034255068436600089 0 -0.042584716902841602 0.02536235182949604 0 -0.044917489231954613 0.045753924249379671 0 -0.031187306778866161 0.034255068436600089 0 -0.042584716902841602 0.02536235182949604 0 -0.044917489231954613 0.045753924249379671 0 -0.047250261561067187 0.066145496669263351 0 -0.044917489231954613 0.045753924249379671 0 -0.044917489231954613 0.045753924249379671 0 -0.036962816676788267 0.056993149040489133 0 -0.025594665142677619 0.045775131773195393 0 -0.047250261561067187 0.066145496669263351 0 -0.044917489231954613 0.045753924249379671 0 -0.036962816676788267 0.056993149040489133 0 -0.016265395509468841 0.05675055313603064 0 -0.025594665142677619 0.045775131773195393 0 -0.0079846579159902707 0.046004899858118183 0 -0.026297438582637139 0.065702150101104945 0 -0.036962816676788267 0.056993149040489133 0 -0.016265395509468841 0.05675055313603064 0 -0.036962816676788267 0.056993149040489133 0 -0.016265395509468841 0.05675055313603064 0 -0.025594665142677619 0.045775131773195393 0 -0.025594665142677619 0.045775131773195393 0 -0.01782538559736848 0.034998743738524393 0 -0.0079846579159902707 0.046004899858118183 0 -0.025594665142677619 0.045775131773195393 0 -0.031187306778866161 0.034255068436600089 0 -0.01782538559736848 0.034998743738524393 0 -0.0079846579159902707 0.046004899858118183 0 -0.0065963088486021594 0.03009304285329403 0 0.007093406475614579 0.037083287616365312 0 -0.01782538559736848 0.034998743738524393 0 -0.0079846579159902707 0.046004899858118183 0 -0.0065963088486021594 0.03009304285329403 0 -0.0053676108279740262 0.064625276336423676 0 -0.0079846579159902707 0.046004899858118183 0 0.0083359660868863178 0.053164177129333939 0 -0.0053676108279740262 0.064625276336423676 0 -0.016265395509468841 0.05675055313603064 0 -0.0079846579159902707 0.046004899858118183 0 -0.041109818025184541 0.01246974893789313 0 -0.02332930609282181 0.002293464424054465 0 -0.020286024172819061 0.023102798090223149 0 -0.02332930609282181 0.002293464424054465 0 -0.020286024172819061 0.023102798090223149 0 -0.0092612235771873889 0.0088429520238121149 0 -0.041109818025184541 0.01246974893789313 0 -0.020286024172819061 0.023102798090223149 0 -0.031187306778866161 0.034255068436600089 0 -0.01782538559736848 0.034998743738524393 0 -0.020286024172819061 0.023102798090223149 0 -0.020286024172819061 0.023102798090223149 0 -0.0003554366514492216 0.021083207340887321 0 -0.020286024172819061 0.023102798090223149 0 -0.0003554366514492216 0.021083207340887321 0 -0.0092612235771873889 0.0088429520238121149 0 -0.020286024172819061 0.023102798090223149 0 -0.0065963088486021594 0.03009304285329403 0 -0.0003554366514492216 0.021083207340887321 0 -0.01782538559736848 0.034998743738524393 0 -0.020286024172819061 0.023102798090223149 0 -0.0065963088486021594 0.03009304285329403 0 -0.020286024172819061 0.023102798090223149 0 -0.0065963088486021594 0.03009304285329403 0 -0.008081950935871246 -0.0078643453545879025 0 -0.02332930609282181 0.002293464424054465 0 -0.0092612235771873889 0.0088429520238121149 0 -0.0003554366514492216 0.021083207340887321 0 -0.0092612235771873889 0.0088429520238121149 0 0.0057465999670243432 0.0055996356184830438 0 -0.008081950935871246 -0.0078643453545879025 0 -0.0092612235771873889 0.0088429520238121149 0 0.0057465999670243432 0.0055996356184830438 0 -0.0003554366514492216 0.021083207340887321 0 0.0057465999670243432 0.0055996356184830438 0 0.019575150869920791 0.01906361659155301 0 0.0057465999670243432 0.0055996356184830438 0 0.019575150869920791 0.01906361659155301 0 -0.0065963088486021594 0.03009304285329403 0 -0.0003554366514492216 0.021083207340887321 0 0.007093406475614579 0.037083287616365312 0 -0.0003554366514492216 0.021083207340887321 0 0.019575150869920791 0.01906361659155301 0 -0.0003554366514492216 0.021083207340887321 0 0.019575150869920791 0.01906361659155301 0 0.007093406475614579 0.037083287616365312 0 0.019575150869920791 0.01906361659155301 0 0.038027581739484957 0.037029575561463732 0 0.0057465999670243432 0.0055996356184830438 0 0.019575150869920791 0.01906361659155301 0 0.0217108161930991 -0.001085578434556951 0 0.019575150869920791 0.01906361659155301 0 0.033346761524343363 0.0085600828216045571 0 0.0217108161930991 -0.001085578434556951 0 -0.0079846579159902707 0.046004899858118183 0 0.0083359660868863178 0.053164177129333939 0 0.007093406475614579 0.037083287616365312 0 0.0083359660868863178 0.053164177129333939 0 0.007093406475614579 0.037083287616365312 0 0.020675756113537169 0.042675366093126027 0 -0.0065963088486021594 0.03009304285329403 0 0.007093406475614579 0.037083287616365312 0 0.020675756113537169 0.042675366093126027 0 0.022601529255734991 0.060689645180655158 0 0.038027581739484957 0.037029575561463732 0 0.019575150869920791 0.01906361659155301 0 0.020675756113537169 0.042675366093126027 0 0.038027581739484957 0.037029575561463732 0 0.019575150869920791 0.01906361659155301 0 0.007093406475614579 0.037083287616365312 0 0.020675756113537169 0.042675366093126027 0 0.0083359660868863178 0.053164177129333939 0 0.020675756113537169 0.042675366093126027 0 0.022601529255734991 0.060689645180655158 0 0.038027581739484957 0.037029575561463732 0 0.056480012609050119 0.054995534531373597 0 0.041097184394933158 0.067102846782740977 0 0.022601529255734991 0.060689645180655158 0 0.038027581739484957 0.037029575561463732 0 0.041097184394933158 0.067102846782740977 0 0.038027581739484957 0.037029575561463732 0 0.056480012609050119 0.054995534531373597 0 0.038027581739484957 0.037029575561463732 0 0.06071961074176252 0.039633191280357111 0 0.058250974068895692 0.023888934693705351 0 0.038027581739484957 0.037029575561463732 0 0.06071961074176252 0.039633191280357111 0 0.056480012609050119 0.054995534531373597 0 0.033346761524343363 0.0085600828216045571 0 0.045430384837266212 0.01644367418963286 0 0.049251502315066371 -0.0027485426273138819 0 0.033346761524343363 0.0085600828216045571 0 0.0217108161930991 -0.001085578434556951 0 0.049251502315066371 -0.0027485426273138819 0 0.019575150869920791 0.01906361659155301 0 0.033346761524343363 0.0085600828216045571 0 0.045430384837266212 0.01644367418963286 0 0.019575150869920791 0.01906361659155301 0 0.045430384837266212 0.01644367418963286 0 0.019575150869920791 0.01906361659155301 0 0.038027581739484957 0.037029575561463732 0 0.045430384837266212 0.01644367418963286 0 0.045430384837266212 0.01644367418963286 0 0.058250974068895692 0.023888934693705351 0 0.071285618804611872 0.01382373178771471 0 0.038027581739484957 0.037029575561463732 0 0.045430384837266212 0.01644367418963286 0 0.058250974068895692 0.023888934693705351 0 0.045430384837266212 0.01644367418963286 0 0.071285618804611872 0.01382373178771471 0 0.045430384837266212 0.01644367418963286 0 0.061392891900666088 0.0054489801558786077 0 0.049251502315066371 -0.0027485426273138819 0 0.045430384837266212 0.01644367418963286 0 0.061392891900666088 0.0054489801558786077 0 0.071285618804611872 0.01382373178771471 0 0.061392891900666088 0.0054489801558786077 0 0.072484892700189124 0.0053911574084547194 0 0.076792188437033629 -0.0044115068200708124 0 0.061392891900666088 0.0054489801558786077 0 0.071285618804611872 0.01382373178771471 0 0.072484892700189124 0.0053911574084547194 0 0.071285618804611872 0.01382373178771471 0 0.072484892700189124 0.0053911574084547194 0 0.081418427574825286 0.0068471874872487338 0 0.072484892700189124 0.0053911574084547194 0 0.081418427574825286 0.0068471874872487338 0 0.076792188437033629 -0.0044115068200708124 0 0.071285618804611872 0.01382373178771471 0 0.081418427574825286 0.0068471874872487338 0 0.089324723077758031 0.016857771619795771 0 0.081418427574825286 0.0068471874872487338 0 0.095468603896129905 0.0032048388713090512 0 0.076792188437033629 -0.0044115068200708124 0 0.081418427574825286 0.0068471874872487338 0 0.089324723077758031 0.016857771619795771 0 0.095468603896129905 0.0032048388713090512 0 0.071285618804611872 0.01382373178771471 0 0.089324723077758031 0.016857771619795771 0 0.075894653646098487 0.034765557836833112 0 0.089324723077758031 0.016857771619795771 0 0.075894653646098487 0.034765557836833112 0 0.09711597722390361 0.031971018110036643 0 0.058250974068895692 0.023888934693705351 0 0.075894653646098487 0.034765557836833112 0 0.058250974068895692 0.023888934693705351 0 0.071285618804611872 0.01382373178771471 0 0.075894653646098487 0.034765557836833112 0 0.06071961074176252 0.039633191280357111 0 0.058250974068895692 0.023888934693705351 0 0.075894653646098487 0.034765557836833112 0 0.06071961074176252 0.039633191280357111 0 0.075894653646098487 0.034765557836833112 0 0.075770380306397822 0.052123017823665387 0 0.06071961074176252 0.039633191280357111 0 0.056480012609050119 0.054995534531373597 0 0.075770380306397822 0.052123017823665387 0 0.056480012609050119 0.054995534531373597 0 0.075770380306397822 0.052123017823665387 0 0.074932443478615982 0.072961493501282768 0 0.075770380306397822 0.052123017823665387 0 0.09353833322330124 0.045642180979960853 0 0.093057228139559356 0.064740148812184178 0 0.075894653646098487 0.034765557836833112 0 0.09353833322330124 0.045642180979960853 0 0.075894653646098487 0.034765557836833112 0 0.075770380306397822 0.052123017823665387 0 0.09353833322330124 0.045642180979960853 0 0.075894653646098487 0.034765557836833112 0 0.09353833322330124 0.045642180979960853 0 0.09711597722390361 0.031971018110036643 0 0.09353833322330124 0.045642180979960853 0 0.09711597722390361 0.031971018110036643 0 0.104163157296742 0.044052917207578958 0 0.104163157296742 0.044052917207578958 0 0.1116578811532748 0.048800742543271353 0 0.11192403100538539 0.040918745799924258 0 0.104163157296742 0.044052917207578958 0 0.1063181118891925 0.035164439489281551 0 0.11192403100538539 0.040918745799924258 0 0.09711597722390361 0.031971018110036643 0 0.1063181118891925 0.035164439489281551 0 0.1090227107347949 0.02685747211808313 0 0.09711597722390361 0.031971018110036643 0 0.104163157296742 0.044052917207578958 0 0.1063181118891925 0.035164439489281551 0 0.09353833322330124 0.045642180979960853 0 0.104163157296742 0.044052917207578958 0 0.1111820128005041 0.056518804123088393 0 0.09353833322330124 0.045642180979960853 0 0.1111820128005041 0.056518804123088393 0 0.093057228139559356 0.064740148812184178 0 0.1111820128005041 0.056518804123088393 0 0.093057228139559356 0.064740148812184178 0 0.09353833322330124 0.045642180979960853 0 0.1111820128005041 0.056518804123088393 0 0.104163157296742 0.044052917207578958 0 0.1111820128005041 0.056518804123088393 0 0.1116578811532748 0.048800742543271353 0 0.1111820128005041 0.056518804123088393 0 0.1261065257329215 0.049749092513842547 0 0.13254865804091981 0.063927211530657252 0 0.1111820128005041 0.056518804123088393 0 0.1116578811532748 0.048800742543271353 0 0.1261065257329215 0.049749092513842547 0 0.1116578811532748 0.048800742543271353 0 0.1261065257329215 0.049749092513842547 0 0.1111820128005041 0.056518804123088393 0 0.1261065257329215 0.049749092513842547 0 0.1116578811532748 0.048800742543271353 0 0.11786086695957811 0.044471261592249352 0 0.1261065257329215 0.049749092513842547 0 0.1063181118891925 0.035164439489281551 0 0.1146679654700743 0.03303800539707423 0 0.1090227107347949 0.02685747211808313 0 0.1146679654700743 0.03303800539707423 0 0.11192403100538539 0.040918745799924258 0 0.1190748011161495 0.038704259001877551 0 0.1063181118891925 0.035164439489281551 0 0.1146679654700743 0.03303800539707423 0 0.11192403100538539 0.040918745799924258 0 0.1116578811532748 0.048800742543271353 0 0.11192403100538539 0.040918745799924258 0 0.11786086695957811 0.044471261592249352 0 0.11192403100538539 0.040918745799924258 0 0.11786086695957811 0.044471261592249352 0 0.1190748011161495 0.038704259001877551 0 0.1243370536324033 0.043963734158083689 0 0.1190748011161495 0.038704259001877551 0 0.12728113781280981 0.039528802799818748 0 0.11786086695957811 0.044471261592249352 0 0.1243370536324033 0.043963734158083689 0 0.1190748011161495 0.038704259001877551 0 0.11786086695957811 0.044471261592249352 0 0.1243370536324033 0.043963734158083689 0 0.1261065257329215 0.049749092513842547 0 0.1146679654700743 0.03303800539707423 0 0.1231174754830366 0.032788360966042172 0 0.1190748011161495 0.038704259001877551 0 0.1231174754830366 0.032788360966042172 0 0.1190748011161495 0.038704259001877551 0 0.12728113781280981 0.039528802799818748 0 0.1185514890641938 0.026165687640265261 0 0.1237376642652656 0.01976859365491428 0 0.1276628884147202 0.026504186973196051 0 0.1231174754830366 0.032788360966042172 0 0.1185514890641938 0.026165687640265261 0 0.1276628884147202 0.026504186973196051 0 0.1146679654700743 0.03303800539707423 0 0.1231174754830366 0.032788360966042172 0 0.1185514890641938 0.026165687640265261 0 0.1185514890641938 0.026165687640265261 0 0.11449648569988199 0.019496935314629212 0 0.1090227107347949 0.02685747211808313 0 0.1146679654700743 0.03303800539707423 0 0.1185514890641938 0.026165687640265261 0 0.1090227107347949 0.02685747211808313 0 0.11449648569988199 0.019496935314629212 0 0.11167150213888349 0.01199423986095109 0 0.1027069290641726 0.0197997859143078 0 0.1185514890641938 0.026165687640265261 0 0.11449648569988199 0.019496935314629212 0 0.1237376642652656 0.01976859365491428 0 0.11449648569988199 0.019496935314629212 0 0.1237376642652656 0.01976859365491428 0 0.1203284510390845 0.013104948594594349 0 0.1203284510390845 0.013104948594594349 0 0.1184275669931147 0.005740314440356489 0 0.13132033129498641 0.0092488423746995806 0 0.1184275669931147 0.005740314440356489 0 0.13132033129498641 0.0092488423746995806 0 0.1241013306504634 -0.00126979730434574 0 0.1184275669931147 0.005740314440356489 0 0.11616446291822149 0.0009867659353553224 0 0.1241013306504634 -0.00126979730434574 0 0.11616446291822149 0.0009867659353553224 0 0.1110642626353554 0.0038342857635015049 0 0.11106469139395241 -0.0043577391580909642 0 0.1184275669931147 0.005740314440356489 0 0.1110642626353554 0.0038342857635015049 0 0.11167150213888349 0.01199423986095109 0 0.1184275669931147 0.005740314440356489 0 0.11616446291822149 0.0009867659353553224 0 0.1110642626353554 0.0038342857635015049 0 0.1203284510390845 0.013104948594594349 0 0.1184275669931147 0.005740314440356489 0 0.11167150213888349 0.01199423986095109 0 0.11449648569988199 0.019496935314629212 0 0.1203284510390845 0.013104948594594349 0 0.11167150213888349 0.01199423986095109 0 0.1110642626353554 0.0038342857635015049 0 0.11167150213888349 0.01199423986095109 0 0.10300531740169221 0.0099891691383171746 0 0.11167150213888349 0.01199423986095109 0 0.10300531740169221 0.0099891691383171746 0 0.1027069290641726 0.0197997859143078 0 0.1110642626353554 0.0038342857635015049 0 0.095468603896129905 0.0032048388713090512 0 0.11106469139395241 -0.0043577391580909642 0 0.1110642626353554 0.0038342857635015049 0 0.10300531740169221 0.0099891691383171746 0 0.095468603896129905 0.0032048388713090512 0 0.089324723077758031 0.016857771619795771 0 0.10300531740169221 0.0099891691383171746 0 0.095468603896129905 0.0032048388713090512 0 0.089324723077758031 0.016857771619795771 0 0.10300531740169221 0.0099891691383171746 0 0.1027069290641726 0.0197997859143078 0 0.089324723077758031 0.016857771619795771 0 0.09711597722390361 0.031971018110036643 0 0.1027069290641726 0.0197997859143078 0 0.09711597722390361 0.031971018110036643 0 0.1090227107347949 0.02685747211808313 0 0.1027069290641726 0.0197997859143078 0 0.11449648569988199 0.019496935314629212 0 0.1090227107347949 0.02685747211808313 0 0.1027069290641726 0.0197997859143078 0 0.1024990330499561 0.1037514056296809 0 0.10856667821163669 0.086897768267990574 0 0.089175291647175997 0.09228385866007352 0 0.1024990330499561 0.1037514056296809 0 0.099821751196421782 0.1191423519601547 0 0.1221416529332626 0.11202310548697909 0 0.1024990330499561 0.1037514056296809 0 0.099821751196421782 0.1191423519601547 0 0.08323109774477136 0.1082653446622857 0 0.099821751196421782 0.1191423519601547 0 0.1221416529332626 0.11202310548697909 0 0.1104396205736143 0.1275896196336693 0 0.1221416529332626 0.11202310548697909 0 0.1104396205736143 0.1275896196336693 0 0.1216198161367525 0.1284461376911499 0 0.1024990330499561 0.1037514056296809 0 0.1221416529332626 0.11202310548697909 0 0.10856667821163669 0.086897768267990574 0 0.1221416529332626 0.11202310548697909 0 0.10856667821163669 0.086897768267990574 0 0.1221416529332626 0.11202310548697909 0 0.10856667821163669 0.086897768267990574 0 0.12711182105801849 0.096271416258485329 0 0.1187519132559962 0.073330070717771242 0 0.10856667821163669 0.086897768267990574 0 0.13222229848423689 0.082740643567558239 0 0.10856667821163669 0.086897768267990574 0 0.13222229848423689 0.082740643567558239 0 0.12711182105801849 0.096271416258485329 0 0.1187519132559962 0.073330070717771242 0 0.10576148555758889 0.068658335854073577 0 0.10856667821163669 0.086897768267990574 0 0.1111820128005041 0.056518804123088393 0 0.13602709122601439 0.071834801776145749 0 0.1111820128005041 0.056518804123088393 0 0.1187519132559962 0.073330070717771242 0 0.13602709122601439 0.071834801776145749 0 0.1111820128005041 0.056518804123088393 0 0.1187519132559962 0.073330070717771242 0 0.10576148555758889 0.068658335854073577 0 0.10576148555758889 0.068658335854073577 0 0.10856667821163669 0.086897768267990574 0 0.090081714657470197 0.07753354160467707 0 0.10576148555758889 0.068658335854073577 0 0.093057228139559356 0.064740148812184178 0 0.090081714657470197 0.07753354160467707 0 0.1111820128005041 0.056518804123088393 0 0.10576148555758889 0.068658335854073577 0 0.093057228139559356 0.064740148812184178 0 0.10856667821163669 0.086897768267990574 0 0.089175291647175997 0.09228385866007352 0 0.090081714657470197 0.07753354160467707 0 0.089175291647175997 0.09228385866007352 0 0.078042380094003064 0.085281887196875086 0 0.069605977849525796 0.093056262500169198 0 0.089175291647175997 0.09228385866007352 0 0.090081714657470197 0.07753354160467707 0 0.078042380094003064 0.085281887196875086 0 0.090081714657470197 0.07753354160467707 0 0.074932443478615982 0.072961493501282768 0 0.078042380094003064 0.085281887196875086 0 0.093057228139559356 0.064740148812184178 0 0.074932443478615982 0.072961493501282768 0 0.075770380306397822 0.052123017823665387 0 0.093057228139559356 0.064740148812184178 0 0.074932443478615982 0.072961493501282768 0 0.093057228139559356 0.064740148812184178 0 0.090081714657470197 0.07753354160467707 0 0.074932443478615982 0.072961493501282768 0 0.056480012609050119 0.054995534531373597 0 0.074932443478615982 0.072961493501282768 0 0.074932443478615982 0.072961493501282768 0 0.078042380094003064 0.085281887196875086 0 0.069605977849525796 0.093056262500169198 0 0.074932443478615982 0.072961493501282768 0 0.051990867565192722 0.083367719386089167 0 0.074932443478615982 0.072961493501282768 0 0.069605977849525796 0.093056262500169198 0 0.051990867565192722 0.083367719386089167 0 0.069605977849525796 0.093056262500169198 0 0.067834897750723794 0.1071738645561903 0 0.052138827861517661 0.1061354753627997 0 0.069605977849525796 0.093056262500169198 0 0.067834897750723794 0.1071738645561903 0 0.08323109774477136 0.1082653446622857 0 0.1024990330499561 0.1037514056296809 0 0.089175291647175997 0.09228385866007352 0 0.08323109774477136 0.1082653446622857 0 0.089175291647175997 0.09228385866007352 0 0.069605977849525796 0.093056262500169198 0 0.08323109774477136 0.1082653446622857 0 0.099821751196421782 0.1191423519601547 0 0.08323109774477136 0.1082653446622857 0 0.084113506929892889 0.1243933264674657 0 0.067834897750723794 0.1071738645561903 0 0.08323109774477136 0.1082653446622857 0 0.066363687547080344 0.1212383756995067 0 0.08323109774477136 0.1082653446622857 0 0.084113506929892889 0.1243933264674657 0 0.066363687547080344 0.1212383756995067 0 0.066363687547080344 0.1212383756995067 0 0.052138827861517661 0.1061354753627997 0 0.049706882500586871 0.12865831611201059 0 0.067834897750723794 0.1071738645561903 0 0.066363687547080344 0.1212383756995067 0 0.052138827861517661 0.1061354753627997 0 0.069605977849525796 0.093056262500169198 0 0.052138827861517661 0.1061354753627997 0 0.051990867565192722 0.083367719386089167 0 0.052138827861517661 0.1061354753627997 0 0.051990867565192722 0.083367719386089167 0 0.02904929165177058 0.093773945270898038 0 0.052138827861517661 0.1061354753627997 0 0.036931545462674832 0.1140772340767347 0 0.02904929165177058 0.093773945270898038 0 0.036931545462674832 0.1140772340767347 0 0.049706882500586871 0.12865831611201059 0 0.031512811691867752 0.1288472708230308 0 0.052138827861517661 0.1061354753627997 0 0.036931545462674832 0.1140772340767347 0 0.049706882500586871 0.12865831611201059 0 0.056480012609050119 0.054995534531373597 0 0.051990867565192722 0.083367719386089167 0 0.041097184394933158 0.067102846782740977 0 0.056480012609050119 0.054995534531373597 0 0.074932443478615982 0.072961493501282768 0 0.051990867565192722 0.083367719386089167 0 0.051990867565192722 0.083367719386089167 0 0.02904929165177058 0.093773945270898038 0 0.051990867565192722 0.083367719386089167 0 0.041097184394933158 0.067102846782740977 0 0.02904929165177058 0.093773945270898038 0 0.0083359660868863178 0.053164177129333939 0 0.022601529255734991 0.060689645180655158 0 0.016818715523989929 0.077529432361723633 0 0.022601529255734991 0.060689645180655158 0 0.041097184394933158 0.067102846782740977 0 0.016818715523989929 0.077529432361723633 0 0.016818715523989929 0.077529432361723633 0 0.02904929165177058 0.093773945270898038 0 0.006107715738348357 0.1041801711557067 0 0.041097184394933158 0.067102846782740977 0 0.016818715523989929 0.077529432361723633 0 0.02904929165177058 0.093773945270898038 0 0.016818715523989929 0.077529432361723633 0 0.00037005245518714931 0.084402723746065167 0 0.006107715738348357 0.1041801711557067 0 -0.0053676108279740262 0.064625276336423676 0 0.016818715523989929 0.077529432361723633 0 0.00037005245518714931 0.084402723746065167 0 -0.0053676108279740262 0.064625276336423676 0 0.0083359660868863178 0.053164177129333939 0 0.016818715523989929 0.077529432361723633 0 0.022249913607631251 0.1129711628149344 0 0.01331874088314863 0.12903622553405161 0 0.031512811691867752 0.1288472708230308 0 0.036931545462674832 0.1140772340767347 0 0.022249913607631251 0.1129711628149344 0 0.031512811691867752 0.1288472708230308 0 0.022249913607631251 0.1129711628149344 0 0.02904929165177058 0.093773945270898038 0 0.006107715738348357 0.1041801711557067 0 0.02904929165177058 0.093773945270898038 0 0.006107715738348357 0.1041801711557067 0 0.036931545462674832 0.1140772340767347 0 0.022249913607631251 0.1129711628149344 0 0.02904929165177058 0.093773945270898038 0 0.00037005245518714931 0.084402723746065167 0 0.006107715738348357 0.1041801711557067 0 0.006107715738348357 0.1041801711557067 0 0.01331874088314863 0.12903622553405161 0 0.006107715738348357 0.1041801711557067 0 0.0013627004030162689 0.1185368260370173 0 0.01331874088314863 0.12903622553405161 0 0.022249913607631251 0.1129711628149344 0 0.006107715738348357 0.1041801711557067 0 0.01331874088314863 0.12903622553405161 0 -0.0034601198776373419 0.12921048256644549 0 0.01331874088314863 0.12903622553405161 0 -0.0034601198776373419 0.12921048256644549 0 0.0048452609164686524 0.140092557160239 0 0.01331874088314863 0.12903622553405161 0 -0.0034601198776373419 0.12921048256644549 0 0.0013627004030162689 0.1185368260370173 0 0.01331874088314863 0.12903622553405161 0 0.01331874088314863 0.12903622553405161 0 0.016141510526689249 0.13876617576283221 0 0.0048452609164686524 0.140092557160239 0 0.01331874088314863 0.12903622553405161 0 0.016141510526689249 0.13876617576283221 0 0.01331874088314863 0.12903622553405161 0 0.02683887859367624 0.13859203348933979 0 0.031512811691867752 0.1288472708230308 0 0.01331874088314863 0.12903622553405161 0 0.031512811691867752 0.1288472708230308 0 0.01331874088314863 0.12903622553405161 0 0.016141510526689249 0.13876617576283221 0 0.02683887859367624 0.13859203348933979 0 0.02683887859367624 0.13859203348933979 0 0.027064835881335531 0.150466310211611 0 0.039548018845340031 0.14080250919449169 0 0.016141510526689249 0.13876617576283221 0 0.02683887859367624 0.13859203348933979 0 0.027064835881335531 0.150466310211611 0 0.016141510526689249 0.13876617576283221 0 0.027064835881335531 0.150466310211611 0 0.011544650612731621 0.15196121243723551 0 0.027064835881335531 0.150466310211611 0 0.011544650612731621 0.15196121243723551 0 0.015718573558365909 0.16243520651624821 0 -0.0060469278192012664 0.16804581253524711 0 0.0048452609164686524 0.140092557160239 0 0.011544650612731621 0.15196121243723551 0 0.0048452609164686524 0.140092557160239 0 0.016141510526689249 0.13876617576283221 0 0.011544650612731621 0.15196121243723551 0 -0.0060469278192012664 0.16804581253524711 0 0.01530233219100406 0.17737751971440449 0 0.015718573558365909 0.16243520651624821 0 -0.0060469278192012664 0.16804581253524711 0 0.011544650612731621 0.15196121243723551 0 0.015718573558365909 0.16243520651624821 0 -0.0060469278192012664 0.16804581253524711 0 0.01530233219100406 0.17737751971440449 0 0.0032606068272224781 0.1901318216684702 0 0.01530233219100406 0.17737751971440449 0 0.037050872365878958 0.1841993245850265 0 0.01824935089276878 0.19838542696580491 0 0.01530233219100406 0.17737751971440449 0 0.0277282456794508 0.16611534543410539 0 0.037050872365878958 0.1841993245850265 0 0.027064835881335531 0.150466310211611 0 0.015718573558365909 0.16243520651624821 0 0.0277282456794508 0.16611534543410539 0 0.01530233219100406 0.17737751971440449 0 0.015718573558365909 0.16243520651624821 0 0.0277282456794508 0.16611534543410539 0 0.037050872365878958 0.1841993245850265 0 0.04350461440066955 0.15609836614323691 0 0.0277282456794508 0.16611534543410539 0 0.037050872365878958 0.1841993245850265 0 0.04350461440066955 0.15609836614323691 0 0.027064835881335531 0.150466310211611 0 0.0277282456794508 0.16611534543410539 0 0.04350461440066955 0.15609836614323691 0 0.037050872365878958 0.1841993245850265 0 0.057079125968549263 0.18134874893025979 0 0.04350461440066955 0.15609836614323691 0 0.057079125968549263 0.18134874893025979 0 0.04350461440066955 0.15609836614323691 0 0.072136521482715529 0.16129176688364191 0 0.058660090003904292 0.14215275838772121 0 0.04350461440066955 0.15609836614323691 0 0.039548018845340031 0.14080250919449169 0 0.058660090003904292 0.14215275838772121 0 0.04350461440066955 0.15609836614323691 0 0.072136521482715529 0.16129176688364191 0 0.066363687547080344 0.1212383756995067 0 0.058660090003904292 0.14215275838772121 0 0.049706882500586871 0.12865831611201059 0 0.058660090003904292 0.14215275838772121 0 0.049706882500586871 0.12865831611201059 0 0.039548018845340031 0.14080250919449169 0 0.049706882500586871 0.12865831611201059 0 0.031512811691867752 0.1288472708230308 0 0.039548018845340031 0.14080250919449169 0 0.049706882500586871 0.12865831611201059 0 0.031512811691867752 0.1288472708230308 0 0.02683887859367624 0.13859203348933979 0 0.031512811691867752 0.1288472708230308 0 0.039548018845340031 0.14080250919449169 0 0.027064835881335531 0.150466310211611 0 0.04350461440066955 0.15609836614323691 0 0.039548018845340031 0.14080250919449169 0 0.024143388296297971 0.24040124146860589 0 0.026404545020734992 0.25651996196379739 0 0.024143388296297971 0.24040124146860589 0 0.031434663195222673 0.2478948043304843 0 0.026404545020734992 0.25651996196379739 0 0.024143388296297971 0.24040124146860589 0 0.0351501728243485 0.23783453938710039 0 0.031434663195222673 0.2478948043304843 0 0.024143388296297971 0.24040124146860589 0 0.01164476986855471 0.23984946530394721 0 0.014286299040141229 0.23057735670592269 0 0.024143388296297971 0.24040124146860589 0 0.01325113107138765 0.24994977195075141 0 0.01164476986855471 0.23984946530394721 0 0.003791674785571924 0.24772290422529519 0 0.01164476986855471 0.23984946530394721 0 0.002751356149374766 0.2305960521691611 0 0.01325113107138765 0.24994977195075141 0 0.003791674785571924 0.24772290422529519 0 0.01164476986855471 0.23984946530394721 0 0.002751356149374766 0.2305960521691611 0 0.011444242233787771 0.2223592881155087 0 0.00573739542641201 0.21085128121663901 0 0.014286299040141229 0.23057735670592269 0 0.002751356149374766 0.2305960521691611 0 0.011444242233787771 0.2223592881155087 0 0.01164476986855471 0.23984946530394721 0 0.014286299040141229 0.23057735670592269 0 0.002751356149374766 0.2305960521691611 0 0.024143388296297971 0.24040124146860589 0 0.021196369594533498 0.21939333421720539 0 0.024143388296297971 0.24040124146860589 0 0.030597130331088369 0.21230028302681611 0 0.024143388296297971 0.24040124146860589 0 0.021196369594533498 0.21939333421720539 0 0.030597130331088369 0.21230028302681611 0 0.024143388296297971 0.24040124146860589 0 0.030597130331088369 0.21230028302681611 0 0.035796579344390657 0.22661575461677841 0 0.024143388296297971 0.24040124146860589 0 0.014286299040141229 0.23057735670592269 0 0.021196369594533498 0.21939333421720539 0 0.014286299040141229 0.23057735670592269 0 0.011444242233787771 0.2223592881155087 0 0.021196369594533498 0.21939333421720539 0 0.021196369594533498 0.21939333421720539 0 0.030597130331088369 0.21230028302681611 0 0.01824935089276878 0.19838542696580491 0 0.021196369594533498 0.21939333421720539 0 0.01824935089276878 0.19838542696580491 0 0.011444242233787771 0.2223592881155087 0 0.021196369594533498 0.21939333421720539 0 0.00573739542641201 0.21085128121663901 0 0.021196369594533498 0.21939333421720539 0 0.00573739542641201 0.21085128121663901 0 0.01824935089276878 0.19838542696580491 0 0.00573739542641201 0.21085128121663901 0 0.0032606068272224781 0.1901318216684702 0 0.01824935089276878 0.19838542696580491 0 0.01530233219100406 0.17737751971440449 0 0.0032606068272224781 0.1901318216684702 0 0.01824935089276878 0.19838542696580491 0 0.037050872365878958 0.1841993245850265 0 0.030597130331088369 0.21230028302681611 0 0.01824935089276878 0.19838542696580491 0 0.01530233219100406 0.17737751971440449 0 0.01824935089276878 0.19838542696580491 0 0.037050872365878958 0.1841993245850265 0 0.030597130331088369 0.21230028302681611 0 0.037050872365878958 0.1841993245850265 0 0.030597130331088369 0.21230028302681611 0 0.04648278701446109 0.20115705472162071 0 0.037050872365878958 0.1841993245850265 0 0.057079125968549263 0.18134874893025979 0 0.04648278701446109 0.20115705472162071 0 0.057079125968549263 0.18134874893025979 0 0.04648278701446109 0.20115705472162071 0 0.061464732193553889 0.1972920125660905 0 0.04648278701446109 0.20115705472162071 0 0.061464732193553889 0.1972920125660905 0 0.062626220323705656 0.2119234462393797 0 0.045048820496616487 0.21600762659644829 0 0.060819143908510759 0.22822043645282289 0 0.062626220323705656 0.2119234462393797 0 0.04648278701446109 0.20115705472162071 0 0.045048820496616487 0.21600762659644829 0 0.062626220323705656 0.2119234462393797 0 0.030597130331088369 0.21230028302681611 0 0.04648278701446109 0.20115705472162071 0 0.045048820496616487 0.21600762659644829 0 0.030597130331088369 0.21230028302681611 0 0.045048820496616487 0.21600762659644829 0 0.035796579344390657 0.22661575461677841 0 0.045048820496616487 0.21600762659644829 0 0.035796579344390657 0.22661575461677841 0 0.045751989415847211 0.23198431414296281 0 0.035796579344390657 0.22661575461677841 0 0.045751989415847211 0.23198431414296281 0 0.0351501728243485 0.23783453938710039 0 0.045048820496616487 0.21600762659644829 0 0.045751989415847211 0.23198431414296281 0 0.060819143908510759 0.22822043645282289 0 0.045751989415847211 0.23198431414296281 0 0.060819143908510759 0.22822043645282289 0 0.054054209473331151 0.24323771215732229 0 0.060819143908510759 0.22822043645282289 0 0.054054209473331151 0.24323771215732229 0 0.068418000694839998 0.24342677767991289 0 0.054054209473331151 0.24323771215732229 0 0.040285344304628143 0.24574221750912931 0 0.03971489177810212 0.2603825011339278 0 0.045751989415847211 0.23198431414296281 0 0.040285344304628143 0.24574221750912931 0 0.0351501728243485 0.23783453938710039 0 0.045751989415847211 0.23198431414296281 0 0.054054209473331151 0.24323771215732229 0 0.040285344304628143 0.24574221750912931 0 0.024143388296297971 0.24040124146860589 0 0.035796579344390657 0.22661575461677841 0 0.0351501728243485 0.23783453938710039 0 0.040285344304628143 0.24574221750912931 0 0.0351501728243485 0.23783453938710039 0 0.031434663195222673 0.2478948043304843 0 0.088558722698074119 0.2391029110657821 0 0.068418000694839998 0.24342677767991289 0 0.07727963203695061 0.22306119637167879 0 0.088558722698074119 0.2391029110657821 0 0.068418000694839998 0.24342677767991289 0 0.075266083395755037 0.25763888860009909 0 0.060819143908510759 0.22822043645282289 0 0.068418000694839998 0.24342677767991289 0 0.07727963203695061 0.22306119637167879 0 0.060819143908510759 0.22822043645282289 0 0.07727963203695061 0.22306119637167879 0 0.062626220323705656 0.2119234462393797 0 0.088558722698074119 0.2391029110657821 0 0.07727963203695061 0.22306119637167879 0 0.094515793453094604 0.20891350648169379 0 0.07727963203695061 0.22306119637167879 0 0.075710740814530358 0.20377392555457319 0 0.094515793453094604 0.20891350648169379 0 0.07727963203695061 0.22306119637167879 0 0.062626220323705656 0.2119234462393797 0 0.075710740814530358 0.20377392555457319 0 0.061464732193553889 0.1972920125660905 0 0.062626220323705656 0.2119234462393797 0 0.075710740814530358 0.20377392555457319 0 0.061464732193553889 0.1972920125660905 0 0.075710740814530358 0.20377392555457319 0 0.07971300976309062 0.1826484269891803 0 0.1052200831281638 0.19155831152114661 0 0.094515793453094604 0.20891350648169379 0 0.07971300976309062 0.1826484269891803 0 0.075710740814530358 0.20377392555457319 0 0.094515793453094604 0.20891350648169379 0 0.07971300976309062 0.1826484269891803 0 0.094515793453094604 0.20891350648169379 0 0.07971300976309062 0.1826484269891803 0 0.1052200831281638 0.19155831152114661 0 0.1184256887641624 0.18731790689384781 0 0.12765144586200919 0.1961643632105933 0 0.1052200831281638 0.19155831152114661 0 0.1232786919981925 0.21446069991376029 0 0.12765144586200919 0.1961643632105933 0 0.1052200831281638 0.19155831152114661 0 0.1232786919981925 0.21446069991376029 0 0.1052200831281638 0.19155831152114661 0 0.1232786919981925 0.21446069991376029 0 0.094515793453094604 0.20891350648169379 0 0.1232786919981925 0.21446069991376029 0 0.094515793453094604 0.20891350648169379 0 0.10931857714309789 0.23517858597420771 0 0.094515793453094604 0.20891350648169379 0 0.10931857714309789 0.23517858597420771 0 0.088558722698074119 0.2391029110657821 0 0.094515793453094604 0.20891350648169379 0 0.10931857714309789 0.23517858597420771 0 0.1232786919981925 0.21446069991376029 0 0.10931857714309789 0.23517858597420771 0 0.1232786919981925 0.21446069991376029 0 0.10931857714309789 0.23517858597420771 0 0.1362473755571138 0.23090791519734191 0 0.10931857714309789 0.23517858597420771 0 0.1265113843998063 0.24481906103984011 0 0.1233757836889447 0.26012076273645052 0 0.10931857714309789 0.23517858597420771 0 0.1233757836889447 0.26012076273645052 0 0.10931857714309789 0.23517858597420771 0 0.1265113843998063 0.24481906103984011 0 0.1362473755571138 0.23090791519734191 0 0.10931857714309789 0.23517858597420771 0 0.093382952469636155 0.25882828081653358 0 0.088558722698074119 0.2391029110657821 0 0.10931857714309789 0.23517858597420771 0 0.093382952469636155 0.25882828081653358 0 0.078985356358764247 0.13999032650239621 0 0.072136521482715529 0.16129176688364191 0 0.095286670639568499 0.15335985162574159 0 0.078985356358764247 0.13999032650239621 0 0.095286670639568499 0.15335985162574159 0 0.096475036301647846 0.1350993077839632 0 0.084113506929892889 0.1243933264674657 0 0.078985356358764247 0.13999032650239621 0 0.096475036301647846 0.1350993077839632 0 0.099821751196421782 0.1191423519601547 0 0.084113506929892889 0.1243933264674657 0 0.096475036301647846 0.1350993077839632 0 0.084113506929892889 0.1243933264674657 0 0.066363687547080344 0.1212383756995067 0 0.078985356358764247 0.13999032650239621 0 0.066363687547080344 0.1212383756995067 0 0.058660090003904292 0.14215275838772121 0 0.078985356358764247 0.13999032650239621 0 0.058660090003904292 0.14215275838772121 0 0.078985356358764247 0.13999032650239621 0 0.072136521482715529 0.16129176688364191 0 0.057079125968549263 0.18134874893025979 0 0.072136521482715529 0.16129176688364191 0 0.07971300976309062 0.1826484269891803 0 0.057079125968549263 0.18134874893025979 0 0.061464732193553889 0.1972920125660905 0 0.07971300976309062 0.1826484269891803 0 0.1052200831281638 0.19155831152114661 0 0.07971300976309062 0.1826484269891803 0 0.090193052896619497 0.16835374335447131 0 0.072136521482715529 0.16129176688364191 0 0.07971300976309062 0.1826484269891803 0 0.090193052896619497 0.16835374335447131 0 0.072136521482715529 0.16129176688364191 0 0.090193052896619497 0.16835374335447131 0 0.095286670639568499 0.15335985162574159 0 0.10980208042603 0.17240058203628039 0 0.11369432800444761 0.15780990029968919 0 0.095286670639568499 0.15335985162574159 0 0.090193052896619497 0.16835374335447131 0 0.10980208042603 0.17240058203628039 0 0.095286670639568499 0.15335985162574159 0 0.1052200831281638 0.19155831152114661 0 0.090193052896619497 0.16835374335447131 0 0.10980208042603 0.17240058203628039 0 0.1052200831281638 0.19155831152114661 0 0.10980208042603 0.17240058203628039 0 0.1184256887641624 0.18731790689384781 0 0.10980208042603 0.17240058203628039 0 0.12081008437017619 0.1775340045624943 0 0.1261731150163696 0.16842145928336619 0 0.10980208042603 0.17240058203628039 0 0.12081008437017619 0.1775340045624943 0 0.1184256887641624 0.18731790689384781 0 0.12081008437017619 0.1775340045624943 0 0.1184256887641624 0.18731790689384781 0 0.12883945327414301 0.1819960700364828 0 0.11369432800444761 0.15780990029968919 0 0.12506992764028299 0.15163041330695859 0 0.1261731150163696 0.16842145928336619 0 0.10980208042603 0.17240058203628039 0 0.11369432800444761 0.15780990029968919 0 0.1261731150163696 0.16842145928336619 0 0.1121398462999868 0.14323719524609929 0 0.1236365544329777 0.1401155472375438 0 0.12506992764028299 0.15163041330695859 0 0.11369432800444761 0.15780990029968919 0 0.1121398462999868 0.14323719524609929 0 0.12506992764028299 0.15163041330695859 0 0.1121398462999868 0.14323719524609929 0 0.095286670639568499 0.15335985162574159 0 0.096475036301647846 0.1350993077839632 0 0.11369432800444761 0.15780990029968919 0 0.1121398462999868 0.14323719524609929 0 0.095286670639568499 0.15335985162574159 0 0.099821751196421782 0.1191423519601547 0 0.096475036301647846 0.1350993077839632 0 0.1104396205736143 0.1275896196336693 0 0.1121398462999868 0.14323719524609929 0 0.096475036301647846 0.1350993077839632 0 0.1104396205736143 0.1275896196336693 0 0.1121398462999868 0.14323719524609929 0 0.1104396205736143 0.1275896196336693 0 0.1216198161367525 0.1284461376911499 0 0.1121398462999868 0.14323719524609929 0 0.1236365544329777 0.1401155472375438 0 0.1216198161367525 0.1284461376911499 0 0.1216198161367525 0.1284461376911499 0 0.13571662765488851 0.13714844270596749 0 0.1221416529332626 0.11202310548697909 0 0.1216198161367525 0.1284461376911499 0 0.13571662765488851 0.13714844270596749 0 0.13571662765488851 0.13714844270596749 0 0.13936926068676661 0.12870466425705479 0 0.13324057158529529 0.1194771381521421 0 0.1236365544329777 0.1401155472375438 0 0.1216198161367525 0.1284461376911499 0 0.13571662765488851 0.13714844270596749 0 0.13571662765488851 0.13714844270596749 0 0.13936926068676661 0.12870466425705479 0 0.14329411321795579 0.13345420913476319 0 0.13936926068676661 0.12870466425705479 0 0.14329411321795579 0.13345420913476319 0 0.14522573028892691 0.12473886703534651 0 0.14329411321795579 0.13345420913476319 0 0.14912036984857599 0.1302833519891736 0 0.14522573028892691 0.12473886703534651 0 0.14329411321795579 0.13345420913476319 0 0.14912036984857599 0.1302833519891736 0 0.14844774066403929 0.14068990259312991 0 0.13571662765488851 0.13714844270596749 0 0.14329411321795579 0.13345420913476319 0 0.14844774066403929 0.14068990259312991 0 0.1539606084885391 0.12851381335764001 0 0.14912036984857599 0.1302833519891736 0 0.14844774066403929 0.14068990259312991 0 0.1539606084885391 0.12851381335764001 0 0.14844774066403929 0.14068990259312991 0 0.16169096308237399 0.1256621397921292 0 0.1539606084885391 0.12851381335764001 0 0.14912036984857599 0.1302833519891736 0 0.15222669915792181 0.1232562258046947 0 0.14912036984857599 0.1302833519891736 0 0.14522573028892691 0.12473886703534651 0 0.15222669915792181 0.1232562258046947 0 0.13571662765488851 0.13714844270596749 0 0.14844774066403929 0.14068990259312991 0 0.153328808984387 0.14802087110641721 0 0.13571662765488851 0.13714844270596749 0 0.153328808984387 0.14802087110641721 0 0.14496195103571691 0.1542602143597189 0 0.13571662765488851 0.13714844270596749 0 0.153328808984387 0.14802087110641721 0 0.153328808984387 0.14802087110641721 0 0.14496195103571691 0.1542602143597189 0 0.15703432015980001 0.16171948332326139 0 0.14844774066403929 0.14068990259312991 0 0.153328808984387 0.14802087110641721 0 0.1592050758033843 0.14296664651929919 0 0.13571662765488851 0.13714844270596749 0 0.14496195103571691 0.1542602143597189 0 0.13571662765488851 0.13714844270596749 0 0.13440999773846049 0.15587644489449931 0 0.12506992764028299 0.15163041330695859 0 0.13571662765488851 0.13714844270596749 0 0.14496195103571691 0.1542602143597189 0 0.13440999773846049 0.15587644489449931 0 0.1236365544329777 0.1401155472375438 0 0.13571662765488851 0.13714844270596749 0 0.12506992764028299 0.15163041330695859 0 0.13440999773846049 0.15587644489449931 0 0.12506992764028299 0.15163041330695859 0 0.1261731150163696 0.16842145928336619 0 0.13440999773846049 0.15587644489449931 0 0.1261731150163696 0.16842145928336619 0 0.14012836734504441 0.16792169481648531 0 0.1261731150163696 0.16842145928336619 0 0.14012836734504441 0.16792169481648531 0 0.13603203421495541 0.17620373834506281 0 0.14496195103571691 0.1542602143597189 0 0.13440999773846049 0.15587644489449931 0 0.14012836734504441 0.16792169481648531 0 0.1184256887641624 0.18731790689384781 0 0.12883945327414301 0.1819960700364828 0 0.13127465110536179 0.19037537811081401 0 0.12081008437017619 0.1775340045624943 0 0.1261731150163696 0.16842145928336619 0 0.12883945327414301 0.1819960700364828 0 0.1261731150163696 0.16842145928336619 0 0.12883945327414301 0.1819960700364828 0 0.13603203421495541 0.17620373834506281 0 0.12883945327414301 0.1819960700364828 0 0.13603203421495541 0.17620373834506281 0 0.13834913459217391 0.185691071546431 0 0.12883945327414301 0.1819960700364828 0 0.13834913459217391 0.185691071546431 0 0.13127465110536179 0.19037537811081401 0 0.13603203421495541 0.17620373834506281 0 0.13834913459217391 0.185691071546431 0 0.1470562251153395 0.17906708874781019 0 0.1470562251153395 0.17906708874781019 0 0.16052914209303101 0.17735221748262139 0 0.15593531817651651 0.19651364110895339 0 0.13834913459217391 0.185691071546431 0 0.1470562251153395 0.17906708874781019 0 0.15593531817651651 0.19651364110895339 0 0.14012836734504441 0.16792169481648531 0 0.13603203421495541 0.17620373834506281 0 0.1470562251153395 0.17906708874781019 0 0.14012836734504441 0.16792169481648531 0 0.1470562251153395 0.17906708874781019 0 0.15102773004612141 0.17114078039402211 0 0.1470562251153395 0.17906708874781019 0 0.15102773004612141 0.17114078039402211 0 0.16052914209303101 0.17735221748262139 0 0.14496195103571691 0.1542602143597189 0 0.14012836734504441 0.16792169481648531 0 0.15102773004612141 0.17114078039402211 0 0.14496195103571691 0.1542602143597189 0 0.15102773004612141 0.17114078039402211 0 0.15703432015980001 0.16171948332326139 0 0.15102773004612141 0.17114078039402211 0 0.15703432015980001 0.16171948332326139 0 0.16052914209303101 0.17735221748262139 0 0.15703432015980001 0.16171948332326139 0 0.17094099031388549 0.1588932995068669 0 0.16052914209303101 0.17735221748262139 0 0.16052914209303101 0.17735221748262139 0 0.17321496971303901 0.18404201690737329 0 0.15593531817651651 0.19651364110895339 0 0.16052914209303101 0.17735221748262139 0 0.17321496971303901 0.18404201690737329 0 0.1885531716433835 0.16976572790731731 0 0.17321496971303901 0.18404201690737329 0 0.1859125568206797 0.18060543354925371 0 0.1763291694917426 0.19676548503780589 0 0.16052914209303101 0.17735221748262139 0 0.1885531716433835 0.16976572790731731 0 0.17321496971303901 0.18404201690737329 0 0.1859125568206797 0.18060543354925371 0 0.1885531716433835 0.16976572790731731 0 0.17094099031388549 0.1588932995068669 0 0.1885531716433835 0.16976572790731731 0 0.17094099031388549 0.1588932995068669 0 0.16052914209303101 0.17735221748262139 0 0.1885531716433835 0.16976572790731731 0 0.17094099031388549 0.1588932995068669 0 0.18519572333179959 0.15831698425018439 0 0.1885531716433835 0.16976572790731731 0 0.18519572333179959 0.15831698425018439 0 0.1843777300276882 0.14641416620376729 0 0.19097145069846799 0.15361741821736741 0 0.18519572333179959 0.15831698425018439 0 0.17552971693898661 0.15069266297704431 0 0.1843777300276882 0.14641416620376729 0 0.17094099031388549 0.1588932995068669 0 0.18519572333179959 0.15831698425018439 0 0.17552971693898661 0.15069266297704431 0 0.17552971693898661 0.15069266297704431 0 0.1723007799423848 0.14309376550397779 0 0.1843777300276882 0.14641416620376729 0 0.1723007799423848 0.14309376550397779 0 0.1843777300276882 0.14641416620376729 0 0.17305578062883931 0.1356414587100459 0 0.1843777300276882 0.14641416620376729 0 0.1682630287230793 0.12076731232177421 0 0.1843777300276882 0.14641416620376729 0 0.17305578062883931 0.1356414587100459 0 0.1682630287230793 0.12076731232177421 0 0.1843777300276882 0.14641416620376729 0 0.18259827505216891 0.13287814276120899 0 0.1682630287230793 0.12076731232177421 0 0.18259827505216891 0.13287814276120899 0 0.1682630287230793 0.12076731232177421 0 0.1723007799423848 0.14309376550397779 0 0.1686969596210493 0.13670611562830889 0 0.1656890076848597 0.1416352286451697 0 0.14844774066403929 0.14068990259312991 0 0.16339350925379581 0.13244122804202141 0 0.1654659697027335 0.1235795177593695 0 0.14844774066403929 0.14068990259312991 0 0.16169096308237399 0.1256621397921292 0 0.1654659697027335 0.1235795177593695 0 0.14844774066403929 0.14068990259312991 0 0.1654659697027335 0.1235795177593695 0 0.1723007799423848 0.14309376550397779 0 0.17305578062883931 0.1356414587100459 0 0.1686969596210493 0.13670611562830889 0 0.1686969596210493 0.13670611562830889 0 0.16923763542303891 0.1307764371333778 0 0.16714131138227731 0.13270909619394369 0 0.17305578062883931 0.1356414587100459 0 0.1686969596210493 0.13670611562830889 0 0.16923763542303891 0.1307764371333778 0 0.1686969596210493 0.13670611562830889 0 0.16714131138227731 0.13270909619394369 0 0.16318823561782539 0.1361658892598705 0 0.16714131138227731 0.13270909619394369 0 0.16339350925379581 0.13244122804202141 0 0.16318823561782539 0.1361658892598705 0 0.1686969596210493 0.13670611562830889 0 0.16318823561782539 0.1361658892598705 0 0.1656890076848597 0.1416352286451697 0 0.16339350925379581 0.13244122804202141 0 0.1682630287230793 0.12076731232177421 0 0.1654659697027335 0.1235795177593695 0 0.17305578062883931 0.1356414587100459 0 0.16923763542303891 0.1307764371333778 0 0.1682630287230793 0.12076731232177421 0 0.16923763542303891 0.1307764371333778 0 0.16339350925379581 0.13244122804202141 0 0.1682630287230793 0.12076731232177421 0 0.16923763542303891 0.1307764371333778 0 0.16714131138227731 0.13270909619394369 0 0.16339350925379581 0.13244122804202141 0 0.1539606084885391 0.12851381335764001 0 0.16169096308237399 0.1256621397921292 0 0.15831726968978449 0.1226774466090724 0 0.14844774066403929 0.14068990259312991 0 0.16318823561782539 0.1361658892598705 0 0.1592050758033843 0.14296664651929919 0 0.14844774066403929 0.14068990259312991 0 0.16339350925379581 0.13244122804202141 0 0.16318823561782539 0.1361658892598705 0 0.16318823561782539 0.1361658892598705 0 0.1592050758033843 0.14296664651929919 0 0.1656890076848597 0.1416352286451697 0 0.153328808984387 0.14802087110641721 0 0.1592050758033843 0.14296664651929919 0 0.1654551646516404 0.1480786080123081 0 0.153328808984387 0.14802087110641721 0 0.17094099031388549 0.1588932995068669 0 0.153328808984387 0.14802087110641721 0 0.15703432015980001 0.16171948332326139 0 0.17094099031388549 0.1588932995068669 0 0.153328808984387 0.14802087110641721 0 0.17094099031388549 0.1588932995068669 0 0.1654551646516404 0.1480786080123081 0 0.1592050758033843 0.14296664651929919 0 0.1656890076848597 0.1416352286451697 0 0.1654551646516404 0.1480786080123081 0 0.17094099031388549 0.1588932995068669 0 0.17552971693898661 0.15069266297704431 0 0.1654551646516404 0.1480786080123081 0 0.17552971693898661 0.15069266297704431 0 0.1723007799423848 0.14309376550397779 0 0.1654551646516404 0.1480786080123081 0 0.1723007799423848 0.14309376550397779 0 0.1656890076848597 0.1416352286451697 0 0.1654551646516404 0.1480786080123081 0 0.14921605911603561 0.24735513048092289 0 0.1362473755571138 0.23090791519734191 0 0.13710380121006871 0.25306898025136071 0 0.14921605911603561 0.24735513048092289 0 0.1543964987802772 0.22828698424891411 0 0.16032144212323371 0.23902245971375929 0 0.14921605911603561 0.24735513048092289 0 0.1362473755571138 0.23090791519734191 0 0.14921605911603561 0.24735513048092289 0 0.1362473755571138 0.23090791519734191 0 0.1543964987802772 0.22828698424891411 0 0.1265113843998063 0.24481906103984011 0 0.1362473755571138 0.23090791519734191 0 0.13710380121006871 0.25306898025136071 0 0.1232786919981925 0.21446069991376029 0 0.1362473755571138 0.23090791519734191 0 0.1232786919981925 0.21446069991376029 0 0.1362473755571138 0.23090791519734191 0 0.14480827197076471 0.2133525265797761 0 0.1362473755571138 0.23090791519734191 0 0.1543964987802772 0.22828698424891411 0 0.14480827197076471 0.2133525265797761 0 0.1543964987802772 0.22828698424891411 0 0.14480827197076471 0.2133525265797761 0 0.1634502804511985 0.21368412182958571 0 0.14480827197076471 0.2133525265797761 0 0.15593531817651651 0.19651364110895339 0 0.1634502804511985 0.21368412182958571 0 0.1232786919981925 0.21446069991376029 0 0.1355414668612904 0.1962617971801012 0 0.1232786919981925 0.21446069991376029 0 0.14480827197076471 0.2133525265797761 0 0.1355414668612904 0.1962617971801012 0 0.1232786919981925 0.21446069991376029 0 0.1355414668612904 0.1962617971801012 0 0.12765144586200919 0.1961643632105933 0 0.1355414668612904 0.1962617971801012 0 0.12765144586200919 0.1961643632105933 0 0.1355414668612904 0.1962617971801012 0 0.12765144586200919 0.1961643632105933 0 0.13127465110536179 0.19037537811081401 0 0.1184256887641624 0.18731790689384781 0 0.12765144586200919 0.1961643632105933 0 0.13127465110536179 0.19037537811081401 0 0.13834913459217391 0.185691071546431 0 0.13127465110536179 0.19037537811081401 0 0.13701784869560019 0.19407073278396811 0 0.1355414668612904 0.1962617971801012 0 0.13127465110536179 0.19037537811081401 0 0.13701784869560019 0.19407073278396811 0 0.1355414668612904 0.1962617971801012 0 0.13701784869560019 0.19407073278396811 0 0.13834913459217391 0.185691071546431 0 0.13701784869560019 0.19407073278396811 0 0.15593531817651651 0.19651364110895339 0 0.14480827197076471 0.2133525265797761 0 0.1355414668612904 0.1962617971801012 0 0.15593531817651651 0.19651364110895339 0 0.1355414668612904 0.1962617971801012 0 0.13701784869560019 0.19407073278396811 0 0.15593531817651651 0.19651364110895339 0 0.1355414668612904 0.1962617971801012 0 0.15593531817651651 0.19651364110895339 0 0.17321496971303901 0.18404201690737329 0 0.15593531817651651 0.19651364110895339 0 0.1763291694917426 0.19676548503780589 0 0.15593531817651651 0.19651364110895339 0 0.1763291694917426 0.19676548503780589 0 0.1634502804511985 0.21368412182958571 0 0.15593531817651651 0.19651364110895339 0 0.1763291694917426 0.19676548503780589 0 0.1763291694917426 0.19676548503780589 0 0.18482111569933921 0.21098956880982611 0 0.19672302080696871 0.19701732896665841 0 0.1763291694917426 0.19676548503780589 0 0.19672302080696871 0.19701732896665841 0 0.1859125568206797 0.18060543354925371 0 0.1763291694917426 0.19676548503780589 0 0.19152638988642701 0.1902468516687861 0 0.1763291694917426 0.19676548503780589 0 0.18482111569933921 0.21098956880982611 0 0.17607049303942271 0.2157004785803881 0 0.1763291694917426 0.19676548503780589 0 0.17607049303942271 0.2157004785803881 0 0.1634502804511985 0.21368412182958571 0 0.18482111569933921 0.21098956880982611 0 0.17607049303942271 0.2157004785803881 0 0.18406170550628209 0.22506132203916629 0 0.18482111569933921 0.21098956880982611 0 0.18406170550628209 0.22506132203916629 0 0.19068774872800001 0.21475480020647009 0 0.1543964987802772 0.22828698424891411 0 0.1634502804511985 0.21368412182958571 0 0.17169019404855099 0.23200189518555661 0 0.1543964987802772 0.22828698424891411 0 0.17169019404855099 0.23200189518555661 0 0.16032144212323371 0.23902245971375929 0 0.17607049303942271 0.2157004785803881 0 0.1634502804511985 0.21368412182958571 0 0.17169019404855099 0.23200189518555661 0 0.17607049303942271 0.2157004785803881 0 0.17169019404855099 0.23200189518555661 0 0.18406170550628209 0.22506132203916629 0 0.17169019404855099 0.23200189518555661 0 0.18406170550628209 0.22506132203916629 0 0.1847630310773084 0.23825071805973949 0 0.18406170550628209 0.22506132203916629 0 0.1847630310773084 0.23825071805973949 0 0.19279287320365179 0.23483990368842589 0 0.17169019404855099 0.23200189518555661 0 0.1847630310773084 0.23825071805973949 0 0.17793358433637771 0.24774911183132969 0 0.1847630310773084 0.23825071805973949 0 0.17793358433637771 0.24774911183132969 0 0.19675200613609869 0.25387006042305549 0 0.14921605911603561 0.24735513048092289 0 0.16032144212323371 0.23902245971375929 0 0.16598301654807079 0.24844582893964351 0 0.17169019404855099 0.23200189518555661 0 0.17793358433637771 0.24774911183132969 0 0.16598301654807079 0.24844582893964351 0 0.17169019404855099 0.23200189518555661 0 0.16032144212323371 0.23902245971375929 0 0.16598301654807079 0.24844582893964351 0 0.2154941529563075 0.2467231945984566 0 0.21201697739720379 0.23620202763772449 0 0.19675200613609869 0.25387006042305549 0 0.21201697739720379 0.23620202763772449 0 0.20124247039915971 0.23106643690993861 0 0.19675200613609869 0.25387006042305549 0 0.20124247039915971 0.23106643690993861 0 0.19675200613609869 0.25387006042305549 0 0.1847630310773084 0.23825071805973949 0 0.19279287320365179 0.23483990368842589 0 0.19675200613609869 0.25387006042305549 0 0.19279287320365179 0.23483990368842589 0 0.20124247039915971 0.23106643690993861 0 0.19675200613609869 0.25387006042305549 0 0.19279287320365179 0.23483990368842589 0 0.20124247039915971 0.23106643690993861 0 0.1971451528994102 0.22595098101022951 0 0.18406170550628209 0.22506132203916629 0 0.19279287320365179 0.23483990368842589 0 0.1971451528994102 0.22595098101022951 0 0.18406170550628209 0.22506132203916629 0 0.1971451528994102 0.22595098101022951 0 0.19068774872800001 0.21475480020647009 0 0.21201697739720379 0.23620202763772449 0 0.20124247039915971 0.23106643690993861 0 0.21713132459565171 0.22538753349480001 0 0.20124247039915971 0.23106643690993861 0 0.1971451528994102 0.22595098101022951 0 0.21713132459565171 0.22538753349480001 0 0.1971451528994102 0.22595098101022951 0 0.21713132459565171 0.22538753349480001 0 0.19946060819873609 0.21107206757127431 0 0.21713132459565171 0.22538753349480001 0 0.208815004938286 0.20639486478049979 0 0.21879821460266771 0.20327773643795011 0 0.21713132459565171 0.22538753349480001 0 0.19946060819873609 0.21107206757127431 0 0.21713132459565171 0.22538753349480001 0 0.208815004938286 0.20639486478049979 0 0.19946060819873609 0.21107206757127431 0 0.208815004938286 0.20639486478049979 0 0.19946060819873609 0.21107206757127431 0 0.20400651231687239 0.19710727289579991 0 0.1971451528994102 0.22595098101022951 0 0.19672302080696871 0.19701732896665841 0 0.1971451528994102 0.22595098101022951 0 0.19946060819873609 0.21107206757127431 0 0.19672302080696871 0.19701732896665841 0 0.1971451528994102 0.22595098101022951 0 0.19068774872800001 0.21475480020647009 0 0.19672302080696871 0.19701732896665841 0 0.18482111569933921 0.21098956880982611 0 0.19068774872800001 0.21475480020647009 0 0.19672302080696871 0.19701732896665841 0 0.19946060819873609 0.21107206757127431 0 0.19672302080696871 0.19701732896665841 0 0.20400651231687239 0.19710727289579991 0 0.1763291694917426 0.19676548503780589 0 0.19672302080696871 0.19701732896665841 0 0.19152638988642701 0.1902468516687861 0 0.19672302080696871 0.19701732896665841 0 0.20400651231687239 0.19710727289579991 0 0.19672302080696871 0.19701732896665841 0 0.20400651231687239 0.19710727289579991 0 0.2006047522002776 0.18317190715000359 0 0.2160579439519269 0.18824214617332191 0 0.21879821460266771 0.20327773643795011 0 0.2006047522002776 0.18317190715000359 0 0.21879821460266771 0.20327773643795011 0 0.2006047522002776 0.18317190715000359 0 0.20400651231687239 0.19710727289579991 0 0.21879821460266771 0.20327773643795011 0 0.2006047522002776 0.18317190715000359 0 0.208815004938286 0.20639486478049979 0 0.20400651231687239 0.19710727289579991 0 0.21879821460266771 0.20327773643795011 0 0.22985714386758441 0.19138063243626199 0 0.23778494038061621 0.2043813437981955 0 0.21879821460266771 0.20327773643795011 0 0.2160579439519269 0.18824214617332191 0 0.22985714386758441 0.19138063243626199 0 0.21879821460266771 0.20327773643795011 0 0.22985714386758441 0.19138063243626199 0 0.23778494038061621 0.2043813437981955 0 0.25059494158165901 0.19032369199564031 0 0.23778494038061621 0.2043813437981955 0 0.25254676704563311 0.20930692990743879 0 0.25059494158165901 0.19032369199564031 0 0.23778494038061621 0.2043813437981955 0 0.23699167700505769 0.22338356572589649 0 0.25254676704563311 0.20930692990743879 0 0.21713132459565171 0.22538753349480001 0 0.21879821460266771 0.20327773643795011 0 0.23699167700505769 0.22338356572589649 0 0.21879821460266771 0.20327773643795011 0 0.23699167700505769 0.22338356572589649 0 0.23778494038061621 0.2043813437981955 0 0.21879821460266771 0.20327773643795011 0 0.23699167700505769 0.22338356572589649 0 0.21713132459565171 0.22538753349480001 0 0.23699167700505769 0.22338356572589649 0 0.2348020409925673 0.2397029994183256 0 0.21713132459565171 0.22538753349480001 0 0.2348020409925673 0.2397029994183256 0 0.21201697739720379 0.23620202763772449 0 0.21713132459565171 0.22538753349480001 0 0.2348020409925673 0.2397029994183256 0 0.23699167700505769 0.22338356572589649 0 0.2551851394074478 0.2434893950138429 0 0.23699167700505769 0.22338356572589649 0 0.25538970474944028 0.22639472194977939 0 0.25254676704563311 0.20930692990743879 0 0.23699167700505769 0.22338356572589649 0 0.2551851394074478 0.2434893950138429 0 0.25538970474944028 0.22639472194977939 0 0.2348020409925673 0.2397029994183256 0 0.25247275738948288 0.25401846534185119 0 0.23699167700505769 0.22338356572589649 0 0.2348020409925673 0.2397029994183256 0 0.2551851394074478 0.2434893950138429 0 0.2348020409925673 0.2397029994183256 0 0.23738978373314901 0.25532225906031991 0 0.25247275738948288 0.25401846534185119 0 0.2348020409925673 0.2397029994183256 0 0.25247275738948288 0.25401846534185119 0 0.2551851394074478 0.2434893950138429 0 0.2154941529563075 0.2467231945984566 0 0.2348020409925673 0.2397029994183256 0 0.22589877104413841 0.25456972674656159 0 0.2154941529563075 0.2467231945984566 0 0.21201697739720379 0.23620202763772449 0 0.2348020409925673 0.2397029994183256 0 0.2348020409925673 0.2397029994183256 0 0.22589877104413841 0.25456972674656159 0 0.23738978373314901 0.25532225906031991 0 0.21532915256762819 0.13902016540993559 0 0.19899404249107791 0.14672976099075491 0 0.21711031990578089 0.16203491577682841 0 0.19899404249107791 0.14672976099075491 0 0.21711031990578089 0.16203491577682841 0 0.21532915256762819 0.13902016540993559 0 0.20168882168756139 0.1310261715418089 0 0.19899404249107791 0.14672976099075491 0 0.21532915256762819 0.13902016540993559 0 0.21431840299969121 0.12511043198613631 0 0.20168882168756139 0.1310261715418089 0 0.19595184496941109 0.14415962459390491 0 0.19553778957291831 0.1157795630361771 0 0.18259827505216891 0.13287814276120899 0 0.19595184496941109 0.14415962459390491 0 0.19553778957291831 0.1157795630361771 0 0.20168882168756139 0.1310261715418089 0 0.19595184496941109 0.14415962459390491 0 0.19553778957291831 0.1157795630361771 0 0.20168882168756139 0.1310261715418089 0 0.19899404249107791 0.14672976099075491 0 0.18259827505216891 0.13287814276120899 0 0.19595184496941109 0.14415962459390491 0 0.19899404249107791 0.14672976099075491 0 0.19622478456113779 0.1628673687274789 0 0.20168882168756139 0.1310261715418089 0 0.19595184496941109 0.14415962459390491 0 0.19899404249107791 0.14672976099075491 0 0.19595184496941109 0.14415962459390491 0 0.19899404249107791 0.14672976099075491 0 0.19622478456113779 0.1628673687274789 0 0.19595184496941109 0.14415962459390491 0 0.19097145069846799 0.15361741821736741 0 0.19622478456113779 0.1628673687274789 0 0.19595184496941109 0.14415962459390491 0 0.19622478456113779 0.1628673687274789 0 0.1843777300276882 0.14641416620376729 0 0.18259827505216891 0.13287814276120899 0 0.19595184496941109 0.14415962459390491 0 0.1843777300276882 0.14641416620376729 0 0.19595184496941109 0.14415962459390491 0 0.19097145069846799 0.15361741821736741 0 0.19595184496941109 0.14415962459390491 0 0.19899404249107791 0.14672976099075491 0 0.18519572333179959 0.15831698425018439 0 0.19097145069846799 0.15361741821736741 0 0.19096082316110141 0.16379417902111501 0 0.19097145069846799 0.15361741821736741 0 0.19096082316110141 0.16379417902111501 0 0.19622478456113779 0.1628673687274789 0 0.18519572333179959 0.15831698425018439 0 0.19096082316110141 0.16379417902111501 0 0.1885531716433835 0.16976572790731731 0 0.1885531716433835 0.16976572790731731 0 0.19629485255956111 0.16766994858834469 0 0.1885531716433835 0.16976572790731731 0 0.19629485255956111 0.16766994858834469 0 0.19441955445422579 0.17338718886591339 0 0.1885531716433835 0.16976572790731731 0 0.19441955445422579 0.17338718886591339 0 0.19096082316110141 0.16379417902111501 0 0.19629485255956111 0.16766994858834469 0 0.19622478456113779 0.1628673687274789 0 0.19096082316110141 0.16379417902111501 0 0.1885531716433835 0.16976572790731731 0 0.19629485255956111 0.16766994858834469 0 0.19629485255956111 0.16766994858834469 0 0.19622478456113779 0.1628673687274789 0 0.19629485255956111 0.16766994858834469 0 0.19441955445422579 0.17338718886591339 0 0.19629485255956111 0.16766994858834469 0 0.19639606669961279 0.17460733800409101 0 0.19672302080696871 0.19701732896665841 0 0.19152638988642701 0.1902468516687861 0 0.19639606669961279 0.17460733800409101 0 0.19152638988642701 0.1902468516687861 0 0.19441955445422579 0.17338718886591339 0 0.19672302080696871 0.19701732896665841 0 0.19639606669961279 0.17460733800409101 0 0.2006047522002776 0.18317190715000359 0 0.19672302080696871 0.19701732896665841 0 0.19639606669961279 0.17460733800409101 0 0.19152638988642701 0.1902468516687861 0 0.19441955445422579 0.17338718886591339 0 0.19639606669961279 0.17460733800409101 0 0.19152638988642701 0.1902468516687861 0 0.18928235039088259 0.17636595891238899 0 0.19441955445422579 0.17338718886591339 0 0.1859125568206797 0.18060543354925371 0 0.19152638988642701 0.1902468516687861 0 0.18928235039088259 0.17636595891238899 0 0.1859125568206797 0.18060543354925371 0 0.1885531716433835 0.16976572790731731 0 0.18928235039088259 0.17636595891238899 0 0.1885531716433835 0.16976572790731731 0 0.18928235039088259 0.17636595891238899 0 0.19441955445422579 0.17338718886591339 0 0.19639606669961279 0.17460733800409101 0 0.2007045122857867 0.1772670463773191 0 0.2006047522002776 0.18317190715000359 0 0.19629485255956111 0.16766994858834469 0 0.19639606669961279 0.17460733800409101 0 0.2007045122857867 0.1772670463773191 0 0.19629485255956111 0.16766994858834469 0 0.19441955445422579 0.17338718886591339 0 0.19639606669961279 0.17460733800409101 0 0.19441955445422579 0.17338718886591339 0 0.19639606669961279 0.17460733800409101 0 0.19639606669961279 0.17460733800409101 0 0.2007045122857867 0.1772670463773191 0 0.19629485255956111 0.16766994858834469 0 0.2007045122857867 0.1772670463773191 0 0.2131864215785759 0.17353917446638159 0 0.2007045122857867 0.1772670463773191 0 0.2006047522002776 0.18317190715000359 0 0.21053211479958861 0.18117858407591539 0 0.2160579439519269 0.18824214617332191 0 0.2006047522002776 0.18317190715000359 0 0.21053211479958861 0.18117858407591539 0 0.2007045122857867 0.1772670463773191 0 0.21053211479958861 0.18117858407591539 0 0.2131864215785759 0.17353917446638159 0 0.21053211479958861 0.18117858407591539 0 0.2131864215785759 0.17353917446638159 0 0.22049749428951629 0.18220187076647851 0 0.2160579439519269 0.18824214617332191 0 0.21053211479958861 0.18117858407591539 0 0.22049749428951629 0.18220187076647851 0 0.19629485255956111 0.16766994858834469 0 0.2131864215785759 0.17353917446638159 0 0.21711031990578089 0.16203491577682841 0 0.19629485255956111 0.16766994858834469 0 0.21711031990578089 0.16203491577682841 0 0.19899404249107791 0.14672976099075491 0 0.19622478456113779 0.1628673687274789 0 0.21711031990578089 0.16203491577682841 0 0.19629485255956111 0.16766994858834469 0 0.19622478456113779 0.1628673687274789 0 0.21711031990578089 0.16203491577682841 0 0.21711031990578089 0.16203491577682841 0 0.23385263074372009 0.17617930388623421 0 0.2131864215785759 0.17353917446638159 0 0.21711031990578089 0.16203491577682841 0 0.23385263074372009 0.17617930388623421 0 0.21711031990578089 0.16203491577682841 0 0.23385263074372009 0.17617930388623421 0 0.2366147484439379 0.15675479917150301 0 0.21711031990578089 0.16203491577682841 0 0.2366147484439379 0.15675479917150301 0 0.2131864215785759 0.17353917446638159 0 0.22049749428951629 0.18220187076647851 0 0.23385263074372009 0.17617930388623421 0 0.2160579439519269 0.18824214617332191 0 0.22985714386758441 0.19138063243626199 0 0.22049749428951629 0.18220187076647851 0 0.22985714386758441 0.19138063243626199 0 0.22049749428951629 0.18220187076647851 0 0.23385263074372009 0.17617930388623421 0 0.22985714386758441 0.19138063243626199 0 0.23385263074372009 0.17617930388623421 0 0.25059494158165901 0.19032369199564031 0 0.23385263074372009 0.17617930388623421 0 0.25059494158165901 0.19032369199564031 0 0.23385263074372009 0.17617930388623421 0 0.24908873164767151 0.1770288671046478 0 0.25059494158165901 0.19032369199564031 0 0.23385263074372009 0.17617930388623421 0 0.24908873164767151 0.1770288671046478 0 0.2434466942022622 0.16760513981834169 0 0.23385263074372009 0.17617930388623421 0 0.2366147484439379 0.15675479917150301 0 0.2434466942022622 0.16760513981834169 0 0.24908873164767151 0.1770288671046478 0 0.2434466942022622 0.16760513981834169 0 0.25108078632114311 0.16784635495939959 0 0.2434466942022622 0.16760513981834169 0 0.2480117625504723 0.15988161517611299 0 0.25108078632114311 0.16784635495939959 0 0.2366147484439379 0.15675479917150301 0 0.2434466942022622 0.16760513981834169 0 0.2480117625504723 0.15988161517611299 0 0.2366147484439379 0.15675479917150301 0 0.2480117625504723 0.15988161517611299 0 0.24723516224861489 0.14891452097535199 0 0.2480117625504723 0.15988161517611299 0 0.24723516224861489 0.14891452097535199 0 0.25438166837756182 0.15569588162337331 0 0.24723516224861489 0.14891452097535199 0 0.23741156149712281 0.14557233949426759 0 0.25092432003414827 0.13271121164369881 0 0.2366147484439379 0.15675479917150301 0 0.24723516224861489 0.14891452097535199 0 0.23741156149712281 0.14557233949426759 0 0.21532915256762819 0.13902016540993559 0 0.21711031990578089 0.16203491577682841 0 0.22695240112191109 0.14785753051487069 0 0.21532915256762819 0.13902016540993559 0 0.22695240112191109 0.14785753051487069 0 0.2331267363008884 0.13586568852681841 0 0.21711031990578089 0.16203491577682841 0 0.2366147484439379 0.15675479917150301 0 0.22695240112191109 0.14785753051487069 0 0.2366147484439379 0.15675479917150301 0 0.23741156149712281 0.14557233949426759 0 0.22695240112191109 0.14785753051487069 0 0.23741156149712281 0.14557233949426759 0 0.22695240112191109 0.14785753051487069 0 0.2331267363008884 0.13586568852681841 0 0.21532915256762819 0.13902016540993559 0 0.2331267363008884 0.13586568852681841 0 0.21431840299969121 0.12511043198613631 0 0.2331267363008884 0.13586568852681841 0 0.22617681327162201 0.11419672914343711 0 0.21532915256762819 0.13902016540993559 0 0.21431840299969121 0.12511043198613631 0 0.2331267363008884 0.13586568852681841 0 0.2331267363008884 0.13586568852681841 0 0.25092432003414827 0.13271121164369881 0 0.23741156149712281 0.14557233949426759 0 0.2331267363008884 0.13586568852681841 0 0.25092432003414827 0.13271121164369881 0 0.2331267363008884 0.13586568852681841 0 0.24025061707603931 0.1242743875512349 0 0.25092432003414827 0.13271121164369881 0 0.2479700256591971 0.1130708761940131 0 0.22617681327162201 0.11419672914343711 0 0.2479700256591971 0.1130708761940131 0 0.23608090964314951 0.1067670359926208 0 0.22617681327162201 0.11419672914343711 0 0.24025061707603931 0.1242743875512349 0 0.2479700256591971 0.1130708761940131 0 0.25092432003414827 0.13271121164369881 0 0.24025061707603931 0.1242743875512349 0 0.2479700256591971 0.1130708761940131 0 0.22617681327162201 0.11419672914343711 0 0.2479700256591971 0.1130708761940131 0 0.25092432003414827 0.13271121164369881 0 0.2479700256591971 0.1130708761940131 0 0.24508603879494281 0.093897949512535828 0 0.24428406228899291 0.10268919226356391 0 0.2479700256591971 0.1130708761940131 0 0.24508603879494281 0.093897949512535828 0 0.25226680708541338 0.1039611020870571 0 0.2479700256591971 0.1130708761940131 0 0.24508603879494281 0.093897949512535828 0 0.24508603879494281 0.093897949512535828 0 0.24428406228899291 0.10268919226356391 0 0.2402269910602404 0.087977302688239598 0 0.24428406228899291 0.10268919226356391 0 0.2402269910602404 0.087977302688239598 0 0.2479700256591971 0.1130708761940131 0 0.24428406228899291 0.10268919226356391 0 0.23608090964314951 0.1067670359926208 0 0.24428406228899291 0.10268919226356391 0 0.23608090964314951 0.1067670359926208 0 0.23200732431085841 0.098738769200690829 0 0.24428406228899291 0.10268919226356391 0 0.2370962774146316 0.094901034611979379 0 0.23200732431085841 0.098738769200690829 0 0.24428406228899291 0.10268919226356391 0 0.2370962774146316 0.094901034611979379 0 0.2402269910602404 0.087977302688239598 0 0.2370962774146316 0.094901034611979379 0 0.23200732431085841 0.098738769200690829 0 0.2318667319984348 0.09019887429542317 0 0.23200732431085841 0.098738769200690829 0 0.21978851026224011 0.094612666801969364 0 0.2318667319984348 0.09019887429542317 0 0.23200732431085841 0.098738769200690829 0 0.22996632268507741 0.1051396131613991 0 0.21978851026224011 0.094612666801969364 0 0.23608090964314951 0.1067670359926208 0 0.23200732431085841 0.098738769200690829 0 0.22996632268507741 0.1051396131613991 0 0.23608090964314951 0.1067670359926208 0 0.22996632268507741 0.1051396131613991 0 0.22617681327162201 0.11419672914343711 0 0.21978851026224011 0.094612666801969364 0 0.22479832933621799 0.1094324369164492 0 0.2146377234768897 0.1081380908155699 0 0.22996632268507741 0.1051396131613991 0 0.21978851026224011 0.094612666801969364 0 0.22479832933621799 0.1094324369164492 0 0.21978851026224011 0.094612666801969364 0 0.22479832933621799 0.1094324369164492 0 0.2331267363008884 0.13586568852681841 0 0.24025061707603931 0.1242743875512349 0 0.22617681327162201 0.11419672914343711 0 0.22996632268507741 0.1051396131613991 0 0.22617681327162201 0.11419672914343711 0 0.22479832933621799 0.1094324369164492 0 0.22617681327162201 0.11419672914343711 0 0.22479832933621799 0.1094324369164492 0 0.2146377234768897 0.1081380908155699 0 0.21431840299969121 0.12511043198613631 0 0.22617681327162201 0.11419672914343711 0 0.204383600884047 0.1153225820928631 0 0.21431840299969121 0.12511043198613631 0 0.20168882168756139 0.1310261715418089 0 0.204383600884047 0.1153225820928631 0 0.22617681327162201 0.11419672914343711 0 0.204383600884047 0.1153225820928631 0 0.22617681327162201 0.11419672914343711 0 0.204383600884047 0.1153225820928631 0 0.2146377234768897 0.1081380908155699 0 0.21978851026224011 0.094612666801969364 0 0.2146377234768897 0.1081380908155699 0 0.20703021023816939 0.099899698176039511 0 0.204383600884047 0.1153225820928631 0 0.2146377234768897 0.1081380908155699 0 0.20703021023816939 0.099899698176039511 0 0.204383600884047 0.1153225820928631 0 0.20703021023816939 0.099899698176039511 0 0.204383600884047 0.1153225820928631 0 0.20703021023816939 0.099899698176039511 0 0.19544036093106401 0.10910163810938769 0 0.20703021023816939 0.099899698176039511 0 0.1920338740150849 0.1006744196382556 0 0.20967681959229101 0.084476814259215743 0 0.20703021023816939 0.099899698176039511 0 0.19544036093106401 0.10910163810938769 0 0.1920338740150849 0.1006744196382556 0 0.20168882168756139 0.1310261715418089 0 0.204383600884047 0.1153225820928631 0 0.19544036093106401 0.10910163810938769 0 0.19553778957291831 0.1157795630361771 0 0.17439092843787959 0.11687202501729629 0 0.20168882168756139 0.1310261715418089 0 0.204383600884047 0.1153225820928631 0 0.19553778957291831 0.1157795630361771 0 0.204383600884047 0.1153225820928631 0 0.19553778957291831 0.1157795630361771 0 0.204383600884047 0.1153225820928631 0 0.19544036093106401 0.10910163810938769 0 0.19553778957291831 0.1157795630361771 0 0.19544036093106401 0.10910163810938769 0 0.19553778957291831 0.1157795630361771 0 0.20128521019502341 0.07379450533905671 0 0.1936621890328773 0.066397547560447079 0 0.1924488894800904 0.076623514339729831 0 0.20128521019502341 0.07379450533905671 0 0.2005594978377965 0.063648499810781536 0 0.1936621890328773 0.066397547560447079 0 0.2005594978377965 0.063648499810781536 0 0.1936621890328773 0.066397547560447079 0 0.19324326832570099 0.059632024961241099 0 0.1936621890328773 0.066397547560447079 0 0.19324326832570099 0.059632024961241099 0 0.18850806674705861 0.061753896183571369 0 0.1936621890328773 0.066397547560447079 0 0.18850806674705861 0.061753896183571369 0 0.18619802793009621 0.065635902333457161 0 0.1936621890328773 0.066397547560447079 0 0.18693067397280491 0.071538532439119618 0 0.18619802793009621 0.065635902333457161 0 0.1936621890328773 0.066397547560447079 0 0.1924488894800904 0.076623514339729831 0 0.18693067397280491 0.071538532439119618 0 0.1924488894800904 0.076623514339729831 0 0.18897382172743879 0.08598516360148141 0 0.19758754291227151 0.084060206596948364 0 0.1924488894800904 0.076623514339729831 0 0.18897382172743879 0.08598516360148141 0 0.1822567200742731 0.078338044409950694 0 0.1920338740150849 0.1006744196382556 0 0.19758754291227151 0.084060206596948364 0 0.20967681959229101 0.084476814259215743 0 0.1920338740150849 0.1006744196382556 0 0.20967681959229101 0.084476814259215743 0 0.1920338740150849 0.1006744196382556 0 0.18897382172743879 0.08598516360148141 0 0.19758754291227151 0.084060206596948364 0 0.20128521019502341 0.07379450533905671 0 0.1924488894800904 0.076623514339729831 0 0.19758754291227151 0.084060206596948364 0 0.20128521019502341 0.07379450533905671 0 0.19758754291227151 0.084060206596948364 0 0.20967681959229101 0.084476814259215743 0 0.20703021023816939 0.099899698176039511 0 0.20967681959229101 0.084476814259215743 0 0.21978851026224011 0.094612666801969364 0 0.20703021023816939 0.099899698176039511 0 0.20967681959229101 0.084476814259215743 0 0.21978851026224011 0.094612666801969364 0 0.21477869118826221 0.079792896687489526 0 0.21978851026224011 0.094612666801969364 0 0.20967681959229101 0.084476814259215743 0 0.21477869118826221 0.079792896687489526 0 0.20967681959229101 0.084476814259215743 0 0.21477869118826221 0.079792896687489526 0 0.21192778583088759 0.071359505902199999 0 0.20967681959229101 0.084476814259215743 0 0.21477869118826221 0.079792896687489526 0 0.21477869118826221 0.079792896687489526 0 0.21192778583088759 0.071359505902199999 0 0.21477869118826221 0.079792896687489526 0 0.21192778583088759 0.071359505902199999 0 0.2220602503957135 0.069935130224083417 0 0.20967681959229101 0.084476814259215743 0 0.21192778583088759 0.071359505902199999 0 0.20128521019502341 0.07379450533905671 0 0.20967681959229101 0.084476814259215743 0 0.21192778583088759 0.071359505902199999 0 0.2005594978377965 0.063648499810781536 0 0.21192778583088759 0.071359505902199999 0 0.20685228818292911 0.05634544905731214 0 0.20128521019502341 0.07379450533905671 0 0.2005594978377965 0.063648499810781536 0 0.21192778583088759 0.071359505902199999 0 0.21192778583088759 0.071359505902199999 0 0.20685228818292911 0.05634544905731214 0 0.21192778583088759 0.071359505902199999 0 0.2220602503957135 0.069935130224083417 0 0.22193250966700001 0.058055788201142357 0 0.22537901916776959 0.064827045533677713 0 0.2220602503957135 0.069935130224083417 0 0.22193250966700001 0.058055788201142357 0 0.22537901916776959 0.064827045533677713 0 0.2220602503957135 0.069935130224083417 0 0.2248093246253289 0.070583989852490814 0 0.2220602503957135 0.069935130224083417 0 0.2248093246253289 0.070583989852490814 0 0.21477869118826221 0.079792896687489526 0 0.22232536899360941 0.077945682062133093 0 0.2248093246253289 0.070583989852490814 0 0.21477869118826221 0.079792896687489526 0 0.2220602503957135 0.069935130224083417 0 0.2248093246253289 0.070583989852490814 0 0.21477869118826221 0.079792896687489526 0 0.2248093246253289 0.070583989852490814 0 0.22232536899360941 0.077945682062133093 0 0.2248093246253289 0.070583989852490814 0 0.22889539399467321 0.077371890329518786 0 0.2248093246253289 0.070583989852490814 0 0.22889539399467321 0.077371890329518786 0 0.23616991983148811 0.073265413112915193 0 0.22889539399467321 0.077371890329518786 0 0.2325709680091054 0.08245471698499561 0 0.23616991983148811 0.073265413112915193 0 0.2248093246253289 0.070583989852490814 0 0.23616991983148811 0.073265413112915193 0 0.22537901916776959 0.064827045533677713 0 0.2248093246253289 0.070583989852490814 0 0.23328470017271949 0.062802931527789041 0 0.2248093246253289 0.070583989852490814 0 0.23328470017271949 0.062802931527789041 0 0.2248093246253289 0.070583989852490814 0 0.23328470017271949 0.062802931527789041 0 0.23616991983148811 0.073265413112915193 0 0.21978851026224011 0.094612666801969364 0 0.22569580316069029 0.083460104498881665 0 0.2318667319984348 0.09019887429542317 0 0.21978851026224011 0.094612666801969364 0 0.21477869118826221 0.079792896687489526 0 0.22569580316069029 0.083460104498881665 0 0.21477869118826221 0.079792896687489526 0 0.22232536899360941 0.077945682062133093 0 0.22569580316069029 0.083460104498881665 0 0.22232536899360941 0.077945682062133093 0 0.22889539399467321 0.077371890329518786 0 0.22569580316069029 0.083460104498881665 0 0.22889539399467321 0.077371890329518786 0 0.22569580316069029 0.083460104498881665 0 0.2325709680091054 0.08245471698499561 0 0.22569580316069029 0.083460104498881665 0 0.2325709680091054 0.08245471698499561 0 0.2318667319984348 0.09019887429542317 0 0.24508603879494281 0.093897949512535828 0 0.2402269910602404 0.087977302688239598 0 0.2422020519306885 0.074725022831058613 0 0.24508603879494281 0.093897949512535828 0 0.2422020519306885 0.074725022831058613 0 0.25276512444811011 0.086159760048941617 0 0.24508603879494281 0.093897949512535828 0 0.2422020519306885 0.074725022831058613 0 0.2370962774146316 0.094901034611979379 0 0.2318667319984348 0.09019887429542317 0 0.2402269910602404 0.087977302688239598 0 0.2325709680091054 0.08245471698499561 0 0.2318667319984348 0.09019887429542317 0 0.2402269910602404 0.087977302688239598 0 0.2402269910602404 0.087977302688239598 0 0.23616991983148811 0.073265413112915193 0 0.2402269910602404 0.087977302688239598 0 0.23616991983148811 0.073265413112915193 0 0.2422020519306885 0.074725022831058613 0 0.2325709680091054 0.08245471698499561 0 0.2402269910602404 0.087977302688239598 0 0.23616991983148811 0.073265413112915193 0 0.23328470017271949 0.062802931527789041 0 0.23616991983148811 0.073265413112915193 0 0.23884430461559769 0.066898836148216345 0 0.24505343214577241 0.065757195551324824 0 0.23828530331132999 0.058211986328647193 0 0.23328470017271949 0.062802931527789041 0 0.23884430461559769 0.066898836148216345 0 0.23828530331132999 0.058211986328647193 0 0.23884430461559769 0.066898836148216345 0 0.2422020519306885 0.074725022831058613 0 0.24505343214577241 0.065757195551324824 0 0.23328470017271949 0.062802931527789041 0 0.23884430461559769 0.066898836148216345 0 0.23616991983148811 0.073265413112915193 0 0.23884430461559769 0.066898836148216345 0 0.23616991983148811 0.073265413112915193 0 0.2422020519306885 0.074725022831058613 0 0.23616991983148811 0.073265413112915193 0 0.2422020519306885 0.074725022831058613 0 0.2422020519306885 0.074725022831058613 0 0.24505343214577241 0.065757195551324824 0 0.25324795101967462 0.071649882576700283 0 0.24505343214577241 0.065757195551324824 0 0.25153334416912049 0.065266287609551596 0 0.25324795101967462 0.071649882576700283 0 0.24505343214577241 0.065757195551324824 0 0.24750813816218201 0.057765830816462041 0 0.25153334416912049 0.065266287609551596 0 0.24505343214577241 0.065757195551324824 0 0.24750813816218201 0.057765830816462041 0 0.23828530331132999 0.058211986328647193 0 0.24750813816218201 0.057765830816462041 0 0.23828530331132999 0.058211986328647193 0 0.24161013331070469 0.052520643980459088 0 0.23328470017271949 0.062802931527789041 0 0.23828530331132999 0.058211986328647193 0 0.2366518662350732 0.047206261638174332 0 0.23328470017271949 0.062802931527789041 0 0.23828530331132999 0.058211986328647193 0 0.23828530331132999 0.058211986328647193 0 0.2366518662350732 0.047206261638174332 0 0.24161013331070469 0.052520643980459088 0 0.2366518662350732 0.047206261638174332 0 0.24161013331070469 0.052520643980459088 0 0.24751805561965559 0.049597918156775722 0 0.24750813816218201 0.057765830816462041 0 0.24751805561965559 0.049597918156775722 0 0.25395058035011481 0.052534716696235842 0 0.24750813816218201 0.057765830816462041 0 0.24161013331070469 0.052520643980459088 0 0.24751805561965559 0.049597918156775722 0 0.2366518662350732 0.047206261638174332 0 0.24753356181782099 0.032752362629513393 0 0.25021864521095732 0.042714426536890518 0 0.24753356181782099 0.032752362629513393 0 0.2273149341790825 0.041155163190256708 0 0.23819930518764881 0.019934231074903431 0 0.2366518662350732 0.047206261638174332 0 0.24753356181782099 0.032752362629513393 0 0.2273149341790825 0.041155163190256708 0 0.2366518662350732 0.047206261638174332 0 0.24751805561965559 0.049597918156775722 0 0.25021864521095732 0.042714426536890518 0 0.2213451681854442 0.019507394852724711 0 0.21631530060087581 0.045791648343071353 0 0.2273149341790825 0.041155163190256708 0 0.2213451681854442 0.019507394852724711 0 0.21631530060087581 0.045791648343071353 0 0.2273149341790825 0.041155163190256708 0 0.22471186115491951 0.051951382815564932 0 0.21631530060087581 0.045791648343071353 0 0.23328470017271949 0.062802931527789041 0 0.2273149341790825 0.041155163190256708 0 0.23328470017271949 0.062802931527789041 0 0.2366518662350732 0.047206261638174332 0 0.2273149341790825 0.041155163190256708 0 0.23328470017271949 0.062802931527789041 0 0.2273149341790825 0.041155163190256708 0 0.22471186115491951 0.051951382815564932 0 0.22471186115491951 0.051951382815564932 0 0.22193250966700001 0.058055788201142357 0 0.21631530060087581 0.045791648343071353 0 0.23328470017271949 0.062802931527789041 0 0.22471186115491951 0.051951382815564932 0 0.22193250966700001 0.058055788201142357 0 0.22537901916776959 0.064827045533677713 0 0.23328470017271949 0.062802931527789041 0 0.22193250966700001 0.058055788201142357 0 0.23486169414593761 0.0044328377206448756 0 0.25380370120803358 0.017117199263192131 0 0.24837822010643121 -0.01064171941143479 0 0.23486169414593761 0.0044328377206448756 0 0.23819930518764881 0.019934231074903431 0 0.25380370120803358 0.017117199263192131 0 0.24753356181782099 0.032752362629513393 0 0.23819930518764881 0.019934231074903431 0 0.25380370120803358 0.017117199263192131 0 0.2273149341790825 0.041155163190256708 0 0.2213451681854442 0.019507394852724711 0 0.2273149341790825 0.041155163190256708 0 0.23819930518764881 0.019934231074903431 0 0.2213451681854442 0.019507394852724711 0 0.2213451681854442 0.019507394852724711 0 0.2201226506097064 0.015074260070491501 0 0.2213451681854442 0.019507394852724711 0 0.2218305993854004 0.013651728340205709 0 0.2213451681854442 0.019507394852724711 0 0.2201226506097064 0.015074260070491501 0 0.2153146619010459 0.01365383695144402 0 0.2213451681854442 0.019507394852724711 0 0.2218305993854004 0.013651728340205709 0 0.2201226506097064 0.015074260070491501 0 0.23486169414593761 0.0044328377206448756 0 0.23819930518764881 0.019934231074903431 0 0.2213451681854442 0.019507394852724711 0 0.23486169414593761 0.0044328377206448756 0 0.2213451681854442 0.019507394852724711 0 0.2218305993854004 0.013651728340205709 0 0.22338412304093311 0.0045358756082133408 0 0.218635476953562 0.01050456931136433 0 0.23486169414593761 0.0044328377206448756 0 0.2213451681854442 0.019507394852724711 0 0.2218305993854004 0.013651728340205709 0 0.2218305993854004 0.013651728340205709 0 0.2201226506097064 0.015074260070491501 0 0.218635476953562 0.01050456931136433 0 0.22338412304093311 0.0045358756082133408 0 0.2148085754180758 0.0052537978973309406 0 0.218635476953562 0.01050456931136433 0 0.22338412304093311 0.0045358756082133408 0 0.2148085754180758 0.0052537978973309406 0 0.2227394312342845 -0.0066353046367786921 0 0.23486169414593761 0.0044328377206448756 0 0.22338412304093311 0.0045358756082133408 0 0.2227394312342845 -0.0066353046367786921 0 0.23486169414593761 0.0044328377206448756 0 0.2218305993854004 0.013651728340205709 0 0.22338412304093311 0.0045358756082133408 0 0.2148085754180758 0.0052537978973309406 0 0.20436409518542389 0.0084756352553653977 0 0.20658404310945239 -0.0047970488307741092 0 0.2148085754180758 0.0052537978973309406 0 0.2153146619010459 0.01365383695144402 0 0.20436409518542389 0.0084756352553653977 0 0.2148085754180758 0.0052537978973309406 0 0.218635476953562 0.01050456931136433 0 0.2153146619010459 0.01365383695144402 0 0.2201226506097064 0.015074260070491501 0 0.218635476953562 0.01050456931136433 0 0.2153146619010459 0.01365383695144402 0 0.2153146619010459 0.01365383695144402 0 0.20436409518542389 0.0084756352553653977 0 0.2073351326176138 0.01741853016031511 0 0.2213451681854442 0.019507394852724711 0 0.2073351326176138 0.01741853016031511 0 0.2017767905349715 0.041331392212423948 0 0.2213451681854442 0.019507394852724711 0 0.2017767905349715 0.041331392212423948 0 0.2213451681854442 0.019507394852724711 0 0.2153146619010459 0.01365383695144402 0 0.2073351326176138 0.01741853016031511 0 0.2073351326176138 0.01741853016031511 0 0.1946396495337758 0.0202186958554334 0 0.2017767905349715 0.041331392212423948 0 0.1946396495337758 0.0202186958554334 0 0.2017767905349715 0.041331392212423948 0 0.20436409518542389 0.0084756352553653977 0 0.20658404310945239 -0.0047970488307741092 0 0.1875025085325798 -0.00089400050155696853 0 0.20436409518542389 0.0084756352553653977 0 0.1946396495337758 0.0202186958554334 0 0.1875025085325798 -0.00089400050155696853 0 0.1946396495337758 0.0202186958554334 0 0.1875025085325798 -0.00089400050155696853 0 0.20436409518542389 0.0084756352553653977 0 0.2073351326176138 0.01741853016031511 0 0.1946396495337758 0.0202186958554334 0 0.21192778583088759 0.071359505902199999 0 0.20685228818292911 0.05634544905731214 0 0.21631530060087581 0.045791648343071353 0 0.21192778583088759 0.071359505902199999 0 0.22193250966700001 0.058055788201142357 0 0.21631530060087581 0.045791648343071353 0 0.21192778583088759 0.071359505902199999 0 0.21631530060087581 0.045791648343071353 0 0.20685228818292911 0.05634544905731214 0 0.2017767905349715 0.041331392212423948 0 0.20685228818292911 0.05634544905731214 0 0.21631530060087581 0.045791648343071353 0 0.2017767905349715 0.041331392212423948 0 0.2213451681854442 0.019507394852724711 0 0.21631530060087581 0.045791648343071353 0 0.2017767905349715 0.041331392212423948 0 0.1946396495337758 0.0202186958554334 0 0.2017767905349715 0.041331392212423948 0 0.1850599233774822 0.038472908451804982 0 0.2017767905349715 0.041331392212423948 0 0.19044277757110281 0.05397186110649916 0 0.1850599233774822 0.038472908451804982 0 0.19044277757110281 0.05397186110649916 0 0.19638624545936201 0.054361966044431803 0 0.2017767905349715 0.041331392212423948 0 0.19044277757110281 0.05397186110649916 0 0.2017767905349715 0.041331392212423948 0 0.19044277757110281 0.05397186110649916 0 0.19638624545936201 0.054361966044431803 0 0.20685228818292911 0.05634544905731214 0 0.2017767905349715 0.041331392212423948 0 0.19638624545936201 0.054361966044431803 0 0.2005594978377965 0.063648499810781536 0 0.20685228818292911 0.05634544905731214 0 0.19638624545936201 0.054361966044431803 0 0.2005594978377965 0.063648499810781536 0 0.19638624545936201 0.054361966044431803 0 0.19324326832570099 0.059632024961241099 0 0.19044277757110281 0.05397186110649916 0 0.19638624545936201 0.054361966044431803 0 0.19324326832570099 0.059632024961241099 0 0.19044277757110281 0.05397186110649916 0 0.19324326832570099 0.059632024961241099 0 0.1876705439393212 0.057063646258089053 0 0.19044277757110281 0.05397186110649916 0 0.1876705439393212 0.057063646258089053 0 0.19324326832570099 0.059632024961241099 0 0.1876705439393212 0.057063646258089053 0 0.18850806674705861 0.061753896183571369 0 0.19044277757110281 0.05397186110649916 0 0.16899736029170889 0.052564271575615128 0 0.19044277757110281 0.05397186110649916 0 0.1850599233774822 0.038472908451804982 0 0.16899736029170889 0.052564271575615128 0 0.1876705439393212 0.057063646258089053 0 0.1802771677385204 0.061626561295648898 0 0.16899736029170889 0.052564271575615128 0 0.19044277757110281 0.05397186110649916 0 0.1876705439393212 0.057063646258089053 0 0.16899736029170889 0.052564271575615128 0 0.1876705439393212 0.057063646258089053 0 0.18850806674705861 0.061753896183571369 0 0.1802771677385204 0.061626561295648898 0 0.1802771677385204 0.061626561295648898 0 0.16899736029170889 0.052564271575615128 0 0.16944756491539131 0.065212986598974301 0 0.1850599233774822 0.038472908451804982 0 0.16899736029170889 0.052564271575615128 0 0.1709506488759952 0.027088280141575171 0 0.16899736029170889 0.052564271575615128 0 0.1709506488759952 0.027088280141575171 0 0.15549037628383749 0.036375420031438413 0 0.16899736029170889 0.052564271575615128 0 0.1475519430123152 0.051156682044728972 0 0.15549037628383749 0.036375420031438413 0 0.16899736029170889 0.052564271575615128 0 0.1475519430123152 0.051156682044728972 0 0.16899736029170889 0.052564271575615128 0 0.1475519430123152 0.051156682044728972 0 0.1552543716581426 0.064225174814300401 0 0.16899736029170889 0.052564271575615128 0 0.1552543716581426 0.064225174814300401 0 0.16944756491539131 0.065212986598974301 0 0.1946396495337758 0.0202186958554334 0 0.1778804953238837 0.01201039303616982 0 0.1875025085325798 -0.00089400050155696853 0 0.1778804953238837 0.01201039303616982 0 0.17522714050184721 -0.0049488647019317131 0 0.1875025085325798 -0.00089400050155696853 0 0.1946396495337758 0.0202186958554334 0 0.1778804953238837 0.01201039303616982 0 0.1709506488759952 0.027088280141575171 0 0.1946396495337758 0.0202186958554334 0 0.1850599233774822 0.038472908451804982 0 0.1709506488759952 0.027088280141575171 0 0.1709506488759952 0.027088280141575171 0 0.15966997586013809 0.019495045236748741 0 0.15549037628383749 0.036375420031438413 0 0.1778804953238837 0.01201039303616982 0 0.1709506488759952 0.027088280141575171 0 0.15966997586013809 0.019495045236748741 0 0.1778804953238837 0.01201039303616982 0 0.15966997586013809 0.019495045236748741 0 0.1601032952255865 0.003960831588106911 0 0.1778804953238837 0.01201039303616982 0 0.1601032952255865 0.003960831588106911 0 0.17522714050184721 -0.0049488647019317131 0 0.14692995984517801 0.011745136005002651 0 0.13132033129498641 0.0092488423746995806 0 0.1454712798881049 -0.003730971849526866 0 0.1601032952255865 0.003960831588106911 0 0.14692995984517801 0.011745136005002651 0 0.1454712798881049 -0.003730971849526866 0 0.15966997586013809 0.019495045236748741 0 0.1601032952255865 0.003960831588106911 0 0.14692995984517801 0.011745136005002651 0 0.15966997586013809 0.019495045236748741 0 0.1466650796063477 0.025790210618199489 0 0.15549037628383749 0.036375420031438413 0 0.14692995984517801 0.011745136005002651 0 0.1466650796063477 0.025790210618199489 0 0.13929842407154591 0.018229141148497718 0 0.15966997586013809 0.019495045236748741 0 0.14692995984517801 0.011745136005002651 0 0.1466650796063477 0.025790210618199489 0 0.1466650796063477 0.025790210618199489 0 0.13676489184814311 0.026489974163780541 0 0.13929842407154591 0.018229141148497718 0 0.1466650796063477 0.025790210618199489 0 0.13676489184814311 0.026489974163780541 0 0.1414130029808221 0.040908262586919632 0 0.13676489184814311 0.026489974163780541 0 0.1276628884147202 0.026504186973196051 0 0.1320687024438848 0.033890144439081622 0 0.13676489184814311 0.026489974163780541 0 0.1276628884147202 0.026504186973196051 0 0.13173710738379721 0.019922360975092462 0 0.1231174754830366 0.032788360966042172 0 0.1276628884147202 0.026504186973196051 0 0.1320687024438848 0.033890144439081622 0 0.1237376642652656 0.01976859365491428 0 0.13173710738379721 0.019922360975092462 0 0.13132033129498641 0.0092488423746995806 0 0.1237376642652656 0.01976859365491428 0 0.1276628884147202 0.026504186973196051 0 0.13173710738379721 0.019922360975092462 0 0.13173710738379721 0.019922360975092462 0 0.13929842407154591 0.018229141148497718 0 0.13132033129498641 0.0092488423746995806 0 0.13676489184814311 0.026489974163780541 0 0.13173710738379721 0.019922360975092462 0 0.13929842407154591 0.018229141148497718 0 0.14692995984517801 0.011745136005002651 0 0.13929842407154591 0.018229141148497718 0 0.13132033129498641 0.0092488423746995806 0 0.1237376642652656 0.01976859365491428 0 0.1203284510390845 0.013104948594594349 0 0.13132033129498641 0.0092488423746995806 0 0.13132033129498641 0.0092488423746995806 0 0.1241013306504634 -0.00126979730434574 0 0.13373112663479869 -0.0028115886610750019 0 0.13132033129498641 0.0092488423746995806 0 0.1454712798881049 -0.003730971849526866 0 0.13373112663479869 -0.0028115886610750019 0 0.1475519430123152 0.051156682044728972 0 0.14131291853074829 0.05964926751543153 0 0.1552543716581426 0.064225174814300401 0 0.1466650796063477 0.025790210618199489 0 0.15549037628383749 0.036375420031438413 0 0.1414130029808221 0.040908262586919632 0 0.1475519430123152 0.051156682044728972 0 0.15549037628383749 0.036375420031438413 0 0.1414130029808221 0.040908262586919632 0 0.1475519430123152 0.051156682044728972 0 0.1414130029808221 0.040908262586919632 0 0.13136193654055769 0.047365254882629958 0 0.1414130029808221 0.040908262586919632 0 0.13341023791294371 0.040581485861968657 0 0.13136193654055769 0.047365254882629958 0 0.1414130029808221 0.040908262586919632 0 0.13341023791294371 0.040581485861968657 0 0.1320687024438848 0.033890144439081622 0 0.13676489184814311 0.026489974163780541 0 0.1414130029808221 0.040908262586919632 0 0.1320687024438848 0.033890144439081622 0 0.1231174754830366 0.032788360966042172 0 0.1320687024438848 0.033890144439081622 0 0.12728113781280981 0.039528802799818748 0 0.13341023791294371 0.040581485861968657 0 0.1320687024438848 0.033890144439081622 0 0.12728113781280981 0.039528802799818748 0 0.13341023791294371 0.040581485861968657 0 0.12728113781280981 0.039528802799818748 0 0.13136193654055769 0.047365254882629958 0 0.1243370536324033 0.043963734158083689 0 0.12728113781280981 0.039528802799818748 0 0.13136193654055769 0.047365254882629958 0 0.1261065257329215 0.049749092513842547 0 0.13136193654055769 0.047365254882629958 0 0.1475519430123152 0.051156682044728972 0 0.1261065257329215 0.049749092513842547 0 0.1475519430123152 0.051156682044728972 0 0.14131291853074829 0.05964926751543153 0 0.1261065257329215 0.049749092513842547 0 0.1243370536324033 0.043963734158083689 0 0.1261065257329215 0.049749092513842547 0 0.13136193654055769 0.047365254882629958 0 0.1475519430123152 0.051156682044728972 0 0.1261065257329215 0.049749092513842547 0 0.13136193654055769 0.047365254882629958 0 0.14131291853074829 0.05964926751543153 0 0.1261065257329215 0.049749092513842547 0 0.13254865804091981 0.063927211530657252 0 0.13254865804091981 0.063927211530657252 0 0.14372747461544541 0.081718510906368919 0 0.13254865804091981 0.063927211530657252 0 0.13602709122601439 0.071834801776145749 0 0.14372747461544541 0.081718510906368919 0 0.1187519132559962 0.073330070717771242 0 0.13602709122601439 0.071834801776145749 0 0.13222229848423689 0.082740643567558239 0 0.13254865804091981 0.063927211530657252 0 0.14510309420944251 0.069188176673628199 0 0.14372747461544541 0.081718510906368919 0 0.1111820128005041 0.056518804123088393 0 0.13254865804091981 0.063927211530657252 0 0.13602709122601439 0.071834801776145749 0 0.14131291853074829 0.05964926751543153 0 0.13254865804091981 0.063927211530657252 0 0.14510309420944251 0.069188176673628199 0 0.14131291853074829 0.05964926751543153 0 0.14510309420944251 0.069188176673628199 0 0.1552543716581426 0.064225174814300401 0 0.14510309420944251 0.069188176673628199 0 0.1527879353780339 0.076129433935451976 0 0.14372747461544541 0.081718510906368919 0 0.14510309420944251 0.069188176673628199 0 0.1527879353780339 0.076129433935451976 0 0.1552543716581426 0.064225174814300401 0 0.14372747461544541 0.081718510906368919 0 0.1415899664807789 0.095619888859691943 0 0.15490629118997101 0.099509810282080557 0 0.14372747461544541 0.081718510906368919 0 0.15490629118997101 0.099509810282080557 0 0.15719042717434659 0.086014544169863996 0 0.14372747461544541 0.081718510906368919 0 0.15490629118997101 0.099509810282080557 0 0.1527879353780339 0.076129433935451976 0 0.14372747461544541 0.081718510906368919 0 0.15719042717434659 0.086014544169863996 0 0.14372747461544541 0.081718510906368919 0 0.13222229848423689 0.082740643567558239 0 0.1415899664807789 0.095619888859691943 0 0.13222229848423689 0.082740643567558239 0 0.12711182105801849 0.096271416258485329 0 0.1415899664807789 0.095619888859691943 0 0.13602709122601439 0.071834801776145749 0 0.14372747461544541 0.081718510906368919 0 0.13222229848423689 0.082740643567558239 0 0.1221416529332626 0.11202310548697909 0 0.12711182105801849 0.096271416258485329 0 0.13174476597186691 0.10547100609616469 0 0.13174476597186691 0.10547100609616469 0 0.1415899664807789 0.095619888859691943 0 0.14084677671012061 0.10816788995310871 0 0.12711182105801849 0.096271416258485329 0 0.13174476597186691 0.10547100609616469 0 0.1415899664807789 0.095619888859691943 0 0.1221416529332626 0.11202310548697909 0 0.13571662765488851 0.13714844270596749 0 0.13324057158529529 0.1194771381521421 0 0.1221416529332626 0.11202310548697909 0 0.13571662765488851 0.13714844270596749 0 0.1221416529332626 0.11202310548697909 0 0.13174476597186691 0.10547100609616469 0 0.13324057158529529 0.1194771381521421 0 0.13174476597186691 0.10547100609616469 0 0.13324057158529529 0.1194771381521421 0 0.14084677671012061 0.10816788995310871 0 0.13936926068676661 0.12870466425705479 0 0.13324057158529529 0.1194771381521421 0 0.14522573028892691 0.12473886703534651 0 0.13324057158529529 0.1194771381521421 0 0.14522573028892691 0.12473886703534651 0 0.14817472514985039 0.1149991443037693 0 0.14817472514985039 0.1149991443037693 0 0.14084677671012061 0.10816788995310871 0 0.14902522424222869 0.1061598970378705 0 0.13324057158529529 0.1194771381521421 0 0.14817472514985039 0.1149991443037693 0 0.14084677671012061 0.10816788995310871 0 0.14817472514985039 0.1149991443037693 0 0.15490857156609569 0.1176502363253572 0 0.15727858785587759 0.1114873391869758 0 0.14817472514985039 0.1149991443037693 0 0.14902522424222869 0.1061598970378705 0 0.15727858785587759 0.1114873391869758 0 0.14522573028892691 0.12473886703534651 0 0.14817472514985039 0.1149991443037693 0 0.15222669915792181 0.1232562258046947 0 0.14817472514985039 0.1149991443037693 0 0.15490857156609569 0.1176502363253572 0 0.15222669915792181 0.1232562258046947 0 0.15490857156609569 0.1176502363253572 0 0.15222669915792181 0.1232562258046947 0 0.15831726968978449 0.1226774466090724 0 0.1539606084885391 0.12851381335764001 0 0.15222669915792181 0.1232562258046947 0 0.15831726968978449 0.1226774466090724 0 0.1415899664807789 0.095619888859691943 0 0.14084677671012061 0.10816788995310871 0 0.14902522424222869 0.1061598970378705 0 0.14902522424222869 0.1061598970378705 0 0.15490629118997101 0.099509810282080557 0 0.15727858785587759 0.1114873391869758 0 0.1415899664807789 0.095619888859691943 0 0.14902522424222869 0.1061598970378705 0 0.15490629118997101 0.099509810282080557 0 0.15490629118997101 0.099509810282080557 0 0.16608510776449789 0.11730110965779141 0 0.15490629118997101 0.099509810282080557 0 0.16163051669624701 0.093754237438085281 0 0.16949735219027701 0.1027494467456245 0 0.15490629118997101 0.099509810282080557 0 0.16949735219027701 0.1027494467456245 0 0.16608510776449789 0.11730110965779141 0 0.16163051669624701 0.093754237438085281 0 0.16949735219027701 0.1027494467456245 0 0.1682860742632015 0.088971475782037679 0 0.15490629118997101 0.099509810282080557 0 0.15727858785587759 0.1114873391869758 0 0.16608510776449789 0.11730110965779141 0 0.1625989365485889 0.1231856797113153 0 0.15831726968978449 0.1226774466090724 0 0.16202304580935031 0.12090959406874929 0 0.16169096308237399 0.1256621397921292 0 0.1625989365485889 0.1231856797113153 0 0.15831726968978449 0.1226774466090724 0 0.16169096308237399 0.1256621397921292 0 0.1625989365485889 0.1231856797113153 0 0.1654659697027335 0.1235795177593695 0 0.1625989365485889 0.1231856797113153 0 0.16202304580935031 0.12090959406874929 0 0.16428922190805931 0.1213828280971832 0 0.15490857156609569 0.1176502363253572 0 0.15831726968978449 0.1226774466090724 0 0.16019390297771921 0.1176054535134327 0 0.15831726968978449 0.1226774466090724 0 0.16019390297771921 0.1176054535134327 0 0.16202304580935031 0.12090959406874929 0 0.16019390297771921 0.1176054535134327 0 0.1642711078549732 0.117394822191404 0 0.16019390297771921 0.1176054535134327 0 0.163400692794298 0.11942726786590591 0 0.1642711078549732 0.117394822191404 0 0.16019390297771921 0.1176054535134327 0 0.16202304580935031 0.12090959406874929 0 0.163400692794298 0.11942726786590591 0 0.16202304580935031 0.12090959406874929 0 0.163400692794298 0.11942726786590591 0 0.16428922190805931 0.1213828280971832 0 0.15727858785587759 0.1114873391869758 0 0.1642711078549732 0.117394822191404 0 0.16608510776449789 0.11730110965779141 0 0.15727858785587759 0.1114873391869758 0 0.1642711078549732 0.117394822191404 0 0.16019390297771921 0.1176054535134327 0 0.15727858785587759 0.1114873391869758 0 0.1642711078549732 0.117394822191404 0 0.15490857156609569 0.1176502363253572 0 0.16019390297771921 0.1176054535134327 0 0.15727858785587759 0.1114873391869758 0 0.16949735219027701 0.1027494467456245 0 0.16608510776449789 0.11730110965779141 0 0.17439092843787959 0.11687202501729629 0 0.16608510776449789 0.11730110965779141 0 0.17439092843787959 0.11687202501729629 0 0.16608510776449789 0.11730110965779141 0 0.1682630287230793 0.12076731232177421 0 0.17439092843787959 0.11687202501729629 0 0.163400692794298 0.11942726786590591 0 0.1642711078549732 0.117394822191404 0 0.16664150975385739 0.1214978305503798 0 0.1642711078549732 0.117394822191404 0 0.1682630287230793 0.12076731232177421 0 0.1642711078549732 0.117394822191404 0 0.16608510776449789 0.11730110965779141 0 0.1682630287230793 0.12076731232177421 0 0.1642711078549732 0.117394822191404 0 0.1682630287230793 0.12076731232177421 0 0.16664150975385739 0.1214978305503798 0 0.1642711078549732 0.117394822191404 0 0.16608510776449789 0.11730110965779141 0 0.163400692794298 0.11942726786590591 0 0.16664150975385739 0.1214978305503798 0 0.16428922190805931 0.1213828280971832 0 0.16608510776449789 0.11730110965779141 0 0.1682630287230793 0.12076731232177421 0 0.1682630287230793 0.12076731232177421 0 0.17439092843787959 0.11687202501729629 0 0.1682630287230793 0.12076731232177421 0 0.16664150975385739 0.1214978305503798 0 0.1654659697027335 0.1235795177593695 0 0.1682630287230793 0.12076731232177421 0 0.1654659697027335 0.1235795177593695 0 0.1625989365485889 0.1231856797113153 0 0.16428922190805931 0.1213828280971832 0 0.1654659697027335 0.1235795177593695 0 0.16664150975385739 0.1214978305503798 0 0.16428922190805931 0.1213828280971832 0 0.1654659697027335 0.1235795177593695 0 0.18259827505216891 0.13287814276120899 0 0.1682630287230793 0.12076731232177421 0 0.17439092843787959 0.11687202501729629 0 0.18259827505216891 0.13287814276120899 0 0.19553778957291831 0.1157795630361771 0 0.17439092843787959 0.11687202501729629 0 0.19553778957291831 0.1157795630361771 0 0.17439092843787959 0.11687202501729629 0 0.1920338740150849 0.1006744196382556 0 0.17439092843787959 0.11687202501729629 0 0.1920338740150849 0.1006744196382556 0 0.16949735219027701 0.1027494467456245 0 0.17878253237975991 0.090856325119021183 0 0.19544036093106401 0.10910163810938769 0 0.1920338740150849 0.1006744196382556 0 0.17439092843787959 0.11687202501729629 0 0.1920338740150849 0.1006744196382556 0 0.16949735219027701 0.1027494467456245 0 0.17439092843787959 0.11687202501729629 0 0.16949735219027701 0.1027494467456245 0 0.17878253237975991 0.090856325119021183 0 0.1682860742632015 0.088971475782037679 0 0.1920338740150849 0.1006744196382556 0 0.18897382172743879 0.08598516360148141 0 0.17878253237975991 0.090856325119021183 0 0.17878253237975991 0.090856325119021183 0 0.17291220633134199 0.080700119901877754 0 0.1682860742632015 0.088971475782037679 0 0.17878253237975991 0.090856325119021183 0 0.17291220633134199 0.080700119901877754 0 0.1822567200742731 0.078338044409950694 0 0.18897382172743879 0.08598516360148141 0 0.17878253237975991 0.090856325119021183 0 0.1822567200742731 0.078338044409950694 0 0.1822567200742731 0.078338044409950694 0 0.18693067397280491 0.071538532439119618 0 0.18055744970368279 0.068612557687756967 0 0.1924488894800904 0.076623514339729831 0 0.1822567200742731 0.078338044409950694 0 0.18693067397280491 0.071538532439119618 0 0.18850806674705861 0.061753896183571369 0 0.1802771677385204 0.061626561295648898 0 0.18619802793009621 0.065635902333457161 0 0.18693067397280491 0.071538532439119618 0 0.18619802793009621 0.065635902333457161 0 0.18055744970368279 0.068612557687756967 0 0.1802771677385204 0.061626561295648898 0 0.18619802793009621 0.065635902333457161 0 0.18055744970368279 0.068612557687756967 0 0.18055744970368279 0.068612557687756967 0 0.17374005379295421 0.07312147285618599 0 0.16944756491539131 0.065212986598974301 0 0.1802771677385204 0.061626561295648898 0 0.18055744970368279 0.068612557687756967 0 0.16944756491539131 0.065212986598974301 0 0.1822567200742731 0.078338044409950694 0 0.18055744970368279 0.068612557687756967 0 0.17374005379295421 0.07312147285618599 0 0.17291220633134199 0.080700119901877754 0 0.1822567200742731 0.078338044409950694 0 0.17374005379295421 0.07312147285618599 0 0.17374005379295421 0.07312147285618599 0 0.1641431604636045 0.076191527984662388 0 0.16944756491539131 0.065212986598974301 0 0.17291220633134199 0.080700119901877754 0 0.17374005379295421 0.07312147285618599 0 0.1641431604636045 0.076191527984662388 0 0.1552543716581426 0.064225174814300401 0 0.1641431604636045 0.076191527984662388 0 0.16944756491539131 0.065212986598974301 0 0.1527879353780339 0.076129433935451976 0 0.1552543716581426 0.064225174814300401 0 0.1641431604636045 0.076191527984662388 0 0.1641431604636045 0.076191527984662388 0 0.15719042717434659 0.086014544169863996 0 0.1682860742632015 0.088971475782037679 0 0.1527879353780339 0.076129433935451976 0 0.1641431604636045 0.076191527984662388 0 0.15719042717434659 0.086014544169863996 0 0.16163051669624701 0.093754237438085281 0 0.15719042717434659 0.086014544169863996 0 0.1682860742632015 0.088971475782037679 0 0.15490629118997101 0.099509810282080557 0 0.16163051669624701 0.093754237438085281 0 0.15719042717434659 0.086014544169863996 0 0.17291220633134199 0.080700119901877754 0 0.1641431604636045 0.076191527984662388 0 0.1682860742632015 0.088971475782037679 0 0.10731540006457251 0.48236950590895772 0 0.1238956110980738 0.46838162262076383 0 0.094529155156288069 0.46204114376849448 0 0.10731540006457251 0.48236950590895772 0 0.1195654229107193 0.5 0 0.090846474537490673 0.5 0 0.10731540006457251 0.48236950590895772 0 0.1195654229107193 0.5 0 0.13580201835749661 0.48441293847055811 0 0.10731540006457251 0.48236950590895772 0 0.1238956110980738 0.46838162262076383 0 0.13580201835749661 0.48441293847055811 0 0.1238956110980738 0.46838162262076383 0 0.12125214206241119 0.44582005051402618 0 0.094529155156288069 0.46204114376849448 0 0.12125214206241119 0.44582005051402618 0 0.094529155156288069 0.46204114376849448 0 0.095775154673509083 0.43523483693817772 0 0.1238956110980738 0.46838162262076383 0 0.094529155156288069 0.46204114376849448 0 0.094529155156288069 0.46204114376849448 0 0.07413213581707985 0.45917209454787578 0 0.079253718327366607 0.47938133059393018 0 0.094529155156288069 0.46204114376849448 0 0.07413213581707985 0.45917209454787578 0 0.095775154673509083 0.43523483693817772 0 0.069478468254658587 0.43910687041324842 0 0.07413213581707985 0.45917209454787578 0 0.095775154673509083 0.43523483693817772 0 0.069478468254658587 0.43910687041324842 0 0.07413213581707985 0.45917209454787578 0 0.052688003006837403 0.45351301623094309 0 0.07413213581707985 0.45917209454787578 0 0.079253718327366607 0.47938133059393018 0 0.056672262029243393 0.47010016156209061 0 0.079253718327366607 0.47938133059393018 0 0.062127526164262148 0.5 0 0.056672262029243393 0.47010016156209061 0 0.10731540006457251 0.48236950590895772 0 0.094529155156288069 0.46204114376849448 0 0.079253718327366607 0.47938133059393018 0 0.10731540006457251 0.48236950590895772 0 0.079253718327366607 0.47938133059393018 0 0.090846474537490673 0.5 0 0.079253718327366607 0.47938133059393018 0 0.090846474537490673 0.5 0 0.062127526164262148 0.5 0 0.062127526164262148 0.5 0 0.056672262029243393 0.47010016156209061 0 0.038951528059004668 0.48087356550278099 0 0.038951528059004668 0.48087356550278099 0 0.025438453352630171 0.4693518981789524 0 0.037487523677357221 0.4627105832370656 0 0.056672262029243393 0.47010016156209061 0 0.038951528059004668 0.48087356550278099 0 0.037487523677357221 0.4627105832370656 0 0.062127526164262148 0.5 0 0.038951528059004668 0.48087356550278099 0 0.033408577791033622 0.5 0 0.033408577791033622 0.5 0 0.015562134544051949 0.48246729820795181 0 0.0046896294178049858 0.5 0 0.038951528059004668 0.48087356550278099 0 0.033408577791033622 0.5 0 0.015562134544051949 0.48246729820795181 0 0.025438453352630171 0.4693518981789524 0 0.015562134544051949 0.48246729820795181 0 0.013263139689584509 0.46495135629202961 0 0.038951528059004668 0.48087356550278099 0 0.025438453352630171 0.4693518981789524 0 0.015562134544051949 0.48246729820795181 0 0.015562134544051949 0.48246729820795181 0 0.002334760443109415 0.47154344293807721 0 0.013263139689584509 0.46495135629202961 0 -0.0064975003056543766 0.48465894610548932 0 0.015562134544051949 0.48246729820795181 0 0.002334760443109415 0.47154344293807721 0 -0.0064975003056543766 0.48465894610548932 0 0.015562134544051949 0.48246729820795181 0 0.0046896294178049858 0.5 0 -0.003662180686688134 0.44777646677072458 0 0.0077625963234152062 0.4398748531999524 0 0.020718035627094081 0.44488660131823249 0 -0.003662180686688134 0.44777646677072458 0 0.01213077728864808 0.4504960359456302 0 0.020718035627094081 0.44488660131823249 0 -0.003662180686688134 0.44777646677072458 0 0.020718035627094081 0.44488660131823249 0 -0.01068910546206637 0.45215060860514888 0 0.01213077728864808 0.4504960359456302 0 0.0077625963234152062 0.4398748531999524 0 0.020718035627094081 0.44488660131823249 0 0.0157202877687217 0.43718228454496511 0 -0.003662180686688134 0.44777646677072458 0 -0.00033789435619270938 0.43757237590417902 0 0.0077625963234152062 0.4398748531999524 0 -0.01068910546206637 0.45215060860514888 0 0.01213077728864808 0.4504960359456302 0 0.0014539775662769251 0.46057763459147982 0 0.002334760443109415 0.47154344293807721 0 0.0014539775662769251 0.46057763459147982 0 0.013263139689584509 0.46495135629202961 0 0.01213077728864808 0.4504960359456302 0 0.0014539775662769251 0.46057763459147982 0 0.013263139689584509 0.46495135629202961 0 0.01213077728864808 0.4504960359456302 0 0.013263139689584509 0.46495135629202961 0 0.024315854066005799 0.45910030508266308 0 0.025438453352630171 0.4693518981789524 0 0.013263139689584509 0.46495135629202961 0 0.024315854066005799 0.45910030508266308 0 0.025438453352630171 0.4693518981789524 0 0.024315854066005799 0.45910030508266308 0 0.037487523677357221 0.4627105832370656 0 0.01213077728864808 0.4504960359456302 0 0.034950660039362577 0.44884146328611152 0 0.01213077728864808 0.4504960359456302 0 0.024315854066005799 0.45910030508266308 0 0.034950660039362577 0.44884146328611152 0 0.01213077728864808 0.4504960359456302 0 0.020718035627094081 0.44488660131823249 0 0.034950660039362577 0.44884146328611152 0 0.020718035627094081 0.44488660131823249 0 0.023398750843442308 0.43733685118356902 0 0.0157202877687217 0.43718228454496511 0 0.020718035627094081 0.44488660131823249 0 0.032053640216607303 0.43623268874290277 0 0.023398750843442308 0.43733685118356902 0 0.034950660039362577 0.44884146328611152 0 0.045098251940876369 0.44199673586574051 0 0.052688003006837403 0.45351301623094309 0 0.020718035627094081 0.44488660131823249 0 0.034950660039362577 0.44884146328611152 0 0.045098251940876369 0.44199673586574051 0 0.020718035627094081 0.44488660131823249 0 0.045098251940876369 0.44199673586574051 0 0.032053640216607303 0.43623268874290277 0 0.020718035627094081 0.44488660131823249 0 0.045098251940876369 0.44199673586574051 0 0.034950660039362577 0.44884146328611152 0 0.037487523677357221 0.4627105832370656 0 0.052688003006837403 0.45351301623094309 0 0.024315854066005799 0.45910030508266308 0 0.034950660039362577 0.44884146328611152 0 0.037487523677357221 0.4627105832370656 0 0.07413213581707985 0.45917209454787578 0 0.056672262029243393 0.47010016156209061 0 0.052688003006837403 0.45351301623094309 0 0.056672262029243393 0.47010016156209061 0 0.037487523677357221 0.4627105832370656 0 0.052688003006837403 0.45351301623094309 0 0.069478468254658587 0.43910687041324842 0 0.045098251940876369 0.44199673586574051 0 0.052688003006837403 0.45351301623094309 0 0.069478468254658587 0.43910687041324842 0 0.045098251940876369 0.44199673586574051 0 0.069478468254658587 0.43910687041324842 0 0.045098251940876369 0.44199673586574051 0 0.044609877271669728 0.42718665510689963 0 0.069478468254658587 0.43910687041324842 0 0.05690153667620769 0.4180080119249352 0 0.044609877271669728 0.42718665510689963 0 0.05690153667620769 0.4180080119249352 0 0.039688255053039738 0.40906392068859199 0 0.044609877271669728 0.42718665510689963 0 0.05690153667620769 0.4180080119249352 0 0.039688255053039738 0.40906392068859199 0 0.05809601590797759 0.39990522439332649 0 0.039688255053039738 0.40906392068859199 0 0.044609877271669728 0.42718665510689963 0 0.029316000412602732 0.42166156659220128 0 0.045098251940876369 0.44199673586574051 0 0.044609877271669728 0.42718665510689963 0 0.032053640216607303 0.43623268874290277 0 0.044609877271669728 0.42718665510689963 0 0.032053640216607303 0.43623268874290277 0 0.029316000412602732 0.42166156659220128 0 0.032053640216607303 0.43623268874290277 0 0.023398750843442308 0.43733685118356902 0 0.01879028956571439 0.43061898159802442 0 0.023398750843442308 0.43733685118356902 0 0.01879028956571439 0.43061898159802442 0 0.0157202877687217 0.43718228454496511 0 0.01879028956571439 0.43061898159802442 0 0.029316000412602732 0.42166156659220128 0 0.016044590409517692 0.4176273127722378 0 0.032053640216607303 0.43623268874290277 0 0.01879028956571439 0.43061898159802442 0 0.029316000412602732 0.42166156659220128 0 0.039688255053039738 0.40906392068859199 0 0.029316000412602732 0.42166156659220128 0 0.0203027742049346 0.40410186661272529 0 0.029316000412602732 0.42166156659220128 0 0.016044590409517692 0.4176273127722378 0 0.0203027742049346 0.40410186661272529 0 0.016044590409517692 0.4176273127722378 0 0.0062110592726292973 0.41010007649745189 0 0.0056028285917074346 0.42165407256078619 0 0.016044590409517692 0.4176273127722378 0 0.0062110592726292973 0.41010007649745189 0 0.0203027742049346 0.40410186661272529 0 -0.00096918350646317563 0.41465633725833412 0 0.0062110592726292973 0.41010007649745189 0 0.0056028285917074346 0.42165407256078619 0 -0.0033847971853434139 0.43093556859388288 0 0.0056028285917074346 0.42165407256078619 0 0.0073763795368324298 0.43315658188741379 0 -0.00033789435619270938 0.43757237590417902 0 0.0077625963234152062 0.4398748531999524 0 0.0073763795368324298 0.43315658188741379 0 -0.0033847971853434139 0.43093556859388288 0 -0.00033789435619270938 0.43757237590417902 0 0.0073763795368324298 0.43315658188741379 0 0.0077625963234152062 0.4398748531999524 0 0.0157202877687217 0.43718228454496511 0 0.0073763795368324298 0.43315658188741379 0 0.01879028956571439 0.43061898159802442 0 0.0157202877687217 0.43718228454496511 0 0.0073763795368324298 0.43315658188741379 0 0.01879028956571439 0.43061898159802442 0 0.0056028285917074346 0.42165407256078619 0 0.0073763795368324298 0.43315658188741379 0 0.01879028956571439 0.43061898159802442 0 0.016044590409517692 0.4176273127722378 0 0.0056028285917074346 0.42165407256078619 0 0.012481803343984891 0.38724628073840472 0 0.019157163765866809 0.36978970136449979 0 0.0030432833389739309 0.3686872213646244 0 -0.0076686872235991448 0.37344720763265937 0 0.012481803343984891 0.38724628073840472 0 0.0030432833389739309 0.3686872213646244 0 0.012481803343984891 0.38724628073840472 0 0.0019362671598315191 0.39720683037777738 0 0.0203027742049346 0.40410186661272529 0 0.0062110592726292973 0.41010007649745189 0 0.0019362671598315191 0.39720683037777738 0 0.0203027742049346 0.40410186661272529 0 -0.0103240943211206 0.38834871657323011 0 0.012481803343984891 0.38724628073840472 0 0.0019362671598315191 0.39720683037777738 0 -0.0062698827988422884 0.40687083329545848 0 0.0062110592726292973 0.41010007649745189 0 0.0019362671598315191 0.39720683037777738 0 0.012481803343984891 0.38724628073840472 0 0.0203027742049346 0.40410186661272529 0 0.040607859262383729 0.39059987210839853 0 0.012481803343984891 0.38724628073840472 0 0.027825777676813199 0.37872031866053829 0 0.019157163765866809 0.36978970136449979 0 0.012481803343984891 0.38724628073840472 0 0.040607859262383729 0.39059987210839853 0 0.012481803343984891 0.38724628073840472 0 0.027825777676813199 0.37872031866053829 0 0.040607859262383729 0.39059987210839853 0 0.040607859262383729 0.39059987210839853 0 0.060571385649761757 0.38025076564603738 0 0.039056284335017358 0.36724542043085029 0 0.027825777676813199 0.37872031866053829 0 0.040607859262383729 0.39059987210839853 0 0.039056284335017358 0.36724542043085029 0 0.039688255053039738 0.40906392068859199 0 0.0203027742049346 0.40410186661272529 0 0.040607859262383729 0.39059987210839853 0 0.039688255053039738 0.40906392068859199 0 0.040607859262383729 0.39059987210839853 0 0.05809601590797759 0.39990522439332649 0 0.040607859262383729 0.39059987210839853 0 0.05809601590797759 0.39990522439332649 0 0.060571385649761757 0.38025076564603738 0 0.060571385649761757 0.38025076564603738 0 0.082086486964506128 0.39325611086122442 0 0.060571385649761757 0.38025076564603738 0 0.076832886183890059 0.37616790642294301 0 0.082086486964506128 0.39325611086122442 0 0.076832886183890059 0.37616790642294301 0 0.082086486964506128 0.39325611086122442 0 0.093549450503817536 0.36927502029612319 0 0.082086486964506128 0.39325611086122442 0 0.10360158827925051 0.4062614560764114 0 0.082086486964506128 0.39325611086122442 0 0.077656541792684913 0.41529541843455392 0 0.10360158827925051 0.4062614560764114 0 0.05809601590797759 0.39990522439332649 0 0.082086486964506128 0.39325611086122442 0 0.077656541792684913 0.41529541843455392 0 0.05809601590797759 0.39990522439332649 0 0.060571385649761757 0.38025076564603738 0 0.082086486964506128 0.39325611086122442 0 0.05690153667620769 0.4180080119249352 0 0.05809601590797759 0.39990522439332649 0 0.077656541792684913 0.41529541843455392 0 0.069478468254658587 0.43910687041324842 0 0.05690153667620769 0.4180080119249352 0 0.077656541792684913 0.41529541843455392 0 0.069478468254658587 0.43910687041324842 0 0.077656541792684913 0.41529541843455392 0 0.095775154673509083 0.43523483693817772 0 0.077656541792684913 0.41529541843455392 0 0.10360158827925051 0.4062614560764114 0 0.095775154673509083 0.43523483693817772 0 0.10360158827925051 0.4062614560764114 0 0.095775154673509083 0.43523483693817772 0 0.12511668959399491 0.41926680129159849 0 0.12125214206241119 0.44582005051402618 0 0.095775154673509083 0.43523483693817772 0 0.12511668959399491 0.41926680129159849 0 0.10360158827925051 0.4062614560764114 0 0.1218273948895322 0.40036723235672672 0 0.12511668959399491 0.41926680129159849 0 0.10360158827925051 0.4062614560764114 0 0.12511668959399491 0.41926680129159849 0 0.10360158827925051 0.4062614560764114 0 0.1218273948895322 0.40036723235672672 0 0.10651191053106671 0.38603983404744369 0 0.10651191053106671 0.38603983404744369 0 0.11764373659217529 0.36702659591577241 0 0.1309133037688035 0.38422249999567948 0 0.1218273948895322 0.40036723235672672 0 0.10651191053106671 0.38603983404744369 0 0.1309133037688035 0.38422249999567948 0 0.082086486964506128 0.39325611086122442 0 0.10651191053106671 0.38603983404744369 0 0.093549450503817536 0.36927502029612319 0 0.082086486964506128 0.39325611086122442 0 0.10360158827925051 0.4062614560764114 0 0.10651191053106671 0.38603983404744369 0 0.1078075760736345 0.34684294297300161 0 0.083880356293113606 0.34451616622450448 0 0.093549450503817536 0.36927502029612319 0 0.1078075760736345 0.34684294297300161 0 0.083880356293113606 0.34451616622450448 0 0.10651191053106671 0.38603983404744369 0 0.11764373659217529 0.36702659591577241 0 0.093549450503817536 0.36927502029612319 0 0.1078075760736345 0.34684294297300161 0 0.11764373659217529 0.36702659591577241 0 0.093549450503817536 0.36927502029612319 0 0.1078075760736345 0.34684294297300161 0 0.11764373659217529 0.36702659591577241 0 0.13173479585415551 0.34916971972149857 0 0.1078075760736345 0.34684294297300161 0 0.13173479585415551 0.34916971972149857 0 0.1078075760736345 0.34684294297300161 0 0.1238771491773053 0.32546176342320021 0 0.099751257265178278 0.33132707033492681 0 0.1078075760736345 0.34684294297300161 0 0.1238771491773053 0.32546176342320021 0 0.13173479585415551 0.34916971972149857 0 0.1238771491773053 0.32546176342320021 0 0.099751257265178278 0.33132707033492681 0 0.10214309101702811 0.31247985621061702 0 0.099751257265178278 0.33132707033492681 0 0.08104811376480997 0.32733462284331061 0 0.10214309101702811 0.31247985621061702 0 0.1078075760736345 0.34684294297300161 0 0.099751257265178278 0.33132707033492681 0 0.083880356293113606 0.34451616622450448 0 0.099751257265178278 0.33132707033492681 0 0.08104811376480997 0.32733462284331061 0 0.083880356293113606 0.34451616622450448 0 0.08104811376480997 0.32733462284331061 0 0.075085340888369115 0.3014655720845959 0 0.10214309101702811 0.31247985621061702 0 0.08104811376480997 0.32733462284331061 0 0.10214309101702811 0.31247985621061702 0 0.08104811376480997 0.32733462284331061 0 0.065868552664081217 0.32189340626390728 0 0.075085340888369115 0.3014655720845959 0 0.08104811376480997 0.32733462284331061 0 0.065868552664081217 0.32189340626390728 0 0.05995313651259291 0.34218938947600541 0 0.08104811376480997 0.32733462284331061 0 0.083880356293113606 0.34451616622450448 0 0.05995313651259291 0.34218938947600541 0 0.083880356293113606 0.34451616622450448 0 0.05995313651259291 0.34218938947600541 0 0.08104811376480997 0.32733462284331061 0 0.05995313651259291 0.34218938947600541 0 0.083880356293113606 0.34451616622450448 0 0.070194949534519838 0.36105873615185718 0 0.05995313651259291 0.34218938947600541 0 0.083880356293113606 0.34451616622450448 0 0.093549450503817536 0.36927502029612319 0 0.070194949534519838 0.36105873615185718 0 0.076832886183890059 0.37616790642294301 0 0.093549450503817536 0.36927502029612319 0 0.070194949534519838 0.36105873615185718 0 0.060571385649761757 0.38025076564603738 0 0.076832886183890059 0.37616790642294301 0 0.070194949534519838 0.36105873615185718 0 0.060571385649761757 0.38025076564603738 0 0.070194949534519838 0.36105873615185718 0 0.054843747896439803 0.36524996961388229 0 0.060571385649761757 0.38025076564603738 0 0.054843747896439803 0.36524996961388229 0 0.039056284335017358 0.36724542043085029 0 0.060571385649761757 0.38025076564603738 0 0.039056284335017358 0.36724542043085029 0 0.070194949534519838 0.36105873615185718 0 0.054843747896439803 0.36524996961388229 0 0.056371253755297362 0.3551117174409163 0 0.054843747896439803 0.36524996961388229 0 0.056371253755297362 0.3551117174409163 0 0.046350897272920542 0.36150762986046919 0 0.04566292170363135 0.35225234444296649 0 0.038688860391977178 0.34012156781912839 0 0.05995313651259291 0.34218938947600541 0 0.070194949534519838 0.36105873615185718 0 0.056371253755297362 0.3551117174409163 0 0.05995313651259291 0.34218938947600541 0 0.056371253755297362 0.3551117174409163 0 0.04566292170363135 0.35225234444296649 0 0.046350897272920542 0.36150762986046919 0 0.04566292170363135 0.35225234444296649 0 0.05995313651259291 0.34218938947600541 0 0.056371253755297362 0.3551117174409163 0 0.04566292170363135 0.35225234444296649 0 0.05995313651259291 0.34218938947600541 0 0.04566292170363135 0.35225234444296649 0 0.034369588132518357 0.35207668325644192 0 0.038688860391977178 0.34012156781912839 0 0.04566292170363135 0.35225234444296649 0 0.046350897272920542 0.36150762986046919 0 0.03124627310558525 0.36252446231462498 0 0.04566292170363135 0.35225234444296649 0 0.03124627310558525 0.36252446231462498 0 0.04566292170363135 0.35225234444296649 0 0.034369588132518357 0.35207668325644192 0 0.03124627310558525 0.36252446231462498 0 0.034369588132518357 0.35207668325644192 0 0.027447240930944559 0.34535520949081522 0 0.038688860391977178 0.34012156781912839 0 0.054843747896439803 0.36524996961388229 0 0.046350897272920542 0.36150762986046919 0 0.039056284335017358 0.36724542043085029 0 0.046350897272920542 0.36150762986046919 0 0.039056284335017358 0.36724542043085029 0 0.03124627310558525 0.36252446231462498 0 0.039056284335017358 0.36724542043085029 0 0.03124627310558525 0.36252446231462498 0 0.027825777676813199 0.37872031866053829 0 0.039056284335017358 0.36724542043085029 0 0.019157163765866809 0.36978970136449979 0 0.039056284335017358 0.36724542043085029 0 0.019157163765866809 0.36978970136449979 0 0.03124627310558525 0.36252446231462498 0 0.019157163765866809 0.36978970136449979 0 0.03124627310558525 0.36252446231462498 0 0.017541183020272948 0.35424007521566331 0 0.03124627310558525 0.36252446231462498 0 0.017541183020272948 0.35424007521566331 0 0.034369588132518357 0.35207668325644192 0 0.027447240930944559 0.34535520949081522 0 0.017541183020272948 0.35424007521566331 0 0.034369588132518357 0.35207668325644192 0 0.03124627310558525 0.36252446231462498 0 0.017541183020272948 0.35424007521566331 0 0.020181638430483081 0.34479880498984489 0 0.017541183020272948 0.35424007521566331 0 0.01469176946330009 0.34677113837143642 0 0.027447240930944559 0.34535520949081522 0 0.020181638430483081 0.34479880498984489 0 0.017541183020272948 0.35424007521566331 0 0.020181638430483081 0.34479880498984489 0 0.01469176946330009 0.34677113837143642 0 0.01583734796427199 0.34099913344043598 0 0.017541183020272948 0.35424007521566331 0 0.0066219711490996831 0.34891505666914191 0 0.0096018045195795654 0.36048318949589442 0 0.01469176946330009 0.34677113837143642 0 0.0066219711490996831 0.34891505666914191 0 0.010699658557479281 0.34306912524352662 0 0.017541183020272948 0.35424007521566331 0 0.01469176946330009 0.34677113837143642 0 0.0066219711490996831 0.34891505666914191 0 0.0066219711490996831 0.34891505666914191 0 0.0053443430940815504 0.34023460775490488 0 0.010699658557479281 0.34306912524352662 0 -0.0062651488388395593 0.35121833234929339 0 0.0066219711490996831 0.34891505666914191 0 0.001025247234433042 0.35787708659393203 0 0.0066219711490996831 0.34891505666914191 0 0.001025247234433042 0.35787708659393203 0 0.0096018045195795654 0.36048318949589442 0 0.019157163765866809 0.36978970136449979 0 0.0030432833389739309 0.3686872213646244 0 0.0096018045195795654 0.36048318949589442 0 0.001025247234433042 0.35787708659393203 0 0.0030432833389739309 0.3686872213646244 0 0.0096018045195795654 0.36048318949589442 0 0.019157163765866809 0.36978970136449979 0 0.017541183020272948 0.35424007521566331 0 0.0096018045195795654 0.36048318949589442 0 0.0065208847956155381 0.31713335066096943 0 0.01850215767167453 0.33605412520447409 0 0.018455623266933448 0.31524599435471129 0 0.0065208847956155381 0.31713335066096943 0 0.01850215767167453 0.33605412520447409 0 0.0065208847956155381 0.31713335066096943 0 0.018455623266933448 0.31524599435471129 0 0.009119139147131132 0.30582000141964111 0 0.0065208847956155381 0.31713335066096943 0 0.0032683553199878181 0.33129555223838958 0 -0.00096930810877692583 0.32313220051569053 0 0.0065208847956155381 0.31713335066096943 0 0.0032683553199878181 0.33129555223838958 0 0.0065208847956155381 0.31713335066096943 0 0.0032683553199878181 0.33129555223838958 0 0.01850215767167453 0.33605412520447409 0 0.0032683553199878181 0.33129555223838958 0 0.0053443430940815504 0.34023460775490488 0 0.010407171309817441 0.33737134538759611 0 -0.0022169591028925739 0.34003475710261488 0 0.0032683553199878181 0.33129555223838958 0 0.0053443430940815504 0.34023460775490488 0 -0.0022169591028925739 0.34003475710261488 0 0.0066219711490996831 0.34891505666914191 0 0.0053443430940815504 0.34023460775490488 0 0.010407171309817441 0.33737134538759611 0 0.017424584271361579 0.33805374616224931 0 0.01850215767167453 0.33605412520447409 0 0.0053443430940815504 0.34023460775490488 0 0.010699658557479281 0.34306912524352662 0 0.010407171309817441 0.33737134538759611 0 0.010407171309817441 0.33737134538759611 0 0.01583734796427199 0.34099913344043598 0 0.017424584271361579 0.33805374616224931 0 0.010407171309817441 0.33737134538759611 0 0.017424584271361579 0.33805374616224931 0 0.01469176946330009 0.34677113837143642 0 0.010699658557479281 0.34306912524352662 0 0.01583734796427199 0.34099913344043598 0 0.010699658557479281 0.34306912524352662 0 0.010407171309817441 0.33737134538759611 0 0.01583734796427199 0.34099913344043598 0 0.0032683553199878181 0.33129555223838958 0 0.010407171309817441 0.33737134538759611 0 0.01850215767167453 0.33605412520447409 0 0.01850215767167453 0.33605412520447409 0 0.027033276070973309 0.3202231821434065 0 0.017424584271361579 0.33805374616224931 0 0.038688860391977178 0.34012156781912839 0 0.017424584271361579 0.33805374616224931 0 0.01850215767167453 0.33605412520447409 0 0.038688860391977178 0.34012156781912839 0 0.01850215767167453 0.33605412520447409 0 0.02866744461598188 0.33208081621155722 0 0.027033276070973309 0.3202231821434065 0 0.027447240930944559 0.34535520949081522 0 0.017424584271361579 0.33805374616224931 0 0.038688860391977178 0.34012156781912839 0 0.01850215767167453 0.33605412520447409 0 0.02866744461598188 0.33208081621155722 0 0.038688860391977178 0.34012156781912839 0 0.027447240930944559 0.34535520949081522 0 0.020181638430483081 0.34479880498984489 0 0.017424584271361579 0.33805374616224931 0 0.020181638430483081 0.34479880498984489 0 0.01583734796427199 0.34099913344043598 0 0.017424584271361579 0.33805374616224931 0 0.01583734796427199 0.34099913344043598 0 0.017424584271361579 0.33805374616224931 0 0.017424584271361579 0.33805374616224931 0 0.01850215767167453 0.33605412520447409 0 0.02866744461598188 0.33208081621155722 0 0.027033276070973309 0.3202231821434065 0 0.037308569004190349 0.32646082708761798 0 0.01850215767167453 0.33605412520447409 0 0.018455623266933448 0.31524599435471129 0 0.027033276070973309 0.3202231821434065 0 0.018455623266933448 0.31524599435471129 0 0.027033276070973309 0.3202231821434065 0 0.035564394470269947 0.30439223908233792 0 0.027033276070973309 0.3202231821434065 0 0.041293008878478837 0.3155154432667856 0 0.035564394470269947 0.30439223908233792 0 0.027033276070973309 0.3202231821434065 0 0.037308569004190349 0.32646082708761798 0 0.041293008878478837 0.3155154432667856 0 0.037308569004190349 0.32646082708761798 0 0.041293008878478837 0.3155154432667856 0 0.050860255063540541 0.32436312599721201 0 0.037308569004190349 0.32646082708761798 0 0.038688860391977178 0.34012156781912839 0 0.050860255063540541 0.32436312599721201 0 0.02866744461598188 0.33208081621155722 0 0.037308569004190349 0.32646082708761798 0 0.038688860391977178 0.34012156781912839 0 0.038688860391977178 0.34012156781912839 0 0.05995313651259291 0.34218938947600541 0 0.038688860391977178 0.34012156781912839 0 0.05995313651259291 0.34218938947600541 0 0.050860255063540541 0.32436312599721201 0 0.065868552664081217 0.32189340626390728 0 0.05995313651259291 0.34218938947600541 0 0.050860255063540541 0.32436312599721201 0 0.050860255063540541 0.32436312599721201 0 0.059954497986296068 0.30949354843242732 0 0.050111918014468612 0.31238563307780792 0 0.041293008878478837 0.3155154432667856 0 0.050860255063540541 0.32436312599721201 0 0.050111918014468612 0.31238563307780792 0 0.065868552664081217 0.32189340626390728 0 0.050860255063540541 0.32436312599721201 0 0.059954497986296068 0.30949354843242732 0 0.059954497986296068 0.30949354843242732 0 0.055732913270128102 0.29712421580132081 0 0.050111918014468612 0.31238563307780792 0 0.055732913270128102 0.29712421580132081 0 0.050111918014468612 0.31238563307780792 0 0.043689012616484807 0.30395359617069029 0 0.055732913270128102 0.29712421580132081 0 0.062416315869152819 0.28435900105419742 0 0.046515596545127297 0.28407041861486332 0 0.055732913270128102 0.29712421580132081 0 0.046515596545127297 0.28407041861486332 0 0.043689012616484807 0.30395359617069029 0 0.046515596545127297 0.28407041861486332 0 0.035564394470269947 0.30439223908233792 0 0.02952273791696719 0.28915636566702702 0 0.046515596545127297 0.28407041861486332 0 0.035564394470269947 0.30439223908233792 0 0.046515596545127297 0.28407041861486332 0 0.02952273791696719 0.28915636566702702 0 0.03180747953168428 0.27655680028492591 0 0.046515596545127297 0.28407041861486332 0 0.043689012616484807 0.30395359617069029 0 0.035564394470269947 0.30439223908233792 0 0.027033276070973309 0.3202231821434065 0 0.035564394470269947 0.30439223908233792 0 0.041293008878478837 0.3155154432667856 0 0.043689012616484807 0.30395359617069029 0 0.035564394470269947 0.30439223908233792 0 0.041293008878478837 0.3155154432667856 0 0.050111918014468612 0.31238563307780792 0 0.043689012616484807 0.30395359617069029 0 0.043689012616484807 0.30395359617069029 0 0.035564394470269947 0.30439223908233792 0 0.035564394470269947 0.30439223908233792 0 0.009119139147131132 0.30582000141964111 0 0.018455623266933448 0.31524599435471129 0 0.035564394470269947 0.30439223908233792 0 0.009119139147131132 0.30582000141964111 0 0.035564394470269947 0.30439223908233792 0 0.022083373432805201 0.2958455885679101 0 0.009119139147131132 0.30582000141964111 0 0.02952273791696719 0.28915636566702702 0 0.014127222196852271 0.28401374810262903 0 0.03180747953168428 0.27655680028492591 0 0.035564394470269947 0.30439223908233792 0 0.02952273791696719 0.28915636566702702 0 0.022083373432805201 0.2958455885679101 0 0.02952273791696719 0.28915636566702702 0 0.022083373432805201 0.2958455885679101 0 0.014127222196852271 0.28401374810262903 0 0.022083373432805201 0.2958455885679101 0 0.014127222196852271 0.28401374810262903 0 0.009119139147131132 0.30582000141964111 0 -0.002429867640735646 0.27818434943237969 0 0.014127222196852271 0.28401374810262903 0 0.002272398575433739 0.29367378081891471 0 0.014127222196852271 0.28401374810262903 0 0.009119139147131132 0.30582000141964111 0 0.014127222196852271 0.28401374810262903 0 0.002272398575433739 0.29367378081891471 0 0.009119139147131132 0.30582000141964111 0 -0.00032039209777558631 0.30632963564433752 0 0.002272398575433739 0.29367378081891471 0 0.009119139147131132 0.30582000141964111 0 -0.00032039209777558631 0.30632963564433752 0 0.0065208847956155381 0.31713335066096943 0 0.009119139147131132 0.30582000141964111 0 -0.00032039209777558631 0.30632963564433752 0 0.009119139147131132 0.30582000141964111 0 -0.00032039209777558631 0.30632963564433752 0 0.0065208847956155381 0.31713335066096943 0 0.0065208847956155381 0.31713335066096943 0 0.009119139147131132 0.30582000141964111 0 0.0075479710267653899 0.25899639646182387 0 0.0078892148500726705 0.27063368354733558 0 0.019135305246574998 0.26220749478561739 0 0.01325113107138765 0.24994977195075141 0 0.0075479710267653899 0.25899639646182387 0 0.019135305246574998 0.26220749478561739 0 0.01325113107138765 0.24994977195075141 0 0.003791674785571924 0.24772290422529519 0 0.0075479710267653899 0.25899639646182387 0 -0.004564386456106905 0.25685639806929428 0 0.003791674785571924 0.24772290422529519 0 0.0075479710267653899 0.25899639646182387 0 -0.004564386456106905 0.25685639806929428 0 0.0075479710267653899 0.25899639646182387 0 0.00013404393218866101 0.26668544968263141 0 0.0075479710267653899 0.25899639646182387 0 0.00013404393218866101 0.26668544968263141 0 0.0078892148500726705 0.27063368354733558 0 0.014127222196852271 0.28401374810262903 0 0.0078892148500726705 0.27063368354733558 0 0.019135305246574998 0.26220749478561739 0 -0.002429867640735646 0.27818434943237969 0 0.00013404393218866101 0.26668544968263141 0 0.0078892148500726705 0.27063368354733558 0 -0.002429867640735646 0.27818434943237969 0 0.014127222196852271 0.28401374810262903 0 0.0078892148500726705 0.27063368354733558 0 0.014127222196852271 0.28401374810262903 0 0.019135305246574998 0.26220749478561739 0 0.014127222196852271 0.28401374810262903 0 0.026237888754789732 0.26793610125417949 0 0.019135305246574998 0.26220749478561739 0 0.014127222196852271 0.28401374810262903 0 0.026237888754789732 0.26793610125417949 0 0.03180747953168428 0.27655680028492591 0 0.024143388296297971 0.24040124146860589 0 0.01325113107138765 0.24994977195075141 0 0.019135305246574998 0.26220749478561739 0 0.026237888754789732 0.26793610125417949 0 0.026404545020734992 0.25651996196379739 0 0.03971489177810212 0.2603825011339278 0 0.026237888754789732 0.26793610125417949 0 0.019135305246574998 0.26220749478561739 0 0.026404545020734992 0.25651996196379739 0 0.024143388296297971 0.24040124146860589 0 0.019135305246574998 0.26220749478561739 0 0.024143388296297971 0.24040124146860589 0 0.019135305246574998 0.26220749478561739 0 0.026404545020734992 0.25651996196379739 0 0.031434663195222673 0.2478948043304843 0 0.026404545020734992 0.25651996196379739 0 0.03971489177810212 0.2603825011339278 0 0.040285344304628143 0.24574221750912931 0 0.031434663195222673 0.2478948043304843 0 0.03971489177810212 0.2603825011339278 0 0.026237888754789732 0.26793610125417949 0 0.03971489177810212 0.2603825011339278 0 0.03180747953168428 0.27655680028492591 0 0.046515596545127297 0.28407041861486332 0 0.03971489177810212 0.2603825011339278 0 0.03180747953168428 0.27655680028492591 0 0.046515596545127297 0.28407041861486332 0 0.03971489177810212 0.2603825011339278 0 0.057466798619983633 0.26374859814738821 0 0.062416315869152819 0.28435900105419742 0 0.046515596545127297 0.28407041861486332 0 0.057466798619983633 0.26374859814738821 0 0.046515596545127297 0.28407041861486332 0 0.057466798619983633 0.26374859814738821 0 0.054054209473331151 0.24323771215732229 0 0.068418000694839998 0.24342677767991289 0 0.057466798619983633 0.26374859814738821 0 0.054054209473331151 0.24323771215732229 0 0.03971489177810212 0.2603825011339278 0 0.057466798619983633 0.26374859814738821 0 0.057466798619983633 0.26374859814738821 0 0.075266083395755037 0.25763888860009909 0 0.077280930022155955 0.2753862006228191 0 0.068418000694839998 0.24342677767991289 0 0.057466798619983633 0.26374859814738821 0 0.068418000694839998 0.24342677767991289 0 0.057466798619983633 0.26374859814738821 0 0.075266083395755037 0.25763888860009909 0 0.075266083395755037 0.25763888860009909 0 0.093382952469636155 0.25882828081653358 0 0.077280930022155955 0.2753862006228191 0 0.088558722698074119 0.2391029110657821 0 0.075266083395755037 0.25763888860009909 0 0.093382952469636155 0.25882828081653358 0 0.093382952469636155 0.25882828081653358 0 0.077280930022155955 0.2753862006228191 0 0.094430493013301045 0.28420642560368797 0 0.062416315869152819 0.28435900105419742 0 0.057466798619983633 0.26374859814738821 0 0.077280930022155955 0.2753862006228191 0 0.062416315869152819 0.28435900105419742 0 0.077280930022155955 0.2753862006228191 0 0.075085340888369115 0.3014655720845959 0 0.055732913270128102 0.29712421580132081 0 0.062416315869152819 0.28435900105419742 0 0.075085340888369115 0.3014655720845959 0 0.059954497986296068 0.30949354843242732 0 0.055732913270128102 0.29712421580132081 0 0.075085340888369115 0.3014655720845959 0 0.065868552664081217 0.32189340626390728 0 0.059954497986296068 0.30949354843242732 0 0.075085340888369115 0.3014655720845959 0 0.075085340888369115 0.3014655720845959 0 0.094430493013301045 0.28420642560368797 0 0.10214309101702811 0.31247985621061702 0 0.077280930022155955 0.2753862006228191 0 0.075085340888369115 0.3014655720845959 0 0.094430493013301045 0.28420642560368797 0 0.094430493013301045 0.28420642560368797 0 0.10214309101702811 0.31247985621061702 0 0.11061813971756961 0.29048315318769219 0 0.1238771491773053 0.32546176342320021 0 0.10214309101702811 0.31247985621061702 0 0.1232380682692462 0.29762508957792361 0 0.10214309101702811 0.31247985621061702 0 0.1232380682692462 0.29762508957792361 0 0.11061813971756961 0.29048315318769219 0 0.10214309101702811 0.31247985621061702 0 0.1232380682692462 0.29762508957792361 0 0.1232380682692462 0.29762508957792361 0 0.11061813971756961 0.29048315318769219 0 0.1231270655975823 0.28776182930812289 0 0.11061813971756961 0.29048315318769219 0 0.1231270655975823 0.28776182930812289 0 0.1212190641687222 0.27787613496818209 0 0.10931857714309789 0.23517858597420771 0 0.1233757836889447 0.26012076273645052 0 0.10807250396504731 0.26659549069987071 0 0.10931857714309789 0.23517858597420771 0 0.093382952469636155 0.25882828081653358 0 0.10807250396504731 0.26659549069987071 0 0.11061813971756961 0.29048315318769219 0 0.1212190641687222 0.27787613496818209 0 0.10807250396504731 0.26659549069987071 0 0.1212190641687222 0.27787613496818209 0 0.1233757836889447 0.26012076273645052 0 0.10807250396504731 0.26659549069987071 0 0.093382952469636155 0.25882828081653358 0 0.094430493013301045 0.28420642560368797 0 0.10807250396504731 0.26659549069987071 0 0.094430493013301045 0.28420642560368797 0 0.11061813971756961 0.29048315318769219 0 0.10807250396504731 0.26659549069987071 0 0.14433304552146431 0.28277032294523008 0 0.16542802277368249 0.26791555631253672 0 0.1471288700404963 0.2674731602258798 0 0.14433304552146431 0.28277032294523008 0 0.16542802277368249 0.26791555631253672 0 0.1471288700404963 0.2674731602258798 0 0.13769344486114521 0.27177852977781047 0 0.14433304552146431 0.28277032294523008 0 0.14921605911603561 0.24735513048092289 0 0.16218474267495711 0.26380234576450418 0 0.1471288700404963 0.2674731602258798 0 0.13710380121006871 0.25306898025136071 0 0.16218474267495711 0.26380234576450418 0 0.14921605911603561 0.24735513048092289 0 0.13710380121006871 0.25306898025136071 0 0.16218474267495711 0.26380234576450418 0 0.13710380121006871 0.25306898025136071 0 0.16218474267495711 0.26380234576450418 0 0.1471288700404963 0.2674731602258798 0 0.1363254749501637 0.26311035824787538 0 0.13710380121006871 0.25306898025136071 0 0.1265113843998063 0.24481906103984011 0 0.1233757836889447 0.26012076273645052 0 0.13710380121006871 0.25306898025136071 0 0.1233757836889447 0.26012076273645052 0 0.1363254749501637 0.26311035824787538 0 0.13769344486114521 0.27177852977781047 0 0.1233757836889447 0.26012076273645052 0 0.1363254749501637 0.26311035824787538 0 0.13710380121006871 0.25306898025136071 0 0.1233757836889447 0.26012076273645052 0 0.13769344486114521 0.27177852977781047 0 0.13743299023479091 0.28506293949869371 0 0.1212190641687222 0.27787613496818209 0 0.1233757836889447 0.26012076273645052 0 0.13743299023479091 0.28506293949869371 0 0.1233757836889447 0.26012076273645052 0 0.13743299023479091 0.28506293949869371 0 0.1471288700404963 0.2674731602258798 0 0.1363254749501637 0.26311035824787538 0 0.13769344486114521 0.27177852977781047 0 0.13769344486114521 0.27177852977781047 0 0.13743299023479091 0.28506293949869371 0 0.14433304552146431 0.28277032294523008 0 0.1232380682692462 0.29762508957792361 0 0.14433304552146431 0.28277032294523008 0 0.1231270655975823 0.28776182930812289 0 0.1212190641687222 0.27787613496818209 0 0.13743299023479091 0.28506293949869371 0 0.1232380682692462 0.29762508957792361 0 0.1440792012729625 0.30159206800191207 0 0.14433304552146431 0.28277032294523008 0 0.1232380682692462 0.29762508957792361 0 0.13743299023479091 0.28506293949869371 0 0.14433304552146431 0.28277032294523008 0 0.1232380682692462 0.29762508957792361 0 0.1231270655975823 0.28776182930812289 0 0.13743299023479091 0.28506293949869371 0 0.1238771491773053 0.32546176342320021 0 0.1232380682692462 0.29762508957792361 0 0.1440792012729625 0.30159206800191207 0 0.1440792012729625 0.30159206800191207 0 0.16287147327872761 0.30267513620963232 0 0.14662452085081851 0.32024264097240868 0 0.1440792012729625 0.30159206800191207 0 0.16144170052573339 0.28466032972444277 0 0.16287147327872761 0.30267513620963232 0 0.1440792012729625 0.30159206800191207 0 0.14433304552146431 0.28277032294523008 0 0.16144170052573339 0.28466032972444277 0 0.16144170052573339 0.28466032972444277 0 0.16287147327872761 0.30267513620963232 0 0.17865440935087529 0.28468959713716058 0 0.16287147327872761 0.30267513620963232 0 0.1866901883254409 0.30496631501286681 0 0.1629828702520893 0.32505095056684802 0 0.16287147327872761 0.30267513620963232 0 0.1866901883254409 0.30496631501286681 0 0.17865440935087529 0.28468959713716058 0 0.1866901883254409 0.30496631501286681 0 0.17865440935087529 0.28468959713716058 0 0.19226154187303729 0.27667368393617231 0 0.16783520397543991 0.26622045540926631 0 0.19226154187303729 0.27667368393617231 0 0.17865440935087529 0.28468959713716058 0 0.16783520397543991 0.26622045540926631 0 0.19226154187303729 0.27667368393617231 0 0.16783520397543991 0.26622045540926631 0 0.17711380878448499 0.25968660104823021 0 0.19226154187303729 0.27667368393617231 0 0.17865440935087529 0.28468959713716058 0 0.16542802277368249 0.26791555631253672 0 0.17865440935087529 0.28468959713716058 0 0.16783520397543991 0.26622045540926631 0 0.16542802277368249 0.26791555631253672 0 0.16144170052573339 0.28466032972444277 0 0.17865440935087529 0.28468959713716058 0 0.16542802277368249 0.26791555631253672 0 0.14433304552146431 0.28277032294523008 0 0.16144170052573339 0.28466032972444277 0 0.16542802277368249 0.26791555631253672 0 0.1471288700404963 0.2674731602258798 0 0.16542802277368249 0.26791555631253672 0 0.16218474267495711 0.26380234576450418 0 0.16783520397543991 0.26622045540926631 0 0.16542802277368249 0.26791555631253672 0 0.16218474267495711 0.26380234576450418 0 0.16783520397543991 0.26622045540926631 0 0.16542802277368249 0.26791555631253672 0 0.16542802277368249 0.26791555631253672 0 0.16218474267495711 0.26380234576450418 0 0.14921605911603561 0.24735513048092289 0 0.16598301654807079 0.24844582893964351 0 0.16218474267495711 0.26380234576450418 0 0.16783520397543991 0.26622045540926631 0 0.16218474267495711 0.26380234576450418 0 0.1702100712638662 0.25718086859859468 0 0.16783520397543991 0.26622045540926631 0 0.1702100712638662 0.25718086859859468 0 0.17711380878448499 0.25968660104823021 0 0.16783520397543991 0.26622045540926631 0 0.16218474267495711 0.26380234576450418 0 0.17793358433637771 0.24774911183132969 0 0.16598301654807079 0.24844582893964351 0 0.1702100712638662 0.25718086859859468 0 0.16598301654807079 0.24844582893964351 0 0.16218474267495711 0.26380234576450418 0 0.1702100712638662 0.25718086859859468 0 0.17793358433637771 0.24774911183132969 0 0.17711380878448499 0.25968660104823021 0 0.19675200613609869 0.25387006042305549 0 0.17793358433637771 0.24774911183132969 0 0.1702100712638662 0.25718086859859468 0 0.17711380878448499 0.25968660104823021 0 0.16783520397543991 0.26622045540926631 0 0.17711380878448499 0.25968660104823021 0 0.17711380878448499 0.25968660104823021 0 0.19675200613609869 0.25387006042305549 0 0.19226154187303729 0.27667368393617231 0 0.19675200613609869 0.25387006042305549 0 0.19226154187303729 0.27667368393617231 0 0.2128966058519341 0.26411652948167719 0 0.19675200613609869 0.25387006042305549 0 0.19226154187303729 0.27667368393617231 0 0.19226154187303729 0.27667368393617231 0 0.2128966058519341 0.26411652948167719 0 0.2182396251644298 0.28779098045742979 0 0.2154941529563075 0.2467231945984566 0 0.19675200613609869 0.25387006042305549 0 0.2128966058519341 0.26411652948167719 0 0.2154941529563075 0.2467231945984566 0 0.2128966058519341 0.26411652948167719 0 0.22589877104413841 0.25456972674656159 0 0.2128966058519341 0.26411652948167719 0 0.22589877104413841 0.25456972674656159 0 0.228911271686734 0.26698365117402828 0 0.22589877104413841 0.25456972674656159 0 0.228911271686734 0.26698365117402828 0 0.23738978373314901 0.25532225906031991 0 0.2128966058519341 0.26411652948167719 0 0.228911271686734 0.26698365117402828 0 0.2182396251644298 0.28779098045742979 0 0.228911271686734 0.26698365117402828 0 0.2387574003333352 0.28032945865684222 0 0.2182396251644298 0.28779098045742979 0 0.228911271686734 0.26698365117402828 0 0.24184104520420929 0.26594443411324242 0 0.2387574003333352 0.28032945865684222 0 0.24184104520420929 0.26594443411324242 0 0.2387574003333352 0.28032945865684222 0 0.25167401287834568 0.27306833633317068 0 0.24184104520420929 0.26594443411324242 0 0.23738978373314901 0.25532225906031991 0 0.25247275738948288 0.25401846534185119 0 0.24184104520420929 0.26594443411324242 0 0.25247275738948288 0.25401846534185119 0 0.25167401287834568 0.27306833633317068 0 0.228911271686734 0.26698365117402828 0 0.24184104520420929 0.26594443411324242 0 0.23738978373314901 0.25532225906031991 0 0.23783836536509301 0.31565336997886329 0 0.25399091957574521 0.29199365062212068 0 0.23391164259365649 0.29689295453871722 0 0.23783836536509301 0.31565336997886329 0 0.25399091957574521 0.29199365062212068 0 0.2387574003333352 0.28032945865684222 0 0.23391164259365649 0.29689295453871722 0 0.25399091957574521 0.29199365062212068 0 0.2387574003333352 0.28032945865684222 0 0.25399091957574521 0.29199365062212068 0 0.25167401287834568 0.27306833633317068 0 0.2387574003333352 0.28032945865684222 0 0.23391164259365649 0.29689295453871722 0 0.2182396251644298 0.28779098045742979 0 0.23391164259365649 0.29689295453871722 0 0.22073190252967981 0.30869731297832981 0 0.23783836536509301 0.31565336997886329 0 0.23391164259365649 0.29689295453871722 0 0.22073190252967981 0.30869731297832981 0 0.2182396251644298 0.28779098045742979 0 0.22073190252967981 0.30869731297832981 0 0.23783836536509301 0.31565336997886329 0 0.22073190252967981 0.30869731297832981 0 0.20362543969426669 0.301741255977796 0 0.20812820978631891 0.31530604188866102 0 0.22073190252967981 0.30869731297832981 0 0.20362543969426669 0.301741255977796 0 0.2182396251644298 0.28779098045742979 0 0.22073190252967981 0.30869731297832981 0 0.20362543969426669 0.301741255977796 0 0.19226154187303729 0.27667368393617231 0 0.20362543969426669 0.301741255977796 0 0.2182396251644298 0.28779098045742979 0 0.19226154187303729 0.27667368393617231 0 0.2182396251644298 0.28779098045742979 0 0.1866901883254409 0.30496631501286681 0 0.19226154187303729 0.27667368393617231 0 0.1866901883254409 0.30496631501286681 0 0.19226154187303729 0.27667368393617231 0 0.20362543969426669 0.301741255977796 0 0.1866901883254409 0.30496631501286681 0 0.20362543969426669 0.301741255977796 0 0.19654718516013209 0.31619051217593003 0 0.20362543969426669 0.301741255977796 0 0.19654718516013209 0.31619051217593003 0 0.20812820978631891 0.31530604188866102 0 0.2019477994411594 0.3276882284035606 0 0.19654718516013209 0.31619051217593003 0 0.1811188347778441 0.33325894608956103 0 0.1866901883254409 0.30496631501286681 0 0.19654718516013209 0.31619051217593003 0 0.1811188347778441 0.33325894608956103 0 0.2019477994411594 0.3276882284035606 0 0.19654718516013209 0.31619051217593003 0 0.20812820978631891 0.31530604188866102 0 0.2019477994411594 0.3276882284035606 0 0.1971819838395156 0.34637301943713 0 0.1811188347778441 0.33325894608956103 0 0.21152792943483401 0.33731399399142842 0 0.22553773703802321 0.33367091756512318 0 0.2132371087109535 0.35168846515138302 0 0.2019477994411594 0.3276882284035606 0 0.21152792943483401 0.33731399399142842 0 0.21778872210635641 0.3222128999076887 0 0.2019477994411594 0.3276882284035606 0 0.21152792943483401 0.33731399399142842 0 0.1971819838395156 0.34637301943713 0 0.21152792943483401 0.33731399399142842 0 0.21778872210635641 0.3222128999076887 0 0.22553773703802321 0.33367091756512318 0 0.2019477994411594 0.3276882284035606 0 0.20812820978631891 0.31530604188866102 0 0.21778872210635641 0.3222128999076887 0 0.22073190252967981 0.30869731297832981 0 0.20812820978631891 0.31530604188866102 0 0.21778872210635641 0.3222128999076887 0 0.21778872210635641 0.3222128999076887 0 0.22553773703802321 0.33367091756512318 0 0.23783836536509301 0.31565336997886329 0 0.22073190252967981 0.30869731297832981 0 0.21778872210635641 0.3222128999076887 0 0.23783836536509301 0.31565336997886329 0 0.22553773703802321 0.33367091756512318 0 0.23783836536509301 0.31565336997886329 0 0.22553773703802321 0.33367091756512318 0 0.23807268446027011 0.3290209501158689 0 0.23783836536509301 0.31565336997886329 0 0.22553773703802321 0.33367091756512318 0 0.2132371087109535 0.35168846515138302 0 0.22553773703802321 0.33367091756512318 0 0.23239977974845591 0.34112736396507681 0 0.2132371087109535 0.35168846515138302 0 0.22553773703802321 0.33367091756512318 0 0.23285392761407789 0.33596409665688493 0 0.23239977974845591 0.34112736396507681 0 0.23285392761407789 0.33596409665688493 0 0.23239977974845591 0.34112736396507681 0 0.23556005924178169 0.34331958444117239 0 0.22553773703802321 0.33367091756512318 0 0.23285392761407789 0.33596409665688493 0 0.23807268446027011 0.3290209501158689 0 0.23556005924178169 0.34331958444117239 0 0.24852544892751241 0.3439900518832546 0 0.25313896538212899 0.33510740846486831 0 0.23556005924178169 0.34331958444117239 0 0.2525696818628661 0.32164361344634662 0 0.23556005924178169 0.34331958444117239 0 0.2525696818628661 0.32164361344634662 0 0.25313896538212899 0.33510740846486831 0 0.23807268446027011 0.3290209501158689 0 0.23556005924178169 0.34331958444117239 0 0.2525696818628661 0.32164361344634662 0 0.23285392761407789 0.33596409665688493 0 0.23807268446027011 0.3290209501158689 0 0.23556005924178169 0.34331958444117239 0 0.23807268446027011 0.3290209501158689 0 0.23783836536509301 0.31565336997886329 0 0.2525696818628661 0.32164361344634662 0 0.23783836536509301 0.31565336997886329 0 0.2525696818628661 0.32164361344634662 0 0.23764968210229789 0.36670579930701891 0 0.2475106897272043 0.35428289295658161 0 0.25905411186804261 0.37251649796013742 0 0.23239977974845591 0.34112736396507681 0 0.23764968210229789 0.36670579930701891 0 0.23556005924178169 0.34331958444117239 0 0.23764968210229789 0.36670579930701891 0 0.2475106897272043 0.35428289295658161 0 0.23239977974845591 0.34112736396507681 0 0.23556005924178169 0.34331958444117239 0 0.23764968210229789 0.36670579930701891 0 0.23556005924178169 0.34331958444117239 0 0.2475106897272043 0.35428289295658161 0 0.24852544892751241 0.3439900518832546 0 0.23239977974845591 0.34112736396507681 0 0.22493180096185039 0.3572446659043747 0 0.2132371087109535 0.35168846515138302 0 0.23239977974845591 0.34112736396507681 0 0.23764968210229789 0.36670579930701891 0 0.22493180096185039 0.3572446659043747 0 0.23764968210229789 0.36670579930701891 0 0.22493180096185039 0.3572446659043747 0 0.21644063328569449 0.36945703519402012 0 0.23764968210229789 0.36670579930701891 0 0.21644063328569449 0.36945703519402012 0 0.22653643082129629 0.38322242578528432 0 0.21644063328569449 0.36945703519402012 0 0.1997127494420553 0.36673690582059182 0 0.20900978630487571 0.38591203942400232 0 0.22493180096185039 0.3572446659043747 0 0.21644063328569449 0.36945703519402012 0 0.2132371087109535 0.35168846515138302 0 0.21644063328569449 0.36945703519402012 0 0.2132371087109535 0.35168846515138302 0 0.1997127494420553 0.36673690582059182 0 0.2132371087109535 0.35168846515138302 0 0.1971819838395156 0.34637301943713 0 0.1997127494420553 0.36673690582059182 0 0.21152792943483401 0.33731399399142842 0 0.2132371087109535 0.35168846515138302 0 0.1971819838395156 0.34637301943713 0 0.1971819838395156 0.34637301943713 0 0.1997127494420553 0.36673690582059182 0 0.17554748123024741 0.3615515771662553 0 0.1997127494420553 0.36673690582059182 0 0.17554748123024741 0.3615515771662553 0 0.1892688801019565 0.38282716124551192 0 0.17554748123024741 0.3615515771662553 0 0.152460770489831 0.37453681209298029 0 0.15566201563467649 0.35149649646999559 0 0.17554748123024741 0.3615515771662553 0 0.1811188347778441 0.33325894608956103 0 0.15566201563467649 0.35149649646999559 0 0.17554748123024741 0.3615515771662553 0 0.1811188347778441 0.33325894608956103 0 0.1971819838395156 0.34637301943713 0 0.17554748123024741 0.3615515771662553 0 0.1811188347778441 0.33325894608956103 0 0.1866901883254409 0.30496631501286681 0 0.1811188347778441 0.33325894608956103 0 0.1629828702520893 0.32505095056684802 0 0.1866901883254409 0.30496631501286681 0 0.1811188347778441 0.33325894608956103 0 0.16287147327872761 0.30267513620963232 0 0.1629828702520893 0.32505095056684802 0 0.14662452085081851 0.32024264097240868 0 0.1811188347778441 0.33325894608956103 0 0.1629828702520893 0.32505095056684802 0 0.15566201563467649 0.35149649646999559 0 0.1629828702520893 0.32505095056684802 0 0.14473393752798869 0.3367858441943552 0 0.15566201563467649 0.35149649646999559 0 0.1629828702520893 0.32505095056684802 0 0.14473393752798869 0.3367858441943552 0 0.14662452085081851 0.32024264097240868 0 0.1238771491773053 0.32546176342320021 0 0.1440792012729625 0.30159206800191207 0 0.14662452085081851 0.32024264097240868 0 0.1238771491773053 0.32546176342320021 0 0.14473393752798869 0.3367858441943552 0 0.14662452085081851 0.32024264097240868 0 0.1238771491773053 0.32546176342320021 0 0.14473393752798869 0.3367858441943552 0 0.13173479585415551 0.34916971972149857 0 0.11764373659217529 0.36702659591577241 0 0.13173479585415551 0.34916971972149857 0 0.13595455730561901 0.36687253818421672 0 0.11764373659217529 0.36702659591577241 0 0.13595455730561901 0.36687253818421672 0 0.1309133037688035 0.38422249999567948 0 0.13595455730561901 0.36687253818421672 0 0.152460770489831 0.37453681209298029 0 0.15566201563467649 0.35149649646999559 0 0.14473393752798869 0.3367858441943552 0 0.13173479585415551 0.34916971972149857 0 0.15566201563467649 0.35149649646999559 0 0.13173479585415551 0.34916971972149857 0 0.13595455730561901 0.36687253818421672 0 0.15566201563467649 0.35149649646999559 0 0.13173479585415551 0.34916971972149857 0 0.15566201563467649 0.35149649646999559 0 0.152460770489831 0.37453681209298029 0 0.14442632240316841 0.40330934011473979 0 0.16997612768265061 0.38984420824294957 0 0.152460770489831 0.37453681209298029 0 0.14442632240316841 0.40330934011473979 0 0.1309133037688035 0.38422249999567948 0 0.13595455730561901 0.36687253818421672 0 0.152460770489831 0.37453681209298029 0 0.1309133037688035 0.38422249999567948 0 0.1218273948895322 0.40036723235672672 0 0.14442632240316841 0.40330934011473979 0 0.1309133037688035 0.38422249999567948 0 0.1218273948895322 0.40036723235672672 0 0.14442632240316841 0.40330934011473979 0 0.12511668959399491 0.41926680129159849 0 0.14442632240316841 0.40330934011473979 0 0.12511668959399491 0.41926680129159849 0 0.1466317909087396 0.43227214650678558 0 0.12511668959399491 0.41926680129159849 0 0.1466317909087396 0.43227214650678558 0 0.12125214206241119 0.44582005051402618 0 0.12511668959399491 0.41926680129159849 0 0.1466317909087396 0.43227214650678558 0 0.14442632240316841 0.40330934011473979 0 0.1466317909087396 0.43227214650678558 0 0.16440477413505369 0.41813683931964413 0 0.16440477413505369 0.41813683931964413 0 0.17930377286164301 0.44263542325199873 0 0.15883342058745689 0.44642947039633868 0 0.1466317909087396 0.43227214650678558 0 0.16440477413505369 0.41813683931964413 0 0.15883342058745689 0.44642947039633868 0 0.16440477413505369 0.41813683931964413 0 0.15883342058745689 0.44642947039633868 0 0.16440477413505369 0.41813683931964413 0 0.18428623518519391 0.42416036323376538 0 0.17930377286164301 0.44263542325199873 0 0.18428623518519391 0.42416036323376538 0 0.197487180205795 0.43532139468973591 0 0.17930377286164301 0.44263542325199873 0 0.16440477413505369 0.41813683931964413 0 0.18428623518519391 0.42416036323376538 0 0.192185172145865 0.40530065755451722 0 0.16440477413505369 0.41813683931964413 0 0.16997612768265061 0.38984420824294957 0 0.192185172145865 0.40530065755451722 0 0.16997612768265061 0.38984420824294957 0 0.1892688801019565 0.38282716124551192 0 0.192185172145865 0.40530065755451722 0 0.16440477413505369 0.41813683931964413 0 0.16997612768265061 0.38984420824294957 0 0.14442632240316841 0.40330934011473979 0 0.16440477413505369 0.41813683931964413 0 0.16997612768265061 0.38984420824294957 0 0.17554748123024741 0.3615515771662553 0 0.152460770489831 0.37453681209298029 0 0.16997612768265061 0.38984420824294957 0 0.17554748123024741 0.3615515771662553 0 0.16997612768265061 0.38984420824294957 0 0.17554748123024741 0.3615515771662553 0 0.16997612768265061 0.38984420824294957 0 0.1892688801019565 0.38282716124551192 0 0.1997127494420553 0.36673690582059182 0 0.1892688801019565 0.38282716124551192 0 0.20900978630487571 0.38591203942400232 0 0.1892688801019565 0.38282716124551192 0 0.192185172145865 0.40530065755451722 0 0.20900978630487571 0.38591203942400232 0 0.192185172145865 0.40530065755451722 0 0.20900978630487571 0.38591203942400232 0 0.22209447601515811 0.40451005518479 0 0.21644063328569449 0.36945703519402012 0 0.20900978630487571 0.38591203942400232 0 0.22653643082129629 0.38322242578528432 0 0.22653643082129629 0.38322242578528432 0 0.22209447601515811 0.40451005518479 0 0.24289958445613999 0.39228423464896078 0 0.20900978630487571 0.38591203942400232 0 0.22653643082129629 0.38322242578528432 0 0.22209447601515811 0.40451005518479 0 0.22209447601515811 0.40451005518479 0 0.24289958445613999 0.39228423464896078 0 0.248149486809982 0.41786266999090282 0 0.24289958445613999 0.39228423464896078 0 0.248149486809982 0.41786266999090282 0 0.23764968210229789 0.36670579930701891 0 0.24289958445613999 0.39228423464896078 0 0.25905411186804261 0.37251649796013742 0 0.23764968210229789 0.36670579930701891 0 0.22653643082129629 0.38322242578528432 0 0.24289958445613999 0.39228423464896078 0 0.23764968210229789 0.36670579930701891 0 0.24289958445613999 0.39228423464896078 0 0.248149486809982 0.41786266999090282 0 0.22457727883856141 0.42833392401771381 0 0.2514771125966242 0.44468408866335679 0 0.22209447601515811 0.40451005518479 0 0.248149486809982 0.41786266999090282 0 0.22457727883856141 0.42833392401771381 0 0.22457727883856141 0.42833392401771381 0 0.20766649557928371 0.4198989997770281 0 0.197487180205795 0.43532139468973591 0 0.22457727883856141 0.42833392401771381 0 0.197487180205795 0.43532139468973591 0 0.21919225692183791 0.44524221998813102 0 0.22209447601515811 0.40451005518479 0 0.22457727883856141 0.42833392401771381 0 0.20766649557928371 0.4198989997770281 0 0.192185172145865 0.40530065755451722 0 0.22209447601515811 0.40451005518479 0 0.20766649557928371 0.4198989997770281 0 0.18428623518519391 0.42416036323376538 0 0.192185172145865 0.40530065755451722 0 0.20766649557928371 0.4198989997770281 0 0.18428623518519391 0.42416036323376538 0 0.20766649557928371 0.4198989997770281 0 0.197487180205795 0.43532139468973591 0 0.197487180205795 0.43532139468973591 0 0.19586887323961311 0.4528921109972231 0 0.20540799761982859 0.44747605151346109 0 0.197487180205795 0.43532139468973591 0 0.19586887323961311 0.4528921109972231 0 0.17930377286164301 0.44263542325199873 0 0.1937497245465355 0.4639731428600099 0 0.1852056723129063 0.47160722432229091 0 0.1846911349116683 0.45891097993903551 0 0.19586887323961311 0.4528921109972231 0 0.1937497245465355 0.4639731428600099 0 0.1846911349116683 0.45891097993903551 0 0.19586887323961311 0.4528921109972231 0 0.2004407325095027 0.46186482075408047 0 0.21027240179254009 0.45825198482741181 0 0.19586887323961311 0.4528921109972231 0 0.1937497245465355 0.4639731428600099 0 0.2004407325095027 0.46186482075408047 0 0.1937497245465355 0.4639731428600099 0 0.2004407325095027 0.46186482075408047 0 0.20187193045932189 0.47234204433167709 0 0.21027240179254009 0.45825198482741181 0 0.21919225692183791 0.44524221998813102 0 0.2266745215279731 0.458513066497517 0 0.2266745215279731 0.458513066497517 0 0.20187193045932189 0.47234204433167709 0 0.21027240179254009 0.45825198482741181 0 0.2266745215279731 0.458513066497517 0 0.20187193045932189 0.47234204433167709 0 0.2004407325095027 0.46186482075408047 0 0.21027240179254009 0.45825198482741181 0 0.20187193045932189 0.47234204433167709 0 0.197487180205795 0.43532139468973591 0 0.20540799761982859 0.44747605151346109 0 0.21919225692183791 0.44524221998813102 0 0.19586887323961311 0.4528921109972231 0 0.21027240179254009 0.45825198482741181 0 0.20540799761982859 0.44747605151346109 0 0.21027240179254009 0.45825198482741181 0 0.20540799761982859 0.44747605151346109 0 0.21919225692183791 0.44524221998813102 0 0.22457727883856141 0.42833392401771381 0 0.21919225692183791 0.44524221998813102 0 0.2514771125966242 0.44468408866335679 0 0.21919225692183791 0.44524221998813102 0 0.2266745215279731 0.458513066497517 0 0.2514771125966242 0.44468408866335679 0 0.2266745215279731 0.458513066497517 0 0.25399835616134792 0.47101049487231039 0 0.2514771125966242 0.44468408866335679 0 0.2266745215279731 0.458513066497517 0 0.22910606494826871 0.47524071912062582 0 0.25399835616134792 0.47101049487231039 0 0.2266745215279731 0.458513066497517 0 0.2514771125966242 0.44468408866335679 0 0.22910606494826871 0.47524071912062582 0 0.2234932216753345 0.5 0 0.25155527489472151 0.5 0 0.22910606494826871 0.47524071912062582 0 0.25399835616134792 0.47101049487231039 0 0.22910606494826871 0.47524071912062582 0 0.25399835616134792 0.47101049487231039 0 0.25155527489472151 0.5 0 0.2266745215279731 0.458513066497517 0 0.22910606494826871 0.47524071912062582 0 0.20857615931250451 0.47648906452896339 0 0.22910606494826871 0.47524071912062582 0 0.2234932216753345 0.5 0 0.21212052770695919 0.48980544636855822 0 0.2234932216753345 0.5 0 0.21212052770695919 0.48980544636855822 0 0.1954311684559476 0.5 0 0.21212052770695919 0.48980544636855822 0 0.20400161557608831 0.47909909892983188 0 0.19910186547104239 0.48942718695049808 0 0.22910606494826871 0.47524071912062582 0 0.21212052770695919 0.48980544636855822 0 0.20400161557608831 0.47909909892983188 0 0.22910606494826871 0.47524071912062582 0 0.20400161557608831 0.47909909892983188 0 0.20857615931250451 0.47648906452896339 0 0.22910606494826871 0.47524071912062582 0 0.20400161557608831 0.47909909892983188 0 0.2266745215279731 0.458513066497517 0 0.20857615931250451 0.47648906452896339 0 0.20187193045932189 0.47234204433167709 0 0.20400161557608831 0.47909909892983188 0 0.20857615931250451 0.47648906452896339 0 0.20400161557608831 0.47909909892983188 0 0.20857615931250451 0.47648906452896339 0 0.20187193045932189 0.47234204433167709 0 0.20187193045932189 0.47234204433167709 0 0.18797263727453259 0.48824453226448189 0 0.17706933939067071 0.48617102216583741 0 0.1937497245465355 0.4639731428600099 0 0.20187193045932189 0.47234204433167709 0 0.1852056723129063 0.47160722432229091 0 0.20400161557608831 0.47909909892983188 0 0.18797263727453259 0.48824453226448189 0 0.20187193045932189 0.47234204433167709 0 0.17706933939067071 0.48617102216583741 0 0.20400161557608831 0.47909909892983188 0 0.20187193045932189 0.47234204433167709 0 0.18797263727453259 0.48824453226448189 0 0.20187193045932189 0.47234204433167709 0 0.17706933939067071 0.48617102216583741 0 0.1852056723129063 0.47160722432229091 0 0.21212052770695919 0.48980544636855822 0 0.1954311684559476 0.5 0 0.19910186547104239 0.48942718695049808 0 0.20400161557608831 0.47909909892983188 0 0.19910186547104239 0.48942718695049808 0 0.18797263727453259 0.48824453226448189 0 0.1954311684559476 0.5 0 0.19910186547104239 0.48942718695049808 0 0.18797263727453259 0.48824453226448189 0 0.18797263727453259 0.48824453226448189 0 0.17706933939067071 0.48617102216583741 0 0.1673691152365607 0.50000000000000022 0 0.18797263727453259 0.48824453226448189 0 0.1673691152365607 0.50000000000000022 0 0.1954311684559476 0.5 0 0.18797263727453259 0.48824453226448189 0 0.1673691152365607 0.50000000000000022 0 0.17706933939067071 0.48617102216583741 0 0.15920311022256359 0.48761457502183042 0 0.15226674832201989 0.49999999999999872 0 0.17706933939067071 0.48617102216583741 0 0.1673691152365607 0.50000000000000022 0 0.15226674832201989 0.49999999999999872 0 0.17706933939067071 0.48617102216583741 0 0.15226674832201989 0.49999999999999872 0 0.16993415577312379 0.47832175361512241 0 0.15326206703985959 0.47472210147303312 0 0.17706933939067071 0.48617102216583741 0 0.15920311022256359 0.48761457502183042 0 0.16993415577312379 0.47832175361512241 0 0.16993415577312379 0.47832175361512241 0 0.16364322185635921 0.46532228043734403 0 0.15326206703985959 0.47472210147303312 0 0.15920311022256359 0.48761457502183042 0 0.16993415577312379 0.47832175361512241 0 0.15326206703985959 0.47472210147303312 0 0.17741631043932779 0.47597087273502298 0 0.1852056723129063 0.47160722432229091 0 0.17254324402499599 0.46181579626488167 0 0.16993415577312379 0.47832175361512241 0 0.17741631043932779 0.47597087273502298 0 0.17254324402499599 0.46181579626488167 0 0.17706933939067071 0.48617102216583741 0 0.16993415577312379 0.47832175361512241 0 0.17741631043932779 0.47597087273502298 0 0.17706933939067071 0.48617102216583741 0 0.17741631043932779 0.47597087273502298 0 0.1852056723129063 0.47160722432229091 0 0.1852056723129063 0.47160722432229091 0 0.1846911349116683 0.45891097993903551 0 0.17254324402499599 0.46181579626488167 0 0.1846911349116683 0.45891097993903551 0 0.17254324402499599 0.46181579626488167 0 0.17930377286164301 0.44263542325199873 0 0.19586887323961311 0.4528921109972231 0 0.1846911349116683 0.45891097993903551 0 0.17930377286164301 0.44263542325199873 0 0.17254324402499599 0.46181579626488167 0 0.17930377286164301 0.44263542325199873 0 0.15883342058745689 0.44642947039633868 0 0.16993415577312379 0.47832175361512241 0 0.17254324402499599 0.46181579626488167 0 0.16364322185635921 0.46532228043734403 0 0.17254324402499599 0.46181579626488167 0 0.15883342058745689 0.44642947039633868 0 0.16364322185635921 0.46532228043734403 0 0.15883342058745689 0.44642947039633868 0 0.16364322185635921 0.46532228043734403 0 0.15326206703985959 0.47472210147303312 0 0.15883342058745689 0.44642947039633868 0 0.14135895203597099 0.4566308027558833 0 0.15326206703985959 0.47472210147303312 0 0.15883342058745689 0.44642947039633868 0 0.15326206703985959 0.47472210147303312 0 0.1466317909087396 0.43227214650678558 0 0.15883342058745689 0.44642947039633868 0 0.14135895203597099 0.4566308027558833 0 0.12125214206241119 0.44582005051402618 0 0.1466317909087396 0.43227214650678558 0 0.14135895203597099 0.4566308027558833 0 0.1238956110980738 0.46838162262076383 0 0.14135895203597099 0.4566308027558833 0 0.15326206703985959 0.47472210147303312 0 0.1238956110980738 0.46838162262076383 0 0.12125214206241119 0.44582005051402618 0 0.14135895203597099 0.4566308027558833 0 0.1238956110980738 0.46838162262076383 0 0.15326206703985959 0.47472210147303312 0 0.1238956110980738 0.46838162262076383 0 0.13580201835749661 0.48441293847055811 0 0.15326206703985959 0.47472210147303312 0 0.1195654229107193 0.5 0 0.13580201835749661 0.48441293847055811 0 0.14828437128394781 0.50000000000000411 0 0.14828437128394781 0.50000000000000411 0 0.15326206703985959 0.47472210147303312 0 0.15920311022256359 0.48761457502183042 0 0.14828437128394781 0.50000000000000411 0 0.15326206703985959 0.47472210147303312 0 0.13580201835749661 0.48441293847055811 0 0.14828437128394781 0.50000000000000411 0 0.15326206703985959 0.47472210147303312 0 0.15920311022256359 0.48761457502183042 0 0.14828437128394781 0.50000000000000411 0 0.15226674832201989 0.49999999999999872 0 0.35897895391100232 0.47247904603639462 0 0.35075604580227249 0.48717150086172428 0 0.33382474641669552 0.47620695741050267 0 0.35075604580227249 0.48717150086172428 0 0.36899109412900072 0.5 0 0.34122938875239162 0.50000000000000011 0 0.35897895391100232 0.47247904603639462 0 0.35075604580227249 0.48717150086172428 0 0.36899109412900072 0.5 0 0.35897895391100232 0.47247904603639462 0 0.36899109412900072 0.5 0 0.38276019481452661 0.47852410794061612 0 0.35897895391100232 0.47247904603639462 0 0.37078211607963019 0.44995535094209621 0 0.38276019481452661 0.47852410794061612 0 0.37078211607963019 0.44995535094209621 0 0.36517828598789159 0.42600130542859338 0 0.37078211607963019 0.44995535094209621 0 0.36517828598789159 0.42600130542859338 0 0.38279498211221491 0.4368780777270232 0 0.37078211607963019 0.44995535094209621 0 0.34650058029397091 0.45708343411305707 0 0.34249698098152681 0.43436190135528657 0 0.35897895391100232 0.47247904603639462 0 0.34650058029397091 0.45708343411305707 0 0.33382474641669552 0.47620695741050267 0 0.35897895391100232 0.47247904603639462 0 0.37078211607963019 0.44995535094209621 0 0.34650058029397091 0.45708343411305707 0 0.34650058029397091 0.45708343411305707 0 0.32642010408099931 0.45241391482100529 0 0.33382474641669552 0.47620695741050267 0 0.32642010408099931 0.45241391482100529 0 0.33382474641669552 0.47620695741050267 0 0.32642010408099931 0.45241391482100529 0 0.31901546174530321 0.42862087223150802 0 0.34249698098152681 0.43436190135528657 0 0.34650058029397091 0.45708343411305707 0 0.32642010408099931 0.45241391482100529 0 0.34249698098152681 0.43436190135528657 0 0.32642010408099931 0.45241391482100529 0 0.31901546174530321 0.42862087223150802 0 0.32642010408099931 0.45241391482100529 0 0.31342829403553252 0.4463440051027121 0 0.31901546174530321 0.42862087223150802 0 0.32642010408099931 0.45241391482100529 0 0.31342829403553252 0.4463440051027121 0 0.31516364255118923 0.46298001215891638 0 0.32642010408099931 0.45241391482100529 0 0.31516364255118923 0.46298001215891638 0 0.33382474641669552 0.47620695741050267 0 0.31516364255118923 0.46298001215891638 0 0.33382474641669552 0.47620695741050267 0 0.30845320760280498 0.4809816119505938 0 0.33382474641669552 0.47620695741050267 0 0.34122938875239162 0.50000000000000011 0 0.32069203520629719 0.5 0 0.33382474641669552 0.47620695741050267 0 0.34122938875239162 0.50000000000000011 0 0.35075604580227249 0.48717150086172428 0 0.33382474641669552 0.47620695741050267 0 0.34122938875239162 0.50000000000000011 0 0.33382474641669552 0.47620695741050267 0 0.32069203520629719 0.5 0 0.30845320760280498 0.4809816119505938 0 0.30015468166020282 0.5 0 0.30845320760280498 0.4809816119505938 0 0.29235092987739719 0.48746237699400569 0 0.32069203520629719 0.5 0 0.30015468166020282 0.5 0 0.30845320760280498 0.4809816119505938 0 0.31516364255118923 0.46298001215891638 0 0.30845320760280498 0.4809816119505938 0 0.30127520659360019 0.46297621319970123 0 0.30845320760280498 0.4809816119505938 0 0.29335292472767971 0.47378359591252012 0 0.29235092987739719 0.48746237699400569 0 0.30845320760280498 0.4809816119505938 0 0.29335292472767971 0.47378359591252012 0 0.30127520659360019 0.46297621319970123 0 0.29335292472767971 0.47378359591252012 0 0.28640219091271901 0.47952524031075772 0 0.29235092987739719 0.48746237699400569 0 0.28640219091271901 0.47952524031075772 0 0.29235092987739719 0.48746237699400569 0 0.27925398774426841 0.48339013531199909 0 0.28640219091271901 0.47952524031075772 0 0.27925398774426841 0.48339013531199909 0 0.28121354897652001 0.47945789123763211 0 0.28640219091271901 0.47952524031075772 0 0.28583956323773002 0.47353220209763158 0 0.28121354897652001 0.47945789123763211 0 0.28583956323773002 0.47353220209763158 0 0.28121354897652001 0.47945789123763211 0 0.28230525701822218 0.46619998798186918 0 0.29335292472767971 0.47378359591252012 0 0.28583956323773002 0.47353220209763158 0 0.28230525701822218 0.46619998798186918 0 0.28121354897652001 0.47945789123763211 0 0.28230525701822218 0.46619998798186918 0 0.29335292472767971 0.47378359591252012 0 0.28640219091271901 0.47952524031075772 0 0.28583956323773002 0.47353220209763158 0 0.30015468166020282 0.5 0 0.29235092987739719 0.48746237699400569 0 0.27961732811410839 0.50000000000000311 0 0.29235092987739719 0.48746237699400569 0 0.27961732811410839 0.50000000000000311 0 0.27925398774426841 0.48339013531199909 0 0.27961732811410839 0.50000000000000311 0 0.27925398774426841 0.48339013531199909 0 0.25155527489472151 0.5 0 0.27961732811410839 0.50000000000000311 0 0.27925398774426841 0.48339013531199909 0 0.27925398774426841 0.48339013531199909 0 0.25399835616134792 0.47101049487231039 0 0.27889064737442698 0.46678027062399519 0 0.27925398774426841 0.48339013531199909 0 0.28121354897652001 0.47945789123763211 0 0.27889064737442698 0.46678027062399519 0 0.25399835616134792 0.47101049487231039 0 0.27889064737442698 0.46678027062399519 0 0.27925398774426841 0.48339013531199909 0 0.27889064737442698 0.46678027062399519 0 0.28121354897652001 0.47945789123763211 0 0.27889064737442698 0.46678027062399519 0 0.28230525701822218 0.46619998798186918 0 0.27925398774426841 0.48339013531199909 0 0.25399835616134792 0.47101049487231039 0 0.25155527489472151 0.5 0 0.2514771125966242 0.44468408866335679 0 0.26471289253607577 0.45641998751741109 0 0.27829722214636837 0.43965222882432708 0 0.25399835616134792 0.47101049487231039 0 0.2514771125966242 0.44468408866335679 0 0.26471289253607577 0.45641998751741109 0 0.27889064737442698 0.46678027062399519 0 0.27829722214636837 0.43965222882432708 0 0.28230525701822218 0.46619998798186918 0 0.27889064737442698 0.46678027062399519 0 0.27829722214636837 0.43965222882432708 0 0.26471289253607577 0.45641998751741109 0 0.27889064737442698 0.46678027062399519 0 0.27829722214636837 0.43965222882432708 0 0.25399835616134792 0.47101049487231039 0 0.26471289253607577 0.45641998751741109 0 0.27889064737442698 0.46678027062399519 0 0.27889064737442698 0.46678027062399519 0 0.28230525701822218 0.46619998798186918 0 0.27829722214636837 0.43965222882432708 0 0.28230525701822218 0.46619998798186918 0 0.28474366596995898 0.43658750117661232 0 0.29243130353484093 0.45154594664436831 0 0.28230525701822218 0.46619998798186918 0 0.28474366596995898 0.43658750117661232 0 0.28230525701822218 0.46619998798186918 0 0.28474366596995898 0.43658750117661232 0 0.29243130353484093 0.45154594664436831 0 0.29599472853730102 0.44121886677586619 0 0.28474366596995898 0.43658750117661232 0 0.29335292472767971 0.47378359591252012 0 0.28230525701822218 0.46619998798186918 0 0.30127520659360019 0.46297621319970123 0 0.28230525701822218 0.46619998798186918 0 0.30127520659360019 0.46297621319970123 0 0.29243130353484093 0.45154594664436831 0 0.28230525701822218 0.46619998798186918 0 0.30127520659360019 0.46297621319970123 0 0.31342829403553252 0.4463440051027121 0 0.31516364255118923 0.46298001215891638 0 0.3022956072558835 0.45072342020198469 0 0.29243130353484093 0.45154594664436831 0 0.30127520659360019 0.46297621319970123 0 0.3022956072558835 0.45072342020198469 0 0.31516364255118923 0.46298001215891638 0 0.30127520659360019 0.46297621319970123 0 0.3022956072558835 0.45072342020198469 0 0.29599472853730102 0.44121886677586619 0 0.3022956072558835 0.45072342020198469 0 0.30424665454428729 0.43698180610014592 0 0.29243130353484093 0.45154594664436831 0 0.29599472853730102 0.44121886677586619 0 0.3022956072558835 0.45072342020198469 0 0.31342829403553252 0.4463440051027121 0 0.3022956072558835 0.45072342020198469 0 0.30424665454428729 0.43698180610014592 0 0.31342829403553252 0.4463440051027121 0 0.30424665454428729 0.43698180610014592 0 0.31901546174530321 0.42862087223150802 0 0.3043171244620777 0.42370228367744478 0 0.30424665454428729 0.43698180610014592 0 0.31901546174530321 0.42862087223150802 0 0.3043171244620777 0.42370228367744478 0 0.2972187274602478 0.41767342017279768 0 0.29625641138153419 0.43025565975621999 0 0.3043171244620777 0.42370228367744478 0 0.30424665454428729 0.43698180610014592 0 0.29625641138153419 0.43025565975621999 0 0.29599472853730102 0.44121886677586619 0 0.30424665454428729 0.43698180610014592 0 0.29625641138153419 0.43025565975621999 0 0.3043171244620777 0.42370228367744478 0 0.31161081940960689 0.40482782964201058 0 0.31901546174530321 0.42862087223150802 0 0.3043171244620777 0.42370228367744478 0 0.2972187274602478 0.41767342017279768 0 0.31161081940960689 0.40482782964201058 0 0.2972187274602478 0.41767342017279768 0 0.29920226861661359 0.40369223241314378 0 0.31161081940960689 0.40482782964201058 0 0.28718207492169551 0.4069750143713553 0 0.28474366596995898 0.43658750117661232 0 0.2972187274602478 0.41767342017279768 0 0.28718207492169551 0.4069750143713553 0 0.28474366596995898 0.43658750117661232 0 0.28718207492169551 0.4069750143713553 0 0.28474366596995898 0.43658750117661232 0 0.27770379691830849 0.41252418702465898 0 0.2972187274602478 0.41767342017279768 0 0.28718207492169551 0.4069750143713553 0 0.29920226861661359 0.40369223241314378 0 0.2972187274602478 0.41767342017279768 0 0.29625641138153419 0.43025565975621999 0 0.28474366596995898 0.43658750117661232 0 0.29599472853730102 0.44121886677586619 0 0.29625641138153419 0.43025565975621999 0 0.28474366596995898 0.43658750117661232 0 0.248149486809982 0.41786266999090282 0 0.27829722214636837 0.43965222882432708 0 0.27770379691830849 0.41252418702465898 0 0.27829722214636837 0.43965222882432708 0 0.27770379691830849 0.41252418702465898 0 0.27829722214636837 0.43965222882432708 0 0.28474366596995898 0.43658750117661232 0 0.27770379691830849 0.41252418702465898 0 0.248149486809982 0.41786266999090282 0 0.27770379691830849 0.41252418702465898 0 0.26169941567564098 0.39813661161474112 0 0.248149486809982 0.41786266999090282 0 0.2514771125966242 0.44468408866335679 0 0.27829722214636837 0.43965222882432708 0 0.24289958445613999 0.39228423464896078 0 0.26169941567564098 0.39813661161474112 0 0.25905411186804261 0.37251649796013742 0 0.24289958445613999 0.39228423464896078 0 0.248149486809982 0.41786266999090282 0 0.26169941567564098 0.39813661161474112 0 0.27770379691830849 0.41252418702465898 0 0.27711037169024838 0.38539614522499099 0 0.27770379691830849 0.41252418702465898 0 0.26169941567564098 0.39813661161474112 0 0.27711037169024838 0.38539614522499099 0 0.28718207492169551 0.4069750143713553 0 0.27770379691830849 0.41252418702465898 0 0.27711037169024838 0.38539614522499099 0 0.26169941567564098 0.39813661161474112 0 0.27711037169024838 0.38539614522499099 0 0.25905411186804261 0.37251649796013742 0 0.27711037169024838 0.38539614522499099 0 0.28962048387343198 0.37736252756609823 0 0.28634329609767839 0.36556813624566697 0 0.28718207492169551 0.4069750143713553 0 0.27711037169024838 0.38539614522499099 0 0.28962048387343198 0.37736252756609823 0 0.28962048387343198 0.37736252756609823 0 0.29505275112141288 0.39226614035077761 0 0.30420617707391079 0.38103478705251331 0 0.28718207492169551 0.4069750143713553 0 0.28962048387343198 0.37736252756609823 0 0.29505275112141288 0.39226614035077761 0 0.28718207492169551 0.4069750143713553 0 0.28962048387343198 0.37736252756609823 0 0.28718207492169551 0.4069750143713553 0 0.29505275112141288 0.39226614035077761 0 0.29920226861661359 0.40369223241314378 0 0.31161081940960689 0.40482782964201058 0 0.30420617707391079 0.38103478705251331 0 0.29920226861661359 0.40369223241314378 0 0.31161081940960689 0.40482782964201058 0 0.30420617707391079 0.38103478705251331 0 0.29505275112141288 0.39226614035077761 0 0.29920226861661359 0.40369223241314378 0 0.30420617707391079 0.38103478705251331 0 0.31161081940960689 0.40482782964201058 0 0.30420617707391079 0.38103478705251331 0 0.31657105778918931 0.37949051986369181 0 0.31657105778918931 0.37949051986369181 0 0.33524284342772498 0.39745110156998431 0 0.31657105778918931 0.37949051986369181 0 0.33482195986006752 0.37525568319408231 0 0.33524284342772498 0.39745110156998431 0 0.33482195986006752 0.37525568319408231 0 0.33524284342772498 0.39745110156998431 0 0.35397062580441457 0.37809321440158788 0 0.31161081940960689 0.40482782964201058 0 0.31657105778918931 0.37949051986369181 0 0.33524284342772498 0.39745110156998431 0 0.31161081940960689 0.40482782964201058 0 0.33524284342772498 0.39745110156998431 0 0.32979195982475812 0.41511690074889579 0 0.31161081940960689 0.40482782964201058 0 0.31901546174530321 0.42862087223150802 0 0.31161081940960689 0.40482782964201058 0 0.31901546174530321 0.42862087223150802 0 0.32979195982475812 0.41511690074889579 0 0.31901546174530321 0.42862087223150802 0 0.34249698098152681 0.43436190135528657 0 0.32979195982475812 0.41511690074889579 0 0.33524284342772498 0.39745110156998431 0 0.32979195982475812 0.41511690074889579 0 0.3459238859814307 0.41457088518012652 0 0.34249698098152681 0.43436190135528657 0 0.32979195982475812 0.41511690074889579 0 0.3459238859814307 0.41457088518012652 0 0.3459238859814307 0.41457088518012652 0 0.36517828598789159 0.42600130542859338 0 0.35957445589615311 0.4020472599150906 0 0.34249698098152681 0.43436190135528657 0 0.3459238859814307 0.41457088518012652 0 0.36517828598789159 0.42600130542859338 0 0.37078211607963019 0.44995535094209621 0 0.34249698098152681 0.43436190135528657 0 0.36517828598789159 0.42600130542859338 0 0.36517828598789159 0.42600130542859338 0 0.35957445589615311 0.4020472599150906 0 0.3771709686793116 0.41324975171031297 0 0.36517828598789159 0.42600130542859338 0 0.35957445589615311 0.4020472599150906 0 0.35957445589615311 0.4020472599150906 0 0.37250528002566369 0.39451893199837468 0 0.35397062580441457 0.37809321440158788 0 0.35957445589615311 0.4020472599150906 0 0.37250528002566369 0.39451893199837468 0 0.3771709686793116 0.41324975171031297 0 0.35397062580441457 0.37809321440158788 0 0.36777589667942212 0.36738284016723782 0 0.37539288703884721 0.38017114684249331 0 0.37250528002566369 0.39451893199837468 0 0.35397062580441457 0.37809321440158788 0 0.37539288703884721 0.38017114684249331 0 0.35957445589615311 0.4020472599150906 0 0.35397062580441457 0.37809321440158788 0 0.33524284342772498 0.39745110156998431 0 0.35957445589615311 0.4020472599150906 0 0.35397062580441457 0.37809321440158788 0 0.33524284342772498 0.39745110156998431 0 0.3459238859814307 0.41457088518012652 0 0.35957445589615311 0.4020472599150906 0 0.35622462066451838 0.35195764345930303 0 0.34836679571267598 0.35413916888808522 0 0.35802587552449211 0.36084879357005778 0 0.35622462066451838 0.35195764345930303 0 0.34836679571267598 0.35413916888808522 0 0.35585183487231908 0.34257122303738752 0 0.35622462066451838 0.35195764345930303 0 0.36398177715045887 0.35307265926613568 0 0.35585183487231908 0.34257122303738752 0 0.35397062580441457 0.37809321440158788 0 0.34836679571267598 0.35413916888808522 0 0.35802587552449211 0.36084879357005778 0 0.35397062580441457 0.37809321440158788 0 0.34836679571267598 0.35413916888808522 0 0.3411974593755871 0.35768261684175978 0 0.35397062580441457 0.37809321440158788 0 0.34836679571267598 0.35413916888808522 0 0.35802587552449211 0.36084879357005778 0 0.36777589667942212 0.36738284016723782 0 0.36398177715045887 0.35307265926613568 0 0.35397062580441457 0.37809321440158788 0 0.35802587552449211 0.36084879357005778 0 0.36777589667942212 0.36738284016723782 0 0.36777589667942212 0.36738284016723782 0 0.3808591980642354 0.36935705893597359 0 0.37539288703884721 0.38017114684249331 0 0.36777589667942212 0.36738284016723782 0 0.36398177715045887 0.35307265926613568 0 0.37810677920759522 0.35981427665085353 0 0.36398177715045887 0.35307265926613568 0 0.37417197045165879 0.34885544311155597 0 0.37810677920759522 0.35981427665085353 0 0.35622462066451838 0.35195764345930303 0 0.35802587552449211 0.36084879357005778 0 0.36398177715045887 0.35307265926613568 0 0.36398177715045887 0.35307265926613568 0 0.36781057592505167 0.33833319135141071 0 0.35585183487231908 0.34257122303738752 0 0.36398177715045887 0.35307265926613568 0 0.37417197045165879 0.34885544311155597 0 0.36781057592505167 0.33833319135141071 0 0.36781057592505167 0.33833319135141071 0 0.358842304332599 0.32371848894677829 0 0.35585183487231908 0.34257122303738752 0 0.36781057592505167 0.33833319135141071 0 0.358842304332599 0.32371848894677829 0 0.37660830276601931 0.32775769020394202 0 0.37269506830413179 0.31359601771975171 0 0.358842304332599 0.32371848894677829 0 0.35857424703706159 0.30663585435998991 0 0.37269506830413179 0.31359601771975171 0 0.358842304332599 0.32371848894677829 0 0.37660830276601931 0.32775769020394202 0 0.358842304332599 0.32371848894677829 0 0.3427629656209375 0.3301851233745825 0 0.3371677965176445 0.3068269800088812 0 0.358842304332599 0.32371848894677829 0 0.35585183487231908 0.34257122303738752 0 0.3427629656209375 0.3301851233745825 0 0.34836679571267598 0.35413916888808522 0 0.3427629656209375 0.3301851233745825 0 0.34836679571267598 0.35413916888808522 0 0.35585183487231908 0.34257122303738752 0 0.3427629656209375 0.3301851233745825 0 0.3280875506797532 0.33336827266133329 0 0.31943947999510208 0.34883509843638988 0 0.33775130515959428 0.34414876122639543 0 0.34836679571267598 0.35413916888808522 0 0.3427629656209375 0.3301851233745825 0 0.33775130515959428 0.34414876122639543 0 0.3427629656209375 0.3301851233745825 0 0.3280875506797532 0.33336827266133329 0 0.33775130515959428 0.34414876122639543 0 0.3427629656209375 0.3301851233745825 0 0.3280875506797532 0.33336827266133329 0 0.3371677965176445 0.3068269800088812 0 0.31815942059527941 0.32225972019142468 0 0.3280875506797532 0.33336827266133329 0 0.3371677965176445 0.3068269800088812 0 0.31815942059527941 0.32225972019142468 0 0.3371677965176445 0.3068269800088812 0 0.31815942059527941 0.32225972019142468 0 0.30520110137159029 0.31520345581550679 0 0.31810320462676722 0.30772017370427102 0 0.31815942059527941 0.32225972019142468 0 0.3280875506797532 0.33336827266133329 0 0.31250379931153321 0.3364286263388272 0 0.3280875506797532 0.33336827266133329 0 0.31250379931153321 0.3364286263388272 0 0.31943947999510208 0.34883509843638988 0 0.31943947999510208 0.34883509843638988 0 0.31321630403874501 0.36139133729867062 0 0.30654993971069361 0.35302688824158618 0 0.31943947999510208 0.34883509843638988 0 0.32562177054808639 0.36407424179428538 0 0.31321630403874501 0.36139133729867062 0 0.31943947999510208 0.34883509843638988 0 0.3411974593755871 0.35768261684175978 0 0.33775130515959428 0.34414876122639543 0 0.31943947999510208 0.34883509843638988 0 0.3411974593755871 0.35768261684175978 0 0.32562177054808639 0.36407424179428538 0 0.31943947999510208 0.34883509843638988 0 0.3411974593755871 0.35768261684175978 0 0.34836679571267598 0.35413916888808522 0 0.3411974593755871 0.35768261684175978 0 0.33775130515959428 0.34414876122639543 0 0.33482195986006752 0.37525568319408231 0 0.3411974593755871 0.35768261684175978 0 0.32562177054808639 0.36407424179428538 0 0.33482195986006752 0.37525568319408231 0 0.35397062580441457 0.37809321440158788 0 0.3411974593755871 0.35768261684175978 0 0.31657105778918931 0.37949051986369181 0 0.32562177054808639 0.36407424179428538 0 0.31321630403874501 0.36139133729867062 0 0.31657105778918931 0.37949051986369181 0 0.33482195986006752 0.37525568319408231 0 0.32562177054808639 0.36407424179428538 0 0.28962048387343198 0.37736252756609823 0 0.30420617707391079 0.38103478705251331 0 0.29789927215065343 0.36152993815739931 0 0.31657105778918931 0.37949051986369181 0 0.29789927215065343 0.36152993815739931 0 0.30420617707391079 0.38103478705251331 0 0.31657105778918931 0.37949051986369181 0 0.29789927215065343 0.36152993815739931 0 0.31657105778918931 0.37949051986369181 0 0.31321630403874501 0.36139133729867062 0 0.29789927215065343 0.36152993815739931 0 0.31943947999510208 0.34883509843638988 0 0.30654993971069361 0.35302688824158618 0 0.29768150061461718 0.33998758003101998 0 0.31943947999510208 0.34883509843638988 0 0.29768150061461718 0.33998758003101998 0 0.29789927215065343 0.36152993815739931 0 0.30654993971069361 0.35302688824158618 0 0.29768150061461718 0.33998758003101998 0 0.31321630403874501 0.36139133729867062 0 0.29789927215065343 0.36152993815739931 0 0.30654993971069361 0.35302688824158618 0 0.29789927215065343 0.36152993815739931 0 0.27922748651211771 0.34356935645110681 0 0.29789927215065343 0.36152993815739931 0 0.28634329609767839 0.36556813624566697 0 0.27922748651211771 0.34356935645110681 0 0.29789927215065343 0.36152993815739931 0 0.27922748651211771 0.34356935645110681 0 0.29768150061461718 0.33998758003101998 0 0.28962048387343198 0.37736252756609823 0 0.29789927215065343 0.36152993815739931 0 0.28634329609767839 0.36556813624566697 0 0.27711037169024838 0.38539614522499099 0 0.28634329609767839 0.36556813624566697 0 0.27651694646218838 0.35826810342532289 0 0.27711037169024838 0.38539614522499099 0 0.27651694646218838 0.35826810342532289 0 0.27711037169024838 0.38539614522499099 0 0.27651694646218838 0.35826810342532289 0 0.25905411186804261 0.37251649796013742 0 0.28634329609767839 0.36556813624566697 0 0.27651694646218838 0.35826810342532289 0 0.27922748651211771 0.34356935645110681 0 0.27651694646218838 0.35826810342532289 0 0.27922748651211771 0.34356935645110681 0 0.27592352123413028 0.33114006162565468 0 0.27651694646218838 0.35826810342532289 0 0.25914891444172011 0.34530468765525679 0 0.27592352123413028 0.33114006162565468 0 0.27651694646218838 0.35826810342532289 0 0.27592352123413028 0.33114006162565468 0 0.27651694646218838 0.35826810342532289 0 0.26055766562478883 0.35759304549932458 0 0.25914891444172011 0.34530468765525679 0 0.2475106897272043 0.35428289295658161 0 0.24852544892751241 0.3439900518832546 0 0.25914891444172011 0.34530468765525679 0 0.2475106897272043 0.35428289295658161 0 0.26055766562478883 0.35759304549932458 0 0.25914891444172011 0.34530468765525679 0 0.2475106897272043 0.35428289295658161 0 0.26055766562478883 0.35759304549932458 0 0.25905411186804261 0.37251649796013742 0 0.27651694646218838 0.35826810342532289 0 0.26055766562478883 0.35759304549932458 0 0.25905411186804261 0.37251649796013742 0 0.23783836536509301 0.31565336997886329 0 0.2525696818628661 0.32164361344634662 0 0.26382887235950991 0.3072956239543374 0 0.2525696818628661 0.32164361344634662 0 0.27550579204514142 0.31204384804399121 0 0.26382887235950991 0.3072956239543374 0 0.2525696818628661 0.32164361344634662 0 0.27592352123413028 0.33114006162565468 0 0.2525696818628661 0.32164361344634662 0 0.26382887235950991 0.3072956239543374 0 0.2525696818628661 0.32164361344634662 0 0.25313896538212899 0.33510740846486831 0 0.27592352123413028 0.33114006162565468 0 0.25914891444172011 0.34530468765525679 0 0.25313896538212899 0.33510740846486831 0 0.27592352123413028 0.33114006162565468 0 0.24852544892751241 0.3439900518832546 0 0.25914891444172011 0.34530468765525679 0 0.25313896538212899 0.33510740846486831 0 0.2525696818628661 0.32164361344634662 0 0.27592352123413028 0.33114006162565468 0 0.27550579204514142 0.31204384804399121 0 0.27592352123413028 0.33114006162565468 0 0.2840493790515366 0.32405274590569982 0 0.27550579204514142 0.31204384804399121 0 0.27592352123413028 0.33114006162565468 0 0.27550579204514142 0.31204384804399121 0 0.28675334147524828 0.31290843621564413 0 0.2840493790515366 0.32405274590569982 0 0.27550579204514142 0.31204384804399121 0 0.28675334147524828 0.31290843621564413 0 0.2840493790515366 0.32405274590569982 0 0.28988389077070909 0.32153164888335573 0 0.2840493790515366 0.32405274590569982 0 0.29187220942922909 0.32749254548337942 0 0.28814465430817138 0.33226319722605829 0 0.2840493790515366 0.32405274590569982 0 0.28988389077070909 0.32153164888335573 0 0.29187220942922909 0.32749254548337942 0 0.28988389077070909 0.32153164888335573 0 0.29187220942922909 0.32749254548337942 0 0.29475884481398318 0.32217255647029591 0 0.29187220942922909 0.32749254548337942 0 0.29475884481398318 0.32217255647029591 0 0.30065057573995557 0.32637966237734989 0 0.28988389077070909 0.32153164888335573 0 0.29475884481398318 0.32217255647029591 0 0.29512442866507688 0.31493215827085158 0 0.28675334147524828 0.31290843621564413 0 0.28988389077070909 0.32153164888335573 0 0.29512442866507688 0.31493215827085158 0 0.27592352123413028 0.33114006162565468 0 0.29768150061461718 0.33998758003101998 0 0.27922748651211771 0.34356935645110681 0 0.27592352123413028 0.33114006162565468 0 0.29768150061461718 0.33998758003101998 0 0.27592352123413028 0.33114006162565468 0 0.28814465430817138 0.33226319722605829 0 0.29768150061461718 0.33998758003101998 0 0.27592352123413028 0.33114006162565468 0 0.2840493790515366 0.32405274590569982 0 0.28814465430817138 0.33226319722605829 0 0.28814465430817138 0.33226319722605829 0 0.29500454595267628 0.33555021188685308 0 0.29768150061461718 0.33998758003101998 0 0.29187220942922909 0.32749254548337942 0 0.29504098421500241 0.33225760991636599 0 0.30065057573995557 0.32637966237734989 0 0.29187220942922909 0.32749254548337942 0 0.28814465430817138 0.33226319722605829 0 0.29504098421500241 0.33225760991636599 0 0.29500454595267628 0.33555021188685308 0 0.29504098421500241 0.33225760991636599 0 0.29915104467291431 0.33769246037396811 0 0.28814465430817138 0.33226319722605829 0 0.29500454595267628 0.33555021188685308 0 0.29504098421500241 0.33225760991636599 0 0.31815942059527941 0.32225972019142468 0 0.29915104467291431 0.33769246037396811 0 0.31250379931153321 0.3364286263388272 0 0.31943947999510208 0.34883509843638988 0 0.29768150061461718 0.33998758003101998 0 0.31815942059527941 0.32225972019142468 0 0.31250379931153321 0.3364286263388272 0 0.29915104467291431 0.33769246037396811 0 0.31815942059527941 0.32225972019142468 0 0.29915104467291431 0.33769246037396811 0 0.30065057573995557 0.32637966237734989 0 0.31250379931153321 0.3364286263388272 0 0.29768150061461718 0.33998758003101998 0 0.29915104467291431 0.33769246037396811 0 0.29500454595267628 0.33555021188685308 0 0.29768150061461718 0.33998758003101998 0 0.29915104467291431 0.33769246037396811 0 0.29504098421500241 0.33225760991636599 0 0.29915104467291431 0.33769246037396811 0 0.30065057573995557 0.32637966237734989 0 0.31815942059527941 0.32225972019142468 0 0.30065057573995557 0.32637966237734989 0 0.30520110137159029 0.31520345581550679 0 0.29475884481398318 0.32217255647029591 0 0.29512442866507688 0.31493215827085158 0 0.30520110137159029 0.31520345581550679 0 0.29512442866507688 0.31493215827085158 0 0.30520110137159029 0.31520345581550679 0 0.30053989096607042 0.30771842755444739 0 0.29475884481398318 0.32217255647029591 0 0.30065057573995557 0.32637966237734989 0 0.30520110137159029 0.31520345581550679 0 0.30520110137159029 0.31520345581550679 0 0.30820811893807909 0.30534331252419311 0 0.31810320462676722 0.30772017370427102 0 0.30820811893807909 0.30534331252419311 0 0.30770884304192081 0.29876652671894632 0 0.31473550435619752 0.30010574377660421 0 0.30770884304192081 0.29876652671894632 0 0.30330878169165659 0.30190916427688502 0 0.30318440913936229 0.29653400531568352 0 0.30820811893807909 0.30534331252419311 0 0.30770884304192081 0.29876652671894632 0 0.30330878169165659 0.30190916427688502 0 0.30330878169165659 0.30190916427688502 0 0.30318440913936229 0.29653400531568352 0 0.2963310130069271 0.2999656034261251 0 0.30330878169165659 0.30190916427688502 0 0.30053989096607042 0.30771842755444739 0 0.2963310130069271 0.2999656034261251 0 0.30520110137159029 0.31520345581550679 0 0.30820811893807909 0.30534331252419311 0 0.30053989096607042 0.30771842755444739 0 0.30820811893807909 0.30534331252419311 0 0.30330878169165659 0.30190916427688502 0 0.30053989096607042 0.30771842755444739 0 0.30712914786831319 0.28893837931773431 0 0.30089464768156748 0.27871015228239021 0 0.31327452521932347 0.28219084843773462 0 0.30712914786831319 0.28893837931773431 0 0.31327452521932347 0.28219084843773462 0 0.31513073797751229 0.29248097102740611 0 0.30770884304192081 0.29876652671894632 0 0.30712914786831319 0.28893837931773431 0 0.31513073797751229 0.29248097102740611 0 0.30770884304192081 0.29876652671894632 0 0.30712914786831319 0.28893837931773431 0 0.29832718114697437 0.29116622019223459 0 0.30770884304192081 0.29876652671894632 0 0.30318440913936229 0.29653400531568352 0 0.29832718114697437 0.29116622019223459 0 0.30770884304192081 0.29876652671894632 0 0.29832718114697437 0.29116622019223459 0 0.30318440913936229 0.29653400531568352 0 0.29832718114697437 0.29116622019223459 0 0.2963310130069271 0.2999656034261251 0 0.30318440913936229 0.29653400531568352 0 0.29832718114697437 0.29116622019223459 0 0.30712914786831319 0.28893837931773431 0 0.29832718114697437 0.29116622019223459 0 0.30089464768156748 0.27871015228239021 0 0.29832718114697437 0.29116622019223459 0 0.28662992264078208 0.27823942937799928 0 0.30089464768156748 0.27871015228239021 0 0.29832718114697437 0.29116622019223459 0 0.28662992264078208 0.27823942937799928 0 0.28497454643931169 0.28034893452857729 0 0.29832718114697437 0.29116622019223459 0 0.28814274265779022 0.29355716912655649 0 0.28497454643931169 0.28034893452857729 0 0.29832718114697437 0.29116622019223459 0 0.28497454643931169 0.28034893452857729 0 0.29832718114697437 0.29116622019223459 0 0.28662992264078208 0.27823942937799928 0 0.29832718114697437 0.29116622019223459 0 0.28814274265779022 0.29355716912655649 0 0.2963310130069271 0.2999656034261251 0 0.28814274265779022 0.29355716912655649 0 0.28599290983958892 0.30335745302351558 0 0.27508806285615273 0.29294763446232758 0 0.28814274265779022 0.29355716912655649 0 0.27508806285615273 0.29294763446232758 0 0.28497454643931169 0.28034893452857729 0 0.30053989096607042 0.30771842755444739 0 0.29325047522820141 0.3083137791763283 0 0.2963310130069271 0.2999656034261251 0 0.28675334147524828 0.31290843621564413 0 0.29512442866507688 0.31493215827085158 0 0.29325047522820141 0.3083137791763283 0 0.29512442866507688 0.31493215827085158 0 0.30053989096607042 0.30771842755444739 0 0.29325047522820141 0.3083137791763283 0 0.28814274265779022 0.29355716912655649 0 0.2963310130069271 0.2999656034261251 0 0.28599290983958892 0.30335745302351558 0 0.29325047522820141 0.3083137791763283 0 0.2963310130069271 0.2999656034261251 0 0.28599290983958892 0.30335745302351558 0 0.28675334147524828 0.31290843621564413 0 0.29325047522820141 0.3083137791763283 0 0.28599290983958892 0.30335745302351558 0 0.28675334147524828 0.31290843621564413 0 0.28599290983958892 0.30335745302351558 0 0.27550579204514142 0.31204384804399121 0 0.27550579204514142 0.31204384804399121 0 0.27508806285615273 0.29294763446232758 0 0.27550579204514142 0.31204384804399121 0 0.27508806285615273 0.29294763446232758 0 0.26382887235950991 0.3072956239543374 0 0.28599290983958892 0.30335745302351558 0 0.27550579204514142 0.31204384804399121 0 0.27508806285615273 0.29294763446232758 0 0.27508806285615273 0.29294763446232758 0 0.26382887235950991 0.3072956239543374 0 0.27508806285615273 0.29294763446232758 0 0.25399091957574521 0.29199365062212068 0 0.27462913100498731 0.27196786843097581 0 0.27508806285615273 0.29294763446232758 0 0.27462913100498731 0.27196786843097581 0 0.27508806285615273 0.29294763446232758 0 0.27462913100498731 0.27196786843097581 0 0.28497454643931169 0.28034893452857729 0 0.27508806285615273 0.29294763446232758 0 0.28497454643931169 0.28034893452857729 0 0.23783836536509301 0.31565336997886329 0 0.25399091957574521 0.29199365062212068 0 0.26382887235950991 0.3072956239543374 0 0.27508806285615273 0.29294763446232758 0 0.25399091957574521 0.29199365062212068 0 0.26382887235950991 0.3072956239543374 0 0.27447242198079752 0.26480401904038969 0 0.2551851394074478 0.2434893950138429 0 0.25247275738948288 0.25401846534185119 0 0.25167401287834568 0.27306833633317068 0 0.27014347378639753 0.26833393126537808 0 0.25247275738948288 0.25401846534185119 0 0.27447242198079752 0.26480401904038969 0 0.2551851394074478 0.2434893950138429 0 0.25247275738948288 0.25401846534185119 0 0.27014347378639753 0.26833393126537808 0 0.25399091957574521 0.29199365062212068 0 0.25167401287834568 0.27306833633317068 0 0.27014347378639753 0.26833393126537808 0 0.25399091957574521 0.29199365062212068 0 0.27014347378639753 0.26833393126537808 0 0.25399091957574521 0.29199365062212068 0 0.27014347378639753 0.26833393126537808 0 0.27462913100498731 0.27196786843097581 0 0.27014347378639753 0.26833393126537808 0 0.27462913100498731 0.27196786843097581 0 0.27014347378639753 0.26833393126537808 0 0.27447242198079752 0.26480401904038969 0 0.27014347378639753 0.26833393126537808 0 0.27462913100498731 0.27196786843097581 0 0.27447242198079752 0.26480401904038969 0 0.27462913100498731 0.27196786843097581 0 0.28497454643931169 0.28034893452857729 0 0.27447242198079752 0.26480401904038969 0 0.28662992264078208 0.27823942937799928 0 0.27462913100498731 0.27196786843097581 0 0.27447242198079752 0.26480401904038969 0 0.28662992264078208 0.27823942937799928 0 0.27462913100498731 0.27196786843097581 0 0.27447242198079752 0.26480401904038969 0 0.27441284082051898 0.26208030570617857 0 0.27422647013237161 0.25356049296603311 0 0.29054302336085919 0.2384533556213457 0 0.25247275738948288 0.25401846534185119 0 0.27014347378639753 0.26833393126537808 0 0.27447242198079752 0.26480401904038969 0 0.27441284082051898 0.26208030570617857 0 0.27447242198079752 0.26480401904038969 0 0.28529465150197619 0.26084993190309452 0 0.27447242198079752 0.26480401904038969 0 0.2675309988367966 0.24592861094083041 0 0.2551851394074478 0.2434893950138429 0 0.27441284082051898 0.26208030570617857 0 0.27422647013237161 0.25356049296603311 0 0.27441284082051898 0.26208030570617857 0 0.27447242198079752 0.26480401904038969 0 0.2675309988367966 0.24592861094083041 0 0.27441284082051898 0.26208030570617857 0 0.27422647013237161 0.25356049296603311 0 0.2675309988367966 0.24592861094083041 0 0.27441284082051898 0.26208030570617857 0 0.27447242198079752 0.26480401904038969 0 0.27441284082051898 0.26208030570617857 0 0.28529465150197619 0.26084993190309452 0 0.29054302336085919 0.2384533556213457 0 0.28529465150197619 0.26084993190309452 0 0.30041504870691937 0.26067254976955972 0 0.29054302336085919 0.2384533556213457 0 0.27441284082051898 0.26208030570617857 0 0.29054302336085919 0.2384533556213457 0 0.28662992264078208 0.27823942937799928 0 0.30089464768156748 0.27871015228239021 0 0.30041504870691937 0.26067254976955972 0 0.28662992264078208 0.27823942937799928 0 0.30041504870691937 0.26067254976955972 0 0.28529465150197619 0.26084993190309452 0 0.28662992264078208 0.27823942937799928 0 0.30041504870691937 0.26067254976955972 0 0.27447242198079752 0.26480401904038969 0 0.28529465150197619 0.26084993190309452 0 0.28662992264078208 0.27823942937799928 0 0.27462913100498731 0.27196786843097581 0 0.28662992264078208 0.27823942937799928 0 0.28497454643931169 0.28034893452857729 0 0.28662992264078208 0.27823942937799928 0 0.28497454643931169 0.28034893452857729 0 0.30089464768156748 0.27871015228239021 0 0.30958868033141562 0.27119550140247639 0 0.30041504870691937 0.26067254976955972 0 0.30089464768156748 0.27871015228239021 0 0.30958868033141562 0.27119550140247639 0 0.31327452521932347 0.28219084843773462 0 0.30041504870691937 0.26067254976955972 0 0.31560987909873173 0.26189653626922149 0 0.31420017477305739 0.2431056701611205 0 0.30041504870691937 0.26067254976955972 0 0.31420017477305739 0.2431056701611205 0 0.30958868033141562 0.27119550140247639 0 0.30041504870691937 0.26067254976955972 0 0.31560987909873173 0.26189653626922149 0 0.31560987909873173 0.26189653626922149 0 0.32640088188025451 0.25485336633590389 0 0.31420017477305739 0.2431056701611205 0 0.31560987909873173 0.26189653626922149 0 0.32640088188025451 0.25485336633590389 0 0.32654563066655762 0.26567126039402472 0 0.32640088188025451 0.25485336633590389 0 0.33567128914585981 0.25335502600040072 0 0.32999523924895019 0.24481848980579379 0 0.32640088188025451 0.25485336633590389 0 0.33567128914585981 0.25335502600040072 0 0.33511633019422887 0.26099006842700267 0 0.32640088188025451 0.25485336633590389 0 0.33511633019422887 0.26099006842700267 0 0.32654563066655762 0.26567126039402472 0 0.33511633019422887 0.26099006842700267 0 0.34227510882408518 0.26388037280595011 0 0.33716369924465228 0.27138356787502987 0 0.33511633019422887 0.26099006842700267 0 0.34227510882408518 0.26388037280595011 0 0.34143956452662771 0.25756182202630462 0 0.33567128914585981 0.25335502600040072 0 0.34143956452662771 0.25756182202630462 0 0.34532353849112551 0.24899713256093869 0 0.33567128914585981 0.25335502600040072 0 0.33511633019422887 0.26099006842700267 0 0.34143956452662771 0.25756182202630462 0 0.33716369924465228 0.27138356787502987 0 0.34324048198635693 0.28231817667836773 0 0.34827198935151332 0.26964721830679078 0 0.33716369924465228 0.27138356787502987 0 0.33244740824808899 0.28314628250585511 0 0.34324048198635693 0.28231817667836773 0 0.34227510882408518 0.26388037280595011 0 0.33716369924465228 0.27138356787502987 0 0.34827198935151332 0.26964721830679078 0 0.33716369924465228 0.27138356787502987 0 0.32814029471333872 0.27510929435738252 0 0.32654563066655762 0.26567126039402472 0 0.33511633019422887 0.26099006842700267 0 0.33716369924465228 0.27138356787502987 0 0.32654563066655762 0.26567126039402472 0 0.33716369924465228 0.27138356787502987 0 0.32814029471333872 0.27510929435738252 0 0.33244740824808899 0.28314628250585511 0 0.32814029471333872 0.27510929435738252 0 0.32301487235009763 0.28472498267481322 0 0.33244740824808899 0.28314628250585511 0 0.32814029471333872 0.27510929435738252 0 0.32125956870258537 0.27816633986760819 0 0.31774930095053622 0.27250742025347618 0 0.32814029471333872 0.27510929435738252 0 0.32125956870258537 0.27816633986760819 0 0.32301487235009763 0.28472498267481322 0 0.32814029471333872 0.27510929435738252 0 0.32654563066655762 0.26567126039402472 0 0.31774930095053622 0.27250742025347618 0 0.30958868033141562 0.27119550140247639 0 0.31560987909873173 0.26189653626922149 0 0.31774930095053622 0.27250742025347618 0 0.31560987909873173 0.26189653626922149 0 0.32654563066655762 0.26567126039402472 0 0.31774930095053622 0.27250742025347618 0 0.30958868033141562 0.27119550140247639 0 0.31774930095053622 0.27250742025347618 0 0.31327452521932347 0.28219084843773462 0 0.32125956870258537 0.27816633986760819 0 0.31774930095053622 0.27250742025347618 0 0.31327452521932347 0.28219084843773462 0 0.32125956870258537 0.27816633986760819 0 0.31327452521932347 0.28219084843773462 0 0.32301487235009763 0.28472498267481322 0 0.31327452521932347 0.28219084843773462 0 0.31513073797751229 0.29248097102740611 0 0.32301487235009763 0.28472498267481322 0 0.31513073797751229 0.29248097102740611 0 0.32452661719670778 0.29621773490820408 0 0.31473550435619752 0.30010574377660421 0 0.31513073797751229 0.29248097102740611 0 0.32452661719670778 0.29621773490820408 0 0.32301487235009763 0.28472498267481322 0 0.32452661719670778 0.29621773490820408 0 0.32301487235009763 0.28472498267481322 0 0.33244740824808899 0.28314628250585511 0 0.32452661719670778 0.29621773490820408 0 0.31810320462676722 0.30772017370427102 0 0.3371677965176445 0.3068269800088812 0 0.31815942059527941 0.32225972019142468 0 0.31810320462676722 0.30772017370427102 0 0.3371677965176445 0.3068269800088812 0 0.32452661719670778 0.29621773490820408 0 0.31810320462676722 0.30772017370427102 0 0.31473550435619752 0.30010574377660421 0 0.30820811893807909 0.30534331252419311 0 0.31810320462676722 0.30772017370427102 0 0.31473550435619752 0.30010574377660421 0 0.30770884304192081 0.29876652671894632 0 0.31513073797751229 0.29248097102740611 0 0.31473550435619752 0.30010574377660421 0 0.32452661719670778 0.29621773490820408 0 0.3371677965176445 0.3068269800088812 0 0.33871169527776163 0.29198068278552908 0 0.32452661719670778 0.29621773490820408 0 0.33244740824808899 0.28314628250585511 0 0.33871169527776163 0.29198068278552908 0 0.33244740824808899 0.28314628250585511 0 0.33871169527776163 0.29198068278552908 0 0.34324048198635693 0.28231817667836773 0 0.34324048198635693 0.28231817667836773 0 0.35617617244000982 0.29139423982633761 0 0.35338435227663539 0.2796618805047803 0 0.33871169527776163 0.29198068278552908 0 0.34324048198635693 0.28231817667836773 0 0.35617617244000982 0.29139423982633761 0 0.3371677965176445 0.3068269800088812 0 0.33871169527776163 0.29198068278552908 0 0.35617617244000982 0.29139423982633761 0 0.35617617244000982 0.29139423982633761 0 0.36272998231573778 0.27614849386931112 0 0.35338435227663539 0.2796618805047803 0 0.358842304332599 0.32371848894677829 0 0.3371677965176445 0.3068269800088812 0 0.35857424703706159 0.30663585435998991 0 0.3371677965176445 0.3068269800088812 0 0.35617617244000982 0.29139423982633761 0 0.3371677965176445 0.3068269800088812 0 0.35617617244000982 0.29139423982633761 0 0.35857424703706159 0.30663585435998991 0 0.37269506830413179 0.31359601771975171 0 0.35857424703706159 0.30663585435998991 0 0.37203420274818311 0.29150384376524258 0 0.35617617244000982 0.29139423982633761 0 0.35857424703706159 0.30663585435998991 0 0.37203420274818311 0.29150384376524258 0 0.35617617244000982 0.29139423982633761 0 0.37203420274818311 0.29150384376524258 0 0.37518454836237503 0.27596149964379407 0 0.35617617244000982 0.29139423982633761 0 0.37518454836237503 0.27596149964379407 0 0.36272998231573778 0.27614849386931112 0 0.36950828965322308 0.27234168192356689 0 0.37518454836237503 0.27596149964379407 0 0.35617617244000982 0.29139423982633761 0 0.36272998231573778 0.27614849386931112 0 0.37518454836237503 0.27596149964379407 0 0.36272998231573778 0.27614849386931112 0 0.36488473365173157 0.26992388639412002 0 0.3567239203370785 0.26918607771553182 0 0.36488473365173157 0.26992388639412002 0 0.37450343330610869 0.26968011321283319 0 0.36095804264650988 0.26226306524935722 0 0.36488473365173157 0.26992388639412002 0 0.36095804264650988 0.26226306524935722 0 0.3567239203370785 0.26918607771553182 0 0.36272998231573778 0.27614849386931112 0 0.36488473365173157 0.26992388639412002 0 0.36950828965322308 0.27234168192356689 0 0.36488473365173157 0.26992388639412002 0 0.36950828965322308 0.27234168192356689 0 0.37450343330610869 0.26968011321283319 0 0.36950828965322308 0.27234168192356689 0 0.37450343330610869 0.26968011321283319 0 0.37518454836237503 0.27596149964379407 0 0.37450343330610869 0.26968011321283319 0 0.36554718467112712 0.25398456366339739 0 0.35307730466155363 0.24934873687200709 0 0.37450343330610869 0.26968011321283319 0 0.35307730466155363 0.24934873687200709 0 0.37450343330610869 0.26968011321283319 0 0.36095804264650988 0.26226306524935722 0 0.35307730466155363 0.24934873687200709 0 0.37450343330610869 0.26968011321283319 0 0.37165401412278792 0.25676858897620308 0 0.37809610805639471 0.26009187514795279 0 0.37450343330610869 0.26968011321283319 0 0.37165401412278792 0.25676858897620308 0 0.36554718467112712 0.25398456366339739 0 0.37165401412278792 0.25676858897620308 0 0.36935999944055858 0.25035342442963759 0 0.37693108616487392 0.25112149136587758 0 0.37165401412278792 0.25676858897620308 0 0.36935999944055858 0.25035342442963759 0 0.36554718467112712 0.25398456366339739 0 0.36935999944055858 0.25035342442963759 0 0.36554718467112712 0.25398456366339739 0 0.36312229485699982 0.24630684093376251 0 0.36095804264650988 0.26226306524935722 0 0.34938396080340361 0.25981918739462251 0 0.3567239203370785 0.26918607771553182 0 0.36095804264650988 0.26226306524935722 0 0.34938396080340361 0.25981918739462251 0 0.35307730466155363 0.24934873687200709 0 0.34143956452662771 0.25756182202630462 0 0.34938396080340361 0.25981918739462251 0 0.34532353849112551 0.24899713256093869 0 0.34938396080340361 0.25981918739462251 0 0.35307730466155363 0.24934873687200709 0 0.34532353849112551 0.24899713256093869 0 0.34227510882408518 0.26388037280595011 0 0.34938396080340361 0.25981918739462251 0 0.34827198935151332 0.26964721830679078 0 0.34227510882408518 0.26388037280595011 0 0.34143956452662771 0.25756182202630462 0 0.34938396080340361 0.25981918739462251 0 0.34938396080340361 0.25981918739462251 0 0.34827198935151332 0.26964721830679078 0 0.3567239203370785 0.26918607771553182 0 0.34324048198635693 0.28231817667836773 0 0.34827198935151332 0.26964721830679078 0 0.35338435227663539 0.2796618805047803 0 0.36272998231573778 0.27614849386931112 0 0.35338435227663539 0.2796618805047803 0 0.3567239203370785 0.26918607771553182 0 0.34827198935151332 0.26964721830679078 0 0.35338435227663539 0.2796618805047803 0 0.3567239203370785 0.26918607771553182 0 0.39705613616356772 0.26049928830228081 0 0.3902612304969964 0.2718294864107822 0 0.41024715033577219 0.27622005377076342 0 0.3902612304969964 0.2718294864107822 0 0.3962271982206832 0.28215443287103059 0 0.41024715033577219 0.27622005377076342 0 0.39705613616356772 0.26049928830228081 0 0.40936178095289738 0.25240399705514732 0 0.39365908746925121 0.2498125304894577 0 0.39705613616356772 0.26049928830228081 0 0.41024715033577219 0.27622005377076342 0 0.40936178095289738 0.25240399705514732 0 0.39705613616356772 0.26049928830228081 0 0.38475193633257748 0.25617205851349262 0 0.39365908746925121 0.2498125304894577 0 0.39705613616356772 0.26049928830228081 0 0.3836819489706409 0.2653200328779155 0 0.38475193633257748 0.25617205851349262 0 0.38475193633257748 0.25617205851349262 0 0.39365908746925121 0.2498125304894577 0 0.38475748107919799 0.247937755230528 0 0.38475193633257748 0.25617205851349262 0 0.37693108616487392 0.25112149136587758 0 0.38475748107919799 0.247937755230528 0 0.38475193633257748 0.25617205851349262 0 0.37693108616487392 0.25112149136587758 0 0.37809610805639471 0.26009187514795279 0 0.37165401412278792 0.25676858897620308 0 0.37693108616487392 0.25112149136587758 0 0.37809610805639471 0.26009187514795279 0 0.37450343330610869 0.26968011321283319 0 0.3836819489706409 0.2653200328779155 0 0.37809610805639471 0.26009187514795279 0 0.3836819489706409 0.2653200328779155 0 0.38475193633257748 0.25617205851349262 0 0.37809610805639471 0.26009187514795279 0 0.37450343330610869 0.26968011321283319 0 0.3836819489706409 0.2653200328779155 0 0.38158659433236858 0.27246955003463152 0 0.37450343330610869 0.26968011321283319 0 0.38158659433236858 0.27246955003463152 0 0.37518454836237503 0.27596149964379407 0 0.3836819489706409 0.2653200328779155 0 0.38158659433236858 0.27246955003463152 0 0.3902612304969964 0.2718294864107822 0 0.39705613616356772 0.26049928830228081 0 0.3836819489706409 0.2653200328779155 0 0.3902612304969964 0.2718294864107822 0 0.3902612304969964 0.2718294864107822 0 0.38430181052572188 0.27955661802783272 0 0.3962271982206832 0.28215443287103059 0 0.38158659433236858 0.27246955003463152 0 0.3902612304969964 0.2718294864107822 0 0.38430181052572188 0.27955661802783272 0 0.38158659433236858 0.27246955003463152 0 0.38430181052572188 0.27955661802783272 0 0.37518454836237503 0.27596149964379407 0 0.38430181052572188 0.27955661802783272 0 0.37518454836237503 0.27596149964379407 0 0.37956272795761331 0.2844551960469433 0 0.37203420274818311 0.29150384376524258 0 0.37518454836237503 0.27596149964379407 0 0.37956272795761331 0.2844551960469433 0 0.37203420274818311 0.29150384376524258 0 0.37956272795761331 0.2844551960469433 0 0.38673035019417301 0.29079882275090368 0 0.37203420274818311 0.29150384376524258 0 0.38673035019417301 0.29079882275090368 0 0.38456916255995699 0.3048330440725 0 0.38430181052572188 0.27955661802783272 0 0.37956272795761331 0.2844551960469433 0 0.38673035019417301 0.29079882275090368 0 0.38430181052572188 0.27955661802783272 0 0.38673035019417301 0.29079882275090368 0 0.3962271982206832 0.28215443287103059 0 0.37269506830413179 0.31359601771975171 0 0.37203420274818311 0.29150384376524258 0 0.38456916255995699 0.3048330440725 0 0.38673035019417301 0.29079882275090368 0 0.38456916255995699 0.3048330440725 0 0.39260572260290638 0.29858222563873721 0 0.38456916255995699 0.3048330440725 0 0.39928566715577007 0.30593227745083229 0 0.39071370797808991 0.32163173327551231 0 0.39260572260290638 0.29858222563873721 0 0.39928566715577007 0.30593227745083229 0 0.39983771050172562 0.2927647582807128 0 0.38456916255995699 0.3048330440725 0 0.39260572260290638 0.29858222563873721 0 0.39928566715577007 0.30593227745083229 0 0.39928566715577007 0.30593227745083229 0 0.39983771050172562 0.2927647582807128 0 0.41113251971864678 0.30003611048637963 0 0.3962271982206832 0.28215443287103059 0 0.39983771050172562 0.2927647582807128 0 0.41024715033577219 0.27622005377076342 0 0.38673035019417301 0.29079882275090368 0 0.3962271982206832 0.28215443287103059 0 0.39983771050172562 0.2927647582807128 0 0.38673035019417301 0.29079882275090368 0 0.39260572260290638 0.29858222563873721 0 0.39983771050172562 0.2927647582807128 0 0.41113251971864678 0.30003611048637963 0 0.42915198713048791 0.29928938767105417 0 0.42477304827116519 0.28608227672526487 0 0.41113251971864678 0.30003611048637963 0 0.42477304827116519 0.28608227672526487 0 0.41024715033577219 0.27622005377076342 0 0.41113251971864678 0.30003611048637963 0 0.41024715033577219 0.27622005377076342 0 0.39983771050172562 0.2927647582807128 0 0.41113251971864678 0.30003611048637963 0 0.41024715033577219 0.27622005377076342 0 0.42136197396174502 0.30826541372809818 0 0.41113251971864678 0.30003611048637963 0 0.41391887797310511 0.31706761406649719 0 0.42136197396174502 0.30826541372809818 0 0.41113251971864678 0.30003611048637963 0 0.42915198713048791 0.29928938767105417 0 0.39928566715577007 0.30593227745083229 0 0.41113251971864678 0.30003611048637963 0 0.41391887797310511 0.31706761406649719 0 0.42915198713048791 0.29928938767105417 0 0.44469569897523198 0.30507367697079468 0 0.43124451102474037 0.31666854268846212 0 0.42136197396174502 0.30826541372809818 0 0.42915198713048791 0.29928938767105417 0 0.43124451102474037 0.31666854268846212 0 0.42915198713048791 0.29928938767105417 0 0.42477304827116519 0.28608227672526487 0 0.44225776140102402 0.28410073860180768 0 0.42477304827116519 0.28608227672526487 0 0.43107582276989492 0.27076509309631941 0 0.41024715033577219 0.27622005377076342 0 0.42477304827116519 0.28608227672526487 0 0.43107582276989492 0.27076509309631941 0 0.44225776140102402 0.28410073860180768 0 0.43107582276989492 0.27076509309631941 0 0.41024715033577219 0.27622005377076342 0 0.42337495438113032 0.25825232539008242 0 0.40936178095289738 0.25240399705514732 0 0.42337495438113032 0.25825232539008242 0 0.42478978643733262 0.2415555153052843 0 0.41024715033577219 0.27622005377076342 0 0.40936178095289738 0.25240399705514732 0 0.41024715033577219 0.27622005377076342 0 0.40936178095289738 0.25240399705514732 0 0.42337495438113032 0.25825232539008242 0 0.43107582276989492 0.27076509309631941 0 0.42337495438113032 0.25825232539008242 0 0.44110316130464111 0.25452309027103831 0 0.42337495438113032 0.25825232539008242 0 0.44110316130464111 0.25452309027103831 0 0.42478978643733262 0.2415555153052843 0 0.43107582276989492 0.27076509309631941 0 0.44110316130464111 0.25452309027103831 0 0.45649527658784839 0.26675835185486307 0 0.44110316130464111 0.25452309027103831 0 0.45649527658784839 0.26675835185486307 0 0.45439012142468871 0.24678647365181461 0 0.44110316130464111 0.25452309027103831 0 0.45649527658784839 0.26675835185486307 0 0.45649527658784839 0.26675835185486307 0 0.44225776140102402 0.28410073860180768 0 0.45649527658784839 0.26675835185486307 0 0.45689864209029901 0.29214778015432769 0 0.44225776140102402 0.28410073860180768 0 0.43107582276989492 0.27076509309631941 0 0.45649527658784839 0.26675835185486307 0 0.44225776140102402 0.28410073860180768 0 0.45649527658784839 0.26675835185486307 0 0.47027739279820008 0.28214181720209691 0 0.45689864209029901 0.29214778015432769 0 0.45649527658784839 0.26675835185486307 0 0.4639266926722645 0.27266561788413168 0 0.45649527658784839 0.26675835185486307 0 0.4639266926722645 0.27266561788413168 0 0.47027739279820008 0.28214181720209691 0 0.45649527658784839 0.26675835185486307 0 0.47027739279820008 0.28214181720209691 0 0.45649527658784839 0.26675835185486307 0 0.4639266926722645 0.27266561788413168 0 0.47099685105856659 0.24909432062393899 0 0.45649527658784839 0.26675835185486307 0 0.45439012142468871 0.24678647365181461 0 0.47099685105856659 0.24909432062393899 0 0.45649527658784839 0.26675835185486307 0 0.47099685105856659 0.24909432062393899 0 0.48332510613244078 0.26263993867580659 0 0.48796407654405838 0.24861642653093519 0 0.47099685105856659 0.24909432062393899 0 0.4639266926722645 0.27266561788413168 0 0.47472879472773472 0.26916864035384208 0 0.47099685105856659 0.24909432062393899 0 0.48332510613244078 0.26263993867580659 0 0.47472879472773472 0.26916864035384208 0 0.47099685105856659 0.24909432062393899 0 0.48332510613244078 0.26263993867580659 0 0.47472879472773472 0.26916864035384208 0 0.48511793097720157 0.27930150738323628 0 0.4639266926722645 0.27266561788413168 0 0.47472879472773472 0.26916864035384208 0 0.47027739279820008 0.28214181720209691 0 0.47472879472773472 0.26916864035384208 0 0.48511793097720157 0.27930150738323628 0 0.47027739279820008 0.28214181720209691 0 0.48332510613244078 0.26263993867580659 0 0.48511793097720157 0.27930150738323628 0 0.5 0.26202296992058038 0 0.48511793097720157 0.27930150738323628 0 0.5 0.26202296992058038 0 0.5 0.28615132579982561 0 0.48332510613244078 0.26263993867580659 0 0.5 0.26202296992058038 0 0.48796407654405838 0.24861642653093519 0 0.5 0.31027968167907072 0 0.48513869639910012 0.29621074944058379 0 0.48014786409732041 0.31580072554911109 0 0.5 0.31027968167907072 0 0.5 0.28615132579982561 0 0.48513869639910012 0.29621074944058379 0 0.5 0.31027968167907072 0 0.48513869639910012 0.29621074944058379 0 0.48511793097720157 0.27930150738323628 0 0.5 0.28615132579982561 0 0.48513869639910012 0.29621074944058379 0 0.48513869639910012 0.29621074944058379 0 0.47027739279820008 0.28214181720209691 0 0.48511793097720157 0.27930150738323628 0 0.48513869639910012 0.29621074944058379 0 0.47027739279820008 0.28214181720209691 0 0.48513869639910012 0.29621074944058379 0 0.47027739279820008 0.28214181720209691 0 0.47290731302890199 0.29692613969344789 0 0.47290731302890199 0.29692613969344789 0 0.46010508874384148 0.31843942354758542 0 0.48014786409732041 0.31580072554911109 0 0.48513869639910012 0.29621074944058379 0 0.47290731302890199 0.29692613969344789 0 0.48014786409732041 0.31580072554911109 0 0.45689864209029901 0.29214778015432769 0 0.44469569897523198 0.30507367697079468 0 0.46010508874384148 0.31843942354758542 0 0.47290731302890199 0.29692613969344789 0 0.45689864209029901 0.29214778015432769 0 0.46010508874384148 0.31843942354758542 0 0.47290731302890199 0.29692613969344789 0 0.46010508874384148 0.31843942354758542 0 0.47027739279820008 0.28214181720209691 0 0.47290731302890199 0.29692613969344789 0 0.45689864209029901 0.29214778015432769 0 0.45689864209029901 0.29214778015432769 0 0.44225776140102402 0.28410073860180768 0 0.44469569897523198 0.30507367697079468 0 0.42915198713048791 0.29928938767105417 0 0.44225776140102402 0.28410073860180768 0 0.44469569897523198 0.30507367697079468 0 0.44470397357642028 0.32128765073749371 0 0.44730286445878098 0.3399527074017229 0 0.46010508874384148 0.31843942354758542 0 0.44469569897523198 0.30507367697079468 0 0.44470397357642028 0.32128765073749371 0 0.46010508874384148 0.31843942354758542 0 0.44469569897523198 0.30507367697079468 0 0.44470397357642028 0.32128765073749371 0 0.43124451102474037 0.31666854268846212 0 0.44470397357642028 0.32128765073749371 0 0.43691589271420828 0.32986554473293189 0 0.43124451102474037 0.31666854268846212 0 0.44470397357642028 0.32128765073749371 0 0.44730286445878098 0.3399527074017229 0 0.43691589271420828 0.32986554473293189 0 0.44730286445878098 0.3399527074017229 0 0.43265384881474422 0.34256724188644422 0 0.43691589271420828 0.32986554473293189 0 0.46090134613873712 0.33332270228030941 0 0.47512241224205709 0.33623688617795727 0 0.45654661427372062 0.34612786982151539 0 0.44730286445878098 0.3399527074017229 0 0.46090134613873712 0.33332270228030941 0 0.46010508874384148 0.31843942354758542 0 0.46090134613873712 0.33332270228030941 0 0.46010508874384148 0.31843942354758542 0 0.47512241224205709 0.33623688617795727 0 0.44730286445878098 0.3399527074017229 0 0.46010508874384148 0.31843942354758542 0 0.44730286445878098 0.3399527074017229 0 0.46090134613873712 0.33332270228030941 0 0.45654661427372062 0.34612786982151539 0 0.46010508874384148 0.31843942354758542 0 0.48014786409732041 0.31580072554911109 0 0.47512241224205709 0.33623688617795727 0 0.48014786409732041 0.31580072554911109 0 0.47512241224205709 0.33623688617795727 0 0.5 0.33912057163650389 0 0.5 0.31027968167907072 0 0.48014786409732041 0.31580072554911109 0 0.5 0.33912057163650389 0 0.50000000000000089 0.36796146159393711 0 0.47827330713686089 0.35704466570772608 0 0.50000000000000089 0.36796146159393711 0 0.47827330713686089 0.35704466570772608 0 0.47901029300138559 0.37718938986322148 0 0.47512241224205709 0.33623688617795727 0 0.5 0.33912057163650389 0 0.47827330713686089 0.35704466570772608 0 0.5 0.33912057163650389 0 0.50000000000000089 0.36796146159393711 0 0.47827330713686089 0.35704466570772608 0 0.47512241224205709 0.33623688617795727 0 0.47827330713686089 0.35704466570772608 0 0.45654661427372062 0.34612786982151539 0 0.47827330713686089 0.35704466570772608 0 0.46351068266460821 0.36336061304530498 0 0.47901029300138559 0.37718938986322148 0 0.46351068266460821 0.36336061304530498 0 0.4589480855614646 0.37952376083574141 0 0.47901029300138559 0.37718938986322148 0 0.46351068266460821 0.36336061304530498 0 0.44877833754571772 0.35891712010380372 0 0.4589480855614646 0.37952376083574141 0 0.47827330713686089 0.35704466570772608 0 0.46351068266460821 0.36336061304530498 0 0.45654661427372062 0.34612786982151539 0 0.46351068266460821 0.36336061304530498 0 0.45654661427372062 0.34612786982151539 0 0.44877833754571772 0.35891712010380372 0 0.47827330713686089 0.35704466570772608 0 0.45654661427372062 0.34612786982151539 0 0.44730286445878098 0.3399527074017229 0 0.45654661427372062 0.34612786982151539 0 0.44877833754571772 0.35891712010380372 0 0.44730286445878098 0.3399527074017229 0 0.43450064017372048 0.36146599125586049 0 0.43265384881474422 0.34256724188644422 0 0.44730286445878098 0.3399527074017229 0 0.43450064017372048 0.36146599125586049 0 0.44730286445878098 0.3399527074017229 0 0.44877833754571772 0.35891712010380372 0 0.43450064017372048 0.36146599125586049 0 0.44877833754571772 0.35891712010380372 0 0.43930744269236272 0.38131204811245978 0 0.4589480855614646 0.37952376083574141 0 0.44877833754571772 0.35891712010380372 0 0.43450064017372048 0.36146599125586049 0 0.43930744269236272 0.38131204811245978 0 0.43450064017372048 0.36146599125586049 0 0.42169841588866003 0.38297927510999807 0 0.43450064017372048 0.36146599125586049 0 0.4193749022335686 0.36727603989734892 0 0.4209507715624351 0.34957863471427408 0 0.43450064017372048 0.36146599125586049 0 0.4193749022335686 0.36727603989734892 0 0.42169841588866003 0.38297927510999807 0 0.4193749022335686 0.36727603989734892 0 0.40832402990732453 0.36170932982868242 0 0.41121357935606079 0.37832888934782949 0 0.4193749022335686 0.36727603989734892 0 0.40832402990732453 0.36170932982868242 0 0.4209507715624351 0.34957863471427408 0 0.40832402990732453 0.36170932982868242 0 0.40054506364770592 0.38424856797896012 0 0.41121357935606079 0.37832888934782949 0 0.40832402990732453 0.36170932982868242 0 0.41121357935606079 0.37832888934782949 0 0.40832402990732453 0.36170932982868242 0 0.4209507715624351 0.34957863471427408 0 0.4038048485315473 0.33382080363975741 0 0.43450064017372048 0.36146599125586049 0 0.4209507715624351 0.34957863471427408 0 0.43265384881474422 0.34256724188644422 0 0.4209507715624351 0.34957863471427408 0 0.43265384881474422 0.34256724188644422 0 0.42359907516457612 0.3319733313274314 0 0.43265384881474422 0.34256724188644422 0 0.43691589271420828 0.32986554473293189 0 0.42359907516457612 0.3319733313274314 0 0.42136197396174502 0.30826541372809818 0 0.43124451102474037 0.31666854268846212 0 0.41391887797310511 0.31706761406649719 0 0.42359907516457612 0.3319733313274314 0 0.43124451102474037 0.31666854268846212 0 0.41391887797310511 0.31706761406649719 0 0.43691589271420828 0.32986554473293189 0 0.42359907516457612 0.3319733313274314 0 0.43124451102474037 0.31666854268846212 0 0.42359907516457612 0.3319733313274314 0 0.41391887797310511 0.31706761406649719 0 0.4038048485315473 0.33382080363975741 0 0.4209507715624351 0.34957863471427408 0 0.42359907516457612 0.3319733313274314 0 0.4038048485315473 0.33382080363975741 0 0.4038048485315473 0.33382080363975741 0 0.39071370797808991 0.32163173327551231 0 0.38678874952352971 0.34420164517782442 0 0.39928566715577007 0.30593227745083229 0 0.41391887797310511 0.31706761406649719 0 0.4038048485315473 0.33382080363975741 0 0.39928566715577007 0.30593227745083229 0 0.4038048485315473 0.33382080363975741 0 0.39071370797808991 0.32163173327551231 0 0.39928566715577007 0.30593227745083229 0 0.4038048485315473 0.33382080363975741 0 0.37269506830413179 0.31359601771975171 0 0.39071370797808991 0.32163173327551231 0 0.37660830276601931 0.32775769020394202 0 0.37269506830413179 0.31359601771975171 0 0.38456916255995699 0.3048330440725 0 0.39071370797808991 0.32163173327551231 0 0.36781057592505167 0.33833319135141071 0 0.37660830276601931 0.32775769020394202 0 0.38678874952352971 0.34420164517782442 0 0.39071370797808991 0.32163173327551231 0 0.37660830276601931 0.32775769020394202 0 0.38678874952352971 0.34420164517782442 0 0.38678874952352971 0.34420164517782442 0 0.37810677920759522 0.35981427665085353 0 0.39073411173907152 0.3628013869794906 0 0.37417197045165879 0.34885544311155597 0 0.36781057592505167 0.33833319135141071 0 0.38678874952352971 0.34420164517782442 0 0.37417197045165879 0.34885544311155597 0 0.38678874952352971 0.34420164517782442 0 0.37810677920759522 0.35981427665085353 0 0.36777589667942212 0.36738284016723782 0 0.37810677920759522 0.35981427665085353 0 0.3808591980642354 0.36935705893597359 0 0.3808591980642354 0.36935705893597359 0 0.39073411173907152 0.3628013869794906 0 0.39228631565624089 0.37661564403979297 0 0.37810677920759522 0.35981427665085353 0 0.3808591980642354 0.36935705893597359 0 0.39073411173907152 0.3628013869794906 0 0.40832402990732453 0.36170932982868242 0 0.39073411173907152 0.3628013869794906 0 0.39228631565624089 0.37661564403979297 0 0.40832402990732453 0.36170932982868242 0 0.40054506364770592 0.38424856797896012 0 0.39228631565624089 0.37661564403979297 0 0.40832402990732453 0.36170932982868242 0 0.4038048485315473 0.33382080363975741 0 0.40832402990732453 0.36170932982868242 0 0.4038048485315473 0.33382080363975741 0 0.38678874952352971 0.34420164517782442 0 0.40832402990732453 0.36170932982868242 0 0.38678874952352971 0.34420164517782442 0 0.39073411173907152 0.3628013869794906 0 0.40184535627318257 0.39910654668166579 0 0.40054506364770592 0.38424856797896012 0 0.38742640511867998 0.39421346332705159 0 0.40184535627318257 0.39910654668166579 0 0.38742640511867998 0.39421346332705159 0 0.39221529461803328 0.40861845728242452 0 0.40184535627318257 0.39910654668166579 0 0.40054506364770592 0.38424856797896012 0 0.41316706566488809 0.38956457939410732 0 0.40054506364770592 0.38424856797896012 0 0.39228631565624089 0.37661564403979297 0 0.38742640511867998 0.39421346332705159 0 0.3808591980642354 0.36935705893597359 0 0.39228631565624089 0.37661564403979297 0 0.37539288703884721 0.38017114684249331 0 0.39228631565624089 0.37661564403979297 0 0.37539288703884721 0.38017114684249331 0 0.38742640511867998 0.39421346332705159 0 0.37250528002566369 0.39451893199837468 0 0.37539288703884721 0.38017114684249331 0 0.38742640511867998 0.39421346332705159 0 0.37250528002566369 0.39451893199837468 0 0.38742640511867998 0.39421346332705159 0 0.3771709686793116 0.41324975171031297 0 0.38742640511867998 0.39421346332705159 0 0.3771709686793116 0.41324975171031297 0 0.39221529461803328 0.40861845728242452 0 0.3771709686793116 0.41324975171031297 0 0.39119594375118871 0.42335027926176277 0 0.39221529461803328 0.40861845728242452 0 0.3771709686793116 0.41324975171031297 0 0.38279498211221491 0.4368780777270232 0 0.39119594375118871 0.42335027926176277 0 0.36517828598789159 0.42600130542859338 0 0.3771709686793116 0.41324975171031297 0 0.38279498211221491 0.4368780777270232 0 0.38279498211221491 0.4368780777270232 0 0.40298786693631061 0.43505017683546943 0 0.39119594375118871 0.42335027926176277 0 0.40298786693631061 0.43505017683546943 0 0.39119594375118871 0.42335027926176277 0 0.40343779926780332 0.41317224543132919 0 0.39119594375118871 0.42335027926176277 0 0.39221529461803328 0.40861845728242452 0 0.40343779926780332 0.41317224543132919 0 0.40184535627318257 0.39910654668166579 0 0.39221529461803328 0.40861845728242452 0 0.40343779926780332 0.41317224543132919 0 0.41662516911347242 0.42321949496834782 0 0.41431186190671188 0.40070595253147279 0 0.40343779926780332 0.41317224543132919 0 0.41662516911347242 0.42321949496834782 0 0.41431186190671188 0.40070595253147279 0 0.41662516911347242 0.42321949496834782 0 0.42695628441532663 0.40675967524157192 0 0.41431186190671188 0.40070595253147279 0 0.40298786693631061 0.43505017683546943 0 0.41662516911347242 0.42321949496834782 0 0.41893847632023279 0.44573303740522269 0 0.41662516911347242 0.42321949496834782 0 0.41893847632023279 0.44573303740522269 0 0.40298786693631061 0.43505017683546943 0 0.40343779926780332 0.41317224543132919 0 0.41662516911347242 0.42321949496834782 0 0.41662516911347242 0.42321949496834782 0 0.43913415372385989 0.43367083913401061 0 0.41893847632023279 0.44573303740522269 0 0.41662516911347242 0.42321949496834782 0 0.43872898477714628 0.41629725174610988 0 0.43913415372385989 0.43367083913401061 0 0.42695628441532663 0.40675967524157192 0 0.43726780355359107 0.39977502392165681 0 0.43872898477714628 0.41629725174610988 0 0.41662516911347242 0.42321949496834782 0 0.42695628441532663 0.40675967524157192 0 0.43872898477714628 0.41629725174610988 0 0.42695628441532663 0.40675967524157192 0 0.43726780355359107 0.39977502392165681 0 0.42560231621486122 0.39469232416070371 0 0.43726780355359107 0.39977502392165681 0 0.42560231621486122 0.39469232416070371 0 0.43930744269236272 0.38131204811245978 0 0.42695628441532663 0.40675967524157192 0 0.42560231621486122 0.39469232416070371 0 0.41431186190671188 0.40070595253147279 0 0.42560231621486122 0.39469232416070371 0 0.41431186190671188 0.40070595253147279 0 0.42169841588866003 0.38297927510999807 0 0.41431186190671188 0.40070595253147279 0 0.41316706566488809 0.38956457939410732 0 0.42169841588866003 0.38297927510999807 0 0.40184535627318257 0.39910654668166579 0 0.41431186190671188 0.40070595253147279 0 0.41316706566488809 0.38956457939410732 0 0.41431186190671188 0.40070595253147279 0 0.41316706566488809 0.38956457939410732 0 0.40184535627318257 0.39910654668166579 0 0.40343779926780332 0.41317224543132919 0 0.41431186190671188 0.40070595253147279 0 0.4193749022335686 0.36727603989734892 0 0.41121357935606079 0.37832888934782949 0 0.42169841588866003 0.38297927510999807 0 0.41121357935606079 0.37832888934782949 0 0.41316706566488809 0.38956457939410732 0 0.40054506364770592 0.38424856797896012 0 0.41121357935606079 0.37832888934782949 0 0.41316706566488809 0.38956457939410732 0 0.41121357935606079 0.37832888934782949 0 0.41316706566488809 0.38956457939410732 0 0.42169841588866003 0.38297927510999807 0 0.42560231621486122 0.39469232416070371 0 0.42169841588866003 0.38297927510999807 0 0.43930744269236272 0.38131204811245978 0 0.43450064017372048 0.36146599125586049 0 0.42169841588866003 0.38297927510999807 0 0.43930744269236272 0.38131204811245978 0 0.43930744269236272 0.38131204811245978 0 0.45299961115724269 0.39389462757998239 0 0.4589480855614646 0.37952376083574141 0 0.43726780355359107 0.39977502392165681 0 0.45299961115724269 0.39389462757998239 0 0.45576439787096068 0.4090203820957089 0 0.43726780355359107 0.39977502392165681 0 0.43930744269236272 0.38131204811245978 0 0.45299961115724269 0.39389462757998239 0 0.45299961115724269 0.39389462757998239 0 0.4589480855614646 0.37952376083574141 0 0.47371032610783459 0.39984192293434478 0 0.45299961115724269 0.39389462757998239 0 0.47371032610783459 0.39984192293434478 0 0.45576439787096068 0.4090203820957089 0 0.4589480855614646 0.37952376083574141 0 0.47901029300138559 0.37718938986322148 0 0.47371032610783459 0.39984192293434478 0 0.47901029300138559 0.37718938986322148 0 0.47371032610783459 0.39984192293434478 0 0.5 0.39526192888817779 0 0.47371032610783459 0.39984192293434478 0 0.5 0.39526192888817779 0 0.5 0.42256239618241842 0 0.50000000000000089 0.36796146159393711 0 0.47901029300138559 0.37718938986322148 0 0.5 0.39526192888817779 0 0.4855098544672572 0.43706352866914688 0 0.5 0.42256239618241842 0 0.5 0.44986286347665921 0 0.4855098544672572 0.43706352866914688 0 0.5 0.42256239618241842 0 0.47273196076548812 0.42244908330867442 0 0.47371032610783459 0.39984192293434478 0 0.5 0.42256239618241842 0 0.47273196076548812 0.42244908330867442 0 0.4855098544672572 0.43706352866914688 0 0.47273196076548812 0.42244908330867442 0 0.46252334248610638 0.4406261600767381 0 0.47273196076548812 0.42244908330867442 0 0.45459071994212807 0.42467712951313852 0 0.46252334248610638 0.4406261600767381 0 0.47371032610783459 0.39984192293434478 0 0.47273196076548812 0.42244908330867442 0 0.45576439787096068 0.4090203820957089 0 0.47273196076548812 0.42244908330867442 0 0.45459071994212807 0.42467712951313852 0 0.45576439787096068 0.4090203820957089 0 0.45459071994212807 0.42467712951313852 0 0.45576439787096068 0.4090203820957089 0 0.43872898477714628 0.41629725174610988 0 0.43726780355359107 0.39977502392165681 0 0.45576439787096068 0.4090203820957089 0 0.43872898477714628 0.41629725174610988 0 0.45459071994212807 0.42467712951313852 0 0.43913415372385989 0.43367083913401061 0 0.46252334248610638 0.4406261600767381 0 0.45459071994212807 0.42467712951313852 0 0.43872898477714628 0.41629725174610988 0 0.43913415372385989 0.43367083913401061 0 0.43913415372385989 0.43367083913401061 0 0.44021609021005692 0.45381012286699463 0 0.46252334248610638 0.4406261600767381 0 0.44021609021005692 0.45381012286699463 0 0.46205546153402122 0.45965735948073189 0 0.44750118901799529 0.47121883015169957 0 0.46205546153402122 0.45965735948073189 0 0.47375059450899759 0.47419108046129982 0 0.44750118901799529 0.47121883015169957 0 0.44021609021005692 0.45381012286699463 0 0.46205546153402122 0.45965735948073189 0 0.46252334248610638 0.4406261600767381 0 0.46205546153402122 0.45965735948073189 0 0.46252334248610638 0.4406261600767381 0 0.48014404242747388 0.45500198226831662 0 0.4855098544672572 0.43706352866914688 0 0.46252334248610638 0.4406261600767381 0 0.48014404242747388 0.45500198226831662 0 0.46205546153402122 0.45965735948073189 0 0.48014404242747388 0.45500198226831662 0 0.47375059450899759 0.47419108046129982 0 0.48014404242747388 0.45500198226831662 0 0.5 0.44986286347665921 0 0.49999999999999989 0.4771633307708999 0 0.4855098544672572 0.43706352866914688 0 0.48014404242747388 0.45500198226831662 0 0.5 0.44986286347665921 0 0.5 0.5 0 0.48255019692198847 0.48783860280804991 0 0.4564501931789563 0.5 0 0.5 0.5 0 0.49999999999999989 0.4771633307708999 0 0.48255019692198847 0.48783860280804991 0 0.49999999999999989 0.4771633307708999 0 0.47375059450899759 0.47419108046129982 0 0.49999999999999989 0.4771633307708999 0 0.47375059450899759 0.47419108046129982 0 0.48255019692198847 0.48783860280804991 0 0.48014404242747388 0.45500198226831662 0 0.49999999999999989 0.4771633307708999 0 0.47375059450899759 0.47419108046129982 0 0.47375059450899759 0.47419108046129982 0 0.48255019692198847 0.48783860280804991 0 0.4564501931789563 0.5 0 0.4564501931789563 0.5 0 0.44048234903058731 0.49033710746226628 0 0.42451450488221859 0.49999999999999878 0 0.47375059450899759 0.47419108046129982 0 0.4564501931789563 0.5 0 0.44750118901799529 0.47121883015169957 0 0.47375059450899759 0.47419108046129982 0 0.44750118901799529 0.47121883015169957 0 0.4564501931789563 0.5 0 0.44750118901799529 0.47121883015169957 0 0.44048234903058731 0.49033710746226628 0 0.42451450488221859 0.49999999999999878 0 0.4228831442046061 0.48412328992104831 0 0.44048234903058731 0.49033710746226628 0 0.42451450488221859 0.49999999999999878 0 0.4228831442046061 0.48412328992104831 0 0.42451450488221859 0.49999999999999878 0 0.40648166079482939 0.48228603773955919 0 0.39675279950560971 0.5 0 0.42451450488221859 0.49999999999999878 0 0.40648166079482939 0.48228603773955919 0 0.4228831442046061 0.48412328992104831 0 0.40648166079482939 0.48228603773955919 0 0.4153765113217554 0.47650582609521419 0 0.4228831442046061 0.48412328992104831 0 0.4153765113217554 0.47650582609521419 0 0.4228831442046061 0.48412328992104831 0 0.421251783526993 0.46824657984209789 0 0.40648166079482939 0.48228603773955919 0 0.4153765113217554 0.47650582609521419 0 0.411477688833223 0.46713984788241469 0 0.4153765113217554 0.47650582609521419 0 0.421251783526993 0.46824657984209789 0 0.411477688833223 0.46713984788241469 0 0.44750118901799529 0.47121883015169957 0 0.421251783526993 0.46824657984209789 0 0.4228831442046061 0.48412328992104831 0 0.421251783526993 0.46824657984209789 0 0.44750118901799529 0.47121883015169957 0 0.4228831442046061 0.48412328992104831 0 0.421251783526993 0.46824657984209789 0 0.44750118901799529 0.47121883015169957 0 0.44048234903058731 0.49033710746226628 0 0.4228831442046061 0.48412328992104831 0 0.44021609021005692 0.45381012286699463 0 0.44750118901799529 0.47121883015169957 0 0.421251783526993 0.46824657984209789 0 0.44021609021005692 0.45381012286699463 0 0.41893847632023279 0.44573303740522269 0 0.421251783526993 0.46824657984209789 0 0.43913415372385989 0.43367083913401061 0 0.44021609021005692 0.45381012286699463 0 0.41893847632023279 0.44573303740522269 0 0.40298786693631061 0.43505017683546943 0 0.41893847632023279 0.44573303740522269 0 0.40793606815755939 0.4539019709979058 0 0.41893847632023279 0.44573303740522269 0 0.421251783526993 0.46824657984209789 0 0.41893847632023279 0.44573303740522269 0 0.421251783526993 0.46824657984209789 0 0.40793606815755939 0.4539019709979058 0 0.421251783526993 0.46824657984209789 0 0.411477688833223 0.46713984788241469 0 0.421251783526993 0.46824657984209789 0 0.40793606815755939 0.4539019709979058 0 0.411477688833223 0.46713984788241469 0 0.40793606815755939 0.4539019709979058 0 0.39619455037201817 0.46480585428416621 0 0.39233796657963987 0.4483915732074632 0 0.40793606815755939 0.4539019709979058 0 0.411477688833223 0.46713984788241469 0 0.39619455037201817 0.46480585428416621 0 0.40298786693631061 0.43505017683546943 0 0.40793606815755939 0.4539019709979058 0 0.39233796657963987 0.4483915732074632 0 0.38279498211221491 0.4368780777270232 0 0.40298786693631061 0.43505017683546943 0 0.39233796657963987 0.4483915732074632 0 0.37078211607963019 0.44995535094209621 0 0.38279498211221491 0.4368780777270232 0 0.39233796657963987 0.4483915732074632 0 0.37078211607963019 0.44995535094209621 0 0.39619455037201817 0.46480585428416621 0 0.39233796657963987 0.4483915732074632 0 0.37078211607963019 0.44995535094209621 0 0.39619455037201817 0.46480585428416621 0 0.38276019481452661 0.47852410794061612 0 0.36899109412900072 0.5 0 0.38276019481452661 0.47852410794061612 0 0.39675279950560971 0.5 0 0.40648166079482939 0.48228603773955919 0 0.38276019481452661 0.47852410794061612 0 0.39675279950560971 0.5 0 0.40648166079482939 0.48228603773955919 0 0.39619455037201817 0.46480585428416621 0 0.38276019481452661 0.47852410794061612 0 0.40648166079482939 0.48228603773955919 0 0.411477688833223 0.46713984788241469 0 0.39619455037201817 0.46480585428416621 0 0.34017164993508342 0.079705387757931151 0 0.32126526078305312 0.085809954538699065 0 0.32562996225930979 0.099259616069516221 0 0.34017164993508342 0.079705387757931151 0 0.32562996225930979 0.099259616069516221 0 0.34608747018480668 0.099231547871760195 0 0.34017164993508342 0.079705387757931151 0 0.32052370830466043 0.071689256461331619 0 0.33372025595855898 0.053317969165790673 0 0.32052370830466043 0.071689256461331619 0 0.33372025595855898 0.053317969165790673 0 0.34017164993508342 0.079705387757931151 0 0.32052370830466043 0.071689256461331619 0 0.32126526078305312 0.085809954538699065 0 0.32052370830466043 0.071689256461331619 0 0.32126526078305312 0.085809954538699065 0 0.30732716065076099 0.09006054375687203 0 0.32052370830466043 0.071689256461331619 0 0.30732716065076099 0.09006054375687203 0 0.32126526078305312 0.085809954538699065 0 0.32562996225930979 0.099259616069516221 0 0.30732716065076099 0.09006054375687203 0 0.32562996225930979 0.099259616069516221 0 0.33102798148580748 0.1185134895208889 0 0.30860309687300819 0.10661927594420639 0 0.32562996225930979 0.099259616069516221 0 0.30732716065076099 0.09006054375687203 0 0.30860309687300819 0.10661927594420639 0 0.33102798148580748 0.1185134895208889 0 0.30273124653245381 0.1235288555175215 0 0.33102798148580748 0.1185134895208889 0 0.30273124653245381 0.1235288555175215 0 0.30860309687300819 0.10661927594420639 0 0.32562996225930979 0.099259616069516221 0 0.33102798148580748 0.1185134895208889 0 0.34608747018480668 0.099231547871760195 0 0.33102798148580748 0.1185134895208889 0 0.35932471643916081 0.1134981235242544 0 0.34990433144588828 0.13766573298981241 0 0.33102798148580748 0.1185134895208889 0 0.34608747018480668 0.099231547871760195 0 0.35932471643916081 0.1134981235242544 0 0.33102798148580748 0.1185134895208889 0 0.35932471643916081 0.1134981235242544 0 0.35932471643916081 0.1134981235242544 0 0.38762145139251158 0.108482757527606 0 0.35932471643916081 0.1134981235242544 0 0.37116644873757482 0.1272731574952862 0 0.38762145139251158 0.108482757527606 0 0.34608747018480668 0.099231547871760195 0 0.35932471643916081 0.1134981235242544 0 0.37428304080467212 0.085181122486210264 0 0.35932471643916081 0.1134981235242544 0 0.37428304080467212 0.085181122486210264 0 0.38762145139251158 0.108482757527606 0 0.34017164993508342 0.079705387757931151 0 0.37428304080467212 0.085181122486210264 0 0.36094463021682849 0.061879487444816861 0 0.34017164993508342 0.079705387757931151 0 0.34608747018480668 0.099231547871760195 0 0.37428304080467212 0.085181122486210264 0 0.34017164993508342 0.079705387757931151 0 0.36094463021682849 0.061879487444816861 0 0.33372025595855898 0.053317969165790673 0 0.37428304080467212 0.085181122486210264 0 0.36094463021682849 0.061879487444816861 0 0.36094463021682849 0.061879487444816861 0 0.37210288993999918 0.04768584512514757 0 0.34760621962898502 0.03857785240342345 0 0.36094463021682849 0.061879487444816861 0 0.37210288993999918 0.04768584512514757 0 0.3904366715797733 0.068618152357034126 0 0.37210288993999918 0.04768584512514757 0 0.34760621962898502 0.03857785240342345 0 0.36864859530982658 0.02996483807260069 0 0.36094463021682849 0.061879487444816861 0 0.34760621962898502 0.03857785240342345 0 0.33372025595855898 0.053317969165790673 0 0.36094463021682849 0.061879487444816861 0 0.34760621962898502 0.03857785240342345 0 0.36255471396815681 0.0080598112442611617 0 0.37232238509817878 -0.001610374512647025 0 0.3634290091795348 -0.00084253970199437951 0 0.36255471396815681 0.0080598112442611617 0 0.3634290091795348 -0.00084253970199437951 0 0.35649244884947728 -0.0003015438520561878 0 0.37480090979353559 0.012117275161245869 0 0.36255471396815681 0.0080598112442611617 0 0.37232238509817878 -0.001610374512647025 0 0.37480090979353559 0.012117275161245869 0 0.36255471396815681 0.0080598112442611617 0 0.36308935153047339 0.016933093311811639 0 0.36255471396815681 0.0080598112442611617 0 0.36308935153047339 0.016933093311811639 0 0.35502931094323009 0.012734618525939051 0 0.37480090979353559 0.012117275161245869 0 0.36308935153047339 0.016933093311811639 0 0.36864859530982658 0.02996483807260069 0 0.36308935153047339 0.016933093311811639 0 0.36864859530982658 0.02996483807260069 0 0.35441322763761812 0.021788923555011431 0 0.34760621962898502 0.03857785240342345 0 0.36864859530982658 0.02996483807260069 0 0.35441322763761812 0.021788923555011431 0 0.34760621962898502 0.03857785240342345 0 0.35441322763761812 0.021788923555011431 0 0.34326304420036408 0.0194921870122132 0 0.35441322763761812 0.021788923555011431 0 0.34851986820630709 0.014827616525162809 0 0.34326304420036408 0.0194921870122132 0 0.36308935153047339 0.016933093311811639 0 0.35441322763761812 0.021788923555011431 0 0.35502931094323009 0.012734618525939051 0 0.35441322763761812 0.021788923555011431 0 0.35502931094323009 0.012734618525939051 0 0.34851986820630709 0.014827616525162809 0 0.36255471396815681 0.0080598112442611617 0 0.35502931094323009 0.012734618525939051 0 0.35381985866206389 0.006352084917229028 0 0.35502931094323009 0.012734618525939051 0 0.34784750874900022 0.0084025314897217367 0 0.35381985866206389 0.006352084917229028 0 0.35502931094323009 0.012734618525939051 0 0.34851986820630709 0.014827616525162809 0 0.34784750874900022 0.0084025314897217367 0 0.34851986820630709 0.014827616525162809 0 0.34784750874900022 0.0084025314897217367 0 0.34177519209492668 0.0119638390803698 0 0.34851986820630709 0.014827616525162809 0 0.34177519209492668 0.0119638390803698 0 0.34326304420036408 0.0194921870122132 0 0.34784750874900022 0.0084025314897217367 0 0.34355263904323102 0.0064054792533849566 0 0.34177519209492668 0.0119638390803698 0 0.34784750874900022 0.0084025314897217367 0 0.34729495446360309 0.00099039251516278774 0 0.35381985866206389 0.006352084917229028 0 0.34784750874900022 0.0084025314897217367 0 0.34729495446360309 0.00099039251516278774 0 0.34355263904323102 0.0064054792533849566 0 0.36255471396815681 0.0080598112442611617 0 0.35381985866206389 0.006352084917229028 0 0.35649244884947728 -0.0003015438520561878 0 0.34729495446360309 0.00099039251516278774 0 0.35381985866206389 0.006352084917229028 0 0.35649244884947728 -0.0003015438520561878 0 0.33729290086539399 0.0042651539282855082 0 0.33426780904114151 0.01527621736203 0 0.31974752342260487 -0.010090103006627301 0 0.34729495446360309 0.00099039251516278774 0 0.34355263904323102 0.0064054792533849566 0 0.33729290086539399 0.0042651539282855082 0 0.34355263904323102 0.0064054792533849566 0 0.33729290086539399 0.0042651539282855082 0 0.34177519209492668 0.0119638390803698 0 0.33729290086539399 0.0042651539282855082 0 0.34177519209492668 0.0119638390803698 0 0.33426780904114151 0.01527621736203 0 0.34177519209492668 0.0119638390803698 0 0.33426780904114151 0.01527621736203 0 0.34326304420036408 0.0194921870122132 0 0.34760621962898502 0.03857785240342345 0 0.33426780904114151 0.01527621736203 0 0.34760621962898502 0.03857785240342345 0 0.33426780904114151 0.01527621736203 0 0.32521065086986672 0.035326696326929898 0 0.34760621962898502 0.03857785240342345 0 0.33426780904114151 0.01527621736203 0 0.34326304420036408 0.0194921870122132 0 0.31471320055579222 0.020160732042238508 0 0.32521065086986672 0.035326696326929898 0 0.30784501542109038 0.034940578045190858 0 0.33426780904114151 0.01527621736203 0 0.31471320055579222 0.020160732042238508 0 0.32521065086986672 0.035326696326929898 0 0.33426780904114151 0.01527621736203 0 0.31471320055579222 0.020160732042238508 0 0.33426780904114151 0.01527621736203 0 0.31471320055579222 0.020160732042238508 0 0.31486552590033517 0.0051080489061896828 0 0.33426780904114151 0.01527621736203 0 0.31974752342260487 -0.010090103006627301 0 0.33426780904114151 0.01527621736203 0 0.31486552590033517 0.0051080489061896828 0 0.31974752342260487 -0.010090103006627301 0 0.34760621962898502 0.03857785240342345 0 0.33372025595855898 0.053317969165790673 0 0.32521065086986672 0.035326696326929898 0 0.32521065086986672 0.035326696326929898 0 0.31331264685214189 0.051183735270734318 0 0.30784501542109038 0.034940578045190858 0 0.33372025595855898 0.053317969165790673 0 0.32521065086986672 0.035326696326929898 0 0.31331264685214189 0.051183735270734318 0 0.32052370830466043 0.071689256461331619 0 0.33372025595855898 0.053317969165790673 0 0.31331264685214189 0.051183735270734318 0 0.31331264685214189 0.051183735270734318 0 0.29123247123422741 0.04598029251926114 0 0.29980557654052081 0.068038008879200862 0 0.30784501542109038 0.034940578045190858 0 0.29123247123422741 0.04598029251926114 0 0.29515859207044293 0.025045246722447172 0 0.31331264685214189 0.051183735270734318 0 0.30784501542109038 0.034940578045190858 0 0.29123247123422741 0.04598029251926114 0 0.29123247123422741 0.04598029251926114 0 0.29515859207044293 0.025045246722447172 0 0.2756039835850938 0.029929761402655922 0 0.29123247123422741 0.04598029251926114 0 0.28279016652277528 0.067180270467253889 0 0.29980557654052081 0.068038008879200862 0 0.31486552590033517 0.0051080489061896828 0 0.30002338408281909 0.007883867274738967 0 0.30557571239931841 -0.0076904691414317571 0 0.31471320055579222 0.020160732042238508 0 0.31486552590033517 0.0051080489061896828 0 0.30002338408281909 0.007883867274738967 0 0.31471320055579222 0.020160732042238508 0 0.30002338408281909 0.007883867274738967 0 0.29515859207044293 0.025045246722447172 0 0.31471320055579222 0.020160732042238508 0 0.29515859207044293 0.025045246722447172 0 0.31471320055579222 0.020160732042238508 0 0.30784501542109038 0.034940578045190858 0 0.29515859207044293 0.025045246722447172 0 0.29515859207044293 0.025045246722447172 0 0.27689807354711288 0.02445084942121532 0 0.2756039835850938 0.029929761402655922 0 0.29515859207044293 0.025045246722447172 0 0.2756039835850938 0.029929761402655922 0 0.29515859207044293 0.025045246722447172 0 0.28636387491019488 0.01443983714020838 0 0.27689807354711288 0.02445084942121532 0 0.30002338408281909 0.007883867274738967 0 0.29515859207044293 0.025045246722447172 0 0.28636387491019488 0.01443983714020838 0 0.30002338408281909 0.007883867274738967 0 0.28636387491019488 0.01443983714020838 0 0.28768181064917658 0.0036370595610417918 0 0.28768181064917658 0.0036370595610417918 0 0.2761515963063163 0.0051915330766209898 0 0.28418256802486591 -0.0074972637063911319 0 0.28636387491019488 0.01443983714020838 0 0.28768181064917658 0.0036370595610417918 0 0.2761515963063163 0.0051915330766209898 0 0.30002338408281909 0.007883867274738967 0 0.28768181064917658 0.0036370595610417918 0 0.29470023381152188 -0.0033291965836443949 0 0.26563335961907458 0.0061016133698848663 0 0.2761515963063163 0.0051915330766209898 0 0.2718345607453051 -0.0026332906206296752 0 0.2761515963063163 0.0051915330766209898 0 0.27692463917797883 0.014823644242334051 0 0.26828501194829141 0.0152123573312915 0 0.28636387491019488 0.01443983714020838 0 0.2761515963063163 0.0051915330766209898 0 0.27692463917797883 0.014823644242334051 0 0.26563335961907458 0.0061016133698848663 0 0.2761515963063163 0.0051915330766209898 0 0.26828501194829141 0.0152123573312915 0 0.26828501194829141 0.0152123573312915 0 0.27689807354711288 0.02445084942121532 0 0.26707662471942401 0.025023359864039939 0 0.27692463917797883 0.014823644242334051 0 0.26828501194829141 0.0152123573312915 0 0.27689807354711288 0.02445084942121532 0 0.28636387491019488 0.01443983714020838 0 0.27692463917797883 0.014823644242334051 0 0.27689807354711288 0.02445084942121532 0 0.27689807354711288 0.02445084942121532 0 0.2756039835850938 0.029929761402655922 0 0.2756039835850938 0.029929761402655922 0 0.26707662471942401 0.025023359864039939 0 0.26070846342232051 0.033650489790489402 0 0.27689807354711288 0.02445084942121532 0 0.2756039835850938 0.029929761402655922 0 0.26707662471942401 0.025023359864039939 0 0.26707662471942401 0.025023359864039939 0 0.25380370120803358 0.017117199263192131 0 0.26070846342232051 0.033650489790489402 0 0.25380370120803358 0.017117199263192131 0 0.25922918230963737 0.044876117937818788 0 0.26828501194829141 0.0152123573312915 0 0.26707662471942401 0.025023359864039939 0 0.25380370120803358 0.017117199263192131 0 0.25380370120803358 0.017117199263192131 0 0.24837822010643121 -0.01064171941143479 0 0.25380370120803358 0.017117199263192131 0 0.25868130099832759 -0.002948938419788077 0 0.24837822010643121 -0.01064171941143479 0 0.26563335961907458 0.0061016133698848663 0 0.25380370120803358 0.017117199263192131 0 0.25868130099832759 -0.002948938419788077 0 0.26563335961907458 0.0061016133698848663 0 0.26828501194829141 0.0152123573312915 0 0.25380370120803358 0.017117199263192131 0 0.26563335961907458 0.0061016133698848663 0 0.25868130099832759 -0.002948938419788077 0 0.2718345607453051 -0.0026332906206296752 0 0.29123247123422741 0.04598029251926114 0 0.2697152489566611 0.054861458315682538 0 0.28279016652277528 0.067180270467253889 0 0.2756039835850938 0.029929761402655922 0 0.2697152489566611 0.054861458315682538 0 0.25922918230963737 0.044876117937818788 0 0.2756039835850938 0.029929761402655922 0 0.2697152489566611 0.054861458315682538 0 0.29123247123422741 0.04598029251926114 0 0.2756039835850938 0.029929761402655922 0 0.2697152489566611 0.054861458315682538 0 0.2756039835850938 0.029929761402655922 0 0.26070846342232051 0.033650489790489402 0 0.24753356181782099 0.032752362629513393 0 0.25380370120803358 0.017117199263192131 0 0.25922918230963737 0.044876117937818788 0 0.2756039835850938 0.029929761402655922 0 0.25922918230963737 0.044876117937818788 0 0.26070846342232051 0.033650489790489402 0 0.25380370120803358 0.017117199263192131 0 0.25922918230963737 0.044876117937818788 0 0.26070846342232051 0.033650489790489402 0 0.24753356181782099 0.032752362629513393 0 0.25922918230963737 0.044876117937818788 0 0.25021864521095732 0.042714426536890518 0 0.25922918230963737 0.044876117937818788 0 0.25021864521095732 0.042714426536890518 0 0.25395058035011481 0.052534716696235842 0 0.25922918230963737 0.044876117937818788 0 0.25740867756010311 0.063850328533624073 0 0.26465466341124111 0.072635036612445678 0 0.2697152489566611 0.054861458315682538 0 0.25922918230963737 0.044876117937818788 0 0.26465466341124111 0.072635036612445678 0 0.25922918230963737 0.044876117937818788 0 0.26465466341124111 0.072635036612445678 0 0.24751805561965559 0.049597918156775722 0 0.25021864521095732 0.042714426536890518 0 0.25395058035011481 0.052534716696235842 0 0.25922918230963737 0.044876117937818788 0 0.25395058035011481 0.052534716696235842 0 0.25740867756010311 0.063850328533624073 0 0.24750813816218201 0.057765830816462041 0 0.25395058035011481 0.052534716696235842 0 0.25312753719151332 0.06041714424879692 0 0.25395058035011481 0.052534716696235842 0 0.25312753719151332 0.06041714424879692 0 0.25740867756010311 0.063850328533624073 0 0.24750813816218201 0.057765830816462041 0 0.25312753719151332 0.06041714424879692 0 0.25153334416912049 0.065266287609551596 0 0.2422020519306885 0.074725022831058613 0 0.26382651432822979 0.079793155228709528 0 0.25740867756010311 0.063850328533624073 0 0.25324795101967462 0.071649882576700283 0 0.25954558279063938 0.072037499340963485 0 0.2422020519306885 0.074725022831058613 0 0.25324795101967462 0.071649882576700283 0 0.26382651432822979 0.079793155228709528 0 0.25312753719151332 0.06041714424879692 0 0.25153334416912049 0.065266287609551596 0 0.25740867756010311 0.063850328533624073 0 0.25153334416912049 0.065266287609551596 0 0.25740867756010311 0.063850328533624073 0 0.25324795101967462 0.071649882576700283 0 0.25324795101967462 0.071649882576700283 0 0.25954558279063938 0.072037499340963485 0 0.26382651432822979 0.079793155228709528 0 0.25954558279063938 0.072037499340963485 0 0.26465466341124111 0.072635036612445678 0 0.26382651432822979 0.079793155228709528 0 0.25740867756010311 0.063850328533624073 0 0.25954558279063938 0.072037499340963485 0 0.26465466341124111 0.072635036612445678 0 0.2422020519306885 0.074725022831058613 0 0.25276512444811011 0.086159760048941617 0 0.26382651432822979 0.079793155228709528 0 0.25276512444811011 0.086159760048941617 0 0.26382651432822979 0.079793155228709528 0 0.25994589273858071 0.0962229126234629 0 0.26382651432822979 0.079793155228709528 0 0.25994589273858071 0.0962229126234629 0 0.26382651432822979 0.079793155228709528 0 0.26694418261616942 0.089649877550733809 0 0.25994589273858071 0.0962229126234629 0 0.24508603879494281 0.093897949512535828 0 0.25276512444811011 0.086159760048941617 0 0.25994589273858071 0.0962229126234629 0 0.26694418261616942 0.089649877550733809 0 0.28557683748949542 0.084926849492790585 0 0.27905053999642121 0.1011107511195475 0 0.26382651432822979 0.079793155228709528 0 0.28557683748949542 0.084926849492790585 0 0.26382651432822979 0.079793155228709528 0 0.26694418261616942 0.089649877550733809 0 0.28557683748949542 0.084926849492790585 0 0.2697152489566611 0.054861458315682538 0 0.26382651432822979 0.079793155228709528 0 0.2697152489566611 0.054861458315682538 0 0.26382651432822979 0.079793155228709528 0 0.28279016652277528 0.067180270467253889 0 0.26382651432822979 0.079793155228709528 0 0.28279016652277528 0.067180270467253889 0 0.28557683748949542 0.084926849492790585 0 0.2697152489566611 0.054861458315682538 0 0.26465466341124111 0.072635036612445678 0 0.26382651432822979 0.079793155228709528 0 0.28279016652277528 0.067180270467253889 0 0.28557683748949542 0.084926849492790585 0 0.29980557654052081 0.068038008879200862 0 0.28557683748949542 0.084926849492790585 0 0.30732716065076099 0.09006054375687203 0 0.28557683748949542 0.084926849492790585 0 0.30732716065076099 0.09006054375687203 0 0.29980557654052081 0.068038008879200862 0 0.32052370830466043 0.071689256461331619 0 0.31331264685214189 0.051183735270734318 0 0.29980557654052081 0.068038008879200862 0 0.32052370830466043 0.071689256461331619 0 0.30732716065076099 0.09006054375687203 0 0.29980557654052081 0.068038008879200862 0 0.30273124653245381 0.1235288555175215 0 0.30860309687300819 0.10661927594420639 0 0.29115689737667172 0.1125716246883626 0 0.30273124653245381 0.1235288555175215 0 0.29115689737667172 0.1125716246883626 0 0.30732716065076099 0.09006054375687203 0 0.29115689737667172 0.1125716246883626 0 0.30732716065076099 0.09006054375687203 0 0.30860309687300819 0.10661927594420639 0 0.29115689737667172 0.1125716246883626 0 0.28557683748949542 0.084926849492790585 0 0.29115689737667172 0.1125716246883626 0 0.27905053999642121 0.1011107511195475 0 0.28557683748949542 0.084926849492790585 0 0.30732716065076099 0.09006054375687203 0 0.29115689737667172 0.1125716246883626 0 0.29115689737667172 0.1125716246883626 0 0.27905053999642121 0.1011107511195475 0 0.27630529918790442 0.1091343496790408 0 0.29115689737667172 0.1125716246883626 0 0.27905053999642121 0.1011107511195475 0 0.29115689737667172 0.1125716246883626 0 0.27534876990147872 0.1165892447264149 0 0.28044915569120132 0.1274781747914005 0 0.30273124653245381 0.1235288555175215 0 0.29115689737667172 0.1125716246883626 0 0.28044915569120132 0.1274781747914005 0 0.29115689737667172 0.1125716246883626 0 0.28044915569120132 0.1274781747914005 0 0.27534876990147872 0.1165892447264149 0 0.26324706178475782 0.1196652788325321 0 0.28044915569120132 0.1274781747914005 0 0.29115689737667172 0.1125716246883626 0 0.27534876990147872 0.1165892447264149 0 0.27630529918790442 0.1091343496790408 0 0.27534876990147872 0.1165892447264149 0 0.26743723343524672 0.1115586479522421 0 0.27630529918790442 0.1091343496790408 0 0.27534876990147872 0.1165892447264149 0 0.26743723343524672 0.1115586479522421 0 0.26324706178475782 0.1196652788325321 0 0.27905053999642121 0.1011107511195475 0 0.27630529918790442 0.1091343496790408 0 0.2685330552297156 0.1038414799086453 0 0.26743723343524672 0.1115586479522421 0 0.27630529918790442 0.1091343496790408 0 0.2685330552297156 0.1038414799086453 0 0.26743723343524672 0.1115586479522421 0 0.2685330552297156 0.1038414799086453 0 0.26231462034924419 0.1073492410614291 0 0.26694418261616942 0.089649877550733809 0 0.27905053999642121 0.1011107511195475 0 0.26694418261616942 0.089649877550733809 0 0.27905053999642121 0.1011107511195475 0 0.26861841764522171 0.097706255300597372 0 0.27905053999642121 0.1011107511195475 0 0.2685330552297156 0.1038414799086453 0 0.26861841764522171 0.097706255300597372 0 0.2685330552297156 0.1038414799086453 0 0.26861841764522171 0.097706255300597372 0 0.25994589273858071 0.0962229126234629 0 0.25994589273858071 0.0962229126234629 0 0.25606527114893129 0.11265267001821611 0 0.25994589273858071 0.0962229126234629 0 0.26231462034924419 0.1073492410614291 0 0.25606527114893129 0.11265267001821611 0 0.25994589273858071 0.0962229126234629 0 0.25226680708541338 0.1039611020870571 0 0.25606527114893129 0.11265267001821611 0 0.26694418261616942 0.089649877550733809 0 0.26861841764522171 0.097706255300597372 0 0.25994589273858071 0.0962229126234629 0 0.2685330552297156 0.1038414799086453 0 0.25994589273858071 0.0962229126234629 0 0.26231462034924419 0.1073492410614291 0 0.24508603879494281 0.093897949512535828 0 0.25994589273858071 0.0962229126234629 0 0.25226680708541338 0.1039611020870571 0 0.2479700256591971 0.1130708761940131 0 0.25340356115058688 0.12392180526311759 0 0.25092432003414827 0.13271121164369881 0 0.26743723343524672 0.1115586479522421 0 0.26231462034924419 0.1073492410614291 0 0.25959164919374478 0.1124704948045788 0 0.26743723343524672 0.1115586479522421 0 0.26324706178475782 0.1196652788325321 0 0.25959164919374478 0.1124704948045788 0 0.26231462034924419 0.1073492410614291 0 0.25959164919374478 0.1124704948045788 0 0.25606527114893129 0.11265267001821611 0 0.25959164919374478 0.1124704948045788 0 0.25606527114893129 0.11265267001821611 0 0.26324706178475782 0.1196652788325321 0 0.25959164919374478 0.1124704948045788 0 0.25606527114893129 0.11265267001821611 0 0.2479700256591971 0.1130708761940131 0 0.25226680708541338 0.1039611020870571 0 0.25606527114893129 0.11265267001821611 0 0.2479700256591971 0.1130708761940131 0 0.25606527114893129 0.11265267001821611 0 0.2479700256591971 0.1130708761940131 0 0.25606527114893129 0.11265267001821611 0 0.25340356115058688 0.12392180526311759 0 0.26324706178475782 0.1196652788325321 0 0.25606527114893129 0.11265267001821611 0 0.25340356115058688 0.12392180526311759 0 0.25606527114893129 0.11265267001821611 0 0.25340356115058688 0.12392180526311759 0 0.26324706178475782 0.1196652788325321 0 0.25340356115058688 0.12392180526311759 0 0.25092432003414827 0.13271121164369881 0 0.26324706178475782 0.1196652788325321 0 0.25092432003414827 0.13271121164369881 0 0.28044915569120132 0.1274781747914005 0 0.25092432003414827 0.13271121164369881 0 0.25799278592244679 0.1361950733940786 0 0.28044915569120132 0.1274781747914005 0 0.25799278592244679 0.1361950733940786 0 0.27146832688289158 0.1399806406269069 0 0.25799278592244679 0.1361950733940786 0 0.27146832688289158 0.1399806406269069 0 0.28044915569120132 0.1274781747914005 0 0.25092432003414827 0.13271121164369881 0 0.28044915569120132 0.1274781747914005 0 0.27146832688289158 0.1399806406269069 0 0.28044915569120132 0.1274781747914005 0 0.27146832688289158 0.1399806406269069 0 0.25782953781517348 0.15896758470483191 0 0.28269506906519393 0.15921748153542181 0 0.24723516224861489 0.14891452097535199 0 0.25092432003414827 0.13271121164369881 0 0.25438166837756182 0.15569588162337331 0 0.27146832688289158 0.1399806406269069 0 0.25782953781517348 0.15896758470483191 0 0.25092432003414827 0.13271121164369881 0 0.25438166837756182 0.15569588162337331 0 0.25092432003414827 0.13271121164369881 0 0.25799278592244679 0.1361950733940786 0 0.25438166837756182 0.15569588162337331 0 0.27146832688289158 0.1399806406269069 0 0.25438166837756182 0.15569588162337331 0 0.25782953781517348 0.15896758470483191 0 0.25799278592244679 0.1361950733940786 0 0.27146832688289158 0.1399806406269069 0 0.25438166837756182 0.15569588162337331 0 0.24723516224861489 0.14891452097535199 0 0.25438166837756182 0.15569588162337331 0 0.25677835218432538 0.1716291868250383 0 0.25782953781517348 0.15896758470483191 0 0.2753684785711788 0.17561038616679461 0 0.2480117625504723 0.15988161517611299 0 0.25438166837756182 0.15569588162337331 0 0.25531151570931399 0.16247299450870861 0 0.2480117625504723 0.15988161517611299 0 0.25531151570931399 0.16247299450870861 0 0.25108078632114311 0.16784635495939959 0 0.25438166837756182 0.15569588162337331 0 0.25531151570931399 0.16247299450870861 0 0.25438166837756182 0.15569588162337331 0 0.25531151570931399 0.16247299450870861 0 0.25782953781517348 0.15896758470483191 0 0.25438166837756182 0.15569588162337331 0 0.25782953781517348 0.15896758470483191 0 0.25531151570931399 0.16247299450870861 0 0.25782953781517348 0.15896758470483191 0 0.25531151570931399 0.16247299450870861 0 0.25677835218432538 0.1716291868250383 0 0.25531151570931399 0.16247299450870861 0 0.25677835218432538 0.1716291868250383 0 0.25782953781517348 0.15896758470483191 0 0.25531151570931399 0.16247299450870861 0 0.25108078632114311 0.16784635495939959 0 0.25677835218432538 0.1716291868250383 0 0.25677835218432538 0.1716291868250383 0 0.26280716400370391 0.18496711810446709 0 0.2753684785711788 0.17561038616679461 0 0.24908873164767151 0.1770288671046478 0 0.26280716400370391 0.18496711810446709 0 0.25059494158165901 0.19032369199564031 0 0.24908873164767151 0.1770288671046478 0 0.25108078632114311 0.16784635495939959 0 0.25677835218432538 0.1716291868250383 0 0.24908873164767151 0.1770288671046478 0 0.25677835218432538 0.1716291868250383 0 0.26280716400370391 0.18496711810446709 0 0.26280716400370391 0.18496711810446709 0 0.2753684785711788 0.17561038616679461 0 0.27728556809105348 0.19259350051741789 0 0.25782953781517348 0.15896758470483191 0 0.2753684785711788 0.17561038616679461 0 0.25782953781517348 0.15896758470483191 0 0.2753684785711788 0.17561038616679461 0 0.28269506906519393 0.15921748153542181 0 0.2753684785711788 0.17561038616679461 0 0.28269506906519393 0.15921748153542181 0 0.29394514320621229 0.1739165730022037 0 0.28269506906519393 0.15921748153542181 0 0.29394514320621229 0.1739165730022037 0 0.30303535860701208 0.16037235413103429 0 0.2753684785711788 0.17561038616679461 0 0.29290741932718423 0.19225318762875701 0 0.2753684785711788 0.17561038616679461 0 0.27728556809105348 0.19259350051741789 0 0.29290741932718423 0.19225318762875701 0 0.2753684785711788 0.17561038616679461 0 0.29394514320621229 0.1739165730022037 0 0.29290741932718423 0.19225318762875701 0 0.29394514320621229 0.1739165730022037 0 0.30552074880784802 0.19083230073138871 0 0.31289049214066472 0.17337059339244759 0 0.29394514320621229 0.1739165730022037 0 0.29290741932718423 0.19225318762875701 0 0.30552074880784802 0.19083230073138871 0 0.29394514320621229 0.1739165730022037 0 0.30552074880784802 0.19083230073138871 0 0.30552074880784802 0.19083230073138871 0 0.31654835664450592 0.18507467184696519 0 0.31289049214066472 0.17337059339244759 0 0.30303535860701208 0.16037235413103429 0 0.31757881173450031 0.1529340605346122 0 0.31289049214066472 0.17337059339244759 0 0.29394514320621229 0.1739165730022037 0 0.30303535860701208 0.16037235413103429 0 0.31289049214066472 0.17337059339244759 0 0.29452356930869578 0.1464573505807599 0 0.315686730343329 0.13579358200093411 0 0.31757881173450031 0.1529340605346122 0 0.29452356930869578 0.1464573505807599 0 0.31757881173450031 0.1529340605346122 0 0.30303535860701208 0.16037235413103429 0 0.29452356930869578 0.1464573505807599 0 0.31757881173450031 0.1529340605346122 0 0.30273124653245381 0.1235288555175215 0 0.29290936044071508 0.13294622260908631 0 0.315686730343329 0.13579358200093411 0 0.29290936044071508 0.13294622260908631 0 0.29452356930869578 0.1464573505807599 0 0.315686730343329 0.13579358200093411 0 0.30273124653245381 0.1235288555175215 0 0.315686730343329 0.13579358200093411 0 0.30273124653245381 0.1235288555175215 0 0.28044915569120132 0.1274781747914005 0 0.27146832688289158 0.1399806406269069 0 0.28044915569120132 0.1274781747914005 0 0.29290936044071508 0.13294622260908631 0 0.30273124653245381 0.1235288555175215 0 0.28044915569120132 0.1274781747914005 0 0.29290936044071508 0.13294622260908631 0 0.27146832688289158 0.1399806406269069 0 0.29290936044071508 0.13294622260908631 0 0.29452356930869578 0.1464573505807599 0 0.27146832688289158 0.1399806406269069 0 0.28269506906519393 0.15921748153542181 0 0.29452356930869578 0.1464573505807599 0 0.27146832688289158 0.1399806406269069 0 0.29452356930869578 0.1464573505807599 0 0.28269506906519393 0.15921748153542181 0 0.30303535860701208 0.16037235413103429 0 0.29452356930869578 0.1464573505807599 0 0.27422647013237161 0.25356049296603311 0 0.27478306300754179 0.2350004025071766 0 0.29054302336085919 0.2384533556213457 0 0.27422647013237161 0.25356049296603311 0 0.27478306300754179 0.2350004025071766 0 0.2675309988367966 0.24592861094083041 0 0.27478306300754179 0.2350004025071766 0 0.2675309988367966 0.24592861094083041 0 0.26346455071020192 0.23476860060051941 0 0.2551851394074478 0.2434893950138429 0 0.26346455071020192 0.23476860060051941 0 0.25538970474944028 0.22639472194977939 0 0.2675309988367966 0.24592861094083041 0 0.2551851394074478 0.2434893950138429 0 0.26346455071020192 0.23476860060051941 0 0.25538970474944028 0.22639472194977939 0 0.2674778883171553 0.22062748816396649 0 0.25254676704563311 0.20930692990743879 0 0.26346455071020192 0.23476860060051941 0 0.25538970474944028 0.22639472194977939 0 0.2674778883171553 0.22062748816396649 0 0.27478306300754179 0.2350004025071766 0 0.2674778883171553 0.22062748816396649 0 0.28613716040526338 0.21455355020338029 0 0.27478306300754179 0.2350004025071766 0 0.26346455071020192 0.23476860060051941 0 0.2674778883171553 0.22062748816396649 0 0.26733725241959783 0.20446808010504641 0 0.27728556809105348 0.19259350051741789 0 0.28613716040526338 0.21455355020338029 0 0.2674778883171553 0.22062748816396649 0 0.26733725241959783 0.20446808010504641 0 0.28613716040526338 0.21455355020338029 0 0.2674778883171553 0.22062748816396649 0 0.26733725241959783 0.20446808010504641 0 0.25254676704563311 0.20930692990743879 0 0.26733725241959783 0.20446808010504641 0 0.25059494158165901 0.19032369199564031 0 0.26280716400370391 0.18496711810446709 0 0.26733725241959783 0.20446808010504641 0 0.25059494158165901 0.19032369199564031 0 0.26733725241959783 0.20446808010504641 0 0.25254676704563311 0.20930692990743879 0 0.25059494158165901 0.19032369199564031 0 0.26280716400370391 0.18496711810446709 0 0.26733725241959783 0.20446808010504641 0 0.27728556809105348 0.19259350051741789 0 0.27728556809105348 0.19259350051741789 0 0.29290741932718423 0.19225318762875701 0 0.28613716040526338 0.21455355020338029 0 0.30552074880784802 0.19083230073138871 0 0.31709635440948369 0.20774802846057369 0 0.29290741932718423 0.19225318762875701 0 0.30552074880784802 0.19083230073138871 0 0.31044636008318971 0.20889598909071941 0 0.30552074880784802 0.19083230073138871 0 0.31044636008318971 0.20889598909071941 0 0.31709635440948369 0.20774802846057369 0 0.29290741932718423 0.19225318762875701 0 0.31044636008318971 0.20889598909071941 0 0.31044636008318971 0.20889598909071941 0 0.28613716040526338 0.21455355020338029 0 0.30512252746339652 0.2267909639566634 0 0.29290741932718423 0.19225318762875701 0 0.31044636008318971 0.20889598909071941 0 0.28613716040526338 0.21455355020338029 0 0.28613716040526338 0.21455355020338029 0 0.30512252746339652 0.2267909639566634 0 0.29054302336085919 0.2384533556213457 0 0.27478306300754179 0.2350004025071766 0 0.28613716040526338 0.21455355020338029 0 0.29054302336085919 0.2384533556213457 0 0.30512252746339652 0.2267909639566634 0 0.29054302336085919 0.2384533556213457 0 0.31420017477305739 0.2431056701611205 0 0.30041504870691937 0.26067254976955972 0 0.29054302336085919 0.2384533556213457 0 0.31420017477305739 0.2431056701611205 0 0.33165117601699817 0.22901736053118121 0 0.35307730466155363 0.24934873687200709 0 0.34611449547382639 0.23457765694023119 0 0.33165117601699817 0.22901736053118121 0 0.34532353849112551 0.24899713256093869 0 0.32999523924895019 0.24481848980579379 0 0.33165117601699817 0.22901736053118121 0 0.34532353849112551 0.24899713256093869 0 0.33165117601699817 0.22901736053118121 0 0.35307730466155363 0.24934873687200709 0 0.33165117601699817 0.22901736053118121 0 0.35307730466155363 0.24934873687200709 0 0.34532353849112551 0.24899713256093869 0 0.33567128914585981 0.25335502600040072 0 0.32999523924895019 0.24481848980579379 0 0.34532353849112551 0.24899713256093869 0 0.32999523924895019 0.24481848980579379 0 0.31420017477305739 0.2431056701611205 0 0.33165117601699817 0.22901736053118121 0 0.32640088188025451 0.25485336633590389 0 0.32999523924895019 0.24481848980579379 0 0.31420017477305739 0.2431056701611205 0 0.31044636008318971 0.20889598909071941 0 0.30512252746339652 0.2267909639566634 0 0.32867196001111149 0.22466375618976411 0 0.31420017477305739 0.2431056701611205 0 0.32867196001111149 0.22466375618976411 0 0.33165117601699817 0.22901736053118121 0 0.30512252746339652 0.2267909639566634 0 0.31420017477305739 0.2431056701611205 0 0.32867196001111149 0.22466375618976411 0 0.31420017477305739 0.2431056701611205 0 0.32867196001111149 0.22466375618976411 0 0.32867196001111149 0.22466375618976411 0 0.34207323422406311 0.22633333879641729 0 0.34457037513999123 0.2183531628289597 0 0.32867196001111149 0.22466375618976411 0 0.33165117601699817 0.22901736053118121 0 0.34207323422406311 0.22633333879641729 0 0.32867196001111149 0.22466375618976411 0 0.33165117601699817 0.22901736053118121 0 0.33165117601699817 0.22901736053118121 0 0.34207323422406311 0.22633333879641729 0 0.34611449547382639 0.23457765694023119 0 0.32800790905094418 0.21041604109215381 0 0.33128149303353199 0.20070308412844609 0 0.34591119139827298 0.20269518652508381 0 0.32867196001111149 0.22466375618976411 0 0.34591119139827298 0.20269518652508381 0 0.34457037513999123 0.2183531628289597 0 0.32867196001111149 0.22466375618976411 0 0.32800790905094418 0.21041604109215381 0 0.34591119139827298 0.20269518652508381 0 0.32867196001111149 0.22466375618976411 0 0.34591119139827298 0.20269518652508381 0 0.31044636008318971 0.20889598909071941 0 0.32867196001111149 0.22466375618976411 0 0.32867196001111149 0.22466375618976411 0 0.31709635440948369 0.20774802846057369 0 0.31044636008318971 0.20889598909071941 0 0.32867196001111149 0.22466375618976411 0 0.31709635440948369 0.20774802846057369 0 0.32867196001111149 0.22466375618976411 0 0.31709635440948369 0.20774802846057369 0 0.32800790905094418 0.21041604109215381 0 0.32800790905094418 0.21041604109215381 0 0.3240792113226908 0.20306420695893959 0 0.33128149303353199 0.20070308412844609 0 0.31709635440948369 0.20774802846057369 0 0.32800790905094418 0.21041604109215381 0 0.3240792113226908 0.20306420695893959 0 0.31709635440948369 0.20774802846057369 0 0.3240792113226908 0.20306420695893959 0 0.31993108879680332 0.19338967415458491 0 0.30552074880784802 0.19083230073138871 0 0.31709635440948369 0.20774802846057369 0 0.31993108879680332 0.19338967415458491 0 0.3240792113226908 0.20306420695893959 0 0.31993108879680332 0.19338967415458491 0 0.33128149303353199 0.20070308412844609 0 0.31993108879680332 0.19338967415458491 0 0.33128149303353199 0.20070308412844609 0 0.32785109683270769 0.1827061191094394 0 0.30552074880784802 0.19083230073138871 0 0.31993108879680332 0.19338967415458491 0 0.31654835664450592 0.18507467184696519 0 0.33128149303353199 0.20070308412844609 0 0.32785109683270769 0.1827061191094394 0 0.34317187036597258 0.18498044398889471 0 0.33128149303353199 0.20070308412844609 0 0.34591119139827298 0.20269518652508381 0 0.34317187036597258 0.18498044398889471 0 0.34591119139827298 0.20269518652508381 0 0.36315042278543691 0.1807266168604052 0 0.34591119139827298 0.20269518652508381 0 0.36352127576199522 0.20080084544339641 0 0.36315042278543691 0.1807266168604052 0 0.34591119139827298 0.20269518652508381 0 0.34317187036597258 0.18498044398889471 0 0.36315042278543691 0.1807266168604052 0 0.36352127576199522 0.20080084544339641 0 0.36315042278543691 0.1807266168604052 0 0.37819548309979428 0.1949695083166976 0 0.36315042278543691 0.1807266168604052 0 0.38337805621419052 0.19605950666834929 0 0.37819548309979428 0.1949695083166976 0 0.36315042278543691 0.1807266168604052 0 0.37819548309979428 0.1949695083166976 0 0.36352127576199522 0.20080084544339641 0 0.37329147731281942 0.2054801251234922 0 0.37819548309979428 0.1949695083166976 0 0.36352127576199522 0.20080084544339641 0 0.3674137313543766 0.21210632290755629 0 0.35657840401441532 0.21544375076677069 0 0.36352127576199522 0.20080084544339641 0 0.37329147731281942 0.2054801251234922 0 0.3674137313543766 0.21210632290755629 0 0.37329147731281942 0.2054801251234922 0 0.3674137313543766 0.21210632290755629 0 0.37688317144521077 0.21603245608368291 0 0.3674137313543766 0.21210632290755629 0 0.36755355871421441 0.2257027006713577 0 0.37688317144521077 0.21603245608368291 0 0.3674137313543766 0.21210632290755629 0 0.35657840401441532 0.21544375076677069 0 0.36755355871421441 0.2257027006713577 0 0.34591119139827298 0.20269518652508381 0 0.35657840401441532 0.21544375076677069 0 0.34457037513999123 0.2183531628289597 0 0.34591119139827298 0.20269518652508381 0 0.36352127576199522 0.20080084544339641 0 0.35657840401441532 0.21544375076677069 0 0.34207323422406311 0.22633333879641729 0 0.34457037513999123 0.2183531628289597 0 0.35029204149645882 0.2230004888266143 0 0.35657840401441532 0.21544375076677069 0 0.34457037513999123 0.2183531628289597 0 0.35029204149645882 0.2230004888266143 0 0.34207323422406311 0.22633333879641729 0 0.35029204149645882 0.2230004888266143 0 0.35071872963011341 0.23016933322654309 0 0.34207323422406311 0.22633333879641729 0 0.35071872963011341 0.23016933322654309 0 0.34611449547382639 0.23457765694023119 0 0.35071872963011341 0.23016933322654309 0 0.35305203283640368 0.23801951527500739 0 0.34611449547382639 0.23457765694023119 0 0.35071872963011341 0.23016933322654309 0 0.35854102402500793 0.23347397252394689 0 0.35678665423559852 0.2254475481644268 0 0.35071872963011341 0.23016933322654309 0 0.35854102402500793 0.23347397252394689 0 0.35305203283640368 0.23801951527500739 0 0.35657840401441532 0.21544375076677069 0 0.35029204149645882 0.2230004888266143 0 0.35678665423559852 0.2254475481644268 0 0.35029204149645882 0.2230004888266143 0 0.35071872963011341 0.23016933322654309 0 0.35678665423559852 0.2254475481644268 0 0.35657840401441532 0.21544375076677069 0 0.35678665423559852 0.2254475481644268 0 0.36755355871421441 0.2257027006713577 0 0.36755355871421441 0.2257027006713577 0 0.37989212930292843 0.22549814467465071 0 0.37688317144521077 0.21603245608368291 0 0.36755355871421441 0.2257027006713577 0 0.36656380428810648 0.23849670095826181 0 0.37508925164400481 0.23431914263453141 0 0.36755355871421441 0.2257027006713577 0 0.37508925164400481 0.23431914263453141 0 0.37989212930292843 0.22549814467465071 0 0.35854102402500793 0.23347397252394689 0 0.35678665423559852 0.2254475481644268 0 0.36755355871421441 0.2257027006713577 0 0.35854102402500793 0.23347397252394689 0 0.36755355871421441 0.2257027006713577 0 0.36656380428810648 0.23849670095826181 0 0.35854102402500793 0.23347397252394689 0 0.36656380428810648 0.23849670095826181 0 0.35887129213361441 0.24112915331259721 0 0.36656380428810648 0.23849670095826181 0 0.36312229485699982 0.24630684093376251 0 0.35887129213361441 0.24112915331259721 0 0.36656380428810648 0.23849670095826181 0 0.37468630153993449 0.24031168258233679 0 0.37508925164400481 0.23431914263453141 0 0.36656380428810648 0.23849670095826181 0 0.37468630153993449 0.24031168258233679 0 0.37153597890319112 0.24485308026267541 0 0.36935999944055858 0.25035342442963759 0 0.37153597890319112 0.24485308026267541 0 0.36312229485699982 0.24630684093376251 0 0.36935999944055858 0.25035342442963759 0 0.37693108616487392 0.25112149136587758 0 0.37153597890319112 0.24485308026267541 0 0.36554718467112712 0.25398456366339739 0 0.36312229485699982 0.24630684093376251 0 0.35307730466155363 0.24934873687200709 0 0.36656380428810648 0.23849670095826181 0 0.37153597890319112 0.24485308026267541 0 0.36312229485699982 0.24630684093376251 0 0.36312229485699982 0.24630684093376251 0 0.35307730466155363 0.24934873687200709 0 0.35887129213361441 0.24112915331259721 0 0.35307730466155363 0.24934873687200709 0 0.35887129213361441 0.24112915331259721 0 0.35305203283640368 0.23801951527500739 0 0.35854102402500793 0.23347397252394689 0 0.35887129213361441 0.24112915331259721 0 0.35305203283640368 0.23801951527500739 0 0.35307730466155363 0.24934873687200709 0 0.35305203283640368 0.23801951527500739 0 0.34611449547382639 0.23457765694023119 0 0.3286422141542053 0.14805830848434559 0 0.34677644191411022 0.15750204627201461 0 0.34990433144588828 0.13766573298981241 0 0.3286422141542053 0.14805830848434559 0 0.34063405416030662 0.15941077048845809 0 0.34677644191411022 0.15750204627201461 0 0.31757881173450031 0.1529340605346122 0 0.34063405416030662 0.15941077048845809 0 0.3286422141542053 0.14805830848434559 0 0.34990433144588828 0.13766573298981241 0 0.3286422141542053 0.14805830848434559 0 0.32323491583127389 0.1507013075456044 0 0.34063405416030662 0.15941077048845809 0 0.3286422141542053 0.14805830848434559 0 0.34063405416030662 0.15941077048845809 0 0.33102798148580748 0.1185134895208889 0 0.33102743048056482 0.13452671694312901 0 0.34990433144588828 0.13766573298981241 0 0.3286422141542053 0.14805830848434559 0 0.33102743048056482 0.13452671694312901 0 0.34990433144588828 0.13766573298981241 0 0.33102798148580748 0.1185134895208889 0 0.30273124653245381 0.1235288555175215 0 0.315686730343329 0.13579358200093411 0 0.3286422141542053 0.14805830848434559 0 0.33102743048056482 0.13452671694312901 0 0.315686730343329 0.13579358200093411 0 0.33102798148580748 0.1185134895208889 0 0.33102743048056482 0.13452671694312901 0 0.315686730343329 0.13579358200093411 0 0.315686730343329 0.13579358200093411 0 0.31757881173450031 0.1529340605346122 0 0.32323491583127389 0.1507013075456044 0 0.31757881173450031 0.1529340605346122 0 0.32323491583127389 0.1507013075456044 0 0.34063405416030662 0.15941077048845809 0 0.3286422141542053 0.14805830848434559 0 0.315686730343329 0.13579358200093411 0 0.32323491583127389 0.1507013075456044 0 0.3286422141542053 0.14805830848434559 0 0.315686730343329 0.13579358200093411 0 0.3286422141542053 0.14805830848434559 0 0.32323491583127389 0.1507013075456044 0 0.31757881173450031 0.1529340605346122 0 0.32757984690823899 0.16828090143210361 0 0.31289049214066472 0.17337059339244759 0 0.31654835664450592 0.18507467184696519 0 0.31289049214066472 0.17337059339244759 0 0.32785109683270769 0.1827061191094394 0 0.32757984690823899 0.16828090143210361 0 0.31289049214066472 0.17337059339244759 0 0.32785109683270769 0.1827061191094394 0 0.31993108879680332 0.19338967415458491 0 0.31654835664450592 0.18507467184696519 0 0.32785109683270769 0.1827061191094394 0 0.32757984690823899 0.16828090143210361 0 0.32785109683270769 0.1827061191094394 0 0.33857796420107772 0.17303726062694211 0 0.32785109683270769 0.1827061191094394 0 0.33857796420107772 0.17303726062694211 0 0.34317187036597258 0.18498044398889471 0 0.31757881173450031 0.1529340605346122 0 0.32757984690823899 0.16828090143210361 0 0.34063405416030662 0.15941077048845809 0 0.32757984690823899 0.16828090143210361 0 0.33857796420107772 0.17303726062694211 0 0.34063405416030662 0.15941077048845809 0 0.33857796420107772 0.17303726062694211 0 0.34063405416030662 0.15941077048845809 0 0.3518922384728741 0.17006869367442909 0 0.34063405416030662 0.15941077048845809 0 0.35148088583504511 0.16245787714551349 0 0.3518922384728741 0.17006869367442909 0 0.34063405416030662 0.15941077048845809 0 0.34677644191411022 0.15750204627201461 0 0.35148088583504511 0.16245787714551349 0 0.34063405416030662 0.15941077048845809 0 0.35148088583504511 0.16245787714551349 0 0.34677644191411022 0.15750204627201461 0 0.35148088583504511 0.16245787714551349 0 0.34063405416030662 0.15941077048845809 0 0.3518922384728741 0.17006869367442909 0 0.35148088583504511 0.16245787714551349 0 0.3518922384728741 0.17006869367442909 0 0.36571752516518091 0.17745526640404169 0 0.35148088583504511 0.16245787714551349 0 0.36571752516518091 0.17745526640404169 0 0.34677644191411022 0.15750204627201461 0 0.35148088583504511 0.16245787714551349 0 0.35896078343382731 0.1536928117878173 0 0.34317187036597258 0.18498044398889471 0 0.3518922384728741 0.17006869367442909 0 0.36315042278543691 0.1807266168604052 0 0.33857796420107772 0.17303726062694211 0 0.34317187036597258 0.18498044398889471 0 0.3518922384728741 0.17006869367442909 0 0.3518922384728741 0.17006869367442909 0 0.36315042278543691 0.1807266168604052 0 0.36571752516518091 0.17745526640404169 0 0.38337805621419052 0.19605950666834929 0 0.36315042278543691 0.1807266168604052 0 0.36571752516518091 0.17745526640404169 0 0.38337805621419052 0.19605950666834929 0 0.3518922384728741 0.17006869367442909 0 0.36315042278543691 0.1807266168604052 0 0.36571752516518091 0.17745526640404169 0 0.36315042278543691 0.1807266168604052 0 0.36571752516518091 0.17745526640404169 0 0.36571752516518091 0.17745526640404169 0 0.37278903306611239 0.1684437907490611 0 0.36571752516518091 0.17745526640404169 0 0.37278903306611239 0.1684437907490611 0 0.37647612783782852 0.1765826374379825 0 0.36571752516518091 0.17745526640404169 0 0.38094336675417467 0.18575079152407661 0 0.37647612783782852 0.1765826374379825 0 0.35148088583504511 0.16245787714551349 0 0.36571752516518091 0.17745526640404169 0 0.37278903306611239 0.1684437907490611 0 0.35148088583504511 0.16245787714551349 0 0.37278903306611239 0.1684437907490611 0 0.35896078343382731 0.1536928117878173 0 0.35148088583504511 0.16245787714551349 0 0.37278903306611239 0.1684437907490611 0 0.37278903306611239 0.1684437907490611 0 0.37169054907655802 0.14440210890078459 0 0.35896078343382731 0.1536928117878173 0 0.37169054907655802 0.14440210890078459 0 0.35896078343382731 0.1536928117878173 0 0.34990433144588828 0.13766573298981241 0 0.34677644191411022 0.15750204627201461 0 0.35896078343382731 0.1536928117878173 0 0.34990433144588828 0.13766573298981241 0 0.35932471643916081 0.1134981235242544 0 0.34990433144588828 0.13766573298981241 0 0.37116644873757482 0.1272731574952862 0 0.34990433144588828 0.13766573298981241 0 0.37116644873757482 0.1272731574952862 0 0.37169054907655802 0.14440210890078459 0 0.34990433144588828 0.13766573298981241 0 0.37116644873757482 0.1272731574952862 0 0.37116644873757482 0.1272731574952862 0 0.38513200424378741 0.1338212526160229 0 0.39242856602925918 0.116880582000756 0 0.37169054907655802 0.14440210890078459 0 0.37116644873757482 0.1272731574952862 0 0.38513200424378741 0.1338212526160229 0 0.38513200424378741 0.1338212526160229 0 0.40121151000737459 0.13222401095123429 0 0.39242856602925918 0.116880582000756 0 0.38513200424378741 0.1338212526160229 0 0.40121151000737459 0.13222401095123429 0 0.3870002715367451 0.1503339008501488 0 0.40121151000737459 0.13222401095123429 0 0.3870002715367451 0.1503339008501488 0 0.40121151000737459 0.13222401095123429 0 0.3870002715367451 0.1503339008501488 0 0.4146563244798116 0.15571152904590541 0 0.37278903306611239 0.1684437907490611 0 0.37169054907655802 0.14440210890078459 0 0.3870002715367451 0.1503339008501488 0 0.37169054907655802 0.14440210890078459 0 0.38513200424378741 0.1338212526160229 0 0.3870002715367451 0.1503339008501488 0 0.37278903306611239 0.1684437907490611 0 0.3870002715367451 0.1503339008501488 0 0.37278903306611239 0.1684437907490611 0 0.3870002715367451 0.1503339008501488 0 0.38815714803524198 0.17276102243780719 0 0.37278903306611239 0.1684437907490611 0 0.38815714803524198 0.17276102243780719 0 0.36571752516518091 0.17745526640404169 0 0.38094336675417467 0.18575079152407661 0 0.38337805621419052 0.19605950666834929 0 0.38094336675417467 0.18575079152407661 0 0.37647612783782852 0.1765826374379825 0 0.38815714803524198 0.17276102243780719 0 0.37278903306611239 0.1684437907490611 0 0.37647612783782852 0.1765826374379825 0 0.38815714803524198 0.17276102243780719 0 0.38815714803524198 0.17276102243780719 0 0.4045222528532138 0.18247491933232551 0 0.40192127392429228 0.16692463564798199 0 0.38094336675417467 0.18575079152407661 0 0.4045222528532138 0.18247491933232551 0 0.38094336675417467 0.18575079152407661 0 0.38815714803524198 0.17276102243780719 0 0.4045222528532138 0.18247491933232551 0 0.38094336675417467 0.18575079152407661 0 0.4045222528532138 0.18247491933232551 0 0.3985862469864242 0.19415008040301501 0 0.3870002715367451 0.1503339008501488 0 0.40192127392429228 0.16692463564798199 0 0.4146563244798116 0.15571152904590541 0 0.3870002715367451 0.1503339008501488 0 0.38815714803524198 0.17276102243780719 0 0.40192127392429228 0.16692463564798199 0 0.40192127392429228 0.16692463564798199 0 0.41314885474212298 0.17172446815799 0 0.4146563244798116 0.15571152904590541 0 0.42810113895225288 0.179199047140574 0 0.4146563244798116 0.15571152904590541 0 0.41314885474212298 0.17172446815799 0 0.42810113895225288 0.179199047140574 0 0.4146563244798116 0.15571152904590541 0 0.4045222528532138 0.18247491933232551 0 0.42810113895225288 0.179199047140574 0 0.4045222528532138 0.18247491933232551 0 0.41314885474212298 0.17172446815799 0 0.42810113895225288 0.179199047140574 0 0.4045222528532138 0.18247491933232551 0 0.42810113895225288 0.179199047140574 0 0.42146212548932022 0.1904614947085462 0 0.4045222528532138 0.18247491933232551 0 0.40192127392429228 0.16692463564798199 0 0.41314885474212298 0.17172446815799 0 0.42810113895225288 0.179199047140574 0 0.43425218887628159 0.18994466930501019 0 0.44377405713131368 0.177021570367044 0 0.42810113895225288 0.179199047140574 0 0.43400057892753963 0.16035606940242839 0 0.44377405713131368 0.177021570367044 0 0.42810113895225288 0.179199047140574 0 0.44377405713131368 0.177021570367044 0 0.42810113895225288 0.179199047140574 0 0.42146212548932022 0.1904614947085462 0 0.43425218887628159 0.18994466930501019 0 0.42810113895225288 0.179199047140574 0 0.43425218887628159 0.18994466930501019 0 0.42810113895225288 0.179199047140574 0 0.43400057892753963 0.16035606940242839 0 0.4146563244798116 0.15571152904590541 0 0.43400057892753963 0.16035606940242839 0 0.42915063366564621 0.1370691130452816 0 0.4146563244798116 0.15571152904590541 0 0.43400057892753963 0.16035606940242839 0 0.42915063366564621 0.1370691130452816 0 0.4472551328860257 0.14810337040010249 0 0.42915063366564621 0.1370691130452816 0 0.4159777269694841 0.13294607515568341 0 0.42351370539076438 0.120429786377846 0 0.42915063366564621 0.1370691130452816 0 0.4357065652989397 0.1179962128903019 0 0.42351370539076438 0.120429786377846 0 0.40121151000737459 0.13222401095123429 0 0.4159777269694841 0.13294607515568341 0 0.4146563244798116 0.15571152904590541 0 0.40121151000737459 0.13222401095123429 0 0.4159777269694841 0.13294607515568341 0 0.41135646130382209 0.1192959363581485 0 0.40121151000737459 0.13222401095123429 0 0.41135646130382209 0.1192959363581485 0 0.42915063366564621 0.1370691130452816 0 0.4159777269694841 0.13294607515568341 0 0.4146563244798116 0.15571152904590541 0 0.40121151000737459 0.13222401095123429 0 0.4146563244798116 0.15571152904590541 0 0.40936178095289738 0.25240399705514732 0 0.39365908746925121 0.2498125304894577 0 0.39749634512331089 0.24266002312710749 0 0.40936178095289738 0.25240399705514732 0 0.40192736673093021 0.23598013559304321 0 0.39749634512331089 0.24266002312710749 0 0.39749634512331089 0.24266002312710749 0 0.38899187978027061 0.24134617663681771 0 0.39354161068320509 0.23375727586107151 0 0.40192736673093021 0.23598013559304321 0 0.39749634512331089 0.24266002312710749 0 0.39354161068320509 0.23375727586107151 0 0.39365908746925121 0.2498125304894577 0 0.39749634512331089 0.24266002312710749 0 0.38899187978027061 0.24134617663681771 0 0.38475748107919799 0.247937755230528 0 0.38032995906916089 0.24208425312706011 0 0.38899187978027061 0.24134617663681771 0 0.39365908746925121 0.2498125304894577 0 0.38475748107919799 0.247937755230528 0 0.38899187978027061 0.24134617663681771 0 0.37693108616487392 0.25112149136587758 0 0.37153597890319112 0.24485308026267541 0 0.38032995906916089 0.24208425312706011 0 0.37468630153993449 0.24031168258233679 0 0.37153597890319112 0.24485308026267541 0 0.38032995906916089 0.24208425312706011 0 0.37693108616487392 0.25112149136587758 0 0.38475748107919799 0.247937755230528 0 0.38032995906916089 0.24208425312706011 0 0.38032995906916089 0.24208425312706011 0 0.38432493707078491 0.23351562319483241 0 0.37508925164400481 0.23431914263453141 0 0.37468630153993449 0.24031168258233679 0 0.38032995906916089 0.24208425312706011 0 0.37508925164400481 0.23431914263453141 0 0.38899187978027061 0.24134617663681771 0 0.38432493707078491 0.23351562319483241 0 0.39354161068320509 0.23375727586107151 0 0.38032995906916089 0.24208425312706011 0 0.38899187978027061 0.24134617663681771 0 0.38432493707078491 0.23351562319483241 0 0.38432493707078491 0.23351562319483241 0 0.37989212930292843 0.22549814467465071 0 0.38993104293611408 0.2258120853389701 0 0.38432493707078491 0.23351562319483241 0 0.38993104293611408 0.2258120853389701 0 0.39354161068320509 0.23375727586107151 0 0.38432493707078491 0.23351562319483241 0 0.37508925164400481 0.23431914263453141 0 0.37989212930292843 0.22549814467465071 0 0.37989212930292843 0.22549814467465071 0 0.38514180047553448 0.21882654543850771 0 0.37688317144521077 0.21603245608368291 0 0.37989212930292843 0.22549814467465071 0 0.38993104293611408 0.2258120853389701 0 0.38514180047553448 0.21882654543850771 0 0.38993104293611408 0.2258120853389701 0 0.38514180047553448 0.21882654543850771 0 0.39572808315324459 0.21845423681237611 0 0.38993104293611408 0.2258120853389701 0 0.39804081997965518 0.22834487510909879 0 0.39572808315324459 0.21845423681237611 0 0.40192736673093021 0.23598013559304321 0 0.39804081997965518 0.22834487510909879 0 0.39354161068320509 0.23375727586107151 0 0.38993104293611408 0.2258120853389701 0 0.39804081997965518 0.22834487510909879 0 0.39354161068320509 0.23375727586107151 0 0.40192736673093021 0.23598013559304321 0 0.39804081997965518 0.22834487510909879 0 0.40847641157002329 0.228587940339531 0 0.39572808315324459 0.21845423681237611 0 0.40847641157002329 0.228587940339531 0 0.40103858726319719 0.2146637469326596 0 0.40816579721886481 0.2202325474979083 0 0.40828560372850897 0.2234552912292827 0 0.39572808315324459 0.21845423681237611 0 0.40828560372850897 0.2234552912292827 0 0.40847641157002329 0.228587940339531 0 0.39804081997965518 0.22834487510909879 0 0.39572808315324459 0.21845423681237611 0 0.40847641157002329 0.228587940339531 0 0.40103858726319719 0.2146637469326596 0 0.39324054341415121 0.20921239977299061 0 0.38337805621419052 0.19605950666834929 0 0.40103858726319719 0.2146637469326596 0 0.40188075570156889 0.20506745527973641 0 0.38337805621419052 0.19605950666834929 0 0.40103858726319719 0.2146637469326596 0 0.38337805621419052 0.19605950666834929 0 0.39324054341415121 0.20921239977299061 0 0.40828560372850897 0.2234552912292827 0 0.40103858726319719 0.2146637469326596 0 0.40188075570156889 0.20506745527973641 0 0.40723917269544019 0.21345093397370091 0 0.39324054341415121 0.20921239977299061 0 0.39572808315324459 0.21845423681237611 0 0.40828560372850897 0.2234552912292827 0 0.40103858726319719 0.2146637469326596 0 0.39324054341415121 0.20921239977299061 0 0.40828560372850897 0.2234552912292827 0 0.40103858726319719 0.2146637469326596 0 0.40723917269544019 0.21345093397370091 0 0.40816579721886481 0.2202325474979083 0 0.39324054341415121 0.20921239977299061 0 0.39572808315324459 0.21845423681237611 0 0.38297975473646528 0.20832053328522171 0 0.39572808315324459 0.21845423681237611 0 0.38297975473646528 0.20832053328522171 0 0.38514180047553448 0.21882654543850771 0 0.39572808315324459 0.21845423681237611 0 0.38297975473646528 0.20832053328522171 0 0.38514180047553448 0.21882654543850771 0 0.37688317144521077 0.21603245608368291 0 0.38297975473646528 0.20832053328522171 0 0.37329147731281942 0.2054801251234922 0 0.37688317144521077 0.21603245608368291 0 0.38297975473646528 0.20832053328522171 0 0.39324054341415121 0.20921239977299061 0 0.38297975473646528 0.20832053328522171 0 0.37819548309979428 0.1949695083166976 0 0.38094336675417467 0.18575079152407661 0 0.38337805621419052 0.19605950666834929 0 0.3985862469864242 0.19415008040301501 0 0.39324054341415121 0.20921239977299061 0 0.38337805621419052 0.19605950666834929 0 0.37819548309979428 0.1949695083166976 0 0.39324054341415121 0.20921239977299061 0 0.37819548309979428 0.1949695083166976 0 0.37329147731281942 0.2054801251234922 0 0.38297975473646528 0.20832053328522171 0 0.37819548309979428 0.1949695083166976 0 0.40188075570156889 0.20506745527973641 0 0.38337805621419052 0.19605950666834929 0 0.3985862469864242 0.19415008040301501 0 0.40188075570156889 0.20506745527973641 0 0.3985862469864242 0.19415008040301501 0 0.40901035966215971 0.20182192195462831 0 0.3985862469864242 0.19415008040301501 0 0.41027818172682479 0.19410762290970601 0 0.40901035966215971 0.20182192195462831 0 0.4045222528532138 0.18247491933232551 0 0.3985862469864242 0.19415008040301501 0 0.41027818172682479 0.19410762290970601 0 0.4045222528532138 0.18247491933232551 0 0.41027818172682479 0.19410762290970601 0 0.42146212548932022 0.1904614947085462 0 0.41027818172682479 0.19410762290970601 0 0.40901035966215971 0.20182192195462831 0 0.41747164122279939 0.20122447030200361 0 0.41027818172682479 0.19410762290970601 0 0.41747164122279939 0.20122447030200361 0 0.42146212548932022 0.1904614947085462 0 0.42146212548932022 0.1904614947085462 0 0.43425218887628159 0.18994466930501019 0 0.4306057428347112 0.20309109944371639 0 0.43425218887628159 0.18994466930501019 0 0.4306057428347112 0.20309109944371639 0 0.44428927597435708 0.20302735887789261 0 0.41747164122279939 0.20122447030200361 0 0.42146212548932022 0.1904614947085462 0 0.4306057428347112 0.20309109944371639 0 0.4306057428347112 0.20309109944371639 0 0.42227607246435289 0.2108459106933355 0 0.43567744953188209 0.21362160068557609 0 0.41747164122279939 0.20122447030200361 0 0.4306057428347112 0.20309109944371639 0 0.42227607246435289 0.2108459106933355 0 0.4306057428347112 0.20309109944371639 0 0.43567744953188209 0.21362160068557609 0 0.44428927597435708 0.20302735887789261 0 0.42227607246435289 0.2108459106933355 0 0.43567744953188209 0.21362160068557609 0 0.42412122374498618 0.22194899413835781 0 0.42227607246435289 0.2108459106933355 0 0.41202865604687938 0.20880250361413349 0 0.41375172140486011 0.21638679597622601 0 0.42227607246435289 0.2108459106933355 0 0.41375172140486011 0.21638679597622601 0 0.42412122374498618 0.22194899413835781 0 0.41747164122279939 0.20122447030200361 0 0.42227607246435289 0.2108459106933355 0 0.41202865604687938 0.20880250361413349 0 0.40188075570156889 0.20506745527973641 0 0.41202865604687938 0.20880250361413349 0 0.40723917269544019 0.21345093397370091 0 0.40901035966215971 0.20182192195462831 0 0.41747164122279939 0.20122447030200361 0 0.41202865604687938 0.20880250361413349 0 0.40188075570156889 0.20506745527973641 0 0.40901035966215971 0.20182192195462831 0 0.41202865604687938 0.20880250361413349 0 0.40723917269544019 0.21345093397370091 0 0.41375172140486011 0.21638679597622601 0 0.40816579721886481 0.2202325474979083 0 0.41202865604687938 0.20880250361413349 0 0.40723917269544019 0.21345093397370091 0 0.41375172140486011 0.21638679597622601 0 0.40828560372850897 0.2234552912292827 0 0.42469438251657449 0.23898919075016101 0 0.40828560372850897 0.2234552912292827 0 0.40847641157002329 0.228587940339531 0 0.42469438251657449 0.23898919075016101 0 0.40828560372850897 0.2234552912292827 0 0.42412122374498618 0.22194899413835781 0 0.42469438251657449 0.23898919075016101 0 0.41375172140486011 0.21638679597622601 0 0.40828560372850897 0.2234552912292827 0 0.42412122374498618 0.22194899413835781 0 0.40816579721886481 0.2202325474979083 0 0.40828560372850897 0.2234552912292827 0 0.41375172140486011 0.21638679597622601 0 0.40816579721886481 0.2202325474979083 0 0.40828560372850897 0.2234552912292827 0 0.40828560372850897 0.2234552912292827 0 0.40847641157002329 0.228587940339531 0 0.42412122374498618 0.22194899413835781 0 0.42469438251657449 0.23898919075016101 0 0.44116695617793278 0.2320277794605892 0 0.43567744953188209 0.21362160068557609 0 0.42412122374498618 0.22194899413835781 0 0.44116695617793278 0.2320277794605892 0 0.44110316130464111 0.25452309027103831 0 0.42478978643733262 0.2415555153052843 0 0.42469438251657449 0.23898919075016101 0 0.44110316130464111 0.25452309027103831 0 0.42469438251657449 0.23898919075016101 0 0.44116695617793278 0.2320277794605892 0 0.44110316130464111 0.25452309027103831 0 0.42469438251657449 0.23898919075016101 0 0.44110316130464111 0.25452309027103831 0 0.42478978643733262 0.2415555153052843 0 0.40936178095289738 0.25240399705514732 0 0.40847641157002329 0.228587940339531 0 0.42478978643733262 0.2415555153052843 0 0.40936178095289738 0.25240399705514732 0 0.40847641157002329 0.228587940339531 0 0.40847641157002329 0.228587940339531 0 0.42478978643733262 0.2415555153052843 0 0.42469438251657449 0.23898919075016101 0 0.40847641157002329 0.228587940339531 0 0.42478978643733262 0.2415555153052843 0 0.40936178095289738 0.25240399705514732 0 0.40192736673093021 0.23598013559304321 0 0.40847641157002329 0.228587940339531 0 0.45439012142468871 0.24678647365181461 0 0.45554685057757272 0.230865882216539 0 0.47099685105856659 0.24909432062393899 0 0.45439012142468871 0.24678647365181461 0 0.44116695617793278 0.2320277794605892 0 0.45554685057757272 0.230865882216539 0 0.44110316130464111 0.25452309027103831 0 0.45439012142468871 0.24678647365181461 0 0.44116695617793278 0.2320277794605892 0 0.44116695617793278 0.2320277794605892 0 0.45554685057757272 0.230865882216539 0 0.45187386292765219 0.2173831988418185 0 0.43567744953188209 0.21362160068557609 0 0.44116695617793278 0.2320277794605892 0 0.45187386292765219 0.2173831988418185 0 0.45554685057757272 0.230865882216539 0 0.45187386292765219 0.2173831988418185 0 0.47068038280299013 0.22277699506275911 0 0.45554685057757272 0.230865882216539 0 0.47068038280299013 0.22277699506275911 0 0.47099685105856659 0.24909432062393899 0 0.46239560677226271 0.2052150661567155 0 0.45187386292765219 0.2173831988418185 0 0.47068038280299013 0.22277699506275911 0 0.43567744953188209 0.21362160068557609 0 0.45187386292765219 0.2173831988418185 0 0.44428927597435708 0.20302735887789261 0 0.46239560677226271 0.2052150661567155 0 0.45187386292765219 0.2173831988418185 0 0.44428927597435708 0.20302735887789261 0 0.43425218887628159 0.18994466930501019 0 0.44428927597435708 0.20302735887789261 0 0.45093080490335269 0.18890851883451881 0 0.46239560677226271 0.2052150661567155 0 0.44428927597435708 0.20302735887789261 0 0.45093080490335269 0.18890851883451881 0 0.46239560677226271 0.2052150661567155 0 0.47722123341820649 0.19215568651400969 0 0.46453489988952468 0.18721829203691381 0 0.46239560677226271 0.2052150661567155 0 0.45093080490335269 0.18890851883451881 0 0.46453489988952468 0.18721829203691381 0 0.46239560677226271 0.2052150661567155 0 0.47722123341820649 0.19215568651400969 0 0.48263260808712449 0.2090117027798368 0 0.47722123341820649 0.19215568651400969 0 0.5 0.18872592139043051 0 0.48263260808712449 0.2090117027798368 0 0.5 0.18872592139043051 0 0.500000000000002 0.21376625816209011 0 0.48263260808712449 0.2090117027798368 0 0.500000000000002 0.21376625816209011 0 0.48263260808712449 0.2090117027798368 0 0.4854984255292849 0.23143028939301499 0 0.46239560677226271 0.2052150661567155 0 0.48263260808712449 0.2090117027798368 0 0.47068038280299013 0.22277699506275911 0 0.48263260808712449 0.2090117027798368 0 0.47068038280299013 0.22277699506275911 0 0.4854984255292849 0.23143028939301499 0 0.500000000000002 0.21376625816209011 0 0.4854984255292849 0.23143028939301499 0 0.5 0.2378946140413353 0 0.500000000000002 0.21376625816209011 0 0.4854984255292849 0.23143028939301499 0 0.5 0.26202296992058038 0 0.5 0.2378946140413353 0 0.48796407654405838 0.24861642653093519 0 0.4854984255292849 0.23143028939301499 0 0.5 0.2378946140413353 0 0.48796407654405838 0.24861642653093519 0 0.47068038280299013 0.22277699506275911 0 0.4854984255292849 0.23143028939301499 0 0.47099685105856659 0.24909432062393899 0 0.4854984255292849 0.23143028939301499 0 0.48796407654405838 0.24861642653093519 0 0.47099685105856659 0.24909432062393899 0 0.4854984255292849 0.23143028939301499 0 0.47099685105856659 0.24909432062393899 0 0.4641870433601718 0.14006742291246141 0 0.4472551328860257 0.14810337040010249 0 0.46326776301519812 0.1587644573903513 0 0.4641870433601718 0.14006742291246141 0 0.44910074313192522 0.12911261772131319 0 0.46616394133118072 0.1198459778800027 0 0.4641870433601718 0.14006742291246141 0 0.44910074313192522 0.12911261772131319 0 0.4472551328860257 0.14810337040010249 0 0.42915063366564621 0.1370691130452816 0 0.44910074313192522 0.12911261772131319 0 0.4472551328860257 0.14810337040010249 0 0.42915063366564621 0.1370691130452816 0 0.44910074313192522 0.12911261772131319 0 0.4357065652989397 0.1179962128903019 0 0.43400057892753963 0.16035606940242839 0 0.4472551328860257 0.14810337040010249 0 0.44971149835334029 0.1643047212070646 0 0.43400057892753963 0.16035606940242839 0 0.44971149835334029 0.1643047212070646 0 0.44377405713131368 0.177021570367044 0 0.44971149835334029 0.1643047212070646 0 0.44377405713131368 0.177021570367044 0 0.45944697531037437 0.17484409359351361 0 0.43425218887628159 0.18994466930501019 0 0.45093080490335269 0.18890851883451881 0 0.44377405713131368 0.177021570367044 0 0.44377405713131368 0.177021570367044 0 0.45944697531037437 0.17484409359351361 0 0.45093080490335269 0.18890851883451881 0 0.44377405713131368 0.177021570367044 0 0.45944697531037437 0.17484409359351361 0 0.45944697531037437 0.17484409359351361 0 0.46453489988952468 0.18721829203691381 0 0.47796052569578668 0.17414864873256081 0 0.45093080490335269 0.18890851883451881 0 0.45944697531037437 0.17484409359351361 0 0.46453489988952468 0.18721829203691381 0 0.44971149835334029 0.1643047212070646 0 0.45944697531037437 0.17484409359351361 0 0.46326776301519812 0.1587644573903513 0 0.45944697531037437 0.17484409359351361 0 0.46326776301519812 0.1587644573903513 0 0.47796052569578668 0.17414864873256081 0 0.4472551328860257 0.14810337040010249 0 0.44971149835334029 0.1643047212070646 0 0.46326776301519812 0.1587644573903513 0 0.46326776301519812 0.1587644573903513 0 0.47796052569578668 0.17414864873256081 0 0.4810454024854901 0.15111848749640491 0 0.47722123341820649 0.19215568651400969 0 0.46453489988952468 0.18721829203691381 0 0.47796052569578668 0.17414864873256081 0 0.47722123341820649 0.19215568651400969 0 0.5 0.18872592139043051 0 0.47796052569578668 0.17414864873256081 0 0.5 0.18872592139043051 0 0.47796052569578668 0.17414864873256081 0 0.5 0.16368558461877089 0 0.47796052569578668 0.17414864873256081 0 0.5 0.16368558461877089 0 0.4810454024854901 0.15111848749640491 0 0.5 0.16368558461877089 0 0.4810454024854901 0.15111848749640491 0 0.5 0.13864524784711141 0 0.4641870433601718 0.14006742291246141 0 0.46326776301519812 0.1587644573903513 0 0.4810454024854901 0.15111848749640491 0 0.4641870433601718 0.14006742291246141 0 0.4810454024854901 0.15111848749640491 0 0.48202996451929497 0.1290316023173789 0 0.4641870433601718 0.14006742291246141 0 0.48202996451929497 0.1290316023173789 0 0.46616394133118072 0.1198459778800027 0 0.4810454024854901 0.15111848749640491 0 0.48202996451929497 0.1290316023173789 0 0.5 0.13864524784711141 0 0.48202996451929497 0.1290316023173789 0 0.5 0.13864524784711141 0 0.5 0.11360491107545199 0 0.48202996451929497 0.1290316023173789 0 0.5 0.11360491107545199 0 0.48164324376201512 0.1103866494896297 0 0.48164324376201512 0.1103866494896297 0 0.49999999999998412 0.088564574303792512 0 0.47223897399802628 0.093484990248294514 0 0.5 0.11360491107545199 0 0.48164324376201512 0.1103866494896297 0 0.49999999999998412 0.088564574303792512 0 0.48164324376201512 0.1103866494896297 0 0.47223897399802628 0.093484990248294514 0 0.46616394133118072 0.1198459778800027 0 0.48202996451929497 0.1290316023173789 0 0.48164324376201512 0.1103866494896297 0 0.46616394133118072 0.1198459778800027 0 0.49571883890812751 0.075372854926424371 0 0.48604438940634598 0.051273887772271647 0 0.49571883890812751 0.075372854926424371 0 0.49999999999998412 0.088564574303792512 0 0.5 0.060877768231307527 0 0.49571883890812751 0.075372854926424371 0 0.48604438940634598 0.051273887772271647 0 0.5 0.060877768231307527 0 0.49571883890812751 0.075372854926424371 0 0.48120187576933138 0.069046704289004487 0 0.48604438940634598 0.051273887772271647 0 0.49571883890812751 0.075372854926424371 0 0.48406521968200461 0.080179817099671993 0 0.48120187576933138 0.069046704289004487 0 0.49999999999998412 0.088564574303792512 0 0.47223897399802628 0.093484990248294514 0 0.48406521968200461 0.080179817099671993 0 0.49999999999998412 0.088564574303792512 0 0.47223897399802628 0.093484990248294514 0 0.49571883890812751 0.075372854926424371 0 0.49999999999998412 0.088564574303792512 0 0.48406521968200461 0.080179817099671993 0 0.47223897399802628 0.093484990248294514 0 0.48406521968200461 0.080179817099671993 0 0.47116640973453727 0.074429961730844096 0 0.48406521968200461 0.080179817099671993 0 0.47116640973453727 0.074429961730844096 0 0.48120187576933138 0.069046704289004487 0 0.47116640973453727 0.074429961730844096 0 0.48120187576933138 0.069046704289004487 0 0.47139874545493671 0.061429918621521147 0 0.45820066983142499 0.067755826745289363 0 0.44911603479485418 0.088046279808874195 0 0.47116640973453727 0.074429961730844096 0 0.45820066983142499 0.067755826745289363 0 0.44911603479485418 0.088046279808874195 0 0.47116640973453727 0.074429961730844096 0 0.45820066983142499 0.067755826745289363 0 0.47139874545493671 0.061429918621521147 0 0.47223897399802628 0.093484990248294514 0 0.47116640973453727 0.074429961730844096 0 0.44911603479485418 0.088046279808874195 0 0.47116640973453727 0.074429961730844096 0 0.44911603479485418 0.088046279808874195 0 0.47223897399802628 0.093484990248294514 0 0.44911603479485418 0.088046279808874195 0 0.44447794799606882 0.098405406192797223 0 0.44911603479485418 0.088046279808874195 0 0.43192479398246408 0.088283511265858192 0 0.43612094188456069 0.075054025853421996 0 0.44911603479485418 0.088046279808874195 0 0.44447794799606882 0.098405406192797223 0 0.45820066983142499 0.067755826745289363 0 0.44911603479485418 0.088046279808874195 0 0.43612094188456069 0.075054025853421996 0 0.45820066983142499 0.067755826745289363 0 0.43612094188456069 0.075054025853421996 0 0.44760209918020932 0.053649981888992983 0 0.44910074313192522 0.12911261772131319 0 0.46616394133118072 0.1198459778800027 0 0.45232794468567228 0.1124282408537266 0 0.47223897399802628 0.093484990248294514 0 0.46616394133118072 0.1198459778800027 0 0.45232794468567228 0.1124282408537266 0 0.47223897399802628 0.093484990248294514 0 0.44447794799606882 0.098405406192797223 0 0.45232794468567228 0.1124282408537266 0 0.47223897399802628 0.093484990248294514 0 0.44447794799606882 0.098405406192797223 0 0.44911603479485418 0.088046279808874195 0 0.44447794799606882 0.098405406192797223 0 0.42745407196643381 0.10142274968174531 0 0.44911603479485418 0.088046279808874195 0 0.42745407196643381 0.10142274968174531 0 0.44447794799606882 0.098405406192797223 0 0.4357065652989397 0.1179962128903019 0 0.44910074313192522 0.12911261772131319 0 0.45232794468567228 0.1124282408537266 0 0.4357065652989397 0.1179962128903019 0 0.44447794799606882 0.098405406192797223 0 0.45232794468567228 0.1124282408537266 0 0.4357065652989397 0.1179962128903019 0 0.4357065652989397 0.1179962128903019 0 0.43037132227179248 0.10937741141546239 0 0.42351370539076438 0.120429786377846 0 0.43037132227179248 0.10937741141546239 0 0.42351370539076438 0.120429786377846 0 0.42150141260026791 0.10636786176506149 0 0.4159777269694841 0.13294607515568341 0 0.42351370539076438 0.120429786377846 0 0.41135646130382209 0.1192959363581485 0 0.41344346925412789 0.1100744312752541 0 0.41135646130382209 0.1192959363581485 0 0.42150141260026791 0.10636786176506149 0 0.41135646130382209 0.1192959363581485 0 0.42150141260026791 0.10636786176506149 0 0.42351370539076438 0.120429786377846 0 0.41135646130382209 0.1192959363581485 0 0.42150141260026791 0.10636786176506149 0 0.40727383961392388 0.1096244548545785 0 0.41344346925412789 0.1100744312752541 0 0.39943286654182242 0.1187261128687636 0 0.41344346925412789 0.1100744312752541 0 0.39943286654182242 0.1187261128687636 0 0.41344346925412789 0.1100744312752541 0 0.41135646130382209 0.1192959363581485 0 0.39943286654182242 0.1187261128687636 0 0.42211911319858558 0.1023683277083946 0 0.40487028229554961 0.10542554261800589 0 0.42211911319858558 0.1023683277083946 0 0.40878905682453498 0.09333235837446209 0 0.40487028229554961 0.10542554261800589 0 0.40727383961392388 0.1096244548545785 0 0.42211911319858558 0.1023683277083946 0 0.40487028229554961 0.10542554261800589 0 0.40727383961392388 0.1096244548545785 0 0.42211911319858558 0.1023683277083946 0 0.41344346925412789 0.1100744312752541 0 0.42745407196643381 0.10142274968174531 0 0.42211911319858558 0.1023683277083946 0 0.41344346925412789 0.1100744312752541 0 0.42150141260026791 0.10636786176506149 0 0.42745407196643381 0.10142274968174531 0 0.40727383961392388 0.1096244548545785 0 0.41344346925412789 0.1100744312752541 0 0.42211911319858558 0.1023683277083946 0 0.41344346925412789 0.1100744312752541 0 0.42745407196643381 0.10142274968174531 0 0.42211911319858558 0.1023683277083946 0 0.4188599020932352 0.091251685517669823 0 0.40878905682453498 0.09333235837446209 0 0.42519744274311438 0.096795772811844816 0 0.42211911319858558 0.1023683277083946 0 0.4188599020932352 0.091251685517669823 0 0.44447794799606882 0.098405406192797223 0 0.4357065652989397 0.1179962128903019 0 0.43037132227179248 0.10937741141546239 0 0.42519744274311438 0.096795772811844816 0 0.42745407196643381 0.10142274968174531 0 0.43192479398246408 0.088283511265858192 0 0.44447794799606882 0.098405406192797223 0 0.43037132227179248 0.10937741141546239 0 0.42745407196643381 0.10142274968174531 0 0.44447794799606882 0.098405406192797223 0 0.42745407196643381 0.10142274968174531 0 0.42519744274311438 0.096795772811844816 0 0.42562933247485463 0.1006525898855594 0 0.42211911319858558 0.1023683277083946 0 0.42562933247485463 0.1006525898855594 0 0.42745407196643381 0.10142274968174531 0 0.42211911319858558 0.1023683277083946 0 0.42562933247485463 0.1006525898855594 0 0.42211911319858558 0.1023683277083946 0 0.42519744274311438 0.096795772811844816 0 0.42562933247485463 0.1006525898855594 0 0.42745407196643381 0.10142274968174531 0 0.43037132227179248 0.10937741141546239 0 0.42150141260026791 0.10636786176506149 0 0.42745407196643381 0.10142274968174531 0 0.42745407196643381 0.10142274968174531 0 0.42211911319858558 0.1023683277083946 0 0.43192479398246408 0.088283511265858192 0 0.43612094188456069 0.075054025853421996 0 0.42345108330365011 0.072175483991619438 0 0.43192479398246408 0.088283511265858192 0 0.42345108330365011 0.072175483991619438 0 0.41377272688613859 0.080843859662184839 0 0.44911603479485418 0.088046279808874195 0 0.42745407196643381 0.10142274968174531 0 0.43192479398246408 0.088283511265858192 0 0.42519744274311438 0.096795772811844816 0 0.43192479398246408 0.088283511265858192 0 0.4188599020932352 0.091251685517669823 0 0.43612094188456069 0.075054025853421996 0 0.42345108330365011 0.072175483991619438 0 0.42806905116036392 0.052559768973073982 0 0.43612094188456069 0.075054025853421996 0 0.42806905116036392 0.052559768973073982 0 0.42345108330365011 0.072175483991619438 0 0.41403602352239433 0.063221827251169732 0 0.42806905116036392 0.052559768973073982 0 0.42345108330365011 0.072175483991619438 0 0.41403602352239433 0.063221827251169732 0 0.41377272688613859 0.080843859662184839 0 0.43192479398246408 0.088283511265858192 0 0.4188599020932352 0.091251685517669823 0 0.41377272688613859 0.080843859662184839 0 0.4188599020932352 0.091251685517669823 0 0.41377272688613859 0.080843859662184839 0 0.40878905682453498 0.09333235837446209 0 0.41377272688613859 0.080843859662184839 0 0.39515155900724502 0.08800294691332583 0 0.3904366715797733 0.068618152357034126 0 0.41377272688613859 0.080843859662184839 0 0.40878905682453498 0.09333235837446209 0 0.39515155900724502 0.08800294691332583 0 0.41403602352239433 0.063221827251169732 0 0.41377272688613859 0.080843859662184839 0 0.3904366715797733 0.068618152357034126 0 0.41403602352239433 0.063221827251169732 0 0.3904366715797733 0.068618152357034126 0 0.40013573810427921 0.056265407542474583 0 0.37428304080467212 0.085181122486210264 0 0.36094463021682849 0.061879487444816861 0 0.3904366715797733 0.068618152357034126 0 0.37428304080467212 0.085181122486210264 0 0.39515155900724502 0.08800294691332583 0 0.3904366715797733 0.068618152357034126 0 0.37428304080467212 0.085181122486210264 0 0.39515155900724502 0.08800294691332583 0 0.38762145139251158 0.108482757527606 0 0.37428304080467212 0.085181122486210264 0 0.38762145139251158 0.108482757527606 0 0.37116644873757482 0.1272731574952862 0 0.39242856602925918 0.116880582000756 0 0.37116644873757482 0.1272731574952862 0 0.38762145139251158 0.108482757527606 0 0.39242856602925918 0.116880582000756 0 0.38762145139251158 0.108482757527606 0 0.39242856602925918 0.116880582000756 0 0.38762145139251158 0.108482757527606 0 0.39242856602925918 0.116880582000756 0 0.40487028229554961 0.10542554261800589 0 0.40121151000737459 0.13222401095123429 0 0.39242856602925918 0.116880582000756 0 0.39943286654182242 0.1187261128687636 0 0.40121151000737459 0.13222401095123429 0 0.39242856602925918 0.116880582000756 0 0.40121151000737459 0.13222401095123429 0 0.41135646130382209 0.1192959363581485 0 0.39943286654182242 0.1187261128687636 0 0.40727383961392388 0.1096244548545785 0 0.39242856602925918 0.116880582000756 0 0.40487028229554961 0.10542554261800589 0 0.40727383961392388 0.1096244548545785 0 0.39242856602925918 0.116880582000756 0 0.39943286654182242 0.1187261128687636 0 0.40727383961392388 0.1096244548545785 0 0.39242856602925918 0.116880582000756 0 0.40878905682453498 0.09333235837446209 0 0.39515155900724502 0.08800294691332583 0 0.40487028229554961 0.10542554261800589 0 0.38762145139251158 0.108482757527606 0 0.40487028229554961 0.10542554261800589 0 0.39515155900724502 0.08800294691332583 0 0.38762145139251158 0.108482757527606 0 0.40487028229554961 0.10542554261800589 0 0.40304935339332132 0.03084614512467837 0 0.40440383228968702 0.013281793936960841 0 0.38933922662206122 0.020538101306475692 0 0.40440383228968702 0.013281793936960841 0 0.38879050414320548 -0.0035019242188035209 0 0.40440383228968702 0.013281793936960841 0 0.38933922662206122 0.020538101306475692 0 0.38879050414320548 -0.0035019242188035209 0 0.40440383228968702 0.013281793936960841 0 0.40326955669734788 0.0013145221745210921 0 0.38879050414320548 -0.0035019242188035209 0 0.37480090979353559 0.012117275161245869 0 0.38933922662206122 0.020538101306475692 0 0.38879050414320548 -0.0035019242188035209 0 0.38933922662206122 0.020538101306475692 0 0.38879050414320548 -0.0035019242188035209 0 0.37480090979353559 0.012117275161245869 0 0.38879050414320548 -0.0035019242188035209 0 0.37232238509817878 -0.001610374512647025 0 0.37480090979353559 0.012117275161245869 0 0.36864859530982658 0.02996483807260069 0 0.38933922662206122 0.020538101306475692 0 0.36864859530982658 0.02996483807260069 0 0.38933922662206122 0.020538101306475692 0 0.38988794910091717 0.044578126831754869 0 0.37210288993999918 0.04768584512514757 0 0.36864859530982658 0.02996483807260069 0 0.38988794910091717 0.044578126831754869 0 0.38933922662206122 0.020538101306475692 0 0.38988794910091717 0.044578126831754869 0 0.3904366715797733 0.068618152357034126 0 0.38988794910091717 0.044578126831754869 0 0.37210288993999918 0.04768584512514757 0 0.3904366715797733 0.068618152357034126 0 0.38988794910091717 0.044578126831754869 0 0.38988794910091717 0.044578126831754869 0 0.40013573810427921 0.056265407542474583 0 0.41159859851777292 0.045767191455474601 0 0.3904366715797733 0.068618152357034126 0 0.38988794910091717 0.044578126831754869 0 0.40013573810427921 0.056265407542474583 0 0.40304935339332132 0.03084614512467837 0 0.38933922662206122 0.020538101306475692 0 0.38988794910091717 0.044578126831754869 0 0.40304935339332132 0.03084614512467837 0 0.38988794910091717 0.044578126831754869 0 0.41159859851777292 0.045767191455474601 0 0.41159859851777292 0.045767191455474601 0 0.42806905116036392 0.052559768973073982 0 0.42001716043616782 0.03006551209272583 0 0.40304935339332132 0.03084614512467837 0 0.41159859851777292 0.045767191455474601 0 0.42001716043616782 0.03006551209272583 0 0.42257969012342039 0.032820131455946269 0 0.42001716043616782 0.03006551209272583 0 0.41403602352239433 0.063221827251169732 0 0.40013573810427921 0.056265407542474583 0 0.41159859851777292 0.045767191455474601 0 0.41403602352239433 0.063221827251169732 0 0.41159859851777292 0.045767191455474601 0 0.42806905116036392 0.052559768973073982 0 0.43612094188456069 0.075054025853421996 0 0.42806905116036392 0.052559768973073982 0 0.44760209918020932 0.053649981888992983 0 0.42806905116036392 0.052559768973073982 0 0.42257969012342039 0.032820131455946269 0 0.43133848619062398 0.034903582623395712 0 0.42806905116036392 0.052559768973073982 0 0.43133848619062398 0.034903582623395712 0 0.44136604415549369 0.038199853072216419 0 0.42806905116036392 0.052559768973073982 0 0.42257969012342039 0.032820131455946269 0 0.42001716043616782 0.03006551209272583 0 0.42806905116036392 0.052559768973073982 0 0.42001716043616782 0.03006551209272583 0 0.42257969012342039 0.032820131455946269 0 0.43133848619062398 0.034903582623395712 0 0.42687974903311282 0.030263027797785131 0 0.43133848619062398 0.034903582623395712 0 0.43708004483063873 0.027078954084780719 0 0.44136604415549369 0.038199853072216419 0 0.43133848619062398 0.034903582623395712 0 0.43708004483063873 0.027078954084780719 0 0.43128088872523751 0.027278585451218421 0 0.43708004483063873 0.027078954084780719 0 0.43451575876189319 0.02313834934525846 0 0.43879067348313727 0.020805433857732269 0 0.43708004483063873 0.027078954084780719 0 0.43128088872523751 0.027278585451218421 0 0.43451575876189319 0.02313834934525846 0 0.43128088872523751 0.027278585451218421 0 0.43451575876189319 0.02313834934525846 0 0.4313326241119888 0.022108344300384209 0 0.43128088872523751 0.027278585451218421 0 0.4313326241119888 0.022108344300384209 0 0.42818580417653629 0.023850620982987319 0 0.43133848619062398 0.034903582623395712 0 0.43128088872523751 0.027278585451218421 0 0.42687974903311282 0.030263027797785131 0 0.43409456265846358 0.018420429032176701 0 0.43814930691050141 0.01529426991520119 0 0.43879067348313727 0.020805433857732269 0 0.43409456265846358 0.018420429032176701 0 0.43451575876189319 0.02313834934525846 0 0.43879067348313727 0.020805433857732269 0 0.43409456265846358 0.018420429032176701 0 0.4313326241119888 0.022108344300384209 0 0.42948179077376047 0.018551805098886071 0 0.43409456265846358 0.018420429032176701 0 0.43451575876189319 0.02313834934525846 0 0.4313326241119888 0.022108344300384209 0 0.43409456265846358 0.018420429032176701 0 0.42948179077376047 0.018551805098886071 0 0.43253335143261418 0.012622564430315951 0 0.42948179077376047 0.018551805098886071 0 0.42560923020108132 0.020989372467620001 0 0.42605553741435992 0.014353866481729941 0 0.4313326241119888 0.022108344300384209 0 0.42948179077376047 0.018551805098886071 0 0.42818580417653629 0.023850620982987319 0 0.42948179077376047 0.018551805098886071 0 0.42560923020108132 0.020989372467620001 0 0.42818580417653629 0.023850620982987319 0 0.42560923020108132 0.020989372467620001 0 0.42100382611867188 0.022961855258980611 0 0.42109918609410119 0.016035952683859201 0 0.42560923020108132 0.020989372467620001 0 0.42109918609410119 0.016035952683859201 0 0.42605553741435992 0.014353866481729941 0 0.43128088872523751 0.027278585451218421 0 0.42687974903311282 0.030263027797785131 0 0.42573909922002001 0.02663203435981407 0 0.42560923020108132 0.020989372467620001 0 0.42818580417653629 0.023850620982987319 0 0.42573909922002001 0.02663203435981407 0 0.43128088872523751 0.027278585451218421 0 0.42818580417653629 0.023850620982987319 0 0.42573909922002001 0.02663203435981407 0 0.42560923020108132 0.020989372467620001 0 0.42573909922002001 0.02663203435981407 0 0.42100382611867188 0.022961855258980611 0 0.42573909922002001 0.02663203435981407 0 0.42255516667028048 0.027335051702517911 0 0.42100382611867188 0.022961855258980611 0 0.42257969012342039 0.032820131455946269 0 0.42687974903311282 0.030263027797785131 0 0.4234605809062621 0.029680805098551151 0 0.42255516667028048 0.027335051702517911 0 0.4234605809062621 0.029680805098551151 0 0.42001716043616782 0.03006551209272583 0 0.42687974903311282 0.030263027797785131 0 0.42573909922002001 0.02663203435981407 0 0.4234605809062621 0.029680805098551151 0 0.42573909922002001 0.02663203435981407 0 0.42255516667028048 0.027335051702517911 0 0.4234605809062621 0.029680805098551151 0 0.42257969012342039 0.032820131455946269 0 0.4234605809062621 0.029680805098551151 0 0.42001716043616782 0.03006551209272583 0 0.40304935339332132 0.03084614512467837 0 0.40440383228968702 0.013281793936960841 0 0.42001716043616782 0.03006551209272583 0 0.40440383228968702 0.013281793936960841 0 0.42001716043616782 0.03006551209272583 0 0.41261136222314942 0.0093762189671962488 0 0.42001716043616782 0.03006551209272583 0 0.42100382611867188 0.022961855258980611 0 0.41261136222314942 0.0093762189671962488 0 0.42001716043616782 0.03006551209272583 0 0.41261136222314942 0.0093762189671962488 0 0.40440383228968702 0.013281793936960841 0 0.42001716043616782 0.03006551209272583 0 0.42255516667028048 0.027335051702517911 0 0.42001716043616782 0.03006551209272583 0 0.42100382611867188 0.022961855258980611 0 0.42100382611867188 0.022961855258980611 0 0.42109918609410119 0.016035952683859201 0 0.41261136222314942 0.0093762189671962488 0 0.40440383228968702 0.013281793936960841 0 0.40326955669734788 0.0013145221745210921 0 0.41261136222314942 0.0093762189671962488 0 0.42109918609410119 0.016035952683859201 0 0.41261136222314942 0.0093762189671962488 0 0.42089068881171687 0.0096543862810420274 0 0.41261136222314942 0.0093762189671962488 0 0.42089068881171687 0.0096543862810420274 0 0.41937437112046932 -0.001225319212085151 0 0.42089068881171687 0.0096543862810420274 0 0.42738201184002889 0.0071909116057871994 0 0.41937437112046932 -0.001225319212085151 0 0.42738201184002889 0.0071909116057871994 0 0.41937437112046932 -0.001225319212085151 0 0.43280487266672218 -0.00097476378086885104 0 0.42109918609410119 0.016035952683859201 0 0.42089068881171687 0.0096543862810420274 0 0.42605553741435992 0.014353866481729941 0 0.42089068881171687 0.0096543862810420274 0 0.42738201184002889 0.0071909116057871994 0 0.42605553741435992 0.014353866481729941 0 0.42738201184002889 0.0071909116057871994 0 0.42605553741435992 0.014353866481729941 0 0.43253335143261418 0.012622564430315951 0 0.42948179077376047 0.018551805098886071 0 0.42605553741435992 0.014353866481729941 0 0.43253335143261418 0.012622564430315951 0 0.42738201184002889 0.0071909116057871994 0 0.43253335143261418 0.012622564430315951 0 0.43535163979502972 0.0058594354029439539 0 0.43253335143261418 0.012622564430315951 0 0.43535163979502972 0.0058594354029439539 0 0.43807772553110669 0.010550348383535911 0 0.43253335143261418 0.012622564430315951 0 0.43807772553110669 0.010550348383535911 0 0.43814930691050141 0.01529426991520119 0 0.43409456265846358 0.018420429032176701 0 0.43253335143261418 0.012622564430315951 0 0.43814930691050141 0.01529426991520119 0 0.42738201184002889 0.0071909116057871994 0 0.43535163979502972 0.0058594354029439539 0 0.43280487266672218 -0.00097476378086885104 0 0.43535163979502972 0.0058594354029439539 0 0.44032989530471972 0.001629804140855494 0 0.43280487266672218 -0.00097476378086885104 0 0.43535163979502972 0.0058594354029439539 0 0.44215957830139502 0.0070052120563689809 0 0.43807772553110669 0.010550348383535911 0 0.43535163979502972 0.0058594354029439539 0 0.44032989530471972 0.001629804140855494 0 0.44215957830139502 0.0070052120563689809 0 0.44032989530471972 0.001629804140855494 0 0.44215957830139502 0.0070052120563689809 0 0.44712769213151921 0.0032257524911131902 0 0.44712769213151921 0.0032257524911131902 0 0.45464906528307619 0.00068230869151560559 0 0.45586947235798547 0.0093880077105401791 0 0.44215957830139502 0.0070052120563689809 0 0.44712769213151921 0.0032257524911131902 0 0.4475409920957194 0.010995865689257931 0 0.44712769213151921 0.0032257524911131902 0 0.4475409920957194 0.010995865689257931 0 0.45586947235798547 0.0093880077105401791 0 0.4475409920957194 0.010995865689257931 0 0.45153257803284652 0.018007423744728201 0 0.45586947235798547 0.0093880077105401791 0 0.4475409920957194 0.010995865689257931 0 0.44407006089426132 0.017825340716418041 0 0.45153257803284652 0.018007423744728201 0 0.4475409920957194 0.010995865689257931 0 0.44198758679143157 0.01206541197060443 0 0.44407006089426132 0.017825340716418041 0 0.44215957830139502 0.0070052120563689809 0 0.4475409920957194 0.010995865689257931 0 0.44198758679143157 0.01206541197060443 0 0.44215957830139502 0.0070052120563689809 0 0.44198758679143157 0.01206541197060443 0 0.43807772553110669 0.010550348383535911 0 0.44198758679143157 0.01206541197060443 0 0.43807772553110669 0.010550348383535911 0 0.43814930691050141 0.01529426991520119 0 0.44198758679143157 0.01206541197060443 0 0.43814930691050141 0.01529426991520119 0 0.44407006089426132 0.017825340716418041 0 0.43814930691050141 0.01529426991520119 0 0.43879067348313727 0.020805433857732269 0 0.44407006089426132 0.017825340716418041 0 0.43879067348313727 0.020805433857732269 0 0.44407006089426132 0.017825340716418041 0 0.44512569872122981 0.025550911030488659 0 0.43708004483063873 0.027078954084780719 0 0.44512569872122981 0.025550911030488659 0 0.44136604415549369 0.038199853072216419 0 0.43708004483063873 0.027078954084780719 0 0.43879067348313727 0.020805433857732269 0 0.44512569872122981 0.025550911030488659 0 0.44512569872122981 0.025550911030488659 0 0.4561369504253342 0.026625134082166321 0 0.45001234234451781 0.033102401678371272 0 0.44512569872122981 0.025550911030488659 0 0.45153257803284652 0.018007423744728201 0 0.4561369504253342 0.026625134082166321 0 0.44407006089426132 0.017825340716418041 0 0.44512569872122981 0.025550911030488659 0 0.45153257803284652 0.018007423744728201 0 0.45944114912089251 0.01795322250639194 0 0.4561369504253342 0.026625134082166321 0 0.46557544213517449 0.024593616317302149 0 0.45153257803284652 0.018007423744728201 0 0.45944114912089251 0.01795322250639194 0 0.4561369504253342 0.026625134082166321 0 0.4561369504253342 0.026625134082166321 0 0.46557544213517449 0.024593616317302149 0 0.46197746367777598 0.034192298150851133 0 0.46557544213517449 0.024593616317302149 0 0.46197746367777598 0.034192298150851133 0 0.47636993990456461 0.027174920618118811 0 0.45944114912089251 0.01795322250639194 0 0.46557544213517449 0.024593616317302149 0 0.47037343925141711 0.012237691140261469 0 0.47037343925141711 0.012237691140261469 0 0.46833294346041737 -0.00635317894308398 0 0.46437693859826967 -0.002699538337595897 0 0.45944114912089251 0.01795322250639194 0 0.46236210535530831 0.011509895728738961 0 0.47037343925141711 0.012237691140261469 0 0.46236210535530831 0.011509895728738961 0 0.46137405840640527 0.0052069130631511307 0 0.47037343925141711 0.012237691140261469 0 0.47037343925141711 0.012237691140261469 0 0.46437693859826967 -0.002699538337595897 0 0.46137405840640527 0.0052069130631511307 0 0.45964866809453719 -0.0006594034327338438 0 0.46437693859826967 -0.002699538337595897 0 0.46137405840640527 0.0052069130631511307 0 0.47037343925141711 0.012237691140261469 0 0.46437693859826967 -0.002699538337595897 0 0.46137405840640527 0.0052069130631511307 0 0.45464906528307619 0.00068230869151560559 0 0.45586947235798547 0.0093880077105401791 0 0.46137405840640527 0.0052069130631511307 0 0.45464906528307619 0.00068230869151560559 0 0.45964866809453719 -0.0006594034327338438 0 0.45153257803284652 0.018007423744728201 0 0.45944114912089251 0.01795322250639194 0 0.45586947235798547 0.0093880077105401791 0 0.45944114912089251 0.01795322250639194 0 0.46236210535530831 0.011509895728738961 0 0.45586947235798547 0.0093880077105401791 0 0.46236210535530831 0.011509895728738961 0 0.46137405840640527 0.0052069130631511307 0 0.45586947235798547 0.0093880077105401791 0 0.42806905116036392 0.052559768973073982 0 0.44760209918020932 0.053649981888992983 0 0.44136604415549369 0.038199853072216419 0 0.44760209918020932 0.053649981888992983 0 0.44136604415549369 0.038199853072216419 0 0.45401316519409879 0.041122939555902682 0 0.44136604415549369 0.038199853072216419 0 0.45001234234451781 0.033102401678371272 0 0.45401316519409879 0.041122939555902682 0 0.44512569872122981 0.025550911030488659 0 0.44136604415549369 0.038199853072216419 0 0.45001234234451781 0.033102401678371272 0 0.46197746367777598 0.034192298150851133 0 0.46728530486799491 0.047465373681704122 0 0.47636993990456461 0.027174920618118811 0 0.45001234234451781 0.033102401678371272 0 0.46197746367777598 0.034192298150851133 0 0.45401316519409879 0.041122939555902682 0 0.4561369504253342 0.026625134082166321 0 0.45001234234451781 0.033102401678371272 0 0.46197746367777598 0.034192298150851133 0 0.46197746367777598 0.034192298150851133 0 0.45401316519409879 0.041122939555902682 0 0.46728530486799491 0.047465373681704122 0 0.45820066983142499 0.067755826745289363 0 0.46728530486799491 0.047465373681704122 0 0.45820066983142499 0.067755826745289363 0 0.46728530486799491 0.047465373681704122 0 0.47139874545493671 0.061429918621521147 0 0.45820066983142499 0.067755826745289363 0 0.44760209918020932 0.053649981888992983 0 0.46728530486799491 0.047465373681704122 0 0.44760209918020932 0.053649981888992983 0 0.45401316519409879 0.041122939555902682 0 0.46728530486799491 0.047465373681704122 0 0.46728530486799491 0.047465373681704122 0 0.47139874545493671 0.061429918621521147 0 0.48604438940634598 0.051273887772271647 0 0.48120187576933138 0.069046704289004487 0 0.47139874545493671 0.061429918621521147 0 0.48604438940634598 0.051273887772271647 0 0.46728530486799491 0.047465373681704122 0 0.48604438940634598 0.051273887772271647 0 0.47636993990456461 0.027174920618118811 0 0.48604438940634598 0.051273887772271647 0 0.47636993990456461 0.027174920618118811 0 0.46728530486799491 0.047465373681704122 0 0.47636993990456461 0.027174920618118811 0 0.5 0.033190962158822453 0 0.49120381902457871 0.033503494910178171 0 0.48604438940634598 0.051273887772271647 0 0.49120381902457871 0.033503494910178171 0 0.48604438940634598 0.051273887772271647 0 0.47636993990456461 0.027174920618118811 0 0.5 0.033190962158822453 0 0.48604438940634598 0.051273887772271647 0 0.5 0.060877768231307527 0 0.48257431086373292 0.013317512232496999 0 0.48127972706441741 0.01620895384915497 0 0.46833294346041737 -0.00635317894308398 0 0.48257431086373292 0.013317512232496999 0 0.48610737433228413 -0.0065304440450226087 0 0.46833294346041737 -0.00635317894308398 0 0.47037343925141711 0.012237691140261469 0 0.48127972706441741 0.01620895384915497 0 0.46833294346041737 -0.00635317894308398 0 0.48127972706441741 0.01620895384915497 0 0.46833294346041737 -0.00635317894308398 0 0.48257431086373292 0.013317512232496999 0 0.48127972706441741 0.01620895384915497 0 0.47037343925141711 0.012237691140261469 0 0.47636993990456461 0.027174920618118811 0 0.46557544213517449 0.024593616317302149 0 0.47037343925141711 0.012237691140261469 0 0.47636993990456461 0.027174920618118811 0 0.49120381902457871 0.033503494910178171 0 0.47636993990456461 0.027174920618118811 0 0.48127972706441741 0.01620895384915497 0 0.47037343925141711 0.012237691140261469 0 0.47636993990456461 0.027174920618118811 0 0.48127972706441741 0.01620895384915497 0 0.47636993990456461 0.027174920618118811 0 0.48127972706441741 0.01620895384915497 0 0.49120381902457871 0.033503494910178171 0 0.48257431086373292 0.013317512232496999 0 0.48127972706441741 0.01620895384915497 0 0.49120381902457871 0.033503494910178171 0 0.48127972706441741 0.01620895384915497 0 0.5 0.033190962158822453 0 0.48257431086373292 0.013317512232496999 0 0.5 0.005504156086337475 0 0.5 0.033190962158822453 0 0.49120381902457871 0.033503494910178171 0 0.48257431086373292 0.013317512232496999 0 0.48257431086373292 0.013317512232496999 0 0.5 0.005504156086337475 0 0.48610737433228413 -0.0065304440450226087 0 0.5 0.005504156086337475 0 0.48610737433228413 -0.0065304440450226087 0 0.5 -0.022182649986147551 0 0.48610737433228413 -0.0065304440450226087 0 0.47958152260606601 -0.02160921024578363 0 0.46833294346041737 -0.00635317894308398 0 0.47958152260606601 -0.02160921024578363 0 0.46833294346041737 -0.00635317894308398 0 0.46865040588144818 -0.03056068281142299 0 0.48610737433228413 -0.0065304440450226087 0 0.47958152260606601 -0.02160921024578363 0 0.5 -0.022182649986147551 0 0.47958152260606601 -0.02160921024578363 0 0.5 -0.022182649986147551 0 0.47481688935618033 -0.04241909544324101 0 0.5 -0.022182649986147551 0 0.5 -0.049869456058632522 0 0.47481688935618033 -0.04241909544324101 0 0.5 -0.049869456058632522 0 0.48298318693957298 -0.06110217658412135 0 0.47481688935618033 -0.04241909544324101 0 0.48298318693957298 -0.06110217658412135 0 0.46880305013693069 -0.055739109839975418 0 0.46444317615752179 -0.069588279184178092 0 0.48298318693957298 -0.06110217658412135 0 0.46880305013693069 -0.055739109839975418 0 0.47481688935618033 -0.04241909544324101 0 0.47958152260606601 -0.02160921024578363 0 0.47481688935618033 -0.04241909544324101 0 0.46865040588144818 -0.03056068281142299 0 0.47481688935618033 -0.04241909544324101 0 0.45862813280429943 -0.046948269985401941 0 0.46865040588144818 -0.03056068281142299 0 0.47481688935618033 -0.04241909544324101 0 0.45862813280429943 -0.046948269985401941 0 0.45862813280429943 -0.046948269985401941 0 0.46865040588144818 -0.03056068281142299 0 0.45538615985641773 -0.028915311735323031 0 0.46880305013693069 -0.055739109839975418 0 0.47481688935618033 -0.04241909544324101 0 0.45862813280429943 -0.046948269985401941 0 0.46880305013693069 -0.055739109839975418 0 0.45433180236002968 -0.058697308896304798 0 0.46444317615752179 -0.069588279184178092 0 0.46880305013693069 -0.055739109839975418 0 0.45862813280429943 -0.046948269985401941 0 0.45433180236002968 -0.058697308896304798 0 0.45862813280429943 -0.046948269985401941 0 0.45433180236002968 -0.058697308896304798 0 0.4424393762524183 -0.051477444527562283 0 0.45862813280429943 -0.046948269985401941 0 0.4424393762524183 -0.051477444527562283 0 0.45433180236002968 -0.058697308896304798 0 0.4424393762524183 -0.051477444527562283 0 0.44217194191255199 -0.062490612600983861 0 0.4424393762524183 -0.051477444527562283 0 0.43534791473672191 -0.063835610177196495 0 0.4424393762524183 -0.051477444527562283 0 0.44217194191255199 -0.062490612600983861 0 0.43534791473672191 -0.063835610177196495 0 0.4424393762524183 -0.051477444527562283 0 0.45538615985641773 -0.028915311735323031 0 0.4424393762524183 -0.051477444527562283 0 0.45538615985641773 -0.028915311735323031 0 0.43732994433505229 -0.027210203214966519 0 0.45862813280429943 -0.046948269985401941 0 0.4424393762524183 -0.051477444527562283 0 0.45538615985641773 -0.028915311735323031 0 0.4442056936289327 -0.0069666154652798006 0 0.4537376814583553 -0.01406226645421654 0 0.43732994433505229 -0.027210203214966519 0 0.4537376814583553 -0.01406226645421654 0 0.45538615985641773 -0.028915311735323031 0 0.43732994433505229 -0.027210203214966519 0 0.44032989530471972 0.001629804140855494 0 0.4442056936289327 -0.0069666154652798006 0 0.43280487266672218 -0.00097476378086885104 0 0.44032989530471972 0.001629804140855494 0 0.44712769213151921 0.0032257524911131902 0 0.4442056936289327 -0.0069666154652798006 0 0.45464906528307619 0.00068230869151560559 0 0.4442056936289327 -0.0069666154652798006 0 0.4581946100903978 -0.0058272971480062136 0 0.44712769213151921 0.0032257524911131902 0 0.45464906528307619 0.00068230869151560559 0 0.4442056936289327 -0.0069666154652798006 0 0.4442056936289327 -0.0069666154652798006 0 0.4537376814583553 -0.01406226645421654 0 0.4581946100903978 -0.0058272971480062136 0 0.4537376814583553 -0.01406226645421654 0 0.4581946100903978 -0.0058272971480062136 0 0.46833294346041737 -0.00635317894308398 0 0.45464906528307619 0.00068230869151560559 0 0.4581946100903978 -0.0058272971480062136 0 0.45964866809453719 -0.0006594034327338438 0 0.4581946100903978 -0.0058272971480062136 0 0.45964866809453719 -0.0006594034327338438 0 0.46437693859826967 -0.002699538337595897 0 0.4581946100903978 -0.0058272971480062136 0 0.46833294346041737 -0.00635317894308398 0 0.46437693859826967 -0.002699538337595897 0 0.46833294346041737 -0.00635317894308398 0 0.46865040588144818 -0.03056068281142299 0 0.45538615985641773 -0.028915311735323031 0 0.46833294346041737 -0.00635317894308398 0 0.45538615985641773 -0.028915311735323031 0 0.4537376814583553 -0.01406226645421654 0 0.46833294346041737 -0.00635317894308398 0 0.45538615985641773 -0.028915311735323031 0 0.47795401619815792 -0.1231606782490454 0 0.47999748032389772 -0.10522009403983509 0 0.46299714927212632 -0.10470108997707581 0 0.47795401619815792 -0.1231606782490454 0 0.46299714927212632 -0.10470108997707581 0 0.47795401619815792 -0.1231606782490454 0 0.5 -0.1052430682036026 0 0.47999748032389772 -0.10522009403983509 0 0.47795401619815792 -0.1231606782490454 0 0.5 -0.1052430682036026 0 0.49999999999999561 -0.13292987427608749 0 0.5 -0.1052430682036026 0 0.47999748032389772 -0.10522009403983509 0 0.47903875582530658 -0.087775539729616631 0 0.47999748032389772 -0.10522009403983509 0 0.47903875582530658 -0.087775539729616631 0 0.46299714927212632 -0.10470108997707581 0 0.5 -0.1052430682036026 0 0.47903875582530658 -0.087775539729616631 0 0.5 -0.077556262131117548 0 0.5 -0.049869456058632522 0 0.48298318693957298 -0.06110217658412135 0 0.5 -0.077556262131117548 0 0.48298318693957298 -0.06110217658412135 0 0.47903875582530658 -0.087775539729616631 0 0.5 -0.077556262131117548 0 0.48298318693957298 -0.06110217658412135 0 0.47903875582530658 -0.087775539729616631 0 0.46444317615752179 -0.069588279184178092 0 0.46444317615752179 -0.069588279184178092 0 0.45027878182006231 -0.06919920505544766 0 0.44804028234609461 -0.086241501705106152 0 0.45433180236002968 -0.058697308896304798 0 0.46444317615752179 -0.069588279184178092 0 0.45027878182006231 -0.06919920505544766 0 0.45027878182006231 -0.06919920505544766 0 0.44804028234609461 -0.086241501705106152 0 0.43308341542006162 -0.067781913433137622 0 0.44804028234609461 -0.086241501705106152 0 0.43308341542006162 -0.067781913433137622 0 0.45433180236002968 -0.058697308896304798 0 0.44217194191255199 -0.062490612600983861 0 0.45027878182006231 -0.06919920505544766 0 0.44217194191255199 -0.062490612600983861 0 0.45027878182006231 -0.06919920505544766 0 0.43308341542006162 -0.067781913433137622 0 0.44217194191255199 -0.062490612600983861 0 0.43534791473672191 -0.063835610177196495 0 0.47903875582530658 -0.087775539729616631 0 0.46444317615752179 -0.069588279184178092 0 0.44804028234609461 -0.086241501705106152 0 0.47903875582530658 -0.087775539729616631 0 0.44804028234609461 -0.086241501705106152 0 0.46299714927212632 -0.10470108997707581 0 0.44804028234609461 -0.086241501705106152 0 0.46299714927212632 -0.10470108997707581 0 0.44804028234609461 -0.086241501705106152 0 0.44683152363590789 -0.1072242395943461 0 0.43322761898896228 -0.098575403491518776 0 0.44804028234609461 -0.086241501705106152 0 0.46299714927212632 -0.10470108997707581 0 0.44683152363590789 -0.1072242395943461 0 0.44683152363590789 -0.1072242395943461 0 0.43687004187442008 -0.1170243740091135 0 0.43322761898896228 -0.098575403491518776 0 0.44683152363590789 -0.1072242395943461 0 0.45524236696645898 -0.1212199631211599 0 0.43687004187442008 -0.1170243740091135 0 0.45524236696645898 -0.1212199631211599 0 0.43687004187442008 -0.1170243740091135 0 0.4445962514410613 -0.13209247138712141 0 0.46299714927212632 -0.10470108997707581 0 0.44683152363590789 -0.1072242395943461 0 0.45524236696645898 -0.1212199631211599 0 0.47795401619815792 -0.1231606782490454 0 0.46299714927212632 -0.10470108997707581 0 0.45524236696645898 -0.1212199631211599 0 0.42089006386453959 -0.11200822974034599 0 0.4057647178407664 -0.1214959209129528 0 0.42754440153228052 -0.1297071405274216 0 0.42089006386453959 -0.11200822974034599 0 0.409032018443029 -0.1047217950489531 0 0.4057647178407664 -0.1214959209129528 0 0.42089006386453959 -0.11200822974034599 0 0.43687004187442008 -0.1170243740091135 0 0.42754440153228052 -0.1297071405274216 0 0.42089006386453959 -0.11200822974034599 0 0.43322761898896228 -0.098575403491518776 0 0.41744817206744111 -0.096364455074562219 0 0.42089006386453959 -0.11200822974034599 0 0.43687004187442008 -0.1170243740091135 0 0.43322761898896228 -0.098575403491518776 0 0.42089006386453959 -0.11200822974034599 0 0.41744817206744111 -0.096364455074562219 0 0.409032018443029 -0.1047217950489531 0 0.41744817206744111 -0.096364455074562219 0 0.409032018443029 -0.1047217950489531 0 0.40725278117716901 -0.093755043199544474 0 0.41744817206744111 -0.096364455074562219 0 0.40725278117716901 -0.093755043199544474 0 0.41234154823645519 -0.083137566401515664 0 0.40725278117716901 -0.093755043199544474 0 0.41234154823645519 -0.083137566401515664 0 0.40087917353759323 -0.084189304317967936 0 0.41234154823645519 -0.083137566401515664 0 0.40627928666208529 -0.069564959327900272 0 0.40087917353759323 -0.084189304317967936 0 0.41234154823645519 -0.083137566401515664 0 0.4254526455152372 -0.08107992235687228 0 0.42155899470265118 -0.073265653606592748 0 0.41744817206744111 -0.096364455074562219 0 0.41234154823645519 -0.083137566401515664 0 0.4254526455152372 -0.08107992235687228 0 0.44804028234609461 -0.086241501705106152 0 0.43322761898896228 -0.098575403491518776 0 0.4254526455152372 -0.08107992235687228 0 0.44804028234609461 -0.086241501705106152 0 0.4254526455152372 -0.08107992235687228 0 0.43308341542006162 -0.067781913433137622 0 0.43322761898896228 -0.098575403491518776 0 0.41744817206744111 -0.096364455074562219 0 0.4254526455152372 -0.08107992235687228 0 0.4254526455152372 -0.08107992235687228 0 0.43308341542006162 -0.067781913433137622 0 0.4254526455152372 -0.08107992235687228 0 0.43308341542006162 -0.067781913433137622 0 0.42155899470265118 -0.073265653606592748 0 0.44217194191255199 -0.062490612600983861 0 0.43534791473672191 -0.063835610177196495 0 0.43308341542006162 -0.067781913433137622 0 0.43534791473672191 -0.063835610177196495 0 0.43308341542006162 -0.067781913433137622 0 0.43534791473672191 -0.063835610177196495 0 0.43063807767941342 -0.064763906513540165 0 0.43534791473672191 -0.063835610177196495 0 0.43308341542006162 -0.067781913433137622 0 0.43063807767941342 -0.064763906513540165 0 0.43308341542006162 -0.067781913433137622 0 0.43063807767941342 -0.064763906513540165 0 0.43308341542006162 -0.067781913433137622 0 0.43063807767941342 -0.064763906513540165 0 0.42155899470265118 -0.073265653606592748 0 0.43063807767941342 -0.064763906513540165 0 0.40627928666208529 -0.069564959327900272 0 0.43063807767941342 -0.064763906513540165 0 0.42155899470265118 -0.073265653606592748 0 0.40627928666208529 -0.069564959327900272 0 0.43063807767941342 -0.064763906513540165 0 0.40627928666208529 -0.069564959327900272 0 0.40956167881806782 -0.060675731607075858 0 0.41234154823645519 -0.083137566401515664 0 0.42155899470265118 -0.073265653606592748 0 0.40627928666208529 -0.069564959327900272 0 0.40627928666208529 -0.069564959327900272 0 0.40956167881806782 -0.060675731607075858 0 0.38981888180827351 -0.066199230173579773 0 0.40956167881806782 -0.060675731607075858 0 0.40627928666208529 -0.069564959327900272 0 0.38981888180827351 -0.066199230173579773 0 0.40956167881806782 -0.060675731607075858 0 0.40627928666208529 -0.069564959327900272 0 0.38591855650343132 -0.073578004998397201 0 0.40087917353759323 -0.084189304317967936 0 0.40627928666208529 -0.069564959327900272 0 0.38591855650343132 -0.073578004998397201 0 0.40627928666208529 -0.069564959327900272 0 0.38981888180827351 -0.066199230173579773 0 0.38591855650343132 -0.073578004998397201 0 0.40627928666208529 -0.069564959327900272 0 0.40087917353759323 -0.084189304317967936 0 0.38981888180827351 -0.066199230173579773 0 0.37310051534114907 -0.055734045615530178 0 0.37007608479847948 -0.071722728740084618 0 0.38981888180827351 -0.066199230173579773 0 0.38591855650343132 -0.073578004998397201 0 0.37007608479847948 -0.071722728740084618 0 0.38591855650343132 -0.073578004998397201 0 0.36555782634477701 -0.077591050668893297 0 0.38981888180827351 -0.066199230173579773 0 0.37007608479847948 -0.071722728740084618 0 0.38591855650343132 -0.073578004998397201 0 0.38575808074153423 -0.086081539328354703 0 0.39130091725929361 -0.084104759351983333 0 0.38591855650343132 -0.073578004998397201 0 0.37649869724681961 -0.085232108528193046 0 0.36555782634477701 -0.077591050668893297 0 0.38591855650343132 -0.073578004998397201 0 0.37649869724681961 -0.085232108528193046 0 0.38575808074153423 -0.086081539328354703 0 0.37649869724681961 -0.085232108528193046 0 0.38575808074153423 -0.086081539328354703 0 0.38014435813092012 -0.09377343229102815 0 0.38575808074153423 -0.086081539328354703 0 0.39264785825461579 -0.092570188763213462 0 0.39130091725929361 -0.084104759351983333 0 0.38575808074153423 -0.086081539328354703 0 0.39264785825461579 -0.092570188763213462 0 0.38014435813092012 -0.09377343229102815 0 0.40087917353759323 -0.084189304317967936 0 0.39547906041310132 -0.098813649308035698 0 0.39264785825461579 -0.092570188763213462 0 0.39130091725929361 -0.084104759351983333 0 0.40087917353759323 -0.084189304317967936 0 0.39264785825461579 -0.092570188763213462 0 0.40087917353759323 -0.084189304317967936 0 0.39547906041310132 -0.098813649308035698 0 0.38591855650343132 -0.073578004998397201 0 0.39130091725929361 -0.084104759351983333 0 0.40087917353759323 -0.084189304317967936 0 0.40725278117716901 -0.093755043199544474 0 0.40087917353759323 -0.084189304317967936 0 0.39547906041310132 -0.098813649308035698 0 0.409032018443029 -0.1047217950489531 0 0.39547906041310132 -0.098813649308035698 0 0.4057647178407664 -0.1214959209129528 0 0.39547906041310132 -0.098813649308035698 0 0.38876033644643782 -0.1024339116592892 0 0.38943292014273212 -0.1151875361385183 0 0.39547906041310132 -0.098813649308035698 0 0.38943292014273212 -0.1151875361385183 0 0.409032018443029 -0.1047217950489531 0 0.40725278117716901 -0.093755043199544474 0 0.39547906041310132 -0.098813649308035698 0 0.39547906041310132 -0.098813649308035698 0 0.39036575923334071 -0.097368703317491298 0 0.38876033644643782 -0.1024339116592892 0 0.39264785825461579 -0.092570188763213462 0 0.39547906041310132 -0.098813649308035698 0 0.39264785825461579 -0.092570188763213462 0 0.39547906041310132 -0.098813649308035698 0 0.39036575923334071 -0.097368703317491298 0 0.38876033644643782 -0.1024339116592892 0 0.36182546680226851 -0.103037311628457 0 0.39264785825461579 -0.092570188763213462 0 0.39036575923334071 -0.097368703317491298 0 0.38014435813092012 -0.09377343229102815 0 0.39036575923334071 -0.097368703317491298 0 0.38014435813092012 -0.09377343229102815 0 0.38876033644643782 -0.1024339116592892 0 0.38014435813092012 -0.09377343229102815 0 0.38876033644643782 -0.1024339116592892 0 0.36182546680226851 -0.103037311628457 0 0.38876033644643782 -0.1024339116592892 0 0.37544512553492981 -0.10953065870653531 0 0.36182546680226851 -0.103037311628457 0 0.38876033644643782 -0.1024339116592892 0 0.38943292014273212 -0.1151875361385183 0 0.37544512553492981 -0.10953065870653531 0 0.38943292014273212 -0.1151875361385183 0 0.38011491546278892 -0.11810593161037081 0 0.38338677987236258 -0.1315614229690007 0 0.38943292014273212 -0.1151875361385183 0 0.39442452004675282 -0.12650098367137541 0 0.38338677987236258 -0.1315614229690007 0 0.37544512553492981 -0.10953065870653531 0 0.38011491546278892 -0.11810593161037081 0 0.37564269716861559 -0.12678588016291681 0 0.38943292014273212 -0.1151875361385183 0 0.38338677987236258 -0.1315614229690007 0 0.38943292014273212 -0.1151875361385183 0 0.37544512553492981 -0.10953065870653531 0 0.38011491546278892 -0.11810593161037081 0 0.38943292014273212 -0.1151875361385183 0 0.4057647178407664 -0.1214959209129528 0 0.39442452004675282 -0.12650098367137541 0 0.39547906041310132 -0.098813649308035698 0 0.38943292014273212 -0.1151875361385183 0 0.4057647178407664 -0.1214959209129528 0 0.39547906041310132 -0.098813649308035698 0 0.4057647178407664 -0.1214959209129528 0 0.41923279199003072 -0.0211445745498627 0 0.42379054701307728 -0.036886174709135508 0 0.40487370445654097 -0.028910732081437549 0 0.41923279199003072 -0.0211445745498627 0 0.40487370445654097 -0.028910732081437549 0 0.40520556401013169 -0.01131307415833357 0 0.41923279199003072 -0.0211445745498627 0 0.41937437112046932 -0.001225319212085151 0 0.40520556401013169 -0.01131307415833357 0 0.41261136222314942 0.0093762189671962488 0 0.41937437112046932 -0.001225319212085151 0 0.40520556401013169 -0.01131307415833357 0 0.41261136222314942 0.0093762189671962488 0 0.40520556401013169 -0.01131307415833357 0 0.40326955669734788 0.0013145221745210921 0 0.41261136222314942 0.0093762189671962488 0 0.40520556401013169 -0.01131307415833357 0 0.4442056936289327 -0.0069666154652798006 0 0.42981145469092052 -0.01103712245688562 0 0.43732994433505229 -0.027210203214966519 0 0.41923279199003072 -0.0211445745498627 0 0.41937437112046932 -0.001225319212085151 0 0.42981145469092052 -0.01103712245688562 0 0.41937437112046932 -0.001225319212085151 0 0.43280487266672218 -0.00097476378086885104 0 0.42981145469092052 -0.01103712245688562 0 0.4442056936289327 -0.0069666154652798006 0 0.43280487266672218 -0.00097476378086885104 0 0.42981145469092052 -0.01103712245688562 0 0.41923279199003072 -0.0211445745498627 0 0.42981145469092052 -0.01103712245688562 0 0.43732994433505229 -0.027210203214966519 0 0.41923279199003072 -0.0211445745498627 0 0.43732994433505229 -0.027210203214966519 0 0.42379054701307728 -0.036886174709135508 0 0.4424393762524183 -0.051477444527562283 0 0.43732994433505229 -0.027210203214966519 0 0.43051261141928121 -0.046209239152283747 0 0.43732994433505229 -0.027210203214966519 0 0.43051261141928121 -0.046209239152283747 0 0.42379054701307728 -0.036886174709135508 0 0.43051261141928121 -0.046209239152283747 0 0.42379054701307728 -0.036886174709135508 0 0.41818522407808401 -0.047170275624608453 0 0.4424393762524183 -0.051477444527562283 0 0.42404294153364058 -0.056624267480134161 0 0.4424393762524183 -0.051477444527562283 0 0.43534791473672191 -0.063835610177196495 0 0.42404294153364058 -0.056624267480134161 0 0.4424393762524183 -0.051477444527562283 0 0.43051261141928121 -0.046209239152283747 0 0.42404294153364058 -0.056624267480134161 0 0.43534791473672191 -0.063835610177196495 0 0.43063807767941342 -0.064763906513540165 0 0.42404294153364058 -0.056624267480134161 0 0.43051261141928121 -0.046209239152283747 0 0.42404294153364058 -0.056624267480134161 0 0.41818522407808401 -0.047170275624608453 0 0.43063807767941342 -0.064763906513540165 0 0.42404294153364058 -0.056624267480134161 0 0.43063807767941342 -0.064763906513540165 0 0.42404294153364058 -0.056624267480134161 0 0.40956167881806782 -0.060675731607075858 0 0.41818522407808401 -0.047170275624608453 0 0.41228230496013429 -0.053307853495392833 0 0.39844553117711312 -0.046310110162332871 0 0.42404294153364058 -0.056624267480134161 0 0.40956167881806782 -0.060675731607075858 0 0.42404294153364058 -0.056624267480134161 0 0.41228230496013429 -0.053307853495392833 0 0.40956167881806782 -0.060675731607075858 0 0.42404294153364058 -0.056624267480134161 0 0.41818522407808401 -0.047170275624608453 0 0.41228230496013429 -0.053307853495392833 0 0.41228230496013429 -0.053307853495392833 0 0.40956167881806782 -0.060675731607075858 0 0.41228230496013429 -0.053307853495392833 0 0.40956167881806782 -0.060675731607075858 0 0.40461507862433499 -0.054575013274296147 0 0.42379054701307728 -0.036886174709135508 0 0.41818522407808401 -0.047170275624608453 0 0.39844553117711312 -0.046310110162332871 0 0.42379054701307728 -0.036886174709135508 0 0.39844553117711312 -0.046310110162332871 0 0.42379054701307728 -0.036886174709135508 0 0.39844553117711312 -0.046310110162332871 0 0.40487370445654097 -0.028910732081437549 0 0.39844553117711312 -0.046310110162332871 0 0.39411356909138728 -0.031692649096834613 0 0.40487370445654097 -0.028910732081437549 0 0.39844553117711312 -0.046310110162332871 0 0.39411356909138728 -0.031692649096834613 0 0.38793669507699557 -0.040908067645224207 0 0.38981888180827351 -0.066199230173579773 0 0.40956167881806782 -0.060675731607075858 0 0.39817079954202322 -0.058006357832382463 0 0.40956167881806782 -0.060675731607075858 0 0.40461507862433499 -0.054575013274296147 0 0.39817079954202322 -0.058006357832382463 0 0.41228230496013429 -0.053307853495392833 0 0.39844553117711312 -0.046310110162332871 0 0.40461507862433499 -0.054575013274296147 0 0.39844553117711312 -0.046310110162332871 0 0.40461507862433499 -0.054575013274296147 0 0.39817079954202322 -0.058006357832382463 0 0.39844553117711312 -0.046310110162332871 0 0.38793669507699557 -0.040908067645224207 0 0.37310051534114907 -0.055734045615530178 0 0.39844553117711312 -0.046310110162332871 0 0.37310051534114907 -0.055734045615530178 0 0.38981888180827351 -0.066199230173579773 0 0.39817079954202322 -0.058006357832382463 0 0.37310051534114907 -0.055734045615530178 0 0.39844553117711312 -0.046310110162332871 0 0.39817079954202322 -0.058006357832382463 0 0.37310051534114907 -0.055734045615530178 0 0.38793669507699557 -0.040908067645224207 0 0.38836359961010042 -0.022204995932013871 0 0.39411356909138728 -0.031692649096834613 0 0.38793669507699557 -0.040908067645224207 0 0.38836359961010042 -0.022204995932013871 0 0.38793669507699557 -0.040908067645224207 0 0.37825229334556137 -0.031008719458640449 0 0.38836359961010042 -0.022204995932013871 0 0.38793669507699557 -0.040908067645224207 0 0.37308567983935059 -0.0411596275133332 0 0.37310051534114907 -0.055734045615530178 0 0.38793669507699557 -0.040908067645224207 0 0.37825229334556137 -0.031008719458640449 0 0.37308567983935059 -0.0411596275133332 0 0.37825229334556137 -0.031008719458640449 0 0.37597945058794707 -0.017273306600101131 0 0.38836359961010042 -0.022204995932013871 0 0.38836359961010042 -0.022204995932013871 0 0.40487370445654097 -0.028910732081437549 0 0.40520556401013169 -0.01131307415833357 0 0.39411356909138728 -0.031692649096834613 0 0.38836359961010042 -0.022204995932013871 0 0.40487370445654097 -0.028910732081437549 0 0.38836359961010042 -0.022204995932013871 0 0.40520556401013169 -0.01131307415833357 0 0.38879050414320548 -0.0035019242188035209 0 0.40326955669734788 0.0013145221745210921 0 0.40520556401013169 -0.01131307415833357 0 0.38879050414320548 -0.0035019242188035209 0 0.37597945058794707 -0.017273306600101131 0 0.38879050414320548 -0.0035019242188035209 0 0.37232238509817878 -0.001610374512647025 0 0.38836359961010042 -0.022204995932013871 0 0.38879050414320548 -0.0035019242188035209 0 0.37597945058794707 -0.017273306600101131 0 0.38836359961010042 -0.022204995932013871 0 0.38879050414320548 -0.0035019242188035209 0 0.37597945058794707 -0.017273306600101131 0 0.38879050414320548 -0.0035019242188035209 0 0.37597945058794707 -0.017273306600101131 0 0.37232238509817878 -0.001610374512647025 0 0.36234648880232662 -0.0095180516875354674 0 0.37597945058794707 -0.017273306600101131 0 0.36234648880232662 -0.0095180516875354674 0 0.36368729215874179 -0.019429095072036631 0 0.36234648880232662 -0.0095180516875354674 0 0.3634290091795348 -0.00084253970199437951 0 0.35649244884947728 -0.0003015438520561878 0 0.37232238509817878 -0.001610374512647025 0 0.36234648880232662 -0.0095180516875354674 0 0.3634290091795348 -0.00084253970199437951 0 0.37597945058794707 -0.017273306600101131 0 0.36316839703268838 -0.031044688981398519 0 0.37825229334556137 -0.031008719458640449 0 0.37597945058794707 -0.017273306600101131 0 0.36316839703268838 -0.031044688981398519 0 0.37597945058794707 -0.017273306600101131 0 0.36368729215874179 -0.019429095072036631 0 0.36316839703268838 -0.031044688981398519 0 0.36234648880232662 -0.0095180516875354674 0 0.36368729215874179 -0.019429095072036631 0 0.35325483221200532 -0.01988033301911139 0 0.36368729215874179 -0.019429095072036631 0 0.36316839703268838 -0.031044688981398519 0 0.35325483221200532 -0.01988033301911139 0 0.35325483221200532 -0.01988033301911139 0 0.34087164677167292 -0.01020602834187557 0 0.3380117298813986 -0.028025180019855329 0 0.36316839703268838 -0.031044688981398519 0 0.35325483221200532 -0.01988033301911139 0 0.3511398709761363 -0.034580784172498422 0 0.35325483221200532 -0.01988033301911139 0 0.3380117298813986 -0.028025180019855329 0 0.3511398709761363 -0.034580784172498422 0 0.34729495446360309 0.00099039251516278774 0 0.35649244884947728 -0.0003015438520561878 0 0.35217988954463281 -0.0078587666981914175 0 0.36234648880232662 -0.0095180516875354674 0 0.35649244884947728 -0.0003015438520561878 0 0.35217988954463281 -0.0078587666981914175 0 0.36234648880232662 -0.0095180516875354674 0 0.35325483221200532 -0.01988033301911139 0 0.35217988954463281 -0.0078587666981914175 0 0.35325483221200532 -0.01988033301911139 0 0.35217988954463281 -0.0078587666981914175 0 0.34087164677167292 -0.01020602834187557 0 0.34729495446360309 0.00099039251516278774 0 0.35217988954463281 -0.0078587666981914175 0 0.34087164677167292 -0.01020602834187557 0 0.33729290086539399 0.0042651539282855082 0 0.34087164677167292 -0.01020602834187557 0 0.31974752342260487 -0.010090103006627301 0 0.34729495446360309 0.00099039251516278774 0 0.33729290086539399 0.0042651539282855082 0 0.34087164677167292 -0.01020602834187557 0 0.34087164677167292 -0.01020602834187557 0 0.3380117298813986 -0.028025180019855329 0 0.31974752342260487 -0.010090103006627301 0 0.31974752342260487 -0.010090103006627301 0 0.32278478621535839 -0.031437608912432767 0 0.30522723780406941 -0.035456423375285137 0 0.3380117298813986 -0.028025180019855329 0 0.31974752342260487 -0.010090103006627301 0 0.32278478621535839 -0.031437608912432767 0 0.31486552590033517 0.0051080489061896828 0 0.31974752342260487 -0.010090103006627301 0 0.30557571239931841 -0.0076904691414317571 0 0.31977989133260432 -0.045619934910456073 0 0.33433254486113267 -0.055783446445636382 0 0.32279172766134151 -0.0648670065722739 0 0.31977989133260432 -0.045619934910456073 0 0.32279172766134151 -0.0648670065722739 0 0.30683512358493858 -0.06301060556910619 0 0.31977989133260432 -0.045619934910456073 0 0.33433254486113267 -0.055783446445636382 0 0.31977989133260432 -0.045619934910456073 0 0.32278478621535839 -0.031437608912432767 0 0.30522723780406941 -0.035456423375285137 0 0.31977989133260432 -0.045619934910456073 0 0.30522723780406941 -0.035456423375285137 0 0.31977989133260432 -0.045619934910456073 0 0.32278478621535839 -0.031437608912432767 0 0.33115754863611552 -0.037996403249940559 0 0.31977989133260432 -0.045619934910456073 0 0.33348408359171039 -0.045465823894714673 0 0.33115754863611552 -0.037996403249940559 0 0.33348408359171039 -0.045465823894714673 0 0.33115754863611552 -0.037996403249940559 0 0.34100188069252602 -0.039880316847690472 0 0.3380117298813986 -0.028025180019855329 0 0.32278478621535839 -0.031437608912432767 0 0.33115754863611552 -0.037996403249940559 0 0.3380117298813986 -0.028025180019855329 0 0.33115754863611552 -0.037996403249940559 0 0.34100188069252602 -0.039880316847690472 0 0.3380117298813986 -0.028025180019855329 0 0.34100188069252602 -0.039880316847690472 0 0.3511398709761363 -0.034580784172498422 0 0.33348408359171039 -0.045465823894714673 0 0.34100188069252602 -0.039880316847690472 0 0.34182469607443589 -0.050095350140872533 0 0.34182469607443589 -0.050095350140872533 0 0.33258140759496679 -0.052773653435302589 0 0.33433254486113267 -0.055783446445636382 0 0.33348408359171039 -0.045465823894714673 0 0.34182469607443589 -0.050095350140872533 0 0.33258140759496679 -0.052773653435302589 0 0.31977989133260432 -0.045619934910456073 0 0.33258140759496679 -0.052773653435302589 0 0.33433254486113267 -0.055783446445636382 0 0.31977989133260432 -0.045619934910456073 0 0.33348408359171039 -0.045465823894714673 0 0.33258140759496679 -0.052773653435302589 0 0.33258140759496679 -0.052773653435302589 0 0.33433254486113267 -0.055783446445636382 0 0.34182469607443589 -0.050095350140872533 0 0.33433254486113267 -0.055783446445636382 0 0.34775549950518508 -0.065157981068727888 0 0.33433254486113267 -0.055783446445636382 0 0.34775549950518508 -0.065157981068727888 0 0.33433254486113267 -0.055783446445636382 0 0.34120406576157941 -0.067593974367182161 0 0.35481661939179387 -0.051928312598413233 0 0.37310051534114907 -0.055734045615530178 0 0.34775549950518508 -0.065157981068727888 0 0.34182469607443589 -0.050095350140872533 0 0.35481661939179387 -0.051928312598413233 0 0.34775549950518508 -0.065157981068727888 0 0.34182469607443589 -0.050095350140872533 0 0.35481661939179387 -0.051928312598413233 0 0.35047537875560891 -0.045122955367500842 0 0.34100188069252602 -0.039880316847690472 0 0.34182469607443589 -0.050095350140872533 0 0.35047537875560891 -0.045122955367500842 0 0.34100188069252602 -0.039880316847690472 0 0.3511398709761363 -0.034580784172498422 0 0.35047537875560891 -0.045122955367500842 0 0.3511398709761363 -0.034580784172498422 0 0.35047537875560891 -0.045122955367500842 0 0.36092700728259092 -0.04353123079943403 0 0.35481661939179387 -0.051928312598413233 0 0.35047537875560891 -0.045122955367500842 0 0.36092700728259092 -0.04353123079943403 0 0.36316839703268838 -0.031044688981398519 0 0.3511398709761363 -0.034580784172498422 0 0.36092700728259092 -0.04353123079943403 0 0.36316839703268838 -0.031044688981398519 0 0.36092700728259092 -0.04353123079943403 0 0.37308567983935059 -0.0411596275133332 0 0.36092700728259092 -0.04353123079943403 0 0.37308567983935059 -0.0411596275133332 0 0.37310051534114907 -0.055734045615530178 0 0.37825229334556137 -0.031008719458640449 0 0.36316839703268838 -0.031044688981398519 0 0.37308567983935059 -0.0411596275133332 0 0.37310051534114907 -0.055734045615530178 0 0.34775549950518508 -0.065157981068727888 0 0.35481661939179387 -0.051928312598413233 0 0.36092700728259092 -0.04353123079943403 0 0.37310051534114907 -0.055734045615530178 0 0.38591855650343132 -0.073578004998397201 0 0.37007608479847948 -0.071722728740084618 0 0.36555782634477701 -0.077591050668893297 0 0.37310051534114907 -0.055734045615530178 0 0.37007608479847948 -0.071722728740084618 0 0.34775549950518508 -0.065157981068727888 0 0.37007608479847948 -0.071722728740084618 0 0.36555782634477701 -0.077591050668893297 0 0.34775549950518508 -0.065157981068727888 0 0.37649869724681961 -0.085232108528193046 0 0.36555782634477701 -0.077591050668893297 0 0.36605248277109442 -0.08877555401529727 0 0.36555782634477701 -0.077591050668893297 0 0.36605248277109442 -0.08877555401529727 0 0.34892755364662481 -0.080868833112374708 0 0.37649869724681961 -0.085232108528193046 0 0.36555782634477701 -0.077591050668893297 0 0.37649869724681961 -0.085232108528193046 0 0.38014435813092012 -0.09377343229102815 0 0.36605248277109442 -0.08877555401529727 0 0.34892755364662481 -0.080868833112374708 0 0.36182546680226851 -0.103037311628457 0 0.34804773967414449 -0.092935847380303888 0 0.34892755364662481 -0.080868833112374708 0 0.36182546680226851 -0.103037311628457 0 0.36555782634477701 -0.077591050668893297 0 0.34892755364662481 -0.080868833112374708 0 0.36605248277109442 -0.08877555401529727 0 0.34892755364662481 -0.080868833112374708 0 0.36182546680226851 -0.103037311628457 0 0.34804773967414449 -0.092935847380303888 0 0.34892755364662481 -0.080868833112374708 0 0.34408873349000091 -0.081822551673965918 0 0.34892755364662481 -0.080868833112374708 0 0.34408873349000091 -0.081822551673965918 0 0.33950349330838958 -0.075848035758874929 0 0.34892755364662481 -0.080868833112374708 0 0.34408873349000091 -0.081822551673965918 0 0.34892755364662481 -0.080868833112374708 0 0.34120406576157941 -0.067593974367182161 0 0.34892755364662481 -0.080868833112374708 0 0.34775549950518508 -0.065157981068727888 0 0.34120406576157941 -0.067593974367182161 0 0.36555782634477701 -0.077591050668893297 0 0.34775549950518508 -0.065157981068727888 0 0.36555782634477701 -0.077591050668893297 0 0.34892755364662481 -0.080868833112374708 0 0.34775549950518508 -0.065157981068727888 0 0.34775549950518508 -0.065157981068727888 0 0.34120406576157941 -0.067593974367182161 0 0.37544512553492981 -0.10953065870653531 0 0.36182546680226851 -0.103037311628457 0 0.37564269716861559 -0.12678588016291681 0 0.36182546680226851 -0.103037311628457 0 0.35603244527432393 -0.11855655260172521 0 0.37564269716861559 -0.12678588016291681 0 0.36182546680226851 -0.103037311628457 0 0.37564269716861559 -0.12678588016291681 0 0.38014435813092012 -0.09377343229102815 0 0.36605248277109442 -0.08877555401529727 0 0.36182546680226851 -0.103037311628457 0 0.34804773967414449 -0.092935847380303888 0 0.36182546680226851 -0.103037311628457 0 0.33991504715273507 -0.1035281529325201 0 0.36182546680226851 -0.103037311628457 0 0.35603244527432393 -0.11855655260172521 0 0.33991504715273507 -0.1035281529325201 0 0.36182546680226851 -0.103037311628457 0 0.33991504715273507 -0.1035281529325201 0 0.35603244527432393 -0.11855655260172521 0 0.34343843782823752 -0.12408400361420779 0 0.33991504715273507 -0.1035281529325201 0 0.33111612508452509 -0.1152082110251053 0 0.34343843782823752 -0.12408400361420779 0 0.33991504715273507 -0.1035281529325201 0 0.33111612508452509 -0.1152082110251053 0 0.34343843782823752 -0.12408400361420779 0 0.32310638785392598 -0.12920169331710929 0 0.33991504715273507 -0.1035281529325201 0 0.3288945989181209 -0.09621093478141185 0 0.31800462750320191 -0.10401899423658401 0 0.33991504715273507 -0.1035281529325201 0 0.31800462750320191 -0.10401899423658401 0 0.33111612508452509 -0.1152082110251053 0 0.33991504715273507 -0.1035281529325201 0 0.31800462750320191 -0.10401899423658401 0 0.34804773967414449 -0.092935847380303888 0 0.33991504715273507 -0.1035281529325201 0 0.33876747377514072 -0.09048193006016797 0 0.33991504715273507 -0.1035281529325201 0 0.3288945989181209 -0.09621093478141185 0 0.33876747377514072 -0.09048193006016797 0 0.3288945989181209 -0.09621093478141185 0 0.31649189585808879 -0.096552029269665163 0 0.31800462750320191 -0.10401899423658401 0 0.31649189585808879 -0.096552029269665163 0 0.31800462750320191 -0.10401899423658401 0 0.31800462750320191 -0.10401899423658401 0 0.32310638785392598 -0.12920169331710929 0 0.31800462750320191 -0.10401899423658401 0 0.31079556689248972 -0.1149447087572311 0 0.32310638785392598 -0.12920169331710929 0 0.33111612508452509 -0.1152082110251053 0 0.31800462750320191 -0.10401899423658401 0 0.32310638785392598 -0.12920169331710929 0 0.33317862578170909 -0.070578041484886958 0 0.33332645204008587 -0.077274112069145889 0 0.33950349330838958 -0.075848035758874929 0 0.33317862578170909 -0.070578041484886958 0 0.33332645204008587 -0.077274112069145889 0 0.326469079955928 -0.07624630830612239 0 0.33433254486113267 -0.055783446445636382 0 0.33317862578170909 -0.070578041484886958 0 0.32279172766134151 -0.0648670065722739 0 0.33317862578170909 -0.070578041484886958 0 0.34120406576157941 -0.067593974367182161 0 0.33433254486113267 -0.055783446445636382 0 0.34775549950518508 -0.065157981068727888 0 0.34120406576157941 -0.067593974367182161 0 0.33433254486113267 -0.055783446445636382 0 0.33317862578170909 -0.070578041484886958 0 0.34120406576157941 -0.067593974367182161 0 0.33317862578170909 -0.070578041484886958 0 0.34120406576157941 -0.067593974367182161 0 0.33950349330838958 -0.075848035758874929 0 0.34892755364662481 -0.080868833112374708 0 0.34120406576157941 -0.067593974367182161 0 0.33950349330838958 -0.075848035758874929 0 0.34408873349000091 -0.081822551673965918 0 0.33950349330838958 -0.075848035758874929 0 0.33740855081107152 -0.082304667123219682 0 0.34408873349000091 -0.081822551673965918 0 0.33740855081107152 -0.082304667123219682 0 0.33876747377514072 -0.09048193006016797 0 0.33332645204008587 -0.077274112069145889 0 0.33950349330838958 -0.075848035758874929 0 0.33740855081107152 -0.082304667123219682 0 0.34804773967414449 -0.092935847380303888 0 0.34408873349000091 -0.081822551673965918 0 0.33876747377514072 -0.09048193006016797 0 0.3288945989181209 -0.09621093478141185 0 0.33876747377514072 -0.09048193006016797 0 0.32918236294191378 -0.086747953792790253 0 0.33740855081107152 -0.082304667123219682 0 0.33876747377514072 -0.09048193006016797 0 0.32918236294191378 -0.086747953792790253 0 0.33332645204008587 -0.077274112069145889 0 0.32918236294191378 -0.086747953792790253 0 0.326469079955928 -0.07624630830612239 0 0.33332645204008587 -0.077274112069145889 0 0.33740855081107152 -0.082304667123219682 0 0.32918236294191378 -0.086747953792790253 0 0.32918236294191378 -0.086747953792790253 0 0.30898600530645481 -0.090983425666153264 0 0.32918236294191378 -0.086747953792790253 0 0.31677392156685358 -0.076864337915263037 0 0.30898600530645481 -0.090983425666153264 0 0.31649189585808879 -0.096552029269665163 0 0.32918236294191378 -0.086747953792790253 0 0.30898600530645481 -0.090983425666153264 0 0.32918236294191378 -0.086747953792790253 0 0.31677392156685358 -0.076864337915263037 0 0.326469079955928 -0.07624630830612239 0 0.3288945989181209 -0.09621093478141185 0 0.31649189585808879 -0.096552029269665163 0 0.32918236294191378 -0.086747953792790253 0 0.31677392156685358 -0.076864337915263037 0 0.32279172766134151 -0.0648670065722739 0 0.30683512358493858 -0.06301060556910619 0 0.33317862578170909 -0.070578041484886958 0 0.326469079955928 -0.07624630830612239 0 0.32279172766134151 -0.0648670065722739 0 0.31677392156685358 -0.076864337915263037 0 0.326469079955928 -0.07624630830612239 0 0.32279172766134151 -0.0648670065722739 0 0.30683512358493858 -0.06301060556910619 0 0.29726419323080711 -0.073379498158705633 0 0.29301592188122227 -0.056789072054479223 0 0.30683512358493858 -0.06301060556910619 0 0.29726419323080711 -0.073379498158705633 0 0.30607804916369952 -0.078697921269513513 0 0.31677392156685358 -0.076864337915263037 0 0.30683512358493858 -0.06301060556910619 0 0.30607804916369952 -0.078697921269513513 0 0.31677392156685358 -0.076864337915263037 0 0.30607804916369952 -0.078697921269513513 0 0.30898600530645481 -0.090983425666153264 0 0.30898600530645481 -0.090983425666153264 0 0.28878964767099569 -0.09521889753951629 0 0.30898600530645481 -0.090983425666153264 0 0.29705100483033969 -0.084974144027985171 0 0.28878964767099569 -0.09521889753951629 0 0.29726419323080711 -0.073379498158705633 0 0.30607804916369952 -0.078697921269513513 0 0.29705100483033969 -0.084974144027985171 0 0.30607804916369952 -0.078697921269513513 0 0.30898600530645481 -0.090983425666153264 0 0.29705100483033969 -0.084974144027985171 0 0.29705100483033969 -0.084974144027985171 0 0.28878964767099569 -0.09521889753951629 0 0.2808046059583762 -0.07812172073367385 0 0.29726419323080711 -0.073379498158705633 0 0.29705100483033969 -0.084974144027985171 0 0.2808046059583762 -0.07812172073367385 0 0.2808046059583762 -0.07812172073367385 0 0.29301592188122227 -0.056789072054479223 0 0.29726419323080711 -0.073379498158705633 0 0.2808046059583762 -0.07812172073367385 0 0.29301592188122227 -0.056789072054479223 0 0.30261828185502793 -0.12212355555811551 0 0.29945297035780333 -0.1044345919171154 0 0.29034728781846192 -0.11708715199789579 0 0.31079556689248972 -0.1149447087572311 0 0.30261828185502793 -0.12212355555811551 0 0.29945297035780333 -0.1044345919171154 0 0.31079556689248972 -0.1149447087572311 0 0.30261828185502793 -0.12212355555811551 0 0.32310638785392598 -0.12920169331710929 0 0.30898600530645481 -0.090983425666153264 0 0.29945297035780333 -0.1044345919171154 0 0.28878964767099569 -0.09521889753951629 0 0.31800462750320191 -0.10401899423658401 0 0.29945297035780333 -0.1044345919171154 0 0.31649189585808879 -0.096552029269665163 0 0.31800462750320191 -0.10401899423658401 0 0.29945297035780333 -0.1044345919171154 0 0.31649189585808879 -0.096552029269665163 0 0.30898600530645481 -0.090983425666153264 0 0.29945297035780333 -0.1044345919171154 0 0.31800462750320191 -0.10401899423658401 0 0.31079556689248972 -0.1149447087572311 0 0.29945297035780333 -0.1044345919171154 0 0.29945297035780333 -0.1044345919171154 0 0.29034728781846192 -0.11708715199789579 0 0.28090131321240469 -0.1048501895976464 0 0.29945297035780333 -0.1044345919171154 0 0.28878964767099569 -0.09521889753951629 0 0.28090131321240469 -0.1048501895976464 0 0.29945297035780333 -0.1044345919171154 0 0.28090131321240469 -0.1048501895976464 0 0.29034728781846192 -0.11708715199789579 0 0.28090131321240469 -0.1048501895976464 0 0.27798501411956061 -0.12654918030113391 0 0.30261828185502793 -0.12212355555811551 0 0.29034728781846192 -0.11708715199789579 0 0.29041098202153109 -0.13433528958156299 0 0.265931748490424 -0.1041039691026721 0 0.27798501411956061 -0.12654918030113391 0 0.265931748490424 -0.1041039691026721 0 0.28090131321240469 -0.1048501895976464 0 0.27798501411956061 -0.12654918030113391 0 0.26578143989208891 -0.12208723098105401 0 0.265931748490424 -0.1041039691026721 0 0.27798501411956061 -0.12654918030113391 0 0.28878964767099569 -0.09521889753951629 0 0.28090131321240469 -0.1048501895976464 0 0.26859329003553489 -0.099454369412871196 0 0.28878964767099569 -0.09521889753951629 0 0.26859329003553489 -0.099454369412871196 0 0.265931748490424 -0.1041039691026721 0 0.28090131321240469 -0.1048501895976464 0 0.26859329003553489 -0.099454369412871196 0 0.265931748490424 -0.1041039691026721 0 0.26859329003553489 -0.099454369412871196 0 0.265931748490424 -0.1041039691026721 0 0.26859329003553489 -0.099454369412871196 0 0.26395700607122669 -0.1004266660359741 0 0.26859329003553489 -0.099454369412871196 0 0.26395700607122669 -0.1004266660359741 0 0.26859329003553489 -0.099454369412871196 0 0.26395700607122669 -0.1004266660359741 0 0.26402206743103601 -0.089196963430846266 0 0.26395700607122669 -0.1004266660359741 0 0.2528876129834236 -0.094220099255164988 0 0.24867124287050699 -0.1036323143646536 0 0.26395700607122669 -0.1004266660359741 0 0.25723212346383367 -0.1064068621969374 0 0.24867124287050699 -0.1036323143646536 0 0.26395700607122669 -0.1004266660359741 0 0.24867124287050699 -0.1036323143646536 0 0.25723212346383367 -0.1064068621969374 0 0.25101743794683912 -0.1146121967995704 0 0.24867124287050699 -0.1036323143646536 0 0.265931748490424 -0.1041039691026721 0 0.26395700607122669 -0.1004266660359741 0 0.25723212346383367 -0.1064068621969374 0 0.265931748490424 -0.1041039691026721 0 0.26395700607122669 -0.1004266660359741 0 0.265931748490424 -0.1041039691026721 0 0.25433990433771841 -0.1243544269907422 0 0.25723212346383367 -0.1064068621969374 0 0.25101743794683912 -0.1146121967995704 0 0.25433990433771841 -0.1243544269907422 0 0.26578143989208891 -0.12208723098105401 0 0.265931748490424 -0.1041039691026721 0 0.25433990433771841 -0.1243544269907422 0 0.265931748490424 -0.1041039691026721 0 0.25723212346383367 -0.1064068621969374 0 0.25433990433771841 -0.1243544269907422 0 0.2687335489299521 -0.063935175532180893 0 0.2808046059583762 -0.07812172073367385 0 0.29301592188122227 -0.056789072054479223 0 0.26825877094290551 -0.07736384484572896 0 0.2687335489299521 -0.063935175532180893 0 0.2808046059583762 -0.07812172073367385 0 0.26825877094290551 -0.07736384484572896 0 0.2808046059583762 -0.07812172073367385 0 0.26402206743103601 -0.089196963430846266 0 0.26859329003553489 -0.099454369412871196 0 0.2808046059583762 -0.07812172073367385 0 0.26859329003553489 -0.099454369412871196 0 0.2808046059583762 -0.07812172073367385 0 0.26402206743103601 -0.089196963430846266 0 0.28878964767099569 -0.09521889753951629 0 0.26859329003553489 -0.099454369412871196 0 0.2808046059583762 -0.07812172073367385 0 0.26395700607122669 -0.1004266660359741 0 0.2528876129834236 -0.094220099255164988 0 0.25462483508046457 -0.083048591473203981 0 0.26395700607122669 -0.1004266660359741 0 0.26402206743103601 -0.089196963430846266 0 0.25462483508046457 -0.083048591473203981 0 0.26395700607122669 -0.1004266660359741 0 0.25462483508046457 -0.083048591473203981 0 0.26825877094290551 -0.07736384484572896 0 0.26402206743103601 -0.089196963430846266 0 0.25462483508046457 -0.083048591473203981 0 0.2528876129834236 -0.094220099255164988 0 0.25462483508046457 -0.083048591473203981 0 0.24429744486126961 -0.092415030224378816 0 0.25462483508046457 -0.083048591473203981 0 0.25855474571736492 -0.07119050109918576 0 0.24529266408970271 -0.065670516910433796 0 0.26825877094290551 -0.07736384484572896 0 0.25462483508046457 -0.083048591473203981 0 0.25855474571736492 -0.07119050109918576 0 0.26825877094290551 -0.07736384484572896 0 0.2687335489299521 -0.063935175532180893 0 0.25855474571736492 -0.07119050109918576 0 0.2687335489299521 -0.063935175532180893 0 0.25855474571736492 -0.07119050109918576 0 0.25571340908958867 -0.062031832045884867 0 0.25855474571736492 -0.07119050109918576 0 0.25571340908958867 -0.062031832045884867 0 0.24529266408970271 -0.065670516910433796 0 0.25571340908958867 -0.062031832045884867 0 0.25929484143176063 -0.048349716497673542 0 0.24861083198888209 -0.053598656101898408 0 0.2687335489299521 -0.063935175532180893 0 0.25571340908958867 -0.062031832045884867 0 0.25929484143176063 -0.048349716497673542 0 0.2687335489299521 -0.063935175532180893 0 0.27509708814106187 -0.047295978758774247 0 0.29301592188122227 -0.056789072054479223 0 0.2687335489299521 -0.063935175532180893 0 0.25929484143176063 -0.048349716497673542 0 0.27509708814106187 -0.047295978758774247 0 0.25929484143176063 -0.048349716497673542 0 0.27509708814106187 -0.047295978758774247 0 0.26740259793584858 -0.027938274662607902 0 0.27509708814106187 -0.047295978758774247 0 0.26740259793584858 -0.027938274662607902 0 0.29026437622241491 -0.041052673518925852 0 0.25929484143176063 -0.048349716497673542 0 0.24861083198888209 -0.053598656101898408 0 0.24443853931414289 -0.030798692898044659 0 0.25929484143176063 -0.048349716497673542 0 0.26740259793584858 -0.027938274662607902 0 0.24443853931414289 -0.030798692898044659 0 0.26047250981415798 -0.024130101093525019 0 0.26740259793584858 -0.027938274662607902 0 0.24443853931414289 -0.030798692898044659 0 0.26740259793584858 -0.027938274662607902 0 0.24443853931414289 -0.030798692898044659 0 0.26047250981415798 -0.024130101093525019 0 0.24443853931414289 -0.030798692898044659 0 0.24837822010643121 -0.01064171941143479 0 0.26047250981415798 -0.024130101093525019 0 0.25850292072972619 -0.01384443679003153 0 0.24837822010643121 -0.01064171941143479 0 0.26047250981415798 -0.024130101093525019 0 0.24837822010643121 -0.01064171941143479 0 0.26047250981415798 -0.024130101093525019 0 0.26740259793584858 -0.027938274662607902 0 0.26581248458308138 -0.017375345545485709 0 0.26047250981415798 -0.024130101093525019 0 0.25850292072972619 -0.01384443679003153 0 0.26581248458308138 -0.017375345545485709 0 0.25850292072972619 -0.01384443679003153 0 0.25868130099832759 -0.002948938419788077 0 0.24837822010643121 -0.01064171941143479 0 0.25850292072972619 -0.01384443679003153 0 0.25868130099832759 -0.002948938419788077 0 0.26581248458308138 -0.017375345545485709 0 0.25868130099832759 -0.002948938419788077 0 0.27452397877794099 -0.014013397423475019 0 0.26581248458308138 -0.017375345545485709 0 0.25868130099832759 -0.002948938419788077 0 0.27452397877794099 -0.014013397423475019 0 0.25868130099832759 -0.002948938419788077 0 0.2718345607453051 -0.0026332906206296752 0 0.27452397877794099 -0.014013397423475019 0 0.2718345607453051 -0.0026332906206296752 0 0.27452397877794099 -0.014013397423475019 0 0.28418256802486591 -0.0074972637063911319 0 0.2761515963063163 0.0051915330766209898 0 0.2718345607453051 -0.0026332906206296752 0 0.28418256802486591 -0.0074972637063911319 0 0.27452397877794099 -0.014013397423475019 0 0.26740259793584858 -0.027938274662607902 0 0.29036665655755328 -0.025077856427163508 0 0.26740259793584858 -0.027938274662607902 0 0.29036665655755328 -0.025077856427163508 0 0.27452397877794099 -0.014013397423475019 0 0.26740259793584858 -0.027938274662607902 0 0.26581248458308138 -0.017375345545485709 0 0.27452397877794099 -0.014013397423475019 0 0.29036665655755328 -0.025077856427163508 0 0.29036665655755328 -0.025077856427163508 0 0.29576882877798982 -0.01339442015289218 0 0.30401897309668852 -0.023377314905831649 0 0.27452397877794099 -0.014013397423475019 0 0.29036665655755328 -0.025077856427163508 0 0.28418256802486591 -0.0074972637063911319 0 0.29036665655755328 -0.025077856427163508 0 0.28418256802486591 -0.0074972637063911319 0 0.29576882877798982 -0.01339442015289218 0 0.28768181064917658 0.0036370595610417918 0 0.28418256802486591 -0.0074972637063911319 0 0.29470023381152188 -0.0033291965836443949 0 0.28418256802486591 -0.0074972637063911319 0 0.29576882877798982 -0.01339442015289218 0 0.29470023381152188 -0.0033291965836443949 0 0.31974752342260487 -0.010090103006627301 0 0.30557571239931841 -0.0076904691414317571 0 0.30401897309668852 -0.023377314905831649 0 0.29576882877798982 -0.01339442015289218 0 0.30557571239931841 -0.0076904691414317571 0 0.30401897309668852 -0.023377314905831649 0 0.30002338408281909 0.007883867274738967 0 0.29470023381152188 -0.0033291965836443949 0 0.30557571239931841 -0.0076904691414317571 0 0.29576882877798982 -0.01339442015289218 0 0.29470023381152188 -0.0033291965836443949 0 0.30557571239931841 -0.0076904691414317571 0 0.31974752342260487 -0.010090103006627301 0 0.30401897309668852 -0.023377314905831649 0 0.30522723780406941 -0.035456423375285137 0 0.31974752342260487 -0.010090103006627301 0 0.30522723780406941 -0.035456423375285137 0 0.29036665655755328 -0.025077856427163508 0 0.30401897309668852 -0.023377314905831649 0 0.29036665655755328 -0.025077856427163508 0 0.30522723780406941 -0.035456423375285137 0 0.29036665655755328 -0.025077856427163508 0 0.30401897309668852 -0.023377314905831649 0 0.30522723780406941 -0.035456423375285137 0 0.30522723780406941 -0.035456423375285137 0 0.29301592188122227 -0.056789072054479223 0 0.30683512358493858 -0.06301060556910619 0 0.30522723780406941 -0.035456423375285137 0 0.29301592188122227 -0.056789072054479223 0 0.31977989133260432 -0.045619934910456073 0 0.30683512358493858 -0.06301060556910619 0 0.30522723780406941 -0.035456423375285137 0 0.27509708814106187 -0.047295978758774247 0 0.29301592188122227 -0.056789072054479223 0 0.29026437622241491 -0.041052673518925852 0 0.26740259793584858 -0.027938274662607902 0 0.29036665655755328 -0.025077856427163508 0 0.29026437622241491 -0.041052673518925852 0 0.29036665655755328 -0.025077856427163508 0 0.30522723780406941 -0.035456423375285137 0 0.29026437622241491 -0.041052673518925852 0 0.30522723780406941 -0.035456423375285137 0 0.29301592188122227 -0.056789072054479223 0 0.29026437622241491 -0.041052673518925852 0 0.2900827356730854 -0.21330573301426209 0 0.28503515628741222 -0.1940397373007702 0 0.26970194708378481 -0.19890215936390249 0 0.2900827356730854 -0.21330573301426209 0 0.28503515628741222 -0.1940397373007702 0 0.29869382922117033 -0.19435588497721271 0 0.28503515628741222 -0.1940397373007702 0 0.29869382922117033 -0.19435588497721271 0 0.29326082556219257 -0.18242746645397809 0 0.29869382922117033 -0.19435588497721271 0 0.30899586046225469 -0.1817335086200155 0 0.31530851422462269 -0.2038666989828922 0 0.2900827356730854 -0.21330573301426209 0 0.31046352426238571 -0.22770930666462211 0 0.31530851422462269 -0.2038666989828922 0 0.2900827356730854 -0.21330573301426209 0 0.29869382922117033 -0.19435588497721271 0 0.31530851422462269 -0.2038666989828922 0 0.2900827356730854 -0.21330573301426209 0 0.31046352426238571 -0.22770930666462211 0 0.29527416221691433 -0.2343861111108784 0 0.2900827356730854 -0.21330573301426209 0 0.31046352426238571 -0.22770930666462211 0 0.31046352426238571 -0.22770930666462211 0 0.30849651450414628 -0.24795182056728149 0 0.29527416221691433 -0.2343861111108784 0 0.30849651450414628 -0.24795182056728149 0 0.29527416221691433 -0.2343861111108784 0 0.28793584206126588 -0.25107015271538341 0 0.29527416221691433 -0.2343861111108784 0 0.27939219458368852 -0.23189354259284281 0 0.28793584206126588 -0.25107015271538341 0 0.2900827356730854 -0.21330573301426209 0 0.29527416221691433 -0.2343861111108784 0 0.27939219458368852 -0.23189354259284281 0 0.2900827356730854 -0.21330573301426209 0 0.27939219458368852 -0.23189354259284281 0 0.27468620093453028 -0.21707440470637709 0 0.27939219458368852 -0.23189354259284281 0 0.25956792639756249 -0.22419618385450099 0 0.27468620093453028 -0.21707440470637709 0 0.27939219458368852 -0.23189354259284281 0 0.26755443156144948 -0.24793522987819169 0 0.28793584206126588 -0.25107015271538341 0 0.27939219458368852 -0.23189354259284281 0 0.26755443156144948 -0.24793522987819169 0 0.25956792639756249 -0.22419618385450099 0 0.26755443156144948 -0.24793522987819169 0 0.25956792639756249 -0.22419618385450099 0 0.2458949266121517 -0.24119477616399751 0 0.25956792639756249 -0.22419618385450099 0 0.25147688088271641 -0.21194752874198031 0 0.23934177232259221 -0.22380736018715999 0 0.25147688088271641 -0.21194752874198031 0 0.26970194708378481 -0.19890215936390249 0 0.25542854451629388 -0.1998498607268 0 0.25956792639756249 -0.22419618385450099 0 0.25147688088271641 -0.21194752874198031 0 0.26970194708378481 -0.19890215936390249 0 0.25956792639756249 -0.22419618385450099 0 0.26970194708378481 -0.19890215936390249 0 0.2900827356730854 -0.21330573301426209 0 0.26970194708378481 -0.19890215936390249 0 0.25956792639756249 -0.22419618385450099 0 0.27468620093453028 -0.21707440470637709 0 0.26970194708378481 -0.19890215936390249 0 0.2900827356730854 -0.21330573301426209 0 0.27468620093453028 -0.21707440470637709 0 0.26970194708378481 -0.19890215936390249 0 0.28503515628741222 -0.1940397373007702 0 0.26970194708378481 -0.19890215936390249 0 0.27640342984327232 -0.1821755831815243 0 0.26970194708378481 -0.19890215936390249 0 0.27640342984327232 -0.1821755831815243 0 0.26970194708378481 -0.19890215936390249 0 0.2675018019886598 -0.18870552556106029 0 0.27640342984327232 -0.1821755831815243 0 0.26970194708378481 -0.19890215936390249 0 0.26466827735564702 -0.19534474879840091 0 0.26970194708378481 -0.19890215936390249 0 0.2675018019886598 -0.18870552556106029 0 0.26466827735564702 -0.19534474879840091 0 0.2675018019886598 -0.18870552556106029 0 0.26466827735564702 -0.19534474879840091 0 0.25780914425533902 -0.1915101908503839 0 0.26466827735564702 -0.19534474879840091 0 0.25542854451629388 -0.1998498607268 0 0.25780914425533902 -0.1915101908503839 0 0.26970194708378481 -0.19890215936390249 0 0.26466827735564702 -0.19534474879840091 0 0.25542854451629388 -0.1998498607268 0 0.25542854451629388 -0.1998498607268 0 0.25780914425533902 -0.1915101908503839 0 0.24761350086738881 -0.19571291374376831 0 0.25780914425533902 -0.1915101908503839 0 0.2494281514357099 -0.18788699375990289 0 0.24761350086738881 -0.19571291374376831 0 0.26199206266145247 -0.18213120303134439 0 0.25232087801029662 -0.1743036082448125 0 0.2494281514357099 -0.18788699375990289 0 0.25780914425533902 -0.1915101908503839 0 0.26199206266145247 -0.18213120303134439 0 0.2494281514357099 -0.18788699375990289 0 0.2675018019886598 -0.18870552556106029 0 0.25780914425533902 -0.1915101908503839 0 0.26199206266145247 -0.18213120303134439 0 0.26199206266145247 -0.18213120303134439 0 0.25232087801029662 -0.1743036082448125 0 0.26549491197617431 -0.168855270340417 0 0.25232087801029662 -0.1743036082448125 0 0.25172611852857912 -0.16117425348272191 0 0.26549491197617431 -0.168855270340417 0 0.25172611852857912 -0.16117425348272191 0 0.26549491197617431 -0.168855270340417 0 0.26450787924013569 -0.1497712061948929 0 0.26549491197617431 -0.168855270340417 0 0.26450787924013569 -0.1497712061948929 0 0.28310491260276388 -0.16544900699914791 0 0.26450787924013569 -0.1497712061948929 0 0.28310491260276388 -0.16544900699914791 0 0.26549491197617431 -0.168855270340417 0 0.27640342984327232 -0.1821755831815243 0 0.28310491260276388 -0.16544900699914791 0 0.27640342984327232 -0.1821755831815243 0 0.28310491260276388 -0.16544900699914791 0 0.2675018019886598 -0.18870552556106029 0 0.26199206266145247 -0.18213120303134439 0 0.27640342984327232 -0.1821755831815243 0 0.26199206266145247 -0.18213120303134439 0 0.26549491197617431 -0.168855270340417 0 0.27640342984327232 -0.1821755831815243 0 0.25433990433771841 -0.1243544269907422 0 0.2648690926206575 -0.1333413475296707 0 0.245910845877507 -0.13409340539063849 0 0.2648690926206575 -0.1333413475296707 0 0.26450787924013569 -0.1497712061948929 0 0.245910845877507 -0.13409340539063849 0 0.26578143989208891 -0.12208723098105401 0 0.25433990433771841 -0.1243544269907422 0 0.2648690926206575 -0.1333413475296707 0 0.25172611852857912 -0.16117425348272191 0 0.26450787924013569 -0.1497712061948929 0 0.24825163994429519 -0.14855324651142299 0 0.26450787924013569 -0.1497712061948929 0 0.245910845877507 -0.13409340539063849 0 0.24825163994429519 -0.14855324651142299 0 0.26450787924013569 -0.1497712061948929 0 0.245910845877507 -0.13409340539063849 0 0.2648690926206575 -0.1333413475296707 0 0.26450787924013569 -0.1497712061948929 0 0.27842901908188278 -0.14556928034560529 0 0.26450787924013569 -0.1497712061948929 0 0.27842901908188278 -0.14556928034560529 0 0.28310491260276388 -0.16544900699914791 0 0.2648690926206575 -0.1333413475296707 0 0.27842901908188278 -0.14556928034560529 0 0.27798501411956061 -0.12654918030113391 0 0.26578143989208891 -0.12208723098105401 0 0.2648690926206575 -0.1333413475296707 0 0.27798501411956061 -0.12654918030113391 0 0.27842901908188278 -0.14556928034560529 0 0.27798501411956061 -0.12654918030113391 0 0.28948891994812881 -0.14951483406407001 0 0.27798501411956061 -0.12654918030113391 0 0.29041098202153109 -0.13433528958156299 0 0.28948891994812881 -0.14951483406407001 0 0.29034728781846192 -0.11708715199789579 0 0.27798501411956061 -0.12654918030113391 0 0.29041098202153109 -0.13433528958156299 0 0.27798501411956061 -0.12654918030113391 0 0.28948891994812881 -0.14951483406407001 0 0.29041098202153109 -0.13433528958156299 0 0.29420716177500777 -0.14221215070681631 0 0.30342348062744029 -0.13760193422682271 0 0.2912255771623028 -0.1527728115829716 0 0.28948891994812881 -0.14951483406407001 0 0.28310491260276388 -0.16544900699914791 0 0.27842901908188278 -0.14556928034560529 0 0.28948891994812881 -0.14951483406407001 0 0.28310491260276388 -0.16544900699914791 0 0.29041098202153109 -0.13433528958156299 0 0.29420716177500777 -0.14221215070681631 0 0.28948891994812881 -0.14951483406407001 0 0.29420716177500777 -0.14221215070681631 0 0.29409132150708672 -0.14709747919357469 0 0.29937718148225612 -0.14593854099046091 0 0.29409132150708672 -0.14709747919357469 0 0.29524987361639138 -0.15029732921987751 0 0.29937718148225612 -0.14593854099046091 0 0.29420716177500777 -0.14221215070681631 0 0.29409132150708672 -0.14709747919357469 0 0.28948891994812881 -0.14951483406407001 0 0.29409132150708672 -0.14709747919357469 0 0.28948891994812881 -0.14951483406407001 0 0.29256727978067493 -0.14953363923336691 0 0.2912255771623028 -0.1527728115829716 0 0.28948891994812881 -0.14951483406407001 0 0.29256727978067493 -0.14953363923336691 0 0.2912255771623028 -0.1527728115829716 0 0.29256727978067493 -0.14953363923336691 0 0.29524987361639138 -0.15029732921987751 0 0.29409132150708672 -0.14709747919357469 0 0.29256727978067493 -0.14953363923336691 0 0.29524987361639138 -0.15029732921987751 0 0.2912255771623028 -0.1527728115829716 0 0.29524987361639138 -0.15029732921987751 0 0.29528151507927181 -0.15507938828546919 0 0.30224824867025318 -0.1529152266746274 0 0.31132279207786079 -0.1498500992079152 0 0.29937718148225612 -0.14593854099046091 0 0.29524987361639138 -0.15029732921987751 0 0.29528151507927181 -0.15507938828546919 0 0.30224824867025318 -0.1529152266746274 0 0.29524987361639138 -0.15029732921987751 0 0.30224824867025318 -0.1529152266746274 0 0.29937718148225612 -0.14593854099046091 0 0.30224824867025318 -0.1529152266746274 0 0.31132279207786079 -0.1498500992079152 0 0.31096219410577852 -0.16400617167627951 0 0.31132279207786079 -0.1498500992079152 0 0.29937718148225612 -0.14593854099046091 0 0.30342348062744029 -0.13760193422682271 0 0.29420716177500777 -0.14221215070681631 0 0.29937718148225612 -0.14593854099046091 0 0.30342348062744029 -0.13760193422682271 0 0.30261828185502793 -0.12212355555811551 0 0.30342348062744029 -0.13760193422682271 0 0.32310638785392598 -0.12920169331710929 0 0.30261828185502793 -0.12212355555811551 0 0.29041098202153109 -0.13433528958156299 0 0.30342348062744029 -0.13760193422682271 0 0.27640342984327232 -0.1821755831815243 0 0.29326082556219257 -0.18242746645397809 0 0.29058524667449059 -0.17175513041351231 0 0.28503515628741222 -0.1940397373007702 0 0.27640342984327232 -0.1821755831815243 0 0.29326082556219257 -0.18242746645397809 0 0.27640342984327232 -0.1821755831815243 0 0.28310491260276388 -0.16544900699914791 0 0.29058524667449059 -0.17175513041351231 0 0.29326082556219257 -0.18242746645397809 0 0.29058524667449059 -0.17175513041351231 0 0.29985143088455563 -0.1705049542308337 0 0.28310491260276388 -0.16544900699914791 0 0.29162044411543447 -0.16293752342968601 0 0.29058524667449059 -0.17175513041351231 0 0.28948891994812881 -0.14951483406407001 0 0.28310491260276388 -0.16544900699914791 0 0.28310491260276388 -0.16544900699914791 0 0.29058524667449059 -0.17175513041351231 0 0.2912255771623028 -0.1527728115829716 0 0.28310491260276388 -0.16544900699914791 0 0.29162044411543447 -0.16293752342968601 0 0.29528151507927181 -0.15507938828546919 0 0.29162044411543447 -0.16293752342968601 0 0.30040507496494923 -0.16123543351683911 0 0.2912255771623028 -0.1527728115829716 0 0.29528151507927181 -0.15507938828546919 0 0.29162044411543447 -0.16293752342968601 0 0.29162044411543447 -0.16293752342968601 0 0.29058524667449059 -0.17175513041351231 0 0.29985143088455563 -0.1705049542308337 0 0.29162044411543447 -0.16293752342968601 0 0.29985143088455563 -0.1705049542308337 0 0.30040507496494923 -0.16123543351683911 0 0.29985143088455563 -0.1705049542308337 0 0.30040507496494923 -0.16123543351683911 0 0.31096219410577852 -0.16400617167627951 0 0.29528151507927181 -0.15507938828546919 0 0.30224824867025318 -0.1529152266746274 0 0.30040507496494923 -0.16123543351683911 0 0.30224824867025318 -0.1529152266746274 0 0.30040507496494923 -0.16123543351683911 0 0.31096219410577852 -0.16400617167627951 0 0.29326082556219257 -0.18242746645397809 0 0.29985143088455563 -0.1705049542308337 0 0.30899586046225469 -0.1817335086200155 0 0.29985143088455563 -0.1705049542308337 0 0.31096219410577852 -0.16400617167627951 0 0.30899586046225469 -0.1817335086200155 0 0.29869382922117033 -0.19435588497721271 0 0.29326082556219257 -0.18242746645397809 0 0.30899586046225469 -0.1817335086200155 0 0.31096219410577852 -0.16400617167627951 0 0.30899586046225469 -0.1817335086200155 0 0.33330990855537412 -0.17956709147815969 0 0.31096219410577852 -0.16400617167627951 0 0.33330990855537412 -0.17956709147815969 0 0.32820814820465 -0.15438439239763441 0 0.33330990855537412 -0.17956709147815969 0 0.32820814820465 -0.15438439239763441 0 0.34602787401434548 -0.1659716275549159 0 0.33330990855537412 -0.17956709147815969 0 0.32820814820465 -0.15438439239763441 0 0.31132279207786079 -0.1498500992079152 0 0.30342348062744029 -0.13760193422682271 0 0.32310638785392598 -0.12920169331710929 0 0.31132279207786079 -0.1498500992079152 0 0.32310638785392598 -0.12920169331710929 0 0.32820814820465 -0.15438439239763441 0 0.32310638785392598 -0.12920169331710929 0 0.32820814820465 -0.15438439239763441 0 0.31132279207786079 -0.1498500992079152 0 0.31096219410577852 -0.16400617167627951 0 0.32820814820465 -0.15438439239763441 0 0.32310638785392598 -0.12920169331710929 0 0.32820814820465 -0.15438439239763441 0 0.34315924150994809 -0.1435747212133468 0 0.32820814820465 -0.15438439239763441 0 0.34315924150994809 -0.1435747212133468 0 0.34602787401434548 -0.1659716275549159 0 0.34343843782823752 -0.12408400361420779 0 0.32310638785392598 -0.12920169331710929 0 0.34315924150994809 -0.1435747212133468 0 0.35603244527432393 -0.11855655260172521 0 0.34343843782823752 -0.12408400361420779 0 0.35934057741976239 -0.13534741467052461 0 0.34343843782823752 -0.12408400361420779 0 0.34315924150994809 -0.1435747212133468 0 0.35934057741976239 -0.13534741467052461 0 0.34315924150994809 -0.1435747212133468 0 0.35883402373876783 -0.15245919572568911 0 0.34602787401434548 -0.1659716275549159 0 0.34315924150994809 -0.1435747212133468 0 0.35934057741976239 -0.13534741467052461 0 0.35883402373876783 -0.15245919572568911 0 0.35934057741976239 -0.13534741467052461 0 0.35883402373876783 -0.15245919572568911 0 0.37256409223115239 -0.14577564863313491 0 0.35883402373876783 -0.15245919572568911 0 0.37256409223115239 -0.14577564863313491 0 0.37384484969918069 -0.1690525115198919 0 0.35603244527432393 -0.11855655260172521 0 0.35934057741976239 -0.13534741467052461 0 0.37564269716861559 -0.12678588016291681 0 0.35934057741976239 -0.13534741467052461 0 0.37256409223115239 -0.14577564863313491 0 0.37564269716861559 -0.12678588016291681 0 0.35632162773846682 -0.18166875232385579 0 0.34602787401434548 -0.1659716275549159 0 0.37384484969918069 -0.1690525115198919 0 0.33330990855537412 -0.17956709147815969 0 0.35632162773846682 -0.18166875232385579 0 0.35406267108959472 -0.19796104173242721 0 0.33330990855537412 -0.17956709147815969 0 0.35632162773846682 -0.18166875232385579 0 0.34602787401434548 -0.1659716275549159 0 0.35883402373876783 -0.15245919572568911 0 0.34602787401434548 -0.1659716275549159 0 0.37384484969918069 -0.1690525115198919 0 0.35632162773846682 -0.18166875232385579 0 0.37384484969918069 -0.1690525115198919 0 0.37385791301570431 -0.19478810405741889 0 0.37385791301570431 -0.19478810405741889 0 0.36123830093626891 -0.21477537223599311 0 0.35406267108959472 -0.19796104173242721 0 0.35632162773846682 -0.18166875232385579 0 0.37385791301570431 -0.19478810405741889 0 0.35406267108959472 -0.19796104173242721 0 0.37385791301570431 -0.19478810405741889 0 0.36123830093626891 -0.21477537223599311 0 0.38569815056541118 -0.21202009347340359 0 0.36123830093626891 -0.21477537223599311 0 0.33841166890609808 -0.204749790558685 0 0.34351342925682221 -0.22993248963921031 0 0.36123830093626891 -0.21477537223599311 0 0.35406267108959472 -0.19796104173242721 0 0.33841166890609808 -0.204749790558685 0 0.33330990855537412 -0.17956709147815969 0 0.33841166890609808 -0.204749790558685 0 0.31530851422462269 -0.2038666989828922 0 0.33330990855537412 -0.17956709147815969 0 0.33841166890609808 -0.204749790558685 0 0.33330990855537412 -0.17956709147815969 0 0.35406267108959472 -0.19796104173242721 0 0.33841166890609808 -0.204749790558685 0 0.33841166890609808 -0.204749790558685 0 0.34351342925682221 -0.22993248963921031 0 0.33841166890609808 -0.204749790558685 0 0.31530851422462269 -0.2038666989828922 0 0.32770828990032302 -0.2216742332320783 0 0.31046352426238571 -0.22770930666462211 0 0.31530851422462269 -0.2038666989828922 0 0.32770828990032302 -0.2216742332320783 0 0.30899586046225469 -0.1817335086200155 0 0.33330990855537412 -0.17956709147815969 0 0.31530851422462269 -0.2038666989828922 0 0.30849651450414628 -0.24795182056728149 0 0.33084431285168597 -0.2421128803149821 0 0.32132836083141447 -0.25869816695462983 0 0.31046352426238571 -0.22770930666462211 0 0.30849651450414628 -0.24795182056728149 0 0.33084431285168597 -0.2421128803149821 0 0.31046352426238571 -0.22770930666462211 0 0.33084431285168597 -0.2421128803149821 0 0.31046352426238571 -0.22770930666462211 0 0.32770828990032302 -0.2216742332320783 0 0.33084431285168597 -0.2421128803149821 0 0.33841166890609808 -0.204749790558685 0 0.32770828990032302 -0.2216742332320783 0 0.34351342925682221 -0.22993248963921031 0 0.32770828990032302 -0.2216742332320783 0 0.34351342925682221 -0.22993248963921031 0 0.33084431285168597 -0.2421128803149821 0 0.34351342925682221 -0.22993248963921031 0 0.33084431285168597 -0.2421128803149821 0 0.34511110575225162 -0.2497895771887422 0 0.34511110575225162 -0.2497895771887422 0 0.36072754685060221 -0.23661199597324931 0 0.35999001524652302 -0.25407051354681798 0 0.34351342925682221 -0.22993248963921031 0 0.34511110575225162 -0.2497895771887422 0 0.36072754685060221 -0.23661199597324931 0 0.36123830093626891 -0.21477537223599311 0 0.34351342925682221 -0.22993248963921031 0 0.36072754685060221 -0.23661199597324931 0 0.36123830093626891 -0.21477537223599311 0 0.36072754685060221 -0.23661199597324931 0 0.37876138036895562 -0.2308784280419337 0 0.36072754685060221 -0.23661199597324931 0 0.37876138036895562 -0.2308784280419337 0 0.37599739442549401 -0.25413598833060908 0 0.36072754685060221 -0.23661199597324931 0 0.37599739442549401 -0.25413598833060908 0 0.35999001524652302 -0.25407051354681798 0 0.39211153592001802 -0.243458058916251 0 0.37876138036895562 -0.2308784280419337 0 0.37599739442549401 -0.25413598833060908 0 0.39211153592001802 -0.243458058916251 0 0.41035187406274998 -0.24282753742178551 0 0.39511757652415641 -0.26150292724900559 0 0.39211153592001802 -0.243458058916251 0 0.39653919654912789 -0.22750706932675971 0 0.41035187406274998 -0.24282753742178551 0 0.39653919654912789 -0.22750706932675971 0 0.41035187406274998 -0.24282753742178551 0 0.41004392873759959 -0.22605415340095061 0 0.39653919654912789 -0.22750706932675971 0 0.40620368098581849 -0.2112598406499526 0 0.41004392873759959 -0.22605415340095061 0 0.39653919654912789 -0.22750706932675971 0 0.37876138036895562 -0.2308784280419337 0 0.38569815056541118 -0.21202009347340359 0 0.36123830093626891 -0.21477537223599311 0 0.37876138036895562 -0.2308784280419337 0 0.38569815056541118 -0.21202009347340359 0 0.39211153592001802 -0.243458058916251 0 0.39653919654912789 -0.22750706932675971 0 0.37876138036895562 -0.2308784280419337 0 0.37385791301570431 -0.19478810405741889 0 0.3965143716700531 -0.19450790035459309 0 0.38635526752066229 -0.1832675387771017 0 0.37385791301570431 -0.19478810405741889 0 0.38569815056541118 -0.21202009347340359 0 0.3965143716700531 -0.19450790035459309 0 0.3965143716700531 -0.19450790035459309 0 0.41709438826766482 -0.19803158576629171 0 0.40327715790131508 -0.1742830172318334 0 0.38569815056541118 -0.21202009347340359 0 0.3965143716700531 -0.19450790035459309 0 0.40620368098581849 -0.2112598406499526 0 0.39653919654912789 -0.22750706932675971 0 0.38569815056541118 -0.21202009347340359 0 0.40620368098581849 -0.2112598406499526 0 0.40620368098581849 -0.2112598406499526 0 0.43112922383217428 -0.19903060429503849 0 0.40620368098581849 -0.2112598406499526 0 0.43112922383217428 -0.19903060429503849 0 0.4255861716013436 -0.22415214759456539 0 0.3965143716700531 -0.19450790035459309 0 0.40620368098581849 -0.2112598406499526 0 0.41709438826766482 -0.19803158576629171 0 0.40620368098581849 -0.2112598406499526 0 0.41709438826766482 -0.19803158576629171 0 0.43112922383217428 -0.19903060429503849 0 0.41709438826766482 -0.19803158576629171 0 0.43112922383217428 -0.19903060429503849 0 0.42481280938198202 -0.1835758156652238 0 0.43112922383217428 -0.19903060429503849 0 0.42481280938198202 -0.1835758156652238 0 0.43620575601665912 -0.1837101461852719 0 0.4255861716013436 -0.22415214759456539 0 0.44418479110498171 -0.22284799629439461 0 0.44082046913993722 -0.20547675776734531 0 0.4255861716013436 -0.22415214759456539 0 0.44082046913993722 -0.20547675776734531 0 0.43112922383217428 -0.19903060429503849 0 0.4255861716013436 -0.22415214759456539 0 0.44082046913993722 -0.20547675776734531 0 0.4255861716013436 -0.22415214759456539 0 0.44188638875310959 -0.23917155451511701 0 0.44418479110498171 -0.22284799629439461 0 0.44188638875310959 -0.23917155451511701 0 0.44222135442591931 -0.25639948428993953 0 0.42738807778665799 -0.25011272741584589 0 0.4255861716013436 -0.22415214759456539 0 0.44188638875310959 -0.23917155451511701 0 0.42738807778665799 -0.25011272741584589 0 0.4255861716013436 -0.22415214759456539 0 0.41035187406274998 -0.24282753742178551 0 0.42738807778665799 -0.25011272741584589 0 0.40620368098581849 -0.2112598406499526 0 0.4255861716013436 -0.22415214759456539 0 0.41004392873759959 -0.22605415340095061 0 0.4255861716013436 -0.22415214759456539 0 0.41035187406274998 -0.24282753742178551 0 0.41004392873759959 -0.22605415340095061 0 0.4255861716013436 -0.22415214759456539 0 0.41035187406274998 -0.24282753742178551 0 0.4057647178407664 -0.1214959209129528 0 0.39911366233114992 -0.13775905466502969 0 0.39442452004675282 -0.12650098367137541 0 0.39911366233114992 -0.13775905466502969 0 0.39442452004675282 -0.12650098367137541 0 0.38338677987236258 -0.1315614229690007 0 0.39911366233114992 -0.13775905466502969 0 0.38338677987236258 -0.1315614229690007 0 0.38945992753496539 -0.15053444869737509 0 0.37564269716861559 -0.12678588016291681 0 0.38945992753496539 -0.15053444869737509 0 0.38338677987236258 -0.1315614229690007 0 0.37564269716861559 -0.12678588016291681 0 0.38945992753496539 -0.15053444869737509 0 0.38011491546278892 -0.11810593161037081 0 0.38338677987236258 -0.1315614229690007 0 0.37564269716861559 -0.12678588016291681 0 0.37256409223115239 -0.14577564863313491 0 0.37384484969918069 -0.1690525115198919 0 0.38945992753496539 -0.15053444869737509 0 0.37256409223115239 -0.14577564863313491 0 0.37564269716861559 -0.12678588016291681 0 0.38945992753496539 -0.15053444869737509 0 0.39911366233114992 -0.13775905466502969 0 0.38945992753496539 -0.15053444869737509 0 0.40575856112357561 -0.15636643591329569 0 0.38945992753496539 -0.15053444869737509 0 0.40575856112357561 -0.15636643591329569 0 0.40327715790131508 -0.1742830172318334 0 0.38945992753496539 -0.15053444869737509 0 0.40327715790131508 -0.1742830172318334 0 0.37384484969918069 -0.1690525115198919 0 0.38945992753496539 -0.15053444869737509 0 0.40327715790131508 -0.1742830172318334 0 0.37384484969918069 -0.1690525115198919 0 0.37385791301570431 -0.19478810405741889 0 0.38635526752066229 -0.1832675387771017 0 0.37384484969918069 -0.1690525115198919 0 0.38635526752066229 -0.1832675387771017 0 0.40327715790131508 -0.1742830172318334 0 0.3965143716700531 -0.19450790035459309 0 0.38635526752066229 -0.1832675387771017 0 0.40327715790131508 -0.1742830172318334 0 0.41709438826766482 -0.19803158576629171 0 0.40327715790131508 -0.1742830172318334 0 0.42481280938198202 -0.1835758156652238 0 0.41709438826766482 -0.19803158576629171 0 0.40327715790131508 -0.1742830172318334 0 0.40327715790131508 -0.1742830172318334 0 0.42481280938198202 -0.1835758156652238 0 0.42633603269609721 -0.16686046412278649 0 0.4324220634866493 -0.1767152939651685 0 0.42633603269609721 -0.16686046412278649 0 0.44233365585185869 -0.17271474988739169 0 0.42481280938198202 -0.1835758156652238 0 0.4324220634866493 -0.1767152939651685 0 0.42633603269609721 -0.16686046412278649 0 0.42481280938198202 -0.1835758156652238 0 0.43620575601665912 -0.1837101461852719 0 0.4324220634866493 -0.1767152939651685 0 0.43620575601665912 -0.1837101461852719 0 0.4324220634866493 -0.1767152939651685 0 0.44233365585185869 -0.17271474988739169 0 0.42633603269609721 -0.16686046412278649 0 0.44143405153979831 -0.15000862662125769 0 0.44233365585185869 -0.17271474988739169 0 0.40575856112357561 -0.15636643591329569 0 0.40327715790131508 -0.1742830172318334 0 0.42633603269609721 -0.16686046412278649 0 0.40575856112357561 -0.15636643591329569 0 0.42633603269609721 -0.16686046412278649 0 0.41605037526843169 -0.14417819251786959 0 0.39911366233114992 -0.13775905466502969 0 0.40575856112357561 -0.15636643591329569 0 0.41605037526843169 -0.14417819251786959 0 0.42633603269609721 -0.16686046412278649 0 0.41605037526843169 -0.14417819251786959 0 0.41605037526843169 -0.14417819251786959 0 0.42754440153228052 -0.1297071405274216 0 0.44143405153979831 -0.15000862662125769 0 0.42633603269609721 -0.16686046412278649 0 0.41605037526843169 -0.14417819251786959 0 0.44143405153979831 -0.15000862662125769 0 0.43687004187442008 -0.1170243740091135 0 0.42754440153228052 -0.1297071405274216 0 0.4445962514410613 -0.13209247138712141 0 0.4057647178407664 -0.1214959209129528 0 0.41605037526843169 -0.14417819251786959 0 0.4057647178407664 -0.1214959209129528 0 0.39911366233114992 -0.13775905466502969 0 0.41605037526843169 -0.14417819251786959 0 0.4057647178407664 -0.1214959209129528 0 0.41605037526843169 -0.14417819251786959 0 0.42754440153228052 -0.1297071405274216 0 0.47795401619815792 -0.1231606782490454 0 0.45524236696645898 -0.1212199631211599 0 0.46256858056301658 -0.13963219670491589 0 0.45524236696645898 -0.1212199631211599 0 0.46256858056301658 -0.13963219670491589 0 0.4445962514410613 -0.13209247138712141 0 0.46256858056301658 -0.13963219670491589 0 0.4445962514410613 -0.13209247138712141 0 0.44143405153979831 -0.15000862662125769 0 0.42754440153228052 -0.1297071405274216 0 0.4445962514410613 -0.13209247138712141 0 0.44143405153979831 -0.15000862662125769 0 0.46256858056301658 -0.13963219670491589 0 0.46198298563457929 -0.15994207975868169 0 0.46256858056301658 -0.13963219670491589 0 0.46198298563457929 -0.15994207975868169 0 0.47637830822116151 -0.1450787879816795 0 0.46256858056301658 -0.13963219670491589 0 0.44143405153979831 -0.15000862662125769 0 0.46198298563457929 -0.15994207975868169 0 0.46198298563457929 -0.15994207975868169 0 0.45659061392357358 -0.1725525158811044 0 0.4613973907061405 -0.18025196281244729 0 0.46198298563457929 -0.15994207975868169 0 0.4613973907061405 -0.18025196281244729 0 0.46198298563457929 -0.15994207975868169 0 0.4613973907061405 -0.18025196281244729 0 0.4771541369151644 -0.16093611466673061 0 0.45193683646230048 -0.16603750141982129 0 0.45150689499239499 -0.17608818006628471 0 0.45659061392357358 -0.1725525158811044 0 0.46198298563457929 -0.15994207975868169 0 0.45193683646230048 -0.16603750141982129 0 0.45659061392357358 -0.1725525158811044 0 0.44143405153979831 -0.15000862662125769 0 0.46198298563457929 -0.15994207975868169 0 0.45193683646230048 -0.16603750141982129 0 0.44143405153979831 -0.15000862662125769 0 0.45193683646230048 -0.16603750141982129 0 0.44233365585185869 -0.17271474988739169 0 0.45193683646230048 -0.16603750141982129 0 0.45150689499239499 -0.17608818006628471 0 0.44233365585185869 -0.17271474988739169 0 0.45150689499239499 -0.17608818006628471 0 0.44233365585185869 -0.17271474988739169 0 0.44556367366724531 -0.18329528694227279 0 0.43620575601665912 -0.1837101461852719 0 0.44233365585185869 -0.17271474988739169 0 0.44556367366724531 -0.18329528694227279 0 0.45150689499239499 -0.17608818006628471 0 0.44556367366724531 -0.18329528694227279 0 0.45491313257885019 -0.18067590641404119 0 0.44556367366724531 -0.18329528694227279 0 0.4560547666785304 -0.18680136794012489 0 0.45491313257885019 -0.18067590641404119 0 0.4560547666785304 -0.18680136794012489 0 0.46128250513715019 -0.18423647899843809 0 0.4613973907061405 -0.18025196281244729 0 0.4560547666785304 -0.18680136794012489 0 0.46128250513715019 -0.18423647899843809 0 0.4560547666785304 -0.18680136794012489 0 0.45491313257885019 -0.18067590641404119 0 0.4613973907061405 -0.18025196281244729 0 0.4560547666785304 -0.18680136794012489 0 0.4613973907061405 -0.18025196281244729 0 0.45491313257885019 -0.18067590641404119 0 0.45659061392357358 -0.1725525158811044 0 0.4613973907061405 -0.18025196281244729 0 0.45150689499239499 -0.17608818006628471 0 0.45491313257885019 -0.18067590641404119 0 0.45659061392357358 -0.1725525158811044 0 0.46128250513715019 -0.18423647899843809 0 0.4613973907061405 -0.18025196281244729 0 0.47623821401582039 -0.17689874919010709 0 0.46128250513715019 -0.18423647899843809 0 0.4613973907061405 -0.18025196281244729 0 0.4613973907061405 -0.18025196281244729 0 0.47623821401582039 -0.17689874919010709 0 0.4771541369151644 -0.16093611466673061 0 0.46128250513715019 -0.18423647899843809 0 0.47623821401582039 -0.17689874919010709 0 0.47298330065848598 -0.19096695416286991 0 0.46128250513715019 -0.18423647899843809 0 0.47623821401582039 -0.17689874919010709 0 0.47623821401582039 -0.17689874919010709 0 0.49119392289449049 -0.1695610193817759 0 0.47623821401582039 -0.17689874919010709 0 0.48657122604370101 -0.18595846856287521 0 0.47298330065848598 -0.19096695416286991 0 0.48657122604370101 -0.18595846856287521 0 0.5 -0.1776219292500186 0 0.49119392289449049 -0.1695610193817759 0 0.47623821401582039 -0.17689874919010709 0 0.48657122604370101 -0.18595846856287521 0 0.49119392289449049 -0.1695610193817759 0 0.49119392289449049 -0.1695610193817759 0 0.49031473573346118 -0.1556217428247163 0 0.50000000000000022 -0.1503695707293439 0 0.5 -0.1776219292500186 0 0.49119392289449049 -0.1695610193817759 0 0.50000000000000022 -0.1503695707293439 0 0.49119392289449049 -0.1695610193817759 0 0.4771541369151644 -0.16093611466673061 0 0.49031473573346118 -0.1556217428247163 0 0.47623821401582039 -0.17689874919010709 0 0.49119392289449049 -0.1695610193817759 0 0.4771541369151644 -0.16093611466673061 0 0.4613973907061405 -0.18025196281244729 0 0.4771541369151644 -0.16093611466673061 0 0.4771541369151644 -0.16093611466673061 0 0.47637830822116151 -0.1450787879816795 0 0.49291088312418951 -0.14162026652101489 0 0.46198298563457929 -0.15994207975868169 0 0.4771541369151644 -0.16093611466673061 0 0.47637830822116151 -0.1450787879816795 0 0.4771541369151644 -0.16093611466673061 0 0.49031473573346118 -0.1556217428247163 0 0.49291088312418951 -0.14162026652101489 0 0.4771541369151644 -0.16093611466673061 0 0.49291088312418951 -0.14162026652101489 0 0.50000000000000022 -0.1503695707293439 0 0.49291088312418951 -0.14162026652101489 0 0.49999999999999561 -0.13292987427608749 0 0.49031473573346118 -0.1556217428247163 0 0.50000000000000022 -0.1503695707293439 0 0.49291088312418951 -0.14162026652101489 0 0.50000000000000022 -0.1503695707293439 0 0.49291088312418951 -0.14162026652101489 0 0.47795401619815792 -0.1231606782490454 0 0.49291088312418951 -0.14162026652101489 0 0.47795401619815792 -0.1231606782490454 0 0.49291088312418951 -0.14162026652101489 0 0.49999999999999561 -0.13292987427608749 0 0.49291088312418951 -0.14162026652101489 0 0.49999999999999561 -0.13292987427608749 0 0.47795401619815792 -0.1231606782490454 0 0.46256858056301658 -0.13963219670491589 0 0.47637830822116151 -0.1450787879816795 0 0.47795401619815792 -0.1231606782490454 0 0.47637830822116151 -0.1450787879816795 0 0.49291088312418951 -0.14162026652101489 0 0.45993154745423143 -0.23109103872606779 0 0.44418479110498171 -0.22284799629439461 0 0.46060702629569072 -0.207663758862253 0 0.45993154745423143 -0.23109103872606779 0 0.46060702629569072 -0.207663758862253 0 0.45993154745423143 -0.23109103872606779 0 0.46060702629569072 -0.207663758862253 0 0.48072551199530827 -0.21921565117268771 0 0.45993154745423143 -0.23109103872606779 0 0.45971854406675899 -0.24853276314288689 0 0.47612558626526152 -0.23530406951341809 0 0.45993154745423143 -0.23109103872606779 0 0.45971854406675899 -0.24853276314288689 0 0.44188638875310959 -0.23917155451511701 0 0.45971854406675899 -0.24853276314288689 0 0.44188638875310959 -0.23917155451511701 0 0.44222135442591931 -0.25639948428993953 0 0.45993154745423143 -0.23109103872606779 0 0.44188638875310959 -0.23917155451511701 0 0.44418479110498171 -0.22284799629439461 0 0.44418479110498171 -0.22284799629439461 0 0.44082046913993722 -0.20547675776734531 0 0.46060702629569072 -0.207663758862253 0 0.43112922383217428 -0.19903060429503849 0 0.44556367366724531 -0.18329528694227279 0 0.4560547666785304 -0.18680136794012489 0 0.43112922383217428 -0.19903060429503849 0 0.4560547666785304 -0.18680136794012489 0 0.44082046913993722 -0.20547675776734531 0 0.4560547666785304 -0.18680136794012489 0 0.44082046913993722 -0.20547675776734531 0 0.43112922383217428 -0.19903060429503849 0 0.4560547666785304 -0.18680136794012489 0 0.43112922383217428 -0.19903060429503849 0 0.43620575601665912 -0.1837101461852719 0 0.44556367366724531 -0.18329528694227279 0 0.4560547666785304 -0.18680136794012489 0 0.44082046913993722 -0.20547675776734531 0 0.46060702629569072 -0.207663758862253 0 0.4560547666785304 -0.18680136794012489 0 0.46128250513715019 -0.18423647899843809 0 0.46060702629569072 -0.207663758862253 0 0.46128250513715019 -0.18423647899843809 0 0.46060702629569072 -0.207663758862253 0 0.47298330065848598 -0.19096695416286991 0 0.46128250513715019 -0.18423647899843809 0 0.46060702629569072 -0.207663758862253 0 0.46060702629569072 -0.207663758862253 0 0.48021753180006821 -0.2000773152006757 0 0.48072551199530827 -0.21921565117268771 0 0.46060702629569072 -0.207663758862253 0 0.47298330065848598 -0.19096695416286991 0 0.48021753180006821 -0.2000773152006757 0 0.48657122604370101 -0.18595846856287521 0 0.47298330065848598 -0.19096695416286991 0 0.48021753180006821 -0.2000773152006757 0 0.48657122604370101 -0.18595846856287521 0 0.5 -0.1776219292500186 0 0.5 -0.2048742877706933 0 0.48657122604370101 -0.18595846856287521 0 0.48021753180006821 -0.2000773152006757 0 0.5 -0.2048742877706933 0 0.5 -0.2048742877706933 0 0.5 -0.23212664629136809 0 0.48072551199530827 -0.21921565117268771 0 0.48021753180006821 -0.2000773152006757 0 0.5 -0.2048742877706933 0 0.48072551199530827 -0.21921565117268771 0 0.5 -0.23212664629136809 0 0.48072551199530827 -0.21921565117268771 0 0.47612558626526152 -0.23530406951341809 0 0.45993154745423143 -0.23109103872606779 0 0.48072551199530827 -0.21921565117268771 0 0.47612558626526152 -0.23530406951341809 0 0.45971854406675899 -0.24853276314288689 0 0.47612558626526152 -0.23530406951341809 0 0.48005555304084202 -0.25086957477450761 0 0.5 -0.23212664629136809 0 0.47612558626526152 -0.23530406951341809 0 0.48005555304084202 -0.25086957477450761 0 0.5 -0.23212664629136809 0 0.5 -0.25937900481204279 0 0.48005555304084202 -0.25086957477450761 0 0.5 -0.25937900481204279 0 0.48238679851899557 -0.27010709570024499 0 0.48005555304084202 -0.25086957477450761 0 0.5 -0.25937900481204279 0 0.48238679851899557 -0.27010709570024499 0 0.50000000000000022 -0.28663136333271749 0 0.48238679851899557 -0.27010709570024499 0 0.46537054964303343 -0.27587751544572892 0 0.47132628498073759 -0.29333752481836622 0 0.48238679851899557 -0.27010709570024499 0 0.46812616638324112 -0.26208212122897862 0 0.46537054964303343 -0.27587751544572892 0 0.48238679851899557 -0.27010709570024499 0 0.48005555304084202 -0.25086957477450761 0 0.46812616638324112 -0.26208212122897862 0 0.45971854406675899 -0.24853276314288689 0 0.48005555304084202 -0.25086957477450761 0 0.46812616638324112 -0.26208212122897862 0 0.45971854406675899 -0.24853276314288689 0 0.46812616638324112 -0.26208212122897862 0 0.45309938664657562 -0.26502365708152448 0 0.46812616638324112 -0.26208212122897862 0 0.46537054964303343 -0.27587751544572892 0 0.45309938664657562 -0.26502365708152448 0 0.46537054964303343 -0.27587751544572892 0 0.44873088824515478 -0.27798159794241739 0 0.45309938664657562 -0.26502365708152448 0 0.46537054964303343 -0.27587751544572892 0 0.44873088824515478 -0.27798159794241739 0 0.45489795979772218 -0.28610325223289229 0 0.44873088824515478 -0.27798159794241739 0 0.44323481619901939 -0.26908299279190068 0 0.45309938664657562 -0.26502365708152448 0 0.44873088824515478 -0.27798159794241739 0 0.4378609686856903 -0.27790111256739919 0 0.4430998265829787 -0.28736600713102672 0 0.44873088824515478 -0.27798159794241739 0 0.4378609686856903 -0.27790111256739919 0 0.44323481619901939 -0.26908299279190068 0 0.4378609686856903 -0.27790111256739919 0 0.44323481619901939 -0.26908299279190068 0 0.43268183932762322 -0.26686664253597869 0 0.44323481619901939 -0.26908299279190068 0 0.44222135442591931 -0.25639948428993953 0 0.43268183932762322 -0.26686664253597869 0 0.45971854406675899 -0.24853276314288689 0 0.44222135442591931 -0.25639948428993953 0 0.45309938664657562 -0.26502365708152448 0 0.44323481619901939 -0.26908299279190068 0 0.44222135442591931 -0.25639948428993953 0 0.45309938664657562 -0.26502365708152448 0 0.44897282168762798 -0.30951528310646931 0 0.44265256996147512 -0.30004368630401551 0 0.45935833195610593 -0.30681939417686699 0 0.44897282168762798 -0.30951528310646931 0 0.43939714155718262 -0.31069822970525229 0 0.44404107150044991 -0.31691257942273271 0 0.44897282168762798 -0.30951528310646931 0 0.43939714155718262 -0.31069822970525229 0 0.44265256996147512 -0.30004368630401551 0 0.44265256996147512 -0.30004368630401551 0 0.44596224953670649 -0.29595361582692209 0 0.4430998265829787 -0.28736600713102672 0 0.44596224953670649 -0.29595361582692209 0 0.43743694859126259 -0.29296775186900692 0 0.44265256996147512 -0.30004368630401551 0 0.44596224953670649 -0.29595361582692209 0 0.43743694859126259 -0.29296775186900692 0 0.4378609686856903 -0.27790111256739919 0 0.4430998265829787 -0.28736600713102672 0 0.43320270226329649 -0.28670757767434618 0 0.4430998265829787 -0.28736600713102672 0 0.43320270226329649 -0.28670757767434618 0 0.43743694859126259 -0.29296775186900692 0 0.44873088824515478 -0.27798159794241739 0 0.4430998265829787 -0.28736600713102672 0 0.45489795979772218 -0.28610325223289229 0 0.4430998265829787 -0.28736600713102672 0 0.44596224953670649 -0.29595361582692209 0 0.45489795979772218 -0.28610325223289229 0 0.44265256996147512 -0.30004368630401551 0 0.47132628498073759 -0.29333752481836622 0 0.44596224953670649 -0.29595361582692209 0 0.45489795979772218 -0.28610325223289229 0 0.47132628498073759 -0.29333752481836622 0 0.46537054964303343 -0.27587751544572892 0 0.45489795979772218 -0.28610325223289229 0 0.47132628498073759 -0.29333752481836622 0 0.44265256996147512 -0.30004368630401551 0 0.44596224953670649 -0.29595361582692209 0 0.47132628498073759 -0.29333752481836622 0 0.44265256996147512 -0.30004368630401551 0 0.45935833195610593 -0.30681939417686699 0 0.47132628498073759 -0.29333752481836622 0 0.50000000000000022 -0.28663136333271749 0 0.48686089257311133 -0.30322805980915413 0 0.5 -0.31831992893172412 0 0.45935833195610593 -0.30681939417686699 0 0.47132628498073759 -0.29333752481836622 0 0.47611728531170761 -0.31462342215380878 0 0.47132628498073759 -0.29333752481836622 0 0.48686089257311133 -0.30322805980915413 0 0.47611728531170761 -0.31462342215380878 0 0.48238679851899557 -0.27010709570024499 0 0.47132628498073759 -0.29333752481836622 0 0.50000000000000022 -0.28663136333271749 0 0.47132628498073759 -0.29333752481836622 0 0.50000000000000022 -0.28663136333271749 0 0.48686089257311133 -0.30322805980915413 0 0.47132628498073759 -0.29333752481836622 0 0.50000000000000022 -0.28663136333271749 0 0.48686089257311133 -0.30322805980915413 0 0.5 -0.31831992893172412 0 0.47611728531170761 -0.31462342215380878 0 0.5 -0.31831992893172412 0 0.47543790526315222 -0.33690731983133287 0 0.5 -0.36144527637361312 0 0.47543790526315222 -0.33690731983133287 0 0.47611728531170761 -0.31462342215380878 0 0.45708745315099197 -0.32352822190568042 0 0.5 -0.31831992893172412 0 0.47543790526315222 -0.33690731983133287 0 0.47611728531170761 -0.31462342215380878 0 0.47543790526315222 -0.33690731983133287 0 0.5 -0.36144527637361312 0 0.46499590257557433 -0.35765761135647373 0 0.5 -0.36144527637361312 0 0.46499590257557433 -0.35765761135647373 0 0.45487118058901199 -0.38199621202214712 0 0.46499590257557433 -0.35765761135647373 0 0.44278334950484988 -0.35944530444543521 0 0.45487118058901199 -0.38199621202214712 0 0.47543790526315222 -0.33690731983133287 0 0.46499590257557433 -0.35765761135647373 0 0.45229702983115788 -0.34286225908246609 0 0.46499590257557433 -0.35765761135647373 0 0.44278334950484988 -0.35944530444543521 0 0.45229702983115788 -0.34286225908246609 0 0.44278334950484988 -0.35944530444543521 0 0.45229702983115788 -0.34286225908246609 0 0.43309306375093792 -0.34301666624096899 0 0.44278334950484988 -0.35944530444543521 0 0.45487118058901199 -0.38199621202214712 0 0.4295064337016708 -0.37630380625537613 0 0.45935833195610593 -0.30681939417686699 0 0.47611728531170761 -0.31462342215380878 0 0.45708745315099197 -0.32352822190568042 0 0.44897282168762798 -0.30951528310646931 0 0.45935833195610593 -0.30681939417686699 0 0.45708745315099197 -0.32352822190568042 0 0.47543790526315222 -0.33690731983133287 0 0.45708745315099197 -0.32352822190568042 0 0.45229702983115788 -0.34286225908246609 0 0.45708745315099197 -0.32352822190568042 0 0.45229702983115788 -0.34286225908246609 0 0.43972289086756222 -0.33009179364262969 0 0.45229702983115788 -0.34286225908246609 0 0.43972289086756222 -0.33009179364262969 0 0.43309306375093792 -0.34301666624096899 0 0.45708745315099197 -0.32352822190568042 0 0.43972289086756222 -0.33009179364262969 0 0.44404107150044991 -0.31691257942273271 0 0.43972289086756222 -0.33009179364262969 0 0.44404107150044991 -0.31691257942273271 0 0.4371041589070484 -0.32172682425415838 0 0.44897282168762798 -0.30951528310646931 0 0.45708745315099197 -0.32352822190568042 0 0.44404107150044991 -0.31691257942273271 0 0.44404107150044991 -0.31691257942273271 0 0.43722059943748248 -0.31773037177480667 0 0.4371041589070484 -0.32172682425415838 0 0.43939714155718262 -0.31069822970525229 0 0.44404107150044991 -0.31691257942273271 0 0.43722059943748248 -0.31773037177480667 0 0.43939714155718262 -0.31069822970525229 0 0.4240033371286468 -0.32309023050752028 0 0.4283400257852491 -0.32158385371708348 0 0.43939714155718262 -0.31069822970525229 0 0.43722059943748248 -0.31773037177480667 0 0.4283400257852491 -0.32158385371708348 0 0.42297398439717532 -0.31431650461902289 0 0.4240033371286468 -0.32309023050752028 0 0.42980672607172021 -0.31042682570502478 0 0.4240033371286468 -0.32309023050752028 0 0.4283400257852491 -0.32158385371708348 0 0.42739211041768382 -0.32743769415249979 0 0.4240033371286468 -0.32309023050752028 0 0.4283400257852491 -0.32158385371708348 0 0.4283400257852491 -0.32158385371708348 0 0.42739211041768382 -0.32743769415249979 0 0.43268086703270719 -0.32605970776166238 0 0.43972289086756222 -0.33009179364262969 0 0.43268086703270719 -0.32605970776166238 0 0.4371041589070484 -0.32172682425415838 0 0.4283400257852491 -0.32158385371708348 0 0.43268086703270719 -0.32605970776166238 0 0.4371041589070484 -0.32172682425415838 0 0.43722059943748248 -0.31773037177480667 0 0.4283400257852491 -0.32158385371708348 0 0.4371041589070484 -0.32172682425415838 0 0.43972289086756222 -0.33009179364262969 0 0.43086357845263779 -0.33208314546185158 0 0.43309306375093792 -0.34301666624096899 0 0.43972289086756222 -0.33009179364262969 0 0.43268086703270719 -0.32605970776166238 0 0.43086357845263779 -0.33208314546185158 0 0.42739211041768382 -0.32743769415249979 0 0.43268086703270719 -0.32605970776166238 0 0.43086357845263779 -0.33208314546185158 0 0.43086357845263779 -0.33208314546185158 0 0.43309306375093792 -0.34301666624096899 0 0.42229662434271242 -0.33545340476313867 0 0.43309306375093792 -0.34301666624096899 0 0.42229662434271242 -0.33545340476313867 0 0.41903385168708313 -0.34688535415289518 0 0.4240033371286468 -0.32309023050752028 0 0.42739211041768382 -0.32743769415249979 0 0.42229662434271242 -0.33545340476313867 0 0.42739211041768382 -0.32743769415249979 0 0.43086357845263779 -0.33208314546185158 0 0.42229662434271242 -0.33545340476313867 0 0.4240033371286468 -0.32309023050752028 0 0.41210406985478099 -0.33779523160192332 0 0.3987434882363875 -0.3318644020273675 0 0.4240033371286468 -0.32309023050752028 0 0.41210406985478099 -0.33779523160192332 0 0.4240033371286468 -0.32309023050752028 0 0.42229662434271242 -0.33545340476313867 0 0.41210406985478099 -0.33779523160192332 0 0.42229662434271242 -0.33545340476313867 0 0.41210406985478099 -0.33779523160192332 0 0.41903385168708313 -0.34688535415289518 0 0.4101883959345286 -0.31966314944611968 0 0.39742652577003768 -0.32057764139979211 0 0.41604981830497062 -0.30626549427173949 0 0.4240033371286468 -0.32309023050752028 0 0.3987434882363875 -0.3318644020273675 0 0.4240033371286468 -0.32309023050752028 0 0.4101883959345286 -0.31966314944611968 0 0.3987434882363875 -0.3318644020273675 0 0.42297398439717532 -0.31431650461902289 0 0.4240033371286468 -0.32309023050752028 0 0.41804897230906352 -0.31593284869531119 0 0.4101883959345286 -0.31966314944611968 0 0.41804897230906352 -0.31593284869531119 0 0.41604981830497062 -0.30626549427173949 0 0.4240033371286468 -0.32309023050752028 0 0.4101883959345286 -0.31966314944611968 0 0.41804897230906352 -0.31593284869531119 0 0.44278334950484988 -0.35944530444543521 0 0.42502369809693241 -0.35815568128673458 0 0.4295064337016708 -0.37630380625537613 0 0.42502369809693241 -0.35815568128673458 0 0.41178072199276039 -0.36946034709897613 0 0.4295064337016708 -0.37630380625537613 0 0.44278334950484988 -0.35944530444543521 0 0.43309306375093792 -0.34301666624096899 0 0.42502369809693241 -0.35815568128673458 0 0.43309306375093792 -0.34301666624096899 0 0.42502369809693241 -0.35815568128673458 0 0.41903385168708313 -0.34688535415289518 0 0.41903385168708313 -0.34688535415289518 0 0.41038503268935173 -0.34873370916237301 0 0.41227131205239381 -0.35747889671188982 0 0.41210406985478099 -0.33779523160192332 0 0.41038503268935173 -0.34873370916237301 0 0.40020480258091429 -0.35250023269632541 0 0.41210406985478099 -0.33779523160192332 0 0.41903385168708313 -0.34688535415289518 0 0.41038503268935173 -0.34873370916237301 0 0.41038503268935173 -0.34873370916237301 0 0.41227131205239381 -0.35747889671188982 0 0.40020480258091429 -0.35250023269632541 0 0.42502369809693241 -0.35815568128673458 0 0.41903385168708313 -0.34688535415289518 0 0.41227131205239381 -0.35747889671188982 0 0.42502369809693241 -0.35815568128673458 0 0.41227131205239381 -0.35747889671188982 0 0.41178072199276039 -0.36946034709897613 0 0.41227131205239381 -0.35747889671188982 0 0.41178072199276039 -0.36946034709897613 0 0.40304008304445821 -0.36149948744727312 0 0.40023604077199898 -0.36932453307105673 0 0.39341151274236552 -0.36661605599290897 0 0.38985283232992851 -0.37406313562868282 0 0.40023604077199898 -0.36932453307105673 0 0.38985283232992851 -0.37406313562868282 0 0.40124512744111018 -0.37763097726200962 0 0.41178072199276039 -0.36946034709897613 0 0.40023604077199898 -0.36932453307105673 0 0.40124512744111018 -0.37763097726200962 0 0.40023604077199898 -0.36932453307105673 0 0.40304008304445821 -0.36149948744727312 0 0.39341151274236552 -0.36661605599290897 0 0.41178072199276039 -0.36946034709897613 0 0.40023604077199898 -0.36932453307105673 0 0.40304008304445821 -0.36149948744727312 0 0.39341151274236552 -0.36661605599290897 0 0.3946399643090438 -0.3593772067985665 0 0.38630181170484679 -0.36478243060390519 0 0.40304008304445821 -0.36149948744727312 0 0.39341151274236552 -0.36661605599290897 0 0.3946399643090438 -0.3593772067985665 0 0.3946399643090438 -0.3593772067985665 0 0.40020480258091429 -0.35250023269632541 0 0.40304008304445821 -0.36149948744727312 0 0.3946399643090438 -0.3593772067985665 0 0.40020480258091429 -0.35250023269632541 0 0.41227131205239381 -0.35747889671188982 0 0.40304008304445821 -0.36149948744727312 0 0.40020480258091429 -0.35250023269632541 0 0.41038503268935173 -0.34873370916237301 0 0.40020480258091429 -0.35250023269632541 0 0.41210406985478099 -0.33779523160192332 0 0.40020480258091429 -0.35250023269632541 0 0.4013806943369253 -0.34118357981305891 0 0.41210406985478099 -0.33779523160192332 0 0.40020480258091429 -0.35250023269632541 0 0.40020480258091429 -0.35250023269632541 0 0.3918726413069567 -0.34401977947806439 0 0.38851632190518742 -0.35061072575364077 0 0.40020480258091429 -0.35250023269632541 0 0.3918726413069567 -0.34401977947806439 0 0.4013806943369253 -0.34118357981305891 0 0.40020480258091429 -0.35250023269632541 0 0.38851632190518742 -0.35061072575364077 0 0.38133718508326653 -0.35451636401379688 0 0.40020480258091429 -0.35250023269632541 0 0.38133718508326653 -0.35451636401379688 0 0.3749751666447283 -0.36183479748459391 0 0.3918726413069567 -0.34401977947806439 0 0.38297223629938471 -0.34860510254240179 0 0.37348363934412848 -0.34063857354721577 0 0.3946399643090438 -0.3593772067985665 0 0.40020480258091429 -0.35250023269632541 0 0.3749751666447283 -0.36183479748459391 0 0.40020480258091429 -0.35250023269632541 0 0.3749751666447283 -0.36183479748459391 0 0.3918726413069567 -0.34401977947806439 0 0.38851632190518742 -0.35061072575364077 0 0.38297223629938471 -0.34860510254240179 0 0.38851632190518742 -0.35061072575364077 0 0.38297223629938471 -0.34860510254240179 0 0.38133718508326653 -0.35451636401379688 0 0.38297223629938471 -0.34860510254240179 0 0.38133718508326653 -0.35451636401379688 0 0.3744951480075942 -0.35066427621442442 0 0.38297223629938471 -0.34860510254240179 0 0.37348363934412848 -0.34063857354721577 0 0.3744951480075942 -0.35066427621442442 0 0.38133718508326653 -0.35451636401379688 0 0.3749751666447283 -0.36183479748459391 0 0.37243122142124518 -0.35615963110985549 0 0.38133718508326653 -0.35451636401379688 0 0.37243122142124518 -0.35615963110985549 0 0.3744951480075942 -0.35066427621442442 0 0.3946399643090438 -0.3593772067985665 0 0.38630181170484679 -0.36478243060390519 0 0.3749751666447283 -0.36183479748459391 0 0.38630181170484679 -0.36478243060390519 0 0.38002689313390109 -0.36613921001796063 0 0.3749751666447283 -0.36183479748459391 0 0.37648520032120342 -0.3663236554996292 0 0.38002689313390109 -0.36613921001796063 0 0.3749751666447283 -0.36183479748459391 0 0.37648520032120342 -0.3663236554996292 0 0.38002689313390109 -0.36613921001796063 0 0.38234539386482602 -0.37161595648371382 0 0.37648520032120342 -0.3663236554996292 0 0.38234539386482602 -0.37161595648371382 0 0.37575133369273522 -0.37683273687038998 0 0.38630181170484679 -0.36478243060390519 0 0.38234539386482602 -0.37161595648371382 0 0.38985283232992851 -0.37406313562868282 0 0.39341151274236552 -0.36661605599290897 0 0.38630181170484679 -0.36478243060390519 0 0.38985283232992851 -0.37406313562868282 0 0.38630181170484679 -0.36478243060390519 0 0.38002689313390109 -0.36613921001796063 0 0.38234539386482602 -0.37161595648371382 0 0.39742652577003768 -0.32057764139979211 0 0.3987434882363875 -0.3318644020273675 0 0.3822115312300981 -0.32415917707579478 0 0.39742652577003768 -0.32057764139979211 0 0.38944706664846618 -0.31248730223946453 0 0.41604981830497062 -0.30626549427173949 0 0.4101883959345286 -0.31966314944611968 0 0.39742652577003768 -0.32057764139979211 0 0.3987434882363875 -0.3318644020273675 0 0.41210406985478099 -0.33779523160192332 0 0.3987434882363875 -0.3318644020273675 0 0.4013806943369253 -0.34118357981305891 0 0.3918726413069567 -0.34401977947806439 0 0.3987434882363875 -0.3318644020273675 0 0.4013806943369253 -0.34118357981305891 0 0.3987434882363875 -0.3318644020273675 0 0.3822115312300981 -0.32415917707579478 0 0.37348363934412848 -0.34063857354721577 0 0.3987434882363875 -0.3318644020273675 0 0.37348363934412848 -0.34063857354721577 0 0.3918726413069567 -0.34401977947806439 0 0.3987434882363875 -0.3318644020273675 0 0.37348363934412848 -0.34063857354721577 0 0.3822115312300981 -0.32415917707579478 0 0.37056996727289587 -0.32839188471441277 0 0.37348363934412848 -0.34063857354721577 0 0.3822115312300981 -0.32415917707579478 0 0.38944706664846618 -0.31248730223946453 0 0.3628443149919619 -0.31870911020718928 0 0.38944706664846618 -0.31248730223946453 0 0.3628443149919619 -0.31870911020718928 0 0.39742652577003768 -0.32057764139979211 0 0.3822115312300981 -0.32415917707579478 0 0.38944706664846618 -0.31248730223946453 0 0.38944706664846618 -0.31248730223946453 0 0.3740360814172552 -0.30482459059460548 0 0.3628443149919619 -0.31870911020718928 0 0.38944706664846618 -0.31248730223946453 0 0.38695261715406271 -0.29610311232081099 0 0.3740360814172552 -0.30482459059460548 0 0.38695261715406271 -0.29610311232081099 0 0.36659040915697022 -0.29146125278917062 0 0.3740360814172552 -0.30482459059460548 0 0.38944706664846618 -0.31248730223946453 0 0.40287418797622238 -0.29903925571920897 0 0.41604981830497062 -0.30626549427173949 0 0.38944706664846618 -0.31248730223946453 0 0.41604981830497062 -0.30626549427173949 0 0.38944706664846618 -0.31248730223946453 0 0.40287418797622238 -0.29903925571920897 0 0.38695261715406271 -0.29610311232081099 0 0.40287418797622238 -0.29903925571920897 0 0.39965404316175662 -0.28557249735530632 0 0.38695261715406271 -0.29610311232081099 0 0.38695261715406271 -0.29610311232081099 0 0.37988327898556268 -0.28017831707622581 0 0.36659040915697022 -0.29146125278917062 0 0.39965404316175662 -0.28557249735530632 0 0.38695261715406271 -0.29610311232081099 0 0.37988327898556268 -0.28017831707622581 0 0.37988327898556268 -0.28017831707622581 0 0.39511757652415641 -0.26150292724900559 0 0.39211153592001802 -0.243458058916251 0 0.37599739442549401 -0.25413598833060908 0 0.39511757652415641 -0.26150292724900559 0 0.37988327898556268 -0.28017831707622581 0 0.37599739442549401 -0.25413598833060908 0 0.39511757652415641 -0.26150292724900559 0 0.41035187406274998 -0.24282753742178551 0 0.39511757652415641 -0.26150292724900559 0 0.39965404316175662 -0.28557249735530632 0 0.39511757652415641 -0.26150292724900559 0 0.41172808633507069 -0.27689478194499351 0 0.39965404316175662 -0.28557249735530632 0 0.37988327898556268 -0.28017831707622581 0 0.39511757652415641 -0.26150292724900559 0 0.39511757652415641 -0.26150292724900559 0 0.41172808633507069 -0.27689478194499351 0 0.4161754997135817 -0.26384999015432808 0 0.41172808633507069 -0.27689478194499351 0 0.4161754997135817 -0.26384999015432808 0 0.42542591766400262 -0.27878062255760377 0 0.41035187406274998 -0.24282753742178551 0 0.39511757652415641 -0.26150292724900559 0 0.4161754997135817 -0.26384999015432808 0 0.41035187406274998 -0.24282753742178551 0 0.4161754997135817 -0.26384999015432808 0 0.42738807778665799 -0.25011272741584589 0 0.4161754997135817 -0.26384999015432808 0 0.42738807778665799 -0.25011272741584589 0 0.43268183932762322 -0.26686664253597869 0 0.44222135442591931 -0.25639948428993953 0 0.42738807778665799 -0.25011272741584589 0 0.43268183932762322 -0.26686664253597869 0 0.4161754997135817 -0.26384999015432808 0 0.42542591766400262 -0.27878062255760377 0 0.43268183932762322 -0.26686664253597869 0 0.4378609686856903 -0.27790111256739919 0 0.42542591766400262 -0.27878062255760377 0 0.43320270226329649 -0.28670757767434618 0 0.4378609686856903 -0.27790111256739919 0 0.42542591766400262 -0.27878062255760377 0 0.43268183932762322 -0.26686664253597869 0 0.44265256996147512 -0.30004368630401551 0 0.42226739461185608 -0.29476787240872382 0 0.43743694859126259 -0.29296775186900692 0 0.42542591766400262 -0.27878062255760377 0 0.43320270226329649 -0.28670757767434618 0 0.42226739461185608 -0.29476787240872382 0 0.43320270226329649 -0.28670757767434618 0 0.42226739461185608 -0.29476787240872382 0 0.43743694859126259 -0.29296775186900692 0 0.44265256996147512 -0.30004368630401551 0 0.42226739461185608 -0.29476787240872382 0 0.41604981830497062 -0.30626549427173949 0 0.43939714155718262 -0.31069822970525229 0 0.44265256996147512 -0.30004368630401551 0 0.4240033371286468 -0.32309023050752028 0 0.44265256996147512 -0.30004368630401551 0 0.42980672607172021 -0.31042682570502478 0 0.41604981830497062 -0.30626549427173949 0 0.44265256996147512 -0.30004368630401551 0 0.41604981830497062 -0.30626549427173949 0 0.44265256996147512 -0.30004368630401551 0 0.4240033371286468 -0.32309023050752028 0 0.44265256996147512 -0.30004368630401551 0 0.4240033371286468 -0.32309023050752028 0 0.42980672607172021 -0.31042682570502478 0 0.42297398439717532 -0.31431650461902289 0 0.42980672607172021 -0.31042682570502478 0 0.41604981830497062 -0.30626549427173949 0 0.40287418797622238 -0.29903925571920897 0 0.42226739461185608 -0.29476787240872382 0 0.41604981830497062 -0.30626549427173949 0 0.42297398439717532 -0.31431650461902289 0 0.41804897230906352 -0.31593284869531119 0 0.41604981830497062 -0.30626549427173949 0 0.40287418797622238 -0.29903925571920897 0 0.39965404316175662 -0.28557249735530632 0 0.42226739461185608 -0.29476787240872382 0 0.39965404316175662 -0.28557249735530632 0 0.41172808633507069 -0.27689478194499351 0 0.42226739461185608 -0.29476787240872382 0 0.41172808633507069 -0.27689478194499351 0 0.42542591766400262 -0.27878062255760377 0 0.42226739461185608 -0.29476787240872382 0 0.4636459141367551 -0.4765568974702668 0 0.5 -0.5 0 0.41109778695890131 -0.5 0 0.5 -0.5 0 0.47218418424867709 -0.44843168764585251 0 0.5 -0.42013277262407062 0 0.4636459141367551 -0.4765568974702668 0 0.5 -0.5 0 0.47218418424867709 -0.44843168764585251 0 0.4636459141367551 -0.4765568974702668 0 0.44630804834363602 -0.45525441068934031 0 0.42775395235248143 -0.46350172428493908 0 0.47218418424867709 -0.44843168764585251 0 0.44630804834363602 -0.45525441068934031 0 0.45259826140332188 -0.43079312136857728 0 0.4636459141367551 -0.4765568974702668 0 0.47218418424867709 -0.44843168764585251 0 0.44630804834363602 -0.45525441068934031 0 0.4636459141367551 -0.4765568974702668 0 0.44630804834363602 -0.45525441068934031 0 0.44630804834363602 -0.45525441068934031 0 0.45259826140332188 -0.43079312136857728 0 0.42897018255051689 -0.43395192390841392 0 0.44630804834363602 -0.45525441068934031 0 0.42897018255051689 -0.43395192390841392 0 0.47218418424867709 -0.44843168764585251 0 0.45259826140332188 -0.43079312136857728 0 0.46931997675391912 -0.40722141449383581 0 0.45259826140332188 -0.43079312136857728 0 0.46931997675391912 -0.40722141449383581 0 0.42869180294811271 -0.40013368697946761 0 0.47218418424867709 -0.44843168764585251 0 0.46931997675391912 -0.40722141449383581 0 0.5 -0.42013277262407062 0 0.5 -0.36144527637361312 0 0.46931997675391912 -0.40722141449383581 0 0.5 -0.42013277262407062 0 0.5 -0.36144527637361312 0 0.46931997675391912 -0.40722141449383581 0 0.45487118058901199 -0.38199621202214712 0 0.46931997675391912 -0.40722141449383581 0 0.45487118058901199 -0.38199621202214712 0 0.42869180294811271 -0.40013368697946761 0 0.45487118058901199 -0.38199621202214712 0 0.4295064337016708 -0.37630380625537613 0 0.42869180294811271 -0.40013368697946761 0 0.4295064337016708 -0.37630380625537613 0 0.42869180294811271 -0.40013368697946761 0 0.41075325489251768 -0.38592676112580948 0 0.42869180294811271 -0.40013368697946761 0 0.40568277507322142 -0.39964786269385899 0 0.41163231675739781 -0.41264943712748731 0 0.42869180294811271 -0.40013368697946761 0 0.41075325489251768 -0.38592676112580948 0 0.40568277507322142 -0.39964786269385899 0 0.41178072199276039 -0.36946034709897613 0 0.4295064337016708 -0.37630380625537613 0 0.41075325489251768 -0.38592676112580948 0 0.41178072199276039 -0.36946034709897613 0 0.41075325489251768 -0.38592676112580948 0 0.40124512744111018 -0.37763097726200962 0 0.41075325489251768 -0.38592676112580948 0 0.40124512744111018 -0.37763097726200962 0 0.39360278721834568 -0.38938010938552281 0 0.38985283232992851 -0.37406313562868282 0 0.40124512744111018 -0.37763097726200962 0 0.39360278721834568 -0.38938010938552281 0 0.38985283232992851 -0.37406313562868282 0 0.39360278721834568 -0.38938010938552281 0 0.38218940135637458 -0.38225584858690898 0 0.38234539386482602 -0.37161595648371382 0 0.38985283232992851 -0.37406313562868282 0 0.38218940135637458 -0.38225584858690898 0 0.39360278721834568 -0.38938010938552281 0 0.38218940135637458 -0.38225584858690898 0 0.37906721098711121 -0.3964361635524748 0 0.38218940135637458 -0.38225584858690898 0 0.37906721098711121 -0.3964361635524748 0 0.3725893756201073 -0.38617657497850821 0 0.38234539386482602 -0.37161595648371382 0 0.38218940135637458 -0.38225584858690898 0 0.37575133369273522 -0.37683273687038998 0 0.38218940135637458 -0.38225584858690898 0 0.37575133369273522 -0.37683273687038998 0 0.3725893756201073 -0.38617657497850821 0 0.39360278721834568 -0.38938010938552281 0 0.37906721098711121 -0.3964361635524748 0 0.3900357593394973 -0.40699930696122733 0 0.41075325489251768 -0.38592676112580948 0 0.39360278721834568 -0.38938010938552281 0 0.40568277507322142 -0.39964786269385899 0 0.39360278721834568 -0.38938010938552281 0 0.40568277507322142 -0.39964786269385899 0 0.3900357593394973 -0.40699930696122733 0 0.40568277507322142 -0.39964786269385899 0 0.3900357593394973 -0.40699930696122733 0 0.41163231675739781 -0.41264943712748731 0 0.3900357593394973 -0.40699930696122733 0 0.39413163883159802 -0.4243586204458879 0 0.41163231675739781 -0.41264943712748731 0 0.3900357593394973 -0.40699930696122733 0 0.37646336504577682 -0.42153134523602548 0 0.39413163883159802 -0.4243586204458879 0 0.37906721098711121 -0.3964361635524748 0 0.3900357593394973 -0.40699930696122733 0 0.37646336504577682 -0.42153134523602548 0 0.37646336504577682 -0.42153134523602548 0 0.39104169031469749 -0.44404943858412138 0 0.37646336504577682 -0.42153134523602548 0 0.39104169031469749 -0.44404943858412138 0 0.37913814977281651 -0.44555452444289911 0 0.37646336504577682 -0.42153134523602548 0 0.39413163883159802 -0.4243586204458879 0 0.39104169031469749 -0.44404943858412138 0 0.39413163883159802 -0.4243586204458879 0 0.40733151899913428 -0.43273780035506149 0 0.39104169031469749 -0.44404943858412138 0 0.39413163883159802 -0.4243586204458879 0 0.40733151899913428 -0.43273780035506149 0 0.41163231675739781 -0.41264943712748731 0 0.45259826140332188 -0.43079312136857728 0 0.42869180294811271 -0.40013368697946761 0 0.42897018255051689 -0.43395192390841392 0 0.40733151899913428 -0.43273780035506149 0 0.41163231675739781 -0.41264943712748731 0 0.42897018255051689 -0.43395192390841392 0 0.41163231675739781 -0.41264943712748731 0 0.42897018255051689 -0.43395192390841392 0 0.42869180294811271 -0.40013368697946761 0 0.41163231675739781 -0.41264943712748731 0 0.42897018255051689 -0.43395192390841392 0 0.37523851177864098 -0.47371754287909079 0 0.41109778695890131 -0.5 0 0.34408812366205549 -0.5 0 0.44630804834363602 -0.45525441068934031 0 0.42897018255051689 -0.43395192390841392 0 0.42775395235248143 -0.46350172428493908 0 0.42897018255051689 -0.43395192390841392 0 0.42775395235248143 -0.46350172428493908 0 0.41088176654146119 -0.4486795817093967 0 0.42775395235248143 -0.46350172428493908 0 0.41088176654146119 -0.4486795817093967 0 0.40562001558361821 -0.46656753193221728 0 0.40733151899913428 -0.43273780035506149 0 0.42897018255051689 -0.43395192390841392 0 0.41088176654146119 -0.4486795817093967 0 0.41088176654146119 -0.4486795817093967 0 0.39104169031469749 -0.44404943858412138 0 0.40562001558361821 -0.46656753193221728 0 0.40733151899913428 -0.43273780035506149 0 0.41088176654146119 -0.4486795817093967 0 0.39104169031469749 -0.44404943858412138 0 0.39104169031469749 -0.44404943858412138 0 0.37913814977281651 -0.44555452444289911 0 0.39980292491970371 -0.46415472457675411 0 0.37913814977281651 -0.44555452444289911 0 0.39980292491970371 -0.46415472457675411 0 0.38082278545624881 -0.46020279151301519 0 0.39980292491970371 -0.46415472457675411 0 0.37523851177864098 -0.47371754287909079 0 0.37913814977281651 -0.44555452444289911 0 0.38082278545624881 -0.46020279151301519 0 0.39980292491970371 -0.46415472457675411 0 0.38082278545624881 -0.46020279151301519 0 0.37523851177864098 -0.47371754287909079 0 0.369111555353834 -0.45738437415331701 0 0.37913814977281651 -0.44555452444289911 0 0.38082278545624881 -0.46020279151301519 0 0.369111555353834 -0.45738437415331701 0 0.39104169031469749 -0.44404943858412138 0 0.40562001558361821 -0.46656753193221728 0 0.39104169031469749 -0.44404943858412138 0 0.39980292491970371 -0.46415472457675411 0 0.40562001558361821 -0.46656753193221728 0 0.39980292491970371 -0.46415472457675411 0 0.37523851177864098 -0.47371754287909079 0 0.41109778695890131 -0.5 0 0.39980292491970371 -0.46415472457675411 0 0.40562001558361821 -0.46656753193221728 0 0.41109778695890131 -0.5 0 0.42775395235248143 -0.46350172428493908 0 0.40562001558361821 -0.46656753193221728 0 0.41109778695890131 -0.5 0 0.4636459141367551 -0.4765568974702668 0 0.42775395235248143 -0.46350172428493908 0 0.41109778695890131 -0.5 0 0.31868831182379492 -0.47460448765723601 0 0.34408812366205549 -0.5 0 0.34725270303591199 -0.46165050048431538 0 0.31868831182379492 -0.47460448765723601 0 0.34408812366205549 -0.5 0 0.29358541846982961 -0.5 0 0.37523851177864098 -0.47371754287909079 0 0.34408812366205549 -0.5 0 0.34725270303591199 -0.46165050048431538 0 0.34725270303591199 -0.46165050048431538 0 0.369111555353834 -0.45738437415331701 0 0.35895718600688548 -0.44614595515701388 0 0.37523851177864098 -0.47371754287909079 0 0.34725270303591199 -0.46165050048431538 0 0.369111555353834 -0.45738437415331701 0 0.37913814977281651 -0.44555452444289911 0 0.369111555353834 -0.45738437415331701 0 0.35895718600688548 -0.44614595515701388 0 0.37913814977281651 -0.44555452444289911 0 0.35895718600688548 -0.44614595515701388 0 0.35847337462592921 -0.42695432430904412 0 0.35895718600688548 -0.44614595515701388 0 0.34214415181649999 -0.44039282659351159 0 0.35847337462592921 -0.42695432430904412 0 0.34725270303591199 -0.46165050048431538 0 0.35895718600688548 -0.44614595515701388 0 0.34214415181649999 -0.44039282659351159 0 0.34725270303591199 -0.46165050048431538 0 0.34214415181649999 -0.44039282659351159 0 0.31983498040145031 -0.44649870074235598 0 0.31868831182379492 -0.47460448765723601 0 0.34725270303591199 -0.46165050048431538 0 0.31983498040145031 -0.44649870074235598 0 0.31983498040145031 -0.44649870074235598 0 0.32870697664902088 -0.42422763619409409 0 0.31076565243682508 -0.42931543849232362 0 0.32870697664902088 -0.42422763619409409 0 0.31118591922025568 -0.41568402757079898 0 0.31076565243682508 -0.42931543849232362 0 0.32870697664902088 -0.42422763619409409 0 0.3216375343900556 -0.40619296884350792 0 0.31118591922025568 -0.41568402757079898 0 0.3216375343900556 -0.40619296884350792 0 0.31184844400754602 -0.40115600451131522 0 0.31118591922025568 -0.41568402757079898 0 0.33780859947904202 -0.40835412417518901 0 0.32870697664902088 -0.42422763619409409 0 0.3216375343900556 -0.40619296884350792 0 0.33780859947904202 -0.40835412417518901 0 0.32870697664902088 -0.42422763619409409 0 0.35847337462592921 -0.42695432430904412 0 0.34214415181649999 -0.44039282659351159 0 0.32870697664902088 -0.42422763619409409 0 0.35847337462592921 -0.42695432430904412 0 0.34214415181649999 -0.44039282659351159 0 0.31983498040145031 -0.44649870074235598 0 0.32870697664902088 -0.42422763619409409 0 0.37913814977281651 -0.44555452444289911 0 0.35847337462592921 -0.42695432430904412 0 0.37646336504577682 -0.42153134523602548 0 0.37913814977281651 -0.44555452444289911 0 0.35847337462592921 -0.42695432430904412 0 0.37646336504577682 -0.42153134523602548 0 0.35847337462592921 -0.42695432430904412 0 0.36188503977685621 -0.39901325188792969 0 0.37646336504577682 -0.42153134523602548 0 0.36188503977685621 -0.39901325188792969 0 0.33780859947904202 -0.40835412417518901 0 0.35847337462592921 -0.42695432430904412 0 0.33780859947904202 -0.40835412417518901 0 0.35847337462592921 -0.42695432430904412 0 0.36188503977685621 -0.39901325188792969 0 0.36188503977685621 -0.39901325188792969 0 0.35168057921699658 -0.38637396419872228 0 0.34225243093622848 -0.39372756618582022 0 0.33780859947904202 -0.40835412417518901 0 0.36188503977685621 -0.39901325188792969 0 0.34225243093622848 -0.39372756618582022 0 0.37906721098711121 -0.3964361635524748 0 0.36188503977685621 -0.39901325188792969 0 0.3725893756201073 -0.38617657497850821 0 0.37906721098711121 -0.3964361635524748 0 0.37646336504577682 -0.42153134523602548 0 0.36188503977685621 -0.39901325188792969 0 0.36188503977685621 -0.39901325188792969 0 0.3725893756201073 -0.38617657497850821 0 0.36550550193374109 -0.37967124366964988 0 0.36188503977685621 -0.39901325188792969 0 0.36550550193374109 -0.37967124366964988 0 0.35168057921699658 -0.38637396419872228 0 0.37575133369273522 -0.37683273687038998 0 0.3725893756201073 -0.38617657497850821 0 0.36550550193374109 -0.37967124366964988 0 0.36550550193374109 -0.37967124366964988 0 0.35168057921699658 -0.38637396419872228 0 0.35670474165818711 -0.37413374501353031 0 0.33692428299517091 -0.38194383452743141 0 0.35670474165818711 -0.37413374501353031 0 0.35168057921699658 -0.38637396419872228 0 0.33692428299517091 -0.38194383452743141 0 0.35670474165818711 -0.37413374501353031 0 0.33692428299517091 -0.38194383452743141 0 0.3497455307085422 -0.37116936227286262 0 0.35670474165818711 -0.37413374501353031 0 0.33692428299517091 -0.38194383452743141 0 0.32451589477235632 -0.3805039270611319 0 0.3497455307085422 -0.37116936227286262 0 0.33692428299517091 -0.38194383452743141 0 0.33353228443564897 -0.39344486223244318 0 0.3171438243321551 -0.38975392404133369 0 0.32451589477235632 -0.3805039270611319 0 0.3497455307085422 -0.37116936227286262 0 0.33692428299517091 -0.38194383452743141 0 0.34225243093622848 -0.39372756618582022 0 0.33353228443564897 -0.39344486223244318 0 0.35168057921699658 -0.38637396419872228 0 0.33692428299517091 -0.38194383452743141 0 0.34225243093622848 -0.39372756618582022 0 0.33780859947904202 -0.40835412417518901 0 0.33353228443564897 -0.39344486223244318 0 0.3171438243321551 -0.38975392404133369 0 0.33780859947904202 -0.40835412417518901 0 0.34225243093622848 -0.39372756618582022 0 0.33353228443564897 -0.39344486223244318 0 0.3216375343900556 -0.40619296884350792 0 0.3171438243321551 -0.38975392404133369 0 0.31184844400754602 -0.40115600451131522 0 0.33780859947904202 -0.40835412417518901 0 0.3171438243321551 -0.38975392404133369 0 0.33780859947904202 -0.40835412417518901 0 0.3216375343900556 -0.40619296884350792 0 0.3171438243321551 -0.38975392404133369 0 0.31473524050889778 -0.39070492601665763 0 0.3171438243321551 -0.38975392404133369 0 0.31184844400754602 -0.40115600451131522 0 0.3171438243321551 -0.38975392404133369 0 0.32451589477235632 -0.3805039270611319 0 0.31200834663845739 -0.38513152131946871 0 0.32451589477235632 -0.3805039270611319 0 0.31200834663845739 -0.38513152131946871 0 0.31473524050889778 -0.39070492601665763 0 0.3171438243321551 -0.38975392404133369 0 0.31200834663845739 -0.38513152131946871 0 0.33692428299517091 -0.38194383452743141 0 0.3171438243321551 -0.38975392404133369 0 0.32451589477235632 -0.3805039270611319 0 0.3171438243321551 -0.38975392404133369 0 0.31200834663845739 -0.38513152131946871 0 0.33692428299517091 -0.38194383452743141 0 0.3171438243321551 -0.38975392404133369 0 0.31473524050889778 -0.39070492601665763 0 0.3171438243321551 -0.38975392404133369 0 0.31733818943790881 -0.37790850518960978 0 0.31081738867531422 -0.37608488326482409 0 0.31200834663845739 -0.38513152131946871 0 0.31733818943790881 -0.37790850518960978 0 0.32451589477235632 -0.3805039270611319 0 0.31200834663845739 -0.38513152131946871 0 0.31733818943790881 -0.37790850518960978 0 0.31081738867531422 -0.37608488326482409 0 0.31651823040137472 -0.37104163235717103 0 0.31733818943790881 -0.37790850518960978 0 0.32451589477235632 -0.3805039270611319 0 0.32656154733158371 -0.36914920215321162 0 0.3171438243321551 -0.38975392404133369 0 0.32451589477235632 -0.3805039270611319 0 0.30074944021728928 -0.38929713796567278 0 0.30087887191891721 -0.38237028820663072 0 0.31200834663845739 -0.38513152131946871 0 0.30074944021728928 -0.38929713796567278 0 0.30087887191891721 -0.38237028820663072 0 0.29272165566417968 -0.38148077414825782 0 0.30074944021728928 -0.38929713796567278 0 0.30724237529501802 -0.39070686845439251 0 0.30074944021728928 -0.38929713796567278 0 0.29731078109748571 -0.39056938725297102 0 0.30125491439284202 -0.37545244228412589 0 0.30087887191891721 -0.38237028820663072 0 0.29468253797650962 -0.37505353359411409 0 0.30125491439284202 -0.37545244228412589 0 0.31200834663845739 -0.38513152131946871 0 0.30125491439284202 -0.37545244228412589 0 0.31081738867531422 -0.37608488326482409 0 0.31200834663845739 -0.38513152131946871 0 0.30125491439284202 -0.37545244228412589 0 0.30087887191891721 -0.38237028820663072 0 0.31200834663845739 -0.38513152131946871 0 0.30074944021728928 -0.38929713796567278 0 0.31200834663845739 -0.38513152131946871 0 0.30724237529501802 -0.39070686845439251 0 0.30074944021728928 -0.38929713796567278 0 0.31200834663845739 -0.38513152131946871 0 0.31473524050889778 -0.39070492601665763 0 0.31200834663845739 -0.38513152131946871 0 0.30724237529501802 -0.39070686845439251 0 0.31473524050889778 -0.39070492601665763 0 0.30281862903424178 -0.39541006475509671 0 0.29727024040171812 -0.40892052213655988 0 0.31473524050889778 -0.39070492601665763 0 0.30281862903424178 -0.39541006475509671 0 0.31473524050889778 -0.39070492601665763 0 0.29727024040171812 -0.40892052213655988 0 0.31473524050889778 -0.39070492601665763 0 0.30724237529501802 -0.39070686845439251 0 0.30281862903424178 -0.39541006475509671 0 0.31473524050889778 -0.39070492601665763 0 0.31184844400754602 -0.40115600451131522 0 0.29727024040171812 -0.40892052213655988 0 0.30281862903424178 -0.39541006475509671 0 0.29430326242677091 -0.39954524430462851 0 0.29727024040171812 -0.40892052213655988 0 0.30281862903424178 -0.39541006475509671 0 0.29597039466305758 -0.39461290342059629 0 0.29430326242677091 -0.39954524430462851 0 0.30074944021728928 -0.38929713796567278 0 0.30724237529501802 -0.39070686845439251 0 0.30281862903424178 -0.39541006475509671 0 0.30074944021728928 -0.38929713796567278 0 0.29731078109748571 -0.39056938725297102 0 0.30281862903424178 -0.39541006475509671 0 0.29731078109748571 -0.39056938725297102 0 0.30281862903424178 -0.39541006475509671 0 0.29597039466305758 -0.39461290342059629 0 0.29731078109748571 -0.39056938725297102 0 0.29597039466305758 -0.39461290342059629 0 0.28944890609373197 -0.39292691736968888 0 0.28944890609373197 -0.39292691736968888 0 0.29430326242677091 -0.39954524430462851 0 0.28483851071920502 -0.39971744616474059 0 0.29597039466305758 -0.39461290342059629 0 0.28944890609373197 -0.39292691736968888 0 0.29430326242677091 -0.39954524430462851 0 0.29430326242677091 -0.39954524430462851 0 0.28483851071920502 -0.39971744616474059 0 0.29727024040171812 -0.40892052213655988 0 0.28944890609373197 -0.39292691736968888 0 0.28483851071920502 -0.39971744616474059 0 0.28044175211659811 -0.38488798143965519 0 0.30074944021728928 -0.38929713796567278 0 0.29731078109748571 -0.39056938725297102 0 0.28044175211659811 -0.38488798143965519 0 0.30074944021728928 -0.38929713796567278 0 0.28044175211659811 -0.38488798143965519 0 0.30074944021728928 -0.38929713796567278 0 0.29272165566417968 -0.38148077414825782 0 0.28044175211659811 -0.38488798143965519 0 0.29731078109748571 -0.39056938725297102 0 0.28944890609373197 -0.39292691736968888 0 0.28044175211659811 -0.38488798143965519 0 0.30087887191891721 -0.38237028820663072 0 0.29468253797650962 -0.37505353359411409 0 0.29272165566417968 -0.38148077414825782 0 0.29468253797650962 -0.37505353359411409 0 0.29272165566417968 -0.38148077414825782 0 0.28712009536255512 -0.37555389988898102 0 0.29272165566417968 -0.38148077414825782 0 0.28712009536255512 -0.37555389988898102 0 0.28044175211659811 -0.38488798143965519 0 0.28712009536255512 -0.37555389988898102 0 0.28044175211659811 -0.38488798143965519 0 0.28062042269181919 -0.37395588221133558 0 0.28044175211659811 -0.38488798143965519 0 0.26013406401590672 -0.38047882491363849 0 0.26624182353569531 -0.37453487882786929 0 0.28044175211659811 -0.38488798143965519 0 0.26013406401590672 -0.38047882491363849 0 0.28044175211659811 -0.38488798143965519 0 0.26759888073157778 -0.38965162053523827 0 0.26013406401590672 -0.38047882491363849 0 0.28044175211659811 -0.38488798143965519 0 0.27302933098373239 -0.3720445187767164 0 0.28062042269181919 -0.37395588221133558 0 0.28044175211659811 -0.38488798143965519 0 0.26624182353569531 -0.37453487882786929 0 0.27302933098373239 -0.3720445187767164 0 0.26013406401590672 -0.38047882491363849 0 0.25831589449737669 -0.38339136364634541 0 0.23982637591521519 -0.37606966838762163 0 0.26013406401590672 -0.38047882491363849 0 0.25375531452165939 -0.37623440762837412 0 0.23982637591521519 -0.37606966838762163 0 0.25831589449737669 -0.38339136364634541 0 0.25262985795907278 -0.38262555595729458 0 0.23982637591521519 -0.37606966838762163 0 0.26039509775932151 -0.37535611644817157 0 0.26013406401590672 -0.38047882491363849 0 0.26624182353569531 -0.37453487882786929 0 0.26039509775932151 -0.37535611644817157 0 0.26013406401590672 -0.38047882491363849 0 0.25375531452165939 -0.37623440762837412 0 0.26759888073157778 -0.38965162053523827 0 0.25262985795907278 -0.38262555595729458 0 0.26759888073157778 -0.38965162053523827 0 0.26013406401590672 -0.38047882491363849 0 0.25831589449737669 -0.38339136364634541 0 0.26759888073157778 -0.38965162053523827 0 0.25262985795907278 -0.38262555595729458 0 0.25527927598515687 -0.39257823752362669 0 0.26759888073157778 -0.38965162053523827 0 0.25831589449737669 -0.38339136364634541 0 0.25262985795907278 -0.38262555595729458 0 0.25262985795907278 -0.38262555595729458 0 0.25527927598515687 -0.39257823752362669 0 0.24797184102598641 -0.38734771304747279 0 0.25191562489914582 -0.403836855131881 0 0.26357342846648779 -0.39829469068007012 0 0.26883282526468583 -0.40733423329173191 0 0.25191562489914582 -0.403836855131881 0 0.25527927598515687 -0.39257823752362669 0 0.26357342846648779 -0.39829469068007012 0 0.25191562489914582 -0.403836855131881 0 0.25527927598515687 -0.39257823752362669 0 0.24749080516554131 -0.39358411427499751 0 0.25527927598515687 -0.39257823752362669 0 0.24749080516554131 -0.39358411427499751 0 0.24797184102598641 -0.38734771304747279 0 0.26759888073157778 -0.38965162053523827 0 0.25527927598515687 -0.39257823752362669 0 0.26357342846648779 -0.39829469068007012 0 0.26357342846648779 -0.39829469068007012 0 0.27424053545187299 -0.39807250691787238 0 0.26883282526468583 -0.40733423329173191 0 0.26759888073157778 -0.38965162053523827 0 0.26357342846648779 -0.39829469068007012 0 0.27424053545187299 -0.39807250691787238 0 0.28044175211659811 -0.38488798143965519 0 0.26759888073157778 -0.38965162053523827 0 0.27424053545187299 -0.39807250691787238 0 0.28483851071920502 -0.39971744616474059 0 0.28044175211659811 -0.38488798143965519 0 0.27424053545187299 -0.39807250691787238 0 0.27424053545187299 -0.39807250691787238 0 0.26883282526468583 -0.40733423329173191 0 0.28134935645493048 -0.41196038256586631 0 0.28483851071920502 -0.39971744616474059 0 0.27424053545187299 -0.39807250691787238 0 0.28134935645493048 -0.41196038256586631 0 0.26883282526468583 -0.40733423329173191 0 0.27980524029453868 -0.42713611825646253 0 0.28134935645493048 -0.41196038256586631 0 0.26883282526468583 -0.40733423329173191 0 0.25879287694914321 -0.41560606491866858 0 0.27980524029453868 -0.42713611825646253 0 0.25191562489914582 -0.403836855131881 0 0.26883282526468583 -0.40733423329173191 0 0.25879287694914321 -0.41560606491866858 0 0.25879287694914321 -0.41560606491866858 0 0.25604227931608808 -0.42832054380316031 0 0.24595077245144839 -0.41665411901766092 0 0.25191562489914582 -0.403836855131881 0 0.25879287694914321 -0.41560606491866858 0 0.24595077245144839 -0.41665411901766092 0 0.25879287694914321 -0.41560606491866858 0 0.25604227931608808 -0.42832054380316031 0 0.27980524029453868 -0.42713611825646253 0 0.25604227931608808 -0.42832054380316031 0 0.27980524029453868 -0.42713611825646253 0 0.26568370113119583 -0.44669878343255831 0 0.27980524029453868 -0.42713611825646253 0 0.29688666743636921 -0.42429159524699372 0 0.29687926099881168 -0.43966745170869109 0 0.27980524029453868 -0.42713611825646253 0 0.29727024040171812 -0.40892052213655988 0 0.29688666743636921 -0.42429159524699372 0 0.27980524029453868 -0.42713611825646253 0 0.28134935645493048 -0.41196038256586631 0 0.29727024040171812 -0.40892052213655988 0 0.28483851071920502 -0.39971744616474059 0 0.28134935645493048 -0.41196038256586631 0 0.29727024040171812 -0.40892052213655988 0 0.27980524029453868 -0.42713611825646253 0 0.29727024040171812 -0.40892052213655988 0 0.29727024040171812 -0.40892052213655988 0 0.31118591922025568 -0.41568402757079898 0 0.29688666743636921 -0.42429159524699372 0 0.31184844400754602 -0.40115600451131522 0 0.29727024040171812 -0.40892052213655988 0 0.31118591922025568 -0.41568402757079898 0 0.31118591922025568 -0.41568402757079898 0 0.31076565243682508 -0.42931543849232362 0 0.29688666743636921 -0.42429159524699372 0 0.31076565243682508 -0.42931543849232362 0 0.29688666743636921 -0.42429159524699372 0 0.29687926099881168 -0.43966745170869109 0 0.26435448448350718 -0.4787772290542629 0 0.29358541846982961 -0.5 0 0.2268251930842379 -0.49999999999999889 0 0.31983498040145031 -0.44649870074235598 0 0.29687926099881168 -0.43966745170869109 0 0.28868033354972678 -0.46487323705950839 0 0.31983498040145031 -0.44649870074235598 0 0.31076565243682508 -0.42931543849232362 0 0.29687926099881168 -0.43966745170869109 0 0.31868831182379492 -0.47460448765723601 0 0.31983498040145031 -0.44649870074235598 0 0.28868033354972678 -0.46487323705950839 0 0.29687926099881168 -0.43966745170869109 0 0.28868033354972678 -0.46487323705950839 0 0.26568370113119583 -0.44669878343255831 0 0.27980524029453868 -0.42713611825646253 0 0.29687926099881168 -0.43966745170869109 0 0.26568370113119583 -0.44669878343255831 0 0.26568370113119583 -0.44669878343255831 0 0.2461781339165178 -0.45593835348483308 0 0.23968257135213941 -0.44784739402877238 0 0.25604227931608808 -0.42832054380316031 0 0.26568370113119583 -0.44669878343255831 0 0.23968257135213941 -0.44784739402877238 0 0.26568370113119583 -0.44669878343255831 0 0.23968257135213941 -0.44784739402877238 0 0.26568370113119583 -0.44669878343255831 0 0.26274331173437537 -0.46330535361607011 0 0.2461781339165178 -0.45593835348483308 0 0.26274331173437537 -0.46330535361607011 0 0.25066913662040152 -0.46960567687327343 0 0.2461781339165178 -0.45593835348483308 0 0.28868033354972678 -0.46487323705950839 0 0.26568370113119583 -0.44669878343255831 0 0.26274331173437537 -0.46330535361607011 0 0.28868033354972678 -0.46487323705950839 0 0.26274331173437537 -0.46330535361607011 0 0.26435448448350718 -0.4787772290542629 0 0.26435448448350718 -0.4787772290542629 0 0.25066913662040152 -0.46960567687327343 0 0.2365016635003776 -0.4779691767424159 0 0.26274331173437537 -0.46330535361607011 0 0.26435448448350718 -0.4787772290542629 0 0.25066913662040152 -0.46960567687327343 0 0.31868831182379492 -0.47460448765723601 0 0.28868033354972678 -0.46487323705950839 0 0.29358541846982961 -0.5 0 0.28868033354972678 -0.46487323705950839 0 0.26435448448350718 -0.4787772290542629 0 0.29358541846982961 -0.5 0 0.33080434841695783 -0.29074829287130521 0 0.32965780542240031 -0.27691611536811839 0 0.34653660693114219 -0.28206710405808127 0 0.33080434841695783 -0.29074829287130521 0 0.34048218640109079 -0.29769810510013028 0 0.34653660693114219 -0.28206710405808127 0 0.33080434841695783 -0.29074829287130521 0 0.34048218640109079 -0.29769810510013028 0 0.32882547648512522 -0.30000389176608211 0 0.34048218640109079 -0.29769810510013028 0 0.33873551144038527 -0.31192472829795859 0 0.32882547648512522 -0.30000389176608211 0 0.33873551144038527 -0.31192472829795859 0 0.31462670788880859 -0.30514034638872811 0 0.32882547648512522 -0.30000389176608211 0 0.31462670788880859 -0.30514034638872811 0 0.31947862827838341 -0.29450798617228829 0 0.31462670788880859 -0.30514034638872811 0 0.32356643349366909 -0.315722087904166 0 0.30768770755148411 -0.31625887968496008 0 0.33873551144038527 -0.31192472829795859 0 0.32882547648512522 -0.30000389176608211 0 0.31462670788880859 -0.30514034638872811 0 0.33873551144038527 -0.31192472829795859 0 0.31462670788880859 -0.30514034638872811 0 0.32356643349366909 -0.315722087904166 0 0.31462670788880859 -0.30514034638872811 0 0.31947862827838341 -0.29450798617228829 0 0.3091931624115945 -0.29635899131314541 0 0.31947862827838341 -0.29450798617228829 0 0.30977078155910132 -0.2883419886758033 0 0.3091931624115945 -0.29635899131314541 0 0.33080434841695783 -0.29074829287130521 0 0.32882547648512522 -0.30000389176608211 0 0.31947862827838341 -0.29450798617228829 0 0.33080434841695783 -0.29074829287130521 0 0.31947862827838341 -0.29450798617228829 0 0.3197131959765161 -0.28239582380179301 0 0.33080434841695783 -0.29074829287130521 0 0.3197131959765161 -0.28239582380179301 0 0.32965780542240031 -0.27691611536811839 0 0.31947862827838341 -0.29450798617228829 0 0.3197131959765161 -0.28239582380179301 0 0.30977078155910132 -0.2883419886758033 0 0.31509102578424852 -0.27192589933182021 0 0.32132836083141447 -0.25869816695462983 0 0.32965780542240031 -0.27691611536811839 0 0.3197131959765161 -0.28239582380179301 0 0.31509102578424852 -0.27192589933182021 0 0.30470102983776048 -0.27729653019685002 0 0.3197131959765161 -0.28239582380179301 0 0.31509102578424852 -0.27192589933182021 0 0.32965780542240031 -0.27691611536811839 0 0.31509102578424852 -0.27192589933182021 0 0.32132836083141447 -0.25869816695462983 0 0.30142790699742789 -0.26480033043832729 0 0.33084431285168597 -0.2421128803149821 0 0.32132836083141447 -0.25869816695462983 0 0.33552640377636223 -0.26286363857661149 0 0.34511110575225162 -0.2497895771887422 0 0.33552640377636223 -0.26286363857661149 0 0.34987549789431899 -0.26546285629266247 0 0.33084431285168597 -0.2421128803149821 0 0.34511110575225162 -0.2497895771887422 0 0.33552640377636223 -0.26286363857661149 0 0.33552640377636223 -0.26286363857661149 0 0.32965780542240031 -0.27691611536811839 0 0.34653660693114219 -0.28206710405808127 0 0.32132836083141447 -0.25869816695462983 0 0.33552640377636223 -0.26286363857661149 0 0.32965780542240031 -0.27691611536811839 0 0.33552640377636223 -0.26286363857661149 0 0.34987549789431899 -0.26546285629266247 0 0.34653660693114219 -0.28206710405808127 0 0.34987549789431899 -0.26546285629266247 0 0.36329898133796179 -0.27118029427363299 0 0.34653660693114219 -0.28206710405808127 0 0.34511110575225162 -0.2497895771887422 0 0.34987549789431899 -0.26546285629266247 0 0.35999001524652302 -0.25407051354681798 0 0.34987549789431899 -0.26546285629266247 0 0.35999001524652302 -0.25407051354681798 0 0.36329898133796179 -0.27118029427363299 0 0.37599739442549401 -0.25413598833060908 0 0.35999001524652302 -0.25407051354681798 0 0.36329898133796179 -0.27118029427363299 0 0.37988327898556268 -0.28017831707622581 0 0.36329898133796179 -0.27118029427363299 0 0.36659040915697022 -0.29146125278917062 0 0.37988327898556268 -0.28017831707622581 0 0.37599739442549401 -0.25413598833060908 0 0.36329898133796179 -0.27118029427363299 0 0.36659040915697022 -0.29146125278917062 0 0.34653660693114219 -0.28206710405808127 0 0.35250551392271168 -0.29832796041331611 0 0.34048218640109079 -0.29769810510013028 0 0.34653660693114219 -0.28206710405808127 0 0.35250551392271168 -0.29832796041331611 0 0.36329898133796179 -0.27118029427363299 0 0.36659040915697022 -0.29146125278917062 0 0.34653660693114219 -0.28206710405808127 0 0.33873551144038527 -0.31192472829795859 0 0.36089048936834089 -0.30627297123289249 0 0.3628443149919619 -0.31870911020718928 0 0.33873551144038527 -0.31192472829795859 0 0.35250551392271168 -0.29832796041331611 0 0.36089048936834089 -0.30627297123289249 0 0.34048218640109079 -0.29769810510013028 0 0.33873551144038527 -0.31192472829795859 0 0.35250551392271168 -0.29832796041331611 0 0.36089048936834089 -0.30627297123289249 0 0.3740360814172552 -0.30482459059460548 0 0.3628443149919619 -0.31870911020718928 0 0.36659040915697022 -0.29146125278917062 0 0.36089048936834089 -0.30627297123289249 0 0.3740360814172552 -0.30482459059460548 0 0.36659040915697022 -0.29146125278917062 0 0.35250551392271168 -0.29832796041331611 0 0.36089048936834089 -0.30627297123289249 0 0.3822115312300981 -0.32415917707579478 0 0.3628443149919619 -0.31870911020718928 0 0.37056996727289587 -0.32839188471441277 0 0.3822115312300981 -0.32415917707579478 0 0.3628443149919619 -0.31870911020718928 0 0.3628443149919619 -0.31870911020718928 0 0.37056996727289587 -0.32839188471441277 0 0.36117448259664181 -0.33019331593686058 0 0.37056996727289587 -0.32839188471441277 0 0.37348363934412848 -0.34063857354721577 0 0.36117448259664181 -0.33019331593686058 0 0.37348363934412848 -0.34063857354721577 0 0.36117448259664181 -0.33019331593686058 0 0.35555444199428993 -0.34179213160359412 0 0.36117448259664181 -0.33019331593686058 0 0.35555444199428993 -0.34179213160359412 0 0.34920381617543628 -0.32189932771988228 0 0.35555444199428993 -0.34179213160359412 0 0.34920381617543628 -0.32189932771988228 0 0.33162107477288688 -0.32902550564427702 0 0.33873551144038527 -0.31192472829795859 0 0.3628443149919619 -0.31870911020718928 0 0.33873551144038527 -0.31192472829795859 0 0.3628443149919619 -0.31870911020718928 0 0.34920381617543628 -0.32189932771988228 0 0.3628443149919619 -0.31870911020718928 0 0.34920381617543628 -0.32189932771988228 0 0.3628443149919619 -0.31870911020718928 0 0.36117448259664181 -0.33019331593686058 0 0.34920381617543628 -0.32189932771988228 0 0.37648520032120342 -0.3663236554996292 0 0.35670474165818711 -0.37413374501353031 0 0.3749751666447283 -0.36183479748459391 0 0.3497455307085422 -0.37116936227286262 0 0.3749751666447283 -0.36183479748459391 0 0.3497455307085422 -0.37116936227286262 0 0.35670474165818711 -0.37413374501353031 0 0.3749751666447283 -0.36183479748459391 0 0.36105171601068331 -0.36232965853858817 0 0.3497455307085422 -0.37116936227286262 0 0.37648520032120342 -0.3663236554996292 0 0.3749751666447283 -0.36183479748459391 0 0.35670474165818711 -0.37413374501353031 0 0.37648520032120342 -0.3663236554996292 0 0.36550550193374109 -0.37967124366964988 0 0.35670474165818711 -0.37413374501353031 0 0.37648520032120342 -0.3663236554996292 0 0.37575133369273522 -0.37683273687038998 0 0.36550550193374109 -0.37967124366964988 0 0.3749751666447283 -0.36183479748459391 0 0.36105171601068331 -0.36232965853858817 0 0.36704415181528538 -0.35766707909708162 0 0.37348363934412848 -0.34063857354721577 0 0.36403277299619102 -0.34988609376421143 0 0.34822379045186957 -0.34941274506706399 0 0.37348363934412848 -0.34063857354721577 0 0.34822379045186957 -0.34941274506706399 0 0.36105171601068331 -0.36232965853858817 0 0.36218961946005129 -0.35741102277749331 0 0.35672374461363249 -0.35708525648515582 0 0.36218961946005129 -0.35741102277749331 0 0.36403277299619102 -0.34988609376421143 0 0.35672374461363249 -0.35708525648515582 0 0.36218961946005129 -0.35741102277749331 0 0.36704415181528538 -0.35766707909708162 0 0.36403277299619102 -0.34988609376421143 0 0.36105171601068331 -0.36232965853858817 0 0.36218961946005129 -0.35741102277749331 0 0.36704415181528538 -0.35766707909708162 0 0.3749751666447283 -0.36183479748459391 0 0.36704415181528538 -0.35766707909708162 0 0.37243122142124518 -0.35615963110985549 0 0.37243122142124518 -0.35615963110985549 0 0.3744951480075942 -0.35066427621442442 0 0.36403277299619102 -0.34988609376421143 0 0.36704415181528538 -0.35766707909708162 0 0.37243122142124518 -0.35615963110985549 0 0.36403277299619102 -0.34988609376421143 0 0.37348363934412848 -0.34063857354721577 0 0.3744951480075942 -0.35066427621442442 0 0.36403277299619102 -0.34988609376421143 0 0.37348363934412848 -0.34063857354721577 0 0.35555444199428993 -0.34179213160359412 0 0.34822379045186957 -0.34941274506706399 0 0.35555444199428993 -0.34179213160359412 0 0.34822379045186957 -0.34941274506706399 0 0.33532521964461848 -0.34424399163981551 0 0.36403277299619102 -0.34988609376421143 0 0.34822379045186957 -0.34941274506706399 0 0.35112450151104518 -0.35275175811233189 0 0.34822379045186957 -0.34941274506706399 0 0.35112450151104518 -0.35275175811233189 0 0.33782019814170111 -0.3666278425867322 0 0.36403277299619102 -0.34988609376421143 0 0.35112450151104518 -0.35275175811233189 0 0.35672374461363249 -0.35708525648515582 0 0.35112450151104518 -0.35275175811233189 0 0.35672374461363249 -0.35708525648515582 0 0.35072776353668861 -0.35960044939757441 0 0.36105171601068331 -0.36232965853858817 0 0.35344819685459278 -0.36288375508335119 0 0.3497455307085422 -0.37116936227286262 0 0.36105171601068331 -0.36232965853858817 0 0.35672374461363249 -0.35708525648515582 0 0.35344819685459278 -0.36288375508335119 0 0.35672374461363249 -0.35708525648515582 0 0.35344819685459278 -0.36288375508335119 0 0.35072776353668861 -0.35960044939757441 0 0.35344819685459278 -0.36288375508335119 0 0.35072776353668861 -0.35960044939757441 0 0.34899222940341751 -0.36423404872257509 0 0.35112450151104518 -0.35275175811233189 0 0.35072776353668861 -0.35960044939757441 0 0.33782019814170111 -0.3666278425867322 0 0.35344819685459278 -0.36288375508335119 0 0.34899222940341751 -0.36423404872257509 0 0.3497455307085422 -0.37116936227286262 0 0.35112450151104518 -0.35275175811233189 0 0.33782019814170111 -0.3666278425867322 0 0.35072776353668861 -0.35960044939757441 0 0.34899222940341751 -0.36423404872257509 0 0.33782019814170111 -0.3666278425867322 0 0.34899222940341751 -0.36423404872257509 0 0.3497455307085422 -0.37116936227286262 0 0.33782019814170111 -0.3666278425867322 0 0.32451589477235632 -0.3805039270611319 0 0.3497455307085422 -0.37116936227286262 0 0.33782019814170111 -0.3666278425867322 0 0.32451589477235632 -0.3805039270611319 0 0.33782019814170111 -0.3666278425867322 0 0.32656154733158371 -0.36914920215321162 0 0.32451589477235632 -0.3805039270611319 0 0.33782019814170111 -0.3666278425867322 0 0.33782019814170111 -0.3666278425867322 0 0.32296394155961072 -0.35818691658691232 0 0.32656154733158371 -0.36914920215321162 0 0.34822379045186957 -0.34941274506706399 0 0.32296394155961072 -0.35818691658691232 0 0.34822379045186957 -0.34941274506706399 0 0.33782019814170111 -0.3666278425867322 0 0.32296394155961072 -0.35818691658691232 0 0.34822379045186957 -0.34941274506706399 0 0.33532521964461848 -0.34424399163981551 0 0.32296394155961072 -0.35818691658691232 0 0.33532521964461848 -0.34424399163981551 0 0.32296394155961072 -0.35818691658691232 0 0.32174015242745169 -0.34211471974346991 0 0.32296394155961072 -0.35818691658691232 0 0.32174015242745169 -0.34211471974346991 0 0.30607567145869519 -0.34974754393905277 0 0.32296394155961072 -0.35818691658691232 0 0.31651823040137472 -0.37104163235717103 0 0.32656154733158371 -0.36914920215321162 0 0.32296394155961072 -0.35818691658691232 0 0.31651823040137472 -0.37104163235717103 0 0.30985171353929869 -0.36954539251995883 0 0.31733818943790881 -0.37790850518960978 0 0.31651823040137472 -0.37104163235717103 0 0.32656154733158371 -0.36914920215321162 0 0.33873551144038527 -0.31192472829795859 0 0.33162107477288688 -0.32902550564427702 0 0.32356643349366909 -0.315722087904166 0 0.33873551144038527 -0.31192472829795859 0 0.34920381617543628 -0.32189932771988228 0 0.33162107477288688 -0.32902550564427702 0 0.35555444199428993 -0.34179213160359412 0 0.33162107477288688 -0.32902550564427702 0 0.35555444199428993 -0.34179213160359412 0 0.33532521964461848 -0.34424399163981551 0 0.33162107477288688 -0.32902550564427702 0 0.33532521964461848 -0.34424399163981551 0 0.33162107477288688 -0.32902550564427702 0 0.32174015242745169 -0.34211471974346991 0 0.33162107477288688 -0.32902550564427702 0 0.32174015242745169 -0.34211471974346991 0 0.31271485470144728 -0.32936964090729148 0 0.32174015242745169 -0.34211471974346991 0 0.31271485470144728 -0.32936964090729148 0 0.30607567145869519 -0.34974754393905277 0 0.33162107477288688 -0.32902550564427702 0 0.32356643349366909 -0.315722087904166 0 0.30768770755148411 -0.31625887968496008 0 0.33162107477288688 -0.32902550564427702 0 0.31271485470144728 -0.32936964090729148 0 0.30768770755148411 -0.31625887968496008 0 0.33162107477288688 -0.32902550564427702 0 0.30768770755148411 -0.31625887968496008 0 0.30768770755148411 -0.31625887968496008 0 0.29988541917444728 -0.3275991343708759 0 0.28875665365127451 -0.32195426472718308 0 0.31271485470144728 -0.32936964090729148 0 0.30768770755148411 -0.31625887968496008 0 0.29988541917444728 -0.3275991343708759 0 0.31271485470144728 -0.32936964090729148 0 0.29038246079358332 -0.34281375216406879 0 0.31271485470144728 -0.32936964090729148 0 0.29988541917444728 -0.3275991343708759 0 0.29038246079358332 -0.34281375216406879 0 0.31271485470144728 -0.32936964090729148 0 0.29038246079358332 -0.34281375216406879 0 0.30607567145869519 -0.34974754393905277 0 0.29988541917444728 -0.3275991343708759 0 0.29038246079358332 -0.34281375216406879 0 0.28875665365127451 -0.32195426472718308 0 0.29038246079358332 -0.34281375216406879 0 0.28875665365127451 -0.32195426472718308 0 0.27683504241329188 -0.33049491812134291 0 0.30768770755148411 -0.31625887968496008 0 0.28875665365127451 -0.32195426472718308 0 0.28375434033008118 -0.30349225372564309 0 0.28875665365127451 -0.32195426472718308 0 0.27323789935828491 -0.31622117181775677 0 0.28375434033008118 -0.30349225372564309 0 0.32296394155961072 -0.35818691658691232 0 0.29770409266735193 -0.36696108810676059 0 0.32296394155961072 -0.35818691658691232 0 0.30985171353929869 -0.36954539251995883 0 0.29770409266735193 -0.36696108810676059 0 0.30125491439284202 -0.37545244228412589 0 0.29468253797650962 -0.37505353359411409 0 0.29770409266735193 -0.36696108810676059 0 0.30125491439284202 -0.37545244228412589 0 0.30985171353929869 -0.36954539251995883 0 0.29770409266735193 -0.36696108810676059 0 0.30125491439284202 -0.37545244228412589 0 0.31081738867531422 -0.37608488326482409 0 0.30985171353929869 -0.36954539251995883 0 0.31081738867531422 -0.37608488326482409 0 0.31651823040137472 -0.37104163235717103 0 0.30985171353929869 -0.36954539251995883 0 0.29770409266735193 -0.36696108810676059 0 0.30607567145869519 -0.34974754393905277 0 0.29372861888937002 -0.3549828264727507 0 0.32296394155961072 -0.35818691658691232 0 0.29770409266735193 -0.36696108810676059 0 0.30607567145869519 -0.34974754393905277 0 0.29038246079358332 -0.34281375216406879 0 0.30607567145869519 -0.34974754393905277 0 0.29372861888937002 -0.3549828264727507 0 0.29038246079358332 -0.34281375216406879 0 0.28571565320688569 -0.35958239212715642 0 0.27884910825837089 -0.35831130741316702 0 0.29038246079358332 -0.34281375216406879 0 0.29372861888937002 -0.3549828264727507 0 0.28571565320688569 -0.35958239212715642 0 0.29770409266735193 -0.36696108810676059 0 0.29372861888937002 -0.3549828264727507 0 0.28993865285400239 -0.36711437816761389 0 0.29372861888937002 -0.3549828264727507 0 0.28993865285400239 -0.36711437816761389 0 0.28571565320688569 -0.35958239212715642 0 0.28571565320688569 -0.35958239212715642 0 0.28353722644380402 -0.36810993956364257 0 0.27993677318408078 -0.36378492370177701 0 0.28993865285400239 -0.36711437816761389 0 0.28571565320688569 -0.35958239212715642 0 0.28353722644380402 -0.36810993956364257 0 0.28571565320688569 -0.35958239212715642 0 0.27993677318408078 -0.36378492370177701 0 0.27884910825837089 -0.35831130741316702 0 0.28712009536255512 -0.37555389988898102 0 0.28993865285400239 -0.36711437816761389 0 0.28353722644380402 -0.36810993956364257 0 0.28712009536255512 -0.37555389988898102 0 0.28353722644380402 -0.36810993956364257 0 0.28062042269181919 -0.37395588221133558 0 0.29468253797650962 -0.37505353359411409 0 0.28712009536255512 -0.37555389988898102 0 0.28993865285400239 -0.36711437816761389 0 0.29468253797650962 -0.37505353359411409 0 0.29770409266735193 -0.36696108810676059 0 0.28993865285400239 -0.36711437816761389 0 0.26624182353569531 -0.37453487882786929 0 0.26817992700408011 -0.36975106750584191 0 0.26336664063451592 -0.3664414862695069 0 0.26624182353569531 -0.37453487882786929 0 0.26817992700408011 -0.36975106750584191 0 0.27302933098373239 -0.3720445187767164 0 0.26817992700408011 -0.36975106750584191 0 0.27008191286237682 -0.36598338614927522 0 0.26336664063451592 -0.3664414862695069 0 0.27302933098373239 -0.3720445187767164 0 0.27531540539501931 -0.36495411832062141 0 0.27008191286237682 -0.36598338614927522 0 0.26817992700408011 -0.36975106750584191 0 0.27302933098373239 -0.3720445187767164 0 0.27008191286237682 -0.36598338614927522 0 0.27302933098373239 -0.3720445187767164 0 0.28062042269181919 -0.37395588221133558 0 0.27831946892852222 -0.36885271396938552 0 0.28353722644380402 -0.36810993956364257 0 0.28062042269181919 -0.37395588221133558 0 0.27831946892852222 -0.36885271396938552 0 0.27302933098373239 -0.3720445187767164 0 0.27831946892852222 -0.36885271396938552 0 0.27531540539501931 -0.36495411832062141 0 0.28353722644380402 -0.36810993956364257 0 0.27831946892852222 -0.36885271396938552 0 0.27993677318408078 -0.36378492370177701 0 0.27831946892852222 -0.36885271396938552 0 0.27531540539501931 -0.36495411832062141 0 0.27993677318408078 -0.36378492370177701 0 0.27531540539501931 -0.36495411832062141 0 0.27993677318408078 -0.36378492370177701 0 0.27884910825837089 -0.35831130741316702 0 0.27531540539501931 -0.36495411832062141 0 0.27250911956336249 -0.36168928176346582 0 0.27884910825837089 -0.35831130741316702 0 0.27250911956336249 -0.36168928176346582 0 0.26859758350991669 -0.36156744990319573 0 0.26975620697552632 -0.35764263303335508 0 0.27250911956336249 -0.36168928176346582 0 0.27008191286237682 -0.36598338614927522 0 0.26859758350991669 -0.36156744990319573 0 0.26859758350991669 -0.36156744990319573 0 0.26805006688571931 -0.35625786342084631 0 0.26336664063451592 -0.3664414862695069 0 0.27531540539501931 -0.36495411832062141 0 0.27250911956336249 -0.36168928176346582 0 0.27008191286237682 -0.36598338614927522 0 0.27008191286237682 -0.36598338614927522 0 0.26859758350991669 -0.36156744990319573 0 0.26336664063451592 -0.3664414862695069 0 0.29038246079358332 -0.34281375216406879 0 0.26805006688571931 -0.35625786342084631 0 0.29038246079358332 -0.34281375216406879 0 0.26805006688571931 -0.35625786342084631 0 0.26975620697552632 -0.35764263303335508 0 0.29038246079358332 -0.34281375216406879 0 0.26975620697552632 -0.35764263303335508 0 0.27884910825837089 -0.35831130741316702 0 0.29038246079358332 -0.34281375216406879 0 0.26805006688571931 -0.35625786342084631 0 0.27463130633286931 -0.34191960504490437 0 0.26859758350991669 -0.36156744990319573 0 0.26805006688571931 -0.35625786342084631 0 0.26975620697552632 -0.35764263303335508 0 0.26805006688571931 -0.35625786342084631 0 0.26975620697552632 -0.35764263303335508 0 0.27250911956336249 -0.36168928176346582 0 0.26975620697552632 -0.35764263303335508 0 0.27884910825837089 -0.35831130741316702 0 0.26805006688571931 -0.35625786342084631 0 0.26492603941162168 -0.34492990828652131 0 0.27463130633286931 -0.34191960504490437 0 0.26805006688571931 -0.35625786342084631 0 0.25350575188741481 -0.34445313204813149 0 0.24758329680607269 -0.35476217619659811 0 0.26805006688571931 -0.35625786342084631 0 0.2525248183514478 -0.36560407007674622 0 0.24758329680607269 -0.35476217619659811 0 0.26805006688571931 -0.35625786342084631 0 0.26492603941162168 -0.34492990828652131 0 0.25350575188741481 -0.34445313204813149 0 0.26805006688571931 -0.35625786342084631 0 0.25350575188741481 -0.34445313204813149 0 0.26805006688571931 -0.35625786342084631 0 0.26336664063451592 -0.3664414862695069 0 0.2525248183514478 -0.36560407007674622 0 0.26805006688571931 -0.35625786342084631 0 0.2525248183514478 -0.36560407007674622 0 0.2525248183514478 -0.36560407007674622 0 0.25606429151247068 -0.37194659175708572 0 0.247834074023594 -0.37296100291649509 0 0.26336664063451592 -0.3664414862695069 0 0.2525248183514478 -0.36560407007674622 0 0.25606429151247068 -0.37194659175708572 0 0.25375531452165939 -0.37623440762837412 0 0.25606429151247068 -0.37194659175708572 0 0.247834074023594 -0.37296100291649509 0 0.26039509775932151 -0.37535611644817157 0 0.25375531452165939 -0.37623440762837412 0 0.25606429151247068 -0.37194659175708572 0 0.26039509775932151 -0.37535611644817157 0 0.26624182353569531 -0.37453487882786929 0 0.26336664063451592 -0.3664414862695069 0 0.26039509775932151 -0.37535611644817157 0 0.26336664063451592 -0.3664414862695069 0 0.25606429151247068 -0.37194659175708572 0 0.27323789935828491 -0.31622117181775677 0 0.27683504241329188 -0.33049491812134291 0 0.26447202090310318 -0.3291757726400365 0 0.28875665365127451 -0.32195426472718308 0 0.27323789935828491 -0.31622117181775677 0 0.27683504241329188 -0.33049491812134291 0 0.29038246079358332 -0.34281375216406879 0 0.27683504241329188 -0.33049491812134291 0 0.27463130633286931 -0.34191960504490437 0 0.27683504241329188 -0.33049491812134291 0 0.27463130633286931 -0.34191960504490437 0 0.26796639071671552 -0.3373114020383991 0 0.26492603941162168 -0.34492990828652131 0 0.27463130633286931 -0.34191960504490437 0 0.26796639071671552 -0.3373114020383991 0 0.27683504241329188 -0.33049491812134291 0 0.26796639071671552 -0.3373114020383991 0 0.26447202090310318 -0.3291757726400365 0 0.25896754452269127 -0.34003680609919001 0 0.25221426436745747 -0.32636962411678461 0 0.2389614368891104 -0.33264840067541668 0 0.25350575188741481 -0.34445313204813149 0 0.25896754452269127 -0.34003680609919001 0 0.2389614368891104 -0.33264840067541668 0 0.26796639071671552 -0.3373114020383991 0 0.26447202090310318 -0.3291757726400365 0 0.25896754452269127 -0.34003680609919001 0 0.26447202090310318 -0.3291757726400365 0 0.25896754452269127 -0.34003680609919001 0 0.25221426436745747 -0.32636962411678461 0 0.26492603941162168 -0.34492990828652131 0 0.26796639071671552 -0.3373114020383991 0 0.25896754452269127 -0.34003680609919001 0 0.26492603941162168 -0.34492990828652131 0 0.25350575188741481 -0.34445313204813149 0 0.25896754452269127 -0.34003680609919001 0 0.27323789935828491 -0.31622117181775677 0 0.26447202090310318 -0.3291757726400365 0 0.25775611908170121 -0.31253688977625182 0 0.25221426436745747 -0.32636962411678461 0 0.25775611908170121 -0.31253688977625182 0 0.24074369189693359 -0.31761255446677472 0 0.26447202090310318 -0.3291757726400365 0 0.25221426436745747 -0.32636962411678461 0 0.25775611908170121 -0.31253688977625182 0 0.25775611908170121 -0.31253688977625182 0 0.25259339633976108 -0.29130236208149418 0 0.26785321977025761 -0.29967293191608357 0 0.25259339633976108 -0.29130236208149418 0 0.27415931588549169 -0.28458432674766432 0 0.26785321977025761 -0.29967293191608357 0 0.25259339633976108 -0.29130236208149418 0 0.27415931588549169 -0.28458432674766432 0 0.25219259065276622 -0.27031256554595451 0 0.27415931588549169 -0.28458432674766432 0 0.26785321977025761 -0.29967293191608357 0 0.28375434033008118 -0.30349225372564309 0 0.27323789935828491 -0.31622117181775677 0 0.26785321977025761 -0.29967293191608357 0 0.28375434033008118 -0.30349225372564309 0 0.27323789935828491 -0.31622117181775677 0 0.25775611908170121 -0.31253688977625182 0 0.26785321977025761 -0.29967293191608357 0 0.30768770755148411 -0.31625887968496008 0 0.29051790433723201 -0.29835596447949753 0 0.28375434033008118 -0.30349225372564309 0 0.30768770755148411 -0.31625887968496008 0 0.28375434033008118 -0.30349225372564309 0 0.27415931588549169 -0.28458432674766432 0 0.29612604111821722 -0.29885608794937418 0 0.27415931588549169 -0.28458432674766432 0 0.2932156501306426 -0.28765763697567859 0 0.29239501919513289 -0.27819738546767259 0 0.27415931588549169 -0.28458432674766432 0 0.29051790433723201 -0.29835596447949753 0 0.28375434033008118 -0.30349225372564309 0 0.27415931588549169 -0.28458432674766432 0 0.29612604111821722 -0.29885608794937418 0 0.2932156501306426 -0.28765763697567859 0 0.27415931588549169 -0.28458432674766432 0 0.29051790433723201 -0.29835596447949753 0 0.29612604111821722 -0.29885608794937418 0 0.2932156501306426 -0.28765763697567859 0 0.30043639458113869 -0.28462172048830009 0 0.29239501919513289 -0.27819738546767259 0 0.29612604111821722 -0.29885608794937418 0 0.30209949218305598 -0.29161506112549612 0 0.3091931624115945 -0.29635899131314541 0 0.29612604111821722 -0.29885608794937418 0 0.2932156501306426 -0.28765763697567859 0 0.30209949218305598 -0.29161506112549612 0 0.30209949218305598 -0.29161506112549612 0 0.30043639458113869 -0.28462172048830009 0 0.30977078155910132 -0.2883419886758033 0 0.2932156501306426 -0.28765763697567859 0 0.30209949218305598 -0.29161506112549612 0 0.30043639458113869 -0.28462172048830009 0 0.3197131959765161 -0.28239582380179301 0 0.30977078155910132 -0.2883419886758033 0 0.30470102983776048 -0.27729653019685002 0 0.30043639458113869 -0.28462172048830009 0 0.30977078155910132 -0.2883419886758033 0 0.30470102983776048 -0.27729653019685002 0 0.30209949218305598 -0.29161506112549612 0 0.30977078155910132 -0.2883419886758033 0 0.3091931624115945 -0.29635899131314541 0 0.31462670788880859 -0.30514034638872811 0 0.29051790433723201 -0.29835596447949753 0 0.31462670788880859 -0.30514034638872811 0 0.30768770755148411 -0.31625887968496008 0 0.29051790433723201 -0.29835596447949753 0 0.31462670788880859 -0.30514034638872811 0 0.29051790433723201 -0.29835596447949753 0 0.29612604111821722 -0.29885608794937418 0 0.31462670788880859 -0.30514034638872811 0 0.29612604111821722 -0.29885608794937418 0 0.3091931624115945 -0.29635899131314541 0 0.30849651450414628 -0.24795182056728149 0 0.32132836083141447 -0.25869816695462983 0 0.30142790699742789 -0.26480033043832729 0 0.30849651450414628 -0.24795182056728149 0 0.30142790699742789 -0.26480033043832729 0 0.28793584206126588 -0.25107015271538341 0 0.31509102578424852 -0.27192589933182021 0 0.30142790699742789 -0.26480033043832729 0 0.30470102983776048 -0.27729653019685002 0 0.30043639458113869 -0.28462172048830009 0 0.30470102983776048 -0.27729653019685002 0 0.29239501919513289 -0.27819738546767259 0 0.30142790699742789 -0.26480033043832729 0 0.30470102983776048 -0.27729653019685002 0 0.29239501919513289 -0.27819738546767259 0 0.30142790699742789 -0.26480033043832729 0 0.29239501919513289 -0.27819738546767259 0 0.27927751772558901 -0.26614999846553228 0 0.27415931588549169 -0.28458432674766432 0 0.29239501919513289 -0.27819738546767259 0 0.27927751772558901 -0.26614999846553228 0 0.30142790699742789 -0.26480033043832729 0 0.28793584206126588 -0.25107015271538341 0 0.27927751772558901 -0.26614999846553228 0 0.26755443156144948 -0.24793522987819169 0 0.27927751772558901 -0.26614999846553228 0 0.25219259065276622 -0.27031256554595451 0 0.26755443156144948 -0.24793522987819169 0 0.28793584206126588 -0.25107015271538341 0 0.27927751772558901 -0.26614999846553228 0 0.27415931588549169 -0.28458432674766432 0 0.27927751772558901 -0.26614999846553228 0 0.25219259065276622 -0.27031256554595451 0 0.27415931588549169 -0.28458432674766432 0 0.25219259065276622 -0.27031256554595451 0 0.26755443156144948 -0.24793522987819169 0 0.25219259065276622 -0.27031256554595451 0 0.2458949266121517 -0.24119477616399751 0 0.25219259065276622 -0.27031256554595451 0 0.2302258654200407 -0.25604080434424459 0 0.2458949266121517 -0.24119477616399751 0 0.25219259065276622 -0.27031256554595451 0 0.2302258654200407 -0.25604080434424459 0 0.25219259065276622 -0.27031256554595451 0 0.2302258654200407 -0.25604080434424459 0 0.22796051236103529 -0.28362809442334119 0 0.2302258654200407 -0.25604080434424459 0 0.21297749869702209 -0.27370876728105381 0 0.22796051236103529 -0.28362809442334119 0 0.2302258654200407 -0.25604080434424459 0 0.21297749869702209 -0.27370876728105381 0 0.20245690766587529 -0.2622195216635434 0 0.2302258654200407 -0.25604080434424459 0 0.20245690766587529 -0.2622195216635434 0 0.20825914018731509 -0.24176904314253461 0 0.21297749869702209 -0.27370876728105381 0 0.19577054630340601 -0.27719280299441063 0 0.20245690766587529 -0.2622195216635434 0 0.21297749869702209 -0.27370876728105381 0 0.19577054630340601 -0.27719280299441063 0 0.20847366173475351 -0.28946261297972919 0 0.19577054630340601 -0.27719280299441063 0 0.20245690766587529 -0.2622195216635434 0 0.19577054630340601 -0.27719280299441063 0 0.20245690766587529 -0.2622195216635434 0 0.18231756712108699 -0.26383775936566878 0 0.20245690766587529 -0.2622195216635434 0 0.18231756712108699 -0.26383775936566878 0 0.19216952572399271 -0.24625439499940641 0 0.20245690766587529 -0.2622195216635434 0 0.20825914018731509 -0.24176904314253461 0 0.19216952572399271 -0.24625439499940641 0 0.19298791571575999 -0.30755098768990691 0 0.18908418494093721 -0.29216608432527802 0 0.18062694267570731 -0.31110503495265029 0 0.19298791571575999 -0.30755098768990691 0 0.20007177408017551 -0.31828615686023759 0 0.18062694267570731 -0.31110503495265029 0 0.18908418494093721 -0.29216608432527802 0 0.2057099355903291 -0.30566018977532322 0 0.19298791571575999 -0.30755098768990691 0 0.18908418494093721 -0.29216608432527802 0 0.2057099355903291 -0.30566018977532322 0 0.19298791571575999 -0.30755098768990691 0 0.2057099355903291 -0.30566018977532322 0 0.20007177408017551 -0.31828615686023759 0 0.18908418494093721 -0.29216608432527802 0 0.20847366173475351 -0.28946261297972919 0 0.2057099355903291 -0.30566018977532322 0 0.19577054630340601 -0.27719280299441063 0 0.18908418494093721 -0.29216608432527802 0 0.20847366173475351 -0.28946261297972919 0 0.19577054630340601 -0.27719280299441063 0 0.18908418494093721 -0.29216608432527802 0 0.21297749869702209 -0.27370876728105381 0 0.20847366173475351 -0.28946261297972919 0 0.22796051236103529 -0.28362809442334119 0 0.2057099355903291 -0.30566018977532322 0 0.22233568623972 -0.31915429522536959 0 0.20847366173475351 -0.28946261297972919 0 0.2057099355903291 -0.30566018977532322 0 0.2206990143771978 -0.30086585935086718 0 0.2057099355903291 -0.30566018977532322 0 0.2206990143771978 -0.30086585935086718 0 0.22233568623972 -0.31915429522536959 0 0.2206990143771978 -0.30086585935086718 0 0.23741511933110421 -0.30176401854185908 0 0.22233568623972 -0.31915429522536959 0 0.2206990143771978 -0.30086585935086718 0 0.22796051236103529 -0.28362809442334119 0 0.23741511933110421 -0.30176401854185908 0 0.20847366173475351 -0.28946261297972919 0 0.2206990143771978 -0.30086585935086718 0 0.22796051236103529 -0.28362809442334119 0 0.25259339633976108 -0.29130236208149418 0 0.25219259065276622 -0.27031256554595451 0 0.22796051236103529 -0.28362809442334119 0 0.25259339633976108 -0.29130236208149418 0 0.22796051236103529 -0.28362809442334119 0 0.23741511933110421 -0.30176401854185908 0 0.25775611908170121 -0.31253688977625182 0 0.25259339633976108 -0.29130236208149418 0 0.23741511933110421 -0.30176401854185908 0 0.25775611908170121 -0.31253688977625182 0 0.23741511933110421 -0.30176401854185908 0 0.24074369189693359 -0.31761255446677472 0 0.25221426436745747 -0.32636962411678461 0 0.24074369189693359 -0.31761255446677472 0 0.2389614368891104 -0.33264840067541668 0 0.25896754452269127 -0.34003680609919001 0 0.2389614368891104 -0.33264840067541668 0 0.25350575188741481 -0.34445313204813149 0 0.2389614368891104 -0.33264840067541668 0 0.23812126686143489 -0.34962330130308239 0 0.25350575188741481 -0.34445313204813149 0 0.2389614368891104 -0.33264840067541668 0 0.2389614368891104 -0.33264840067541668 0 0.21951660548464291 -0.32546727876782749 0 0.2389614368891104 -0.33264840067541668 0 0.22275218125969681 -0.3421285430696277 0 0.21951660548464291 -0.32546727876782749 0 0.2389614368891104 -0.33264840067541668 0 0.22275218125969681 -0.3421285430696277 0 0.23812126686143489 -0.34962330130308239 0 0.2389614368891104 -0.33264840067541668 0 0.22233568623972 -0.31915429522536959 0 0.21951660548464291 -0.32546727876782749 0 0.24074369189693359 -0.31761255446677472 0 0.2389614368891104 -0.33264840067541668 0 0.22233568623972 -0.31915429522536959 0 0.2389614368891104 -0.33264840067541668 0 0.22233568623972 -0.31915429522536959 0 0.23741511933110421 -0.30176401854185908 0 0.24074369189693359 -0.31761255446677472 0 0.22233568623972 -0.31915429522536959 0 0.2525248183514478 -0.36560407007674622 0 0.2388492865026699 -0.36353477295182429 0 0.23642754580480091 -0.37529463544741981 0 0.2525248183514478 -0.36560407007674622 0 0.23642754580480091 -0.37529463544741981 0 0.2525248183514478 -0.36560407007674622 0 0.247834074023594 -0.37296100291649509 0 0.23642754580480091 -0.37529463544741981 0 0.2388492865026699 -0.36353477295182429 0 0.2323821666879651 -0.37312182357695689 0 0.23642754580480091 -0.37529463544741981 0 0.247834074023594 -0.37296100291649509 0 0.23982637591521519 -0.37606966838762163 0 0.23642754580480091 -0.37529463544741981 0 0.2323821666879651 -0.37312182357695689 0 0.23642754580480091 -0.37529463544741981 0 0.2525248183514478 -0.36560407007674622 0 0.2388492865026699 -0.36353477295182429 0 0.24758329680607269 -0.35476217619659811 0 0.2388492865026699 -0.36353477295182429 0 0.23812126686143489 -0.34962330130308239 0 0.2288410778689817 -0.3579523375073505 0 0.2388492865026699 -0.36353477295182429 0 0.24758329680607269 -0.35476217619659811 0 0.23812126686143489 -0.34962330130308239 0 0.25350575188741481 -0.34445313204813149 0 0.24758329680607269 -0.35476217619659811 0 0.23812126686143489 -0.34962330130308239 0 0.22275218125969681 -0.3421285430696277 0 0.2288410778689817 -0.3579523375073505 0 0.2104881552217899 -0.36284535190813549 0 0.22275218125969681 -0.3421285430696277 0 0.23812126686143489 -0.34962330130308239 0 0.2288410778689817 -0.3579523375073505 0 0.2323821666879651 -0.37312182357695689 0 0.2141485145971371 -0.37049455273470289 0 0.23642754580480091 -0.37529463544741981 0 0.2141485145971371 -0.37049455273470289 0 0.23642754580480091 -0.37529463544741981 0 0.22380639522206469 -0.37549259574283528 0 0.2323821666879651 -0.37312182357695689 0 0.2141485145971371 -0.37049455273470289 0 0.2104881552217899 -0.36284535190813549 0 0.2323821666879651 -0.37312182357695689 0 0.2104881552217899 -0.36284535190813549 0 0.2288410778689817 -0.3579523375073505 0 0.2323821666879651 -0.37312182357695689 0 0.2104881552217899 -0.36284535190813549 0 0.2141485145971371 -0.37049455273470289 0 0.23642754580480091 -0.37529463544741981 0 0.2388492865026699 -0.36353477295182429 0 0.2288410778689817 -0.3579523375073505 0 0.2323821666879651 -0.37312182357695689 0 0.2141485145971371 -0.37049455273470289 0 0.2104881552217899 -0.36284535190813549 0 0.20133278074283961 -0.37645701622005928 0 0.2141485145971371 -0.37049455273470289 0 0.22380639522206469 -0.37549259574283528 0 0.21729133252485441 -0.37717975934536557 0 0.22275218125969681 -0.3421285430696277 0 0.2104881552217899 -0.36284535190813549 0 0.20559014228838191 -0.3450523763621357 0 0.20559014228838191 -0.3450523763621357 0 0.1885941437556147 -0.35256888023931432 0 0.1964870824405926 -0.33862665069502479 0 0.2104881552217899 -0.36284535190813549 0 0.20559014228838191 -0.3450523763621357 0 0.1885941437556147 -0.35256888023931432 0 0.2104881552217899 -0.36284535190813549 0 0.1885941437556147 -0.35256888023931432 0 0.2104881552217899 -0.36284535190813549 0 0.1885941437556147 -0.35256888023931432 0 0.1873748639993143 -0.35529930682298511 0 0.2104881552217899 -0.36284535190813549 0 0.1873748639993143 -0.35529930682298511 0 0.2104881552217899 -0.36284535190813549 0 0.1863121642240772 -0.37048192246816652 0 0.1873748639993143 -0.35529930682298511 0 0.2104881552217899 -0.36284535190813549 0 0.1863121642240772 -0.37048192246816652 0 0.20133278074283961 -0.37645701622005928 0 0.21951660548464291 -0.32546727876782749 0 0.206911707711252 -0.33133770239716043 0 0.20007177408017551 -0.31828615686023759 0 0.21951660548464291 -0.32546727876782749 0 0.20007177408017551 -0.31828615686023759 0 0.2057099355903291 -0.30566018977532322 0 0.22233568623972 -0.31915429522536959 0 0.20007177408017551 -0.31828615686023759 0 0.22233568623972 -0.31915429522536959 0 0.21951660548464291 -0.32546727876782749 0 0.20007177408017551 -0.31828615686023759 0 0.22275218125969681 -0.3421285430696277 0 0.20559014228838191 -0.3450523763621357 0 0.206911707711252 -0.33133770239716043 0 0.22275218125969681 -0.3421285430696277 0 0.21951660548464291 -0.32546727876782749 0 0.206911707711252 -0.33133770239716043 0 0.206911707711252 -0.33133770239716043 0 0.1964870824405926 -0.33862665069502479 0 0.19688437115496191 -0.32595043097964121 0 0.20559014228838191 -0.3450523763621357 0 0.206911707711252 -0.33133770239716043 0 0.1964870824405926 -0.33862665069502479 0 0.1885941437556147 -0.35256888023931432 0 0.1964870824405926 -0.33862665069502479 0 0.1844550472927525 -0.33822386349687261 0 0.1964870824405926 -0.33862665069502479 0 0.19688437115496191 -0.32595043097964121 0 0.1844550472927525 -0.33822386349687261 0 0.20007177408017551 -0.31828615686023759 0 0.18062694267570731 -0.31110503495265029 0 0.19688437115496191 -0.32595043097964121 0 0.20007177408017551 -0.31828615686023759 0 0.18201326139010079 -0.32591143716851512 0 0.20007177408017551 -0.31828615686023759 0 0.18201326139010079 -0.32591143716851512 0 0.18062694267570731 -0.31110503495265029 0 0.206911707711252 -0.33133770239716043 0 0.19688437115496191 -0.32595043097964121 0 0.20007177408017551 -0.31828615686023759 0 0.18201326139010079 -0.32591143716851512 0 0.17006275041133989 -0.33476224015481698 0 0.18062694267570731 -0.31110503495265029 0 0.17006275041133989 -0.33476224015481698 0 0.16742957888073379 -0.31791064082249182 0 0.18062694267570731 -0.31110503495265029 0 0.17006275041133989 -0.33476224015481698 0 0.18062694267570731 -0.31110503495265029 0 0.19688437115496191 -0.32595043097964121 0 0.17006275041133989 -0.33476224015481698 0 0.1844550472927525 -0.33822386349687261 0 0.17006275041133989 -0.33476224015481698 0 0.1667001322894385 -0.34229240857049498 0 0.19688437115496191 -0.32595043097964121 0 0.18201326139010079 -0.32591143716851512 0 0.17006275041133989 -0.33476224015481698 0 0.19688437115496191 -0.32595043097964121 0 0.1844550472927525 -0.33822386349687261 0 0.17006275041133989 -0.33476224015481698 0 0.17006275041133989 -0.33476224015481698 0 0.1667001322894385 -0.34229240857049498 0 0.1586472750631677 -0.33851260973067482 0 0.17006275041133989 -0.33476224015481698 0 0.1586472750631677 -0.33851260973067482 0 0.17006275041133989 -0.33476224015481698 0 0.1667001322894385 -0.34229240857049498 0 0.1667001322894385 -0.34229240857049498 0 0.1586472750631677 -0.33851260973067482 0 0.1667001322894385 -0.34229240857049498 0 0.1586472750631677 -0.33851260973067482 0 0.16487121265498861 -0.34638804844599991 0 0.1586472750631677 -0.33851260973067482 0 0.16487121265498861 -0.34638804844599991 0 0.15117919905164229 -0.34096612517436359 0 0.16487121265498861 -0.34638804844599991 0 0.15117919905164229 -0.34096612517436359 0 0.17006275041133989 -0.33476224015481698 0 0.1586472750631677 -0.33851260973067482 0 0.15854267577228451 -0.33203757090818847 0 0.17006275041133989 -0.33476224015481698 0 0.15854267577228451 -0.33203757090818847 0 0.1610351896070813 -0.32497326650839697 0 0.1586472750631677 -0.33851260973067482 0 0.15854267577228451 -0.33203757090818847 0 0.15318439061781461 -0.33594847582038267 0 0.17006275041133989 -0.33476224015481698 0 0.1610351896070813 -0.32497326650839697 0 0.16742957888073379 -0.31791064082249182 0 0.15854267577228451 -0.33203757090818847 0 0.1610351896070813 -0.32497326650839697 0 0.14978377316201991 -0.32599126232667042 0 0.16742957888073379 -0.31791064082249182 0 0.1561768831418939 -0.31493776838462112 0 0.16502668359358499 -0.30534374240510859 0 0.1610351896070813 -0.32497326650839697 0 0.16742957888073379 -0.31791064082249182 0 0.1561768831418939 -0.31493776838462112 0 0.1863121642240772 -0.37048192246816652 0 0.1725939065739176 -0.36143467139509838 0 0.16586473307507801 -0.37334626187033249 0 0.1863121642240772 -0.37048192246816652 0 0.1725939065739176 -0.36143467139509838 0 0.1873748639993143 -0.35529930682298511 0 0.1873748639993143 -0.35529930682298511 0 0.16487121265498861 -0.34638804844599991 0 0.1725939065739176 -0.36143467139509838 0 0.1873748639993143 -0.35529930682298511 0 0.16487121265498861 -0.34638804844599991 0 0.1885941437556147 -0.35256888023931432 0 0.1844550472927525 -0.33822386349687261 0 0.1667001322894385 -0.34229240857049498 0 0.1667001322894385 -0.34229240857049498 0 0.1873748639993143 -0.35529930682298511 0 0.16487121265498861 -0.34638804844599991 0 0.1885941437556147 -0.35256888023931432 0 0.1667001322894385 -0.34229240857049498 0 0.1873748639993143 -0.35529930682298511 0 0.1885941437556147 -0.35256888023931432 0 0.1667001322894385 -0.34229240857049498 0 0.1667001322894385 -0.34229240857049498 0 0.16487121265498861 -0.34638804844599991 0 0.16487121265498861 -0.34638804844599991 0 0.15829011304517601 -0.36112560906862728 0 0.16487121265498861 -0.34638804844599991 0 0.15829011304517601 -0.36112560906862728 0 0.15119319059276909 -0.35229505863841032 0 0.1725939065739176 -0.36143467139509838 0 0.16487121265498861 -0.34638804844599991 0 0.15829011304517601 -0.36112560906862728 0 0.1725939065739176 -0.36143467139509838 0 0.15829011304517601 -0.36112560906862728 0 0.16586473307507801 -0.37334626187033249 0 0.15829011304517601 -0.36112560906862728 0 0.16586473307507801 -0.37334626187033249 0 0.15170901343536339 -0.37586316969125472 0 0.14250759595021889 -0.35956866674590371 0 0.12964343717385621 -0.367966648186694 0 0.15170901343536339 -0.37586316969125472 0 0.15829011304517601 -0.36112560906862728 0 0.14250759595021889 -0.35956866674590371 0 0.15170901343536339 -0.37586316969125472 0 0.15829011304517601 -0.36112560906862728 0 0.15170901343536339 -0.37586316969125472 0 0.14250759595021889 -0.35956866674590371 0 0.15119319059276909 -0.35229505863841032 0 0.13285301213736089 -0.34698689713072628 0 0.15829011304517601 -0.36112560906862728 0 0.14250759595021889 -0.35956866674590371 0 0.15119319059276909 -0.35229505863841032 0 0.13285301213736089 -0.34698689713072628 0 0.15117919905164229 -0.34096612517436359 0 0.15119319059276909 -0.35229505863841032 0 0.13285301213736089 -0.34698689713072628 0 0.15117919905164229 -0.34096612517436359 0 0.16487121265498861 -0.34638804844599991 0 0.15119319059276909 -0.35229505863841032 0 0.15117919905164229 -0.34096612517436359 0 0.13285301213736089 -0.34698689713072628 0 0.12964343717385621 -0.367966648186694 0 0.1145268252230785 -0.35300766908708592 0 0.14250759595021889 -0.35956866674590371 0 0.13285301213736089 -0.34698689713072628 0 0.12964343717385621 -0.367966648186694 0 0.1422499266094501 -0.31660967253405531 0 0.1561768831418939 -0.31493776838462112 0 0.14978377316201991 -0.32599126232667042 0 0.1610351896070813 -0.32497326650839697 0 0.1561768831418939 -0.31493776838462112 0 0.14978377316201991 -0.32599126232667042 0 0.15854267577228451 -0.33203757090818847 0 0.14978377316201991 -0.32599126232667042 0 0.15318439061781461 -0.33594847582038267 0 0.14978377316201991 -0.32599126232667042 0 0.15318439061781461 -0.33594847582038267 0 0.1277096158765349 -0.33167236584288751 0 0.15318439061781461 -0.33594847582038267 0 0.15117919905164229 -0.34096612517436359 0 0.1277096158765349 -0.33167236584288751 0 0.1586472750631677 -0.33851260973067482 0 0.15318439061781461 -0.33594847582038267 0 0.1586472750631677 -0.33851260973067482 0 0.15318439061781461 -0.33594847582038267 0 0.15117919905164229 -0.34096612517436359 0 0.1586472750631677 -0.33851260973067482 0 0.15117919905164229 -0.34096612517436359 0 0.13285301213736089 -0.34698689713072628 0 0.15117919905164229 -0.34096612517436359 0 0.1277096158765349 -0.33167236584288751 0 0.15117919905164229 -0.34096612517436359 0 0.1277096158765349 -0.33167236584288751 0 0.13285301213736089 -0.34698689713072628 0 0.1277096158765349 -0.33167236584288751 0 0.1175933922248182 -0.34031097300678109 0 0.1422499266094501 -0.31660967253405531 0 0.14978377316201991 -0.32599126232667042 0 0.1277096158765349 -0.33167236584288751 0 0.1422499266094501 -0.31660967253405531 0 0.1277096158765349 -0.33167236584288751 0 0.12683322860644439 -0.31098052818449412 0 0.12683322860644439 -0.31098052818449412 0 0.1401134834850129 -0.29069959292781089 0 0.1278890963722015 -0.28956777061598998 0 0.12683322860644439 -0.31098052818449412 0 0.14661875021173451 -0.29854555470513761 0 0.1401134834850129 -0.29069959292781089 0 0.1422499266094501 -0.31660967253405531 0 0.12683322860644439 -0.31098052818449412 0 0.14942642451146149 -0.2995824498575701 0 0.12683322860644439 -0.31098052818449412 0 0.14942642451146149 -0.2995824498575701 0 0.1422499266094501 -0.31660967253405531 0 0.1561768831418939 -0.31493776838462112 0 0.14942642451146149 -0.2995824498575701 0 0.12683322860644439 -0.31098052818449412 0 0.14661875021173451 -0.29854555470513761 0 0.14942642451146149 -0.2995824498575701 0 0.14661875021173451 -0.29854555470513761 0 0.14942642451146149 -0.2995824498575701 0 0.1466794613861967 -0.29377083497606099 0 0.14661875021173451 -0.29854555470513761 0 0.14942642451146149 -0.2995824498575701 0 0.14942642451146149 -0.2995824498575701 0 0.1595618869819069 -0.29446919383113762 0 0.1508292363689587 -0.28932805491236291 0 0.1467666386820988 -0.27833762361772918 0 0.16091224763727771 -0.28314036009338062 0 0.14942642451146149 -0.2995824498575701 0 0.1508292363689587 -0.28932805491236291 0 0.1595618869819069 -0.29446919383113762 0 0.14942642451146149 -0.2995824498575701 0 0.1508292363689587 -0.28932805491236291 0 0.1466794613861967 -0.29377083497606099 0 0.14661875021173451 -0.29854555470513761 0 0.1466794613861967 -0.29377083497606099 0 0.1401134834850129 -0.29069959292781089 0 0.1508292363689587 -0.28932805491236291 0 0.1466794613861967 -0.29377083497606099 0 0.1401134834850129 -0.29069959292781089 0 0.1508292363689587 -0.28932805491236291 0 0.1401134834850129 -0.29069959292781089 0 0.1467666386820988 -0.27833762361772918 0 0.1401134834850129 -0.29069959292781089 0 0.1278890963722015 -0.28956777061598998 0 0.13398591315260419 -0.27567973463621481 0 0.1401134834850129 -0.29069959292781089 0 0.13398591315260419 -0.27567973463621481 0 0.1467666386820988 -0.27833762361772918 0 0.13398591315260419 -0.27567973463621481 0 0.1417327159860497 -0.26177566485948067 0 0.1208808610854319 -0.25970788443117943 0 0.1278890963722015 -0.28956777061598998 0 0.13398591315260419 -0.27567973463621481 0 0.1189280483528791 -0.27808952203523229 0 0.1417327159860497 -0.26177566485948067 0 0.1208808610854319 -0.25970788443117943 0 0.1313098299079942 -0.24396976042201809 0 0.1417327159860497 -0.26177566485948067 0 0.14457918263284869 -0.24901401909077739 0 0.1313098299079942 -0.24396976042201809 0 0.1417327159860497 -0.26177566485948067 0 0.1578031145482737 -0.25808536852191172 0 0.14457918263284869 -0.24901401909077739 0 0.1417327159860497 -0.26177566485948067 0 0.15406655483346779 -0.26946469125216171 0 0.1578031145482737 -0.25808536852191172 0 0.13398591315260419 -0.27567973463621481 0 0.1417327159860497 -0.26177566485948067 0 0.1467666386820988 -0.27833762361772918 0 0.1417327159860497 -0.26177566485948067 0 0.1467666386820988 -0.27833762361772918 0 0.15406655483346779 -0.26946469125216171 0 0.1467666386820988 -0.27833762361772918 0 0.15406655483346779 -0.26946469125216171 0 0.16091224763727771 -0.28314036009338062 0 0.15406655483346779 -0.26946469125216171 0 0.1655019821859241 -0.27302585195735052 0 0.16091224763727771 -0.28314036009338062 0 0.1655019821859241 -0.27302585195735052 0 0.17729308356343121 -0.28259596814131349 0 0.16091224763727771 -0.28314036009338062 0 0.15406655483346779 -0.26946469125216171 0 0.1655019821859241 -0.27302585195735052 0 0.1578031145482737 -0.25808536852191172 0 0.1655019821859241 -0.27302585195735052 0 0.17729308356343121 -0.28259596814131349 0 0.1578031145482737 -0.25808536852191172 0 0.16999054138435979 -0.26125902205485563 0 0.1735801302704959 -0.25009110129751427 0 0.1655019821859241 -0.27302585195735052 0 0.1578031145482737 -0.25808536852191172 0 0.16999054138435979 -0.26125902205485563 0 0.16999054138435979 -0.26125902205485563 0 0.1735801302704959 -0.25009110129751427 0 0.18231756712108699 -0.26383775936566878 0 0.1655019821859241 -0.27302585195735052 0 0.16999054138435979 -0.26125902205485563 0 0.18231756712108699 -0.26383775936566878 0 0.1655019821859241 -0.27302585195735052 0 0.18231756712108699 -0.26383775936566878 0 0.17729308356343121 -0.28259596814131349 0 0.19577054630340601 -0.27719280299441063 0 0.18231756712108699 -0.26383775936566878 0 0.17729308356343121 -0.28259596814131349 0 0.19577054630340601 -0.27719280299441063 0 0.18908418494093721 -0.29216608432527802 0 0.17729308356343121 -0.28259596814131349 0 0.18908418494093721 -0.29216608432527802 0 0.17729308356343121 -0.28259596814131349 0 0.17236635084515639 -0.29476113694160883 0 0.18908418494093721 -0.29216608432527802 0 0.17729308356343121 -0.28259596814131349 0 0.17236635084515639 -0.29476113694160883 0 0.18062694267570731 -0.31110503495265029 0 0.16502668359358499 -0.30534374240510859 0 0.18908418494093721 -0.29216608432527802 0 0.18062694267570731 -0.31110503495265029 0 0.18908418494093721 -0.29216608432527802 0 0.17236635084515639 -0.29476113694160883 0 0.18062694267570731 -0.31110503495265029 0 0.18062694267570731 -0.31110503495265029 0 0.16502668359358499 -0.30534374240510859 0 0.17236635084515639 -0.29476113694160883 0 0.16502668359358499 -0.30534374240510859 0 0.1595618869819069 -0.29446919383113762 0 0.16742957888073379 -0.31791064082249182 0 0.18062694267570731 -0.31110503495265029 0 0.16502668359358499 -0.30534374240510859 0 0.1561768831418939 -0.31493776838462112 0 0.14942642451146149 -0.2995824498575701 0 0.16502668359358499 -0.30534374240510859 0 0.14942642451146149 -0.2995824498575701 0 0.16502668359358499 -0.30534374240510859 0 0.14942642451146149 -0.2995824498575701 0 0.16502668359358499 -0.30534374240510859 0 0.1595618869819069 -0.29446919383113762 0 0.17729308356343121 -0.28259596814131349 0 0.17236635084515639 -0.29476113694160883 0 0.16091224763727771 -0.28314036009338062 0 0.1508292363689587 -0.28932805491236291 0 0.1595618869819069 -0.29446919383113762 0 0.16091224763727771 -0.28314036009338062 0 0.17236635084515639 -0.29476113694160883 0 0.1595618869819069 -0.29446919383113762 0 0.16091224763727771 -0.28314036009338062 0 0.19648463516558981 -0.5 0 0.2040874442982562 -0.4750723076105986 0 0.18224081239923159 -0.48483550761679223 0 0.2040874442982562 -0.4750723076105986 0 0.18153695454437119 -0.46683529523665163 0 0.18224081239923159 -0.48483550761679223 0 0.2040874442982562 -0.4750723076105986 0 0.22049457680248391 -0.49999999999999928 0 0.2040874442982562 -0.4750723076105986 0 0.22049457680248391 -0.49999999999999928 0 0.2236301761340489 -0.48302415704983448 0 0.19648463516558981 -0.5 0 0.2040874442982562 -0.4750723076105986 0 0.22049457680248391 -0.49999999999999928 0 0.26435448448350718 -0.4787772290542629 0 0.2268251930842379 -0.49999999999999889 0 0.2365016635003776 -0.4779691767424159 0 0.2268251930842379 -0.49999999999999889 0 0.2365016635003776 -0.4779691767424159 0 0.2268251930842379 -0.49999999999999889 0 0.22049457680248391 -0.49999999999999928 0 0.2236301761340489 -0.48302415704983448 0 0.2268251930842379 -0.49999999999999889 0 0.2365016635003776 -0.4779691767424159 0 0.2236301761340489 -0.48302415704983448 0 0.2040874442982562 -0.4750723076105986 0 0.2236301761340489 -0.48302415704983448 0 0.23024200298488881 -0.46207930089615779 0 0.2365016635003776 -0.4779691767424159 0 0.2236301761340489 -0.48302415704983448 0 0.23024200298488881 -0.46207930089615779 0 0.25066913662040152 -0.46960567687327343 0 0.2365016635003776 -0.4779691767424159 0 0.2461781339165178 -0.45593835348483308 0 0.2365016635003776 -0.4779691767424159 0 0.2461781339165178 -0.45593835348483308 0 0.2365016635003776 -0.4779691767424159 0 0.23024200298488881 -0.46207930089615779 0 0.2461781339165178 -0.45593835348483308 0 0.23024200298488881 -0.46207930089615779 0 0.2461781339165178 -0.45593835348483308 0 0.23968257135213941 -0.44784739402877238 0 0.23968257135213941 -0.44784739402877238 0 0.21368144157308289 -0.44899600462498662 0 0.2288235487429581 -0.4277697562869478 0 0.23024200298488881 -0.46207930089615779 0 0.23968257135213941 -0.44784739402877238 0 0.21368144157308289 -0.44899600462498662 0 0.23968257135213941 -0.44784739402877238 0 0.21368144157308289 -0.44899600462498662 0 0.21368144157308289 -0.44899600462498662 0 0.19492301548916299 -0.43939045711320551 0 0.20160481816982831 -0.4272189687707354 0 0.2040874442982562 -0.4750723076105986 0 0.23024200298488881 -0.46207930089615779 0 0.21368144157308289 -0.44899600462498662 0 0.2040874442982562 -0.4750723076105986 0 0.18768031179402631 -0.45014461522119947 0 0.18153695454437119 -0.46683529523665163 0 0.2040874442982562 -0.4750723076105986 0 0.18768031179402631 -0.45014461522119947 0 0.2040874442982562 -0.4750723076105986 0 0.21368144157308289 -0.44899600462498662 0 0.18768031179402631 -0.45014461522119947 0 0.21368144157308289 -0.44899600462498662 0 0.18768031179402631 -0.45014461522119947 0 0.19492301548916299 -0.43939045711320551 0 0.21368144157308289 -0.44899600462498662 0 0.18768031179402631 -0.45014461522119947 0 0.18768031179402631 -0.45014461522119947 0 0.19492301548916299 -0.43939045711320551 0 0.18286475826282811 -0.4428282461311383 0 0.19492301548916299 -0.43939045711320551 0 0.20160481816982831 -0.4272189687707354 0 0.17438608759669841 -0.42666818125452288 0 0.20160481816982831 -0.4272189687707354 0 0.17438608759669841 -0.42666818125452288 0 0.20160481816982831 -0.4272189687707354 0 0.2086283830616808 -0.40733293002118898 0 0.19289629213530571 -0.40153387565190818 0 0.20160481816982831 -0.4272189687707354 0 0.19289629213530571 -0.40153387565190818 0 0.18491556676122409 -0.41482795304818149 0 0.2086283830616808 -0.40733293002118898 0 0.2196390259597796 -0.41485447665358749 0 0.22109399866912671 -0.39881904305015847 0 0.20160481816982831 -0.4272189687707354 0 0.2086283830616808 -0.40733293002118898 0 0.2196390259597796 -0.41485447665358749 0 0.21368144157308289 -0.44899600462498662 0 0.20160481816982831 -0.4272189687707354 0 0.2288235487429581 -0.4277697562869478 0 0.20160481816982831 -0.4272189687707354 0 0.2288235487429581 -0.4277697562869478 0 0.20160481816982831 -0.4272189687707354 0 0.2288235487429581 -0.4277697562869478 0 0.2196390259597796 -0.41485447665358749 0 0.25604227931608808 -0.42832054380316031 0 0.2288235487429581 -0.4277697562869478 0 0.25604227931608808 -0.42832054380316031 0 0.23968257135213941 -0.44784739402877238 0 0.2288235487429581 -0.4277697562869478 0 0.25604227931608808 -0.42832054380316031 0 0.2288235487429581 -0.4277697562869478 0 0.24595077245144839 -0.41665411901766092 0 0.25191562489914582 -0.403836855131881 0 0.24595077245144839 -0.41665411901766092 0 0.23417953234990649 -0.40773737494764661 0 0.2288235487429581 -0.4277697562869478 0 0.24595077245144839 -0.41665411901766092 0 0.23417953234990649 -0.40773737494764661 0 0.2196390259597796 -0.41485447665358749 0 0.23417953234990649 -0.40773737494764661 0 0.22109399866912671 -0.39881904305015847 0 0.2288235487429581 -0.4277697562869478 0 0.2196390259597796 -0.41485447665358749 0 0.23417953234990649 -0.40773737494764661 0 0.22109399866912671 -0.39881904305015847 0 0.2271044003362597 -0.38774329918042172 0 0.21807952791558899 -0.38844114998579821 0 0.22109399866912671 -0.39881904305015847 0 0.23301430555117841 -0.39392370191501308 0 0.2271044003362597 -0.38774329918042172 0 0.23417953234990649 -0.40773737494764661 0 0.22109399866912671 -0.39881904305015847 0 0.23301430555117841 -0.39392370191501308 0 0.25191562489914582 -0.403836855131881 0 0.23417953234990649 -0.40773737494764661 0 0.24094093667886171 -0.39725557204583978 0 0.23417953234990649 -0.40773737494764661 0 0.23301430555117841 -0.39392370191501308 0 0.24094093667886171 -0.39725557204583978 0 0.23301430555117841 -0.39392370191501308 0 0.24094093667886171 -0.39725557204583978 0 0.2407773248044412 -0.38859031849946579 0 0.25191562489914582 -0.403836855131881 0 0.24094093667886171 -0.39725557204583978 0 0.24749080516554131 -0.39358411427499751 0 0.24094093667886171 -0.39725557204583978 0 0.24749080516554131 -0.39358411427499751 0 0.2407773248044412 -0.38859031849946579 0 0.26013406401590672 -0.38047882491363849 0 0.23982637591521519 -0.37606966838762163 0 0.25262985795907278 -0.38262555595729458 0 0.23982637591521519 -0.37606966838762163 0 0.23642754580480091 -0.37529463544741981 0 0.25262985795907278 -0.38262555595729458 0 0.24055694029639499 -0.37889327973663239 0 0.23642754580480091 -0.37529463544741981 0 0.25831589449737669 -0.38339136364634541 0 0.23982637591521519 -0.37606966838762163 0 0.25262985795907278 -0.38262555595729458 0 0.23642754580480091 -0.37529463544741981 0 0.25375531452165939 -0.37623440762837412 0 0.247834074023594 -0.37296100291649509 0 0.23982637591521519 -0.37606966838762163 0 0.25262985795907278 -0.38262555595729458 0 0.24614515364075229 -0.38323594071672878 0 0.24055694029639499 -0.37889327973663239 0 0.24614515364075229 -0.38323594071672878 0 0.24342197528155529 -0.38407721412551549 0 0.24055694029639499 -0.37889327973663239 0 0.25262985795907278 -0.38262555595729458 0 0.24614515364075229 -0.38323594071672878 0 0.24797184102598641 -0.38734771304747279 0 0.24749080516554131 -0.39358411427499751 0 0.24797184102598641 -0.38734771304747279 0 0.2407773248044412 -0.38859031849946579 0 0.24797184102598641 -0.38734771304747279 0 0.24342197528155529 -0.38407721412551549 0 0.2407773248044412 -0.38859031849946579 0 0.24614515364075229 -0.38323594071672878 0 0.24797184102598641 -0.38734771304747279 0 0.24342197528155529 -0.38407721412551549 0 0.24342197528155529 -0.38407721412551549 0 0.239706928213968 -0.38291371747540731 0 0.2407773248044412 -0.38859031849946579 0 0.239706928213968 -0.38291371747540731 0 0.2407773248044412 -0.38859031849946579 0 0.23533994528121571 -0.38329647407915662 0 0.23301430555117841 -0.39392370191501308 0 0.2407773248044412 -0.38859031849946579 0 0.23533994528121571 -0.38329647407915662 0 0.23533994528121571 -0.38329647407915662 0 0.23527527895307479 -0.379273866306584 0 0.23759654761254489 -0.37990744517117692 0 0.239706928213968 -0.38291371747540731 0 0.23533994528121571 -0.38329647407915662 0 0.23759654761254489 -0.37990744517117692 0 0.239706928213968 -0.38291371747540731 0 0.23759654761254489 -0.37990744517117692 0 0.24055694029639499 -0.37889327973663239 0 0.24342197528155529 -0.38407721412551549 0 0.239706928213968 -0.38291371747540731 0 0.24055694029639499 -0.37889327973663239 0 0.23527527895307479 -0.379273866306584 0 0.23642754580480091 -0.37529463544741981 0 0.2366646985295161 -0.37747021052599122 0 0.23982637591521519 -0.37606966838762163 0 0.23642754580480091 -0.37529463544741981 0 0.24055694029639499 -0.37889327973663239 0 0.23642754580480091 -0.37529463544741981 0 0.2366646985295161 -0.37747021052599122 0 0.23527527895307479 -0.379273866306584 0 0.23642754580480091 -0.37529463544741981 0 0.23312232593844179 -0.3771655245687674 0 0.23759654761254489 -0.37990744517117692 0 0.24055694029639499 -0.37889327973663239 0 0.2366646985295161 -0.37747021052599122 0 0.23527527895307479 -0.379273866306584 0 0.23759654761254489 -0.37990744517117692 0 0.2366646985295161 -0.37747021052599122 0 0.23642754580480091 -0.37529463544741981 0 0.23312232593844179 -0.3771655245687674 0 0.22935422823584611 -0.37695552342907868 0 0.23312232593844179 -0.3771655245687674 0 0.23075238460300621 -0.38090926466039121 0 0.22935422823584611 -0.37695552342907868 0 0.23642754580480091 -0.37529463544741981 0 0.22935422823584611 -0.37695552342907868 0 0.22380639522206469 -0.37549259574283528 0 0.23533994528121571 -0.38329647407915662 0 0.23527527895307479 -0.379273866306584 0 0.23075238460300621 -0.38090926466039121 0 0.23527527895307479 -0.379273866306584 0 0.23312232593844179 -0.3771655245687674 0 0.23075238460300621 -0.38090926466039121 0 0.23075238460300621 -0.38090926466039121 0 0.22935422823584611 -0.37695552342907868 0 0.2243462399974421 -0.38107016139201311 0 0.23301430555117841 -0.39392370191501308 0 0.23533994528121571 -0.38329647407915662 0 0.2271044003362597 -0.38774329918042172 0 0.23533994528121571 -0.38329647407915662 0 0.23075238460300621 -0.38090926466039121 0 0.2271044003362597 -0.38774329918042172 0 0.23075238460300621 -0.38090926466039121 0 0.2271044003362597 -0.38774329918042172 0 0.2243462399974421 -0.38107016139201311 0 0.2271044003362597 -0.38774329918042172 0 0.2243462399974421 -0.38107016139201311 0 0.21807952791558899 -0.38844114998579821 0 0.2243462399974421 -0.38107016139201311 0 0.21729133252485441 -0.37717975934536557 0 0.21807952791558899 -0.38844114998579821 0 0.22935422823584611 -0.37695552342907868 0 0.22380639522206469 -0.37549259574283528 0 0.2243462399974421 -0.38107016139201311 0 0.22380639522206469 -0.37549259574283528 0 0.2243462399974421 -0.38107016139201311 0 0.21729133252485441 -0.37717975934536557 0 0.21729133252485441 -0.37717975934536557 0 0.21172146962880081 -0.38203217310278498 0 0.21807952791558899 -0.38844114998579821 0 0.2141485145971371 -0.37049455273470289 0 0.21729133252485441 -0.37717975934536557 0 0.21172146962880081 -0.38203217310278498 0 0.21172146962880081 -0.38203217310278498 0 0.2079077803743635 -0.39423828597955568 0 0.19462390421506151 -0.38765940086423678 0 0.2141485145971371 -0.37049455273470289 0 0.21172146962880081 -0.38203217310278498 0 0.20133278074283961 -0.37645701622005928 0 0.21172146962880081 -0.38203217310278498 0 0.21807952791558899 -0.38844114998579821 0 0.2079077803743635 -0.39423828597955568 0 0.2086283830616808 -0.40733293002118898 0 0.2079077803743635 -0.39423828597955568 0 0.19289629213530571 -0.40153387565190818 0 0.22109399866912671 -0.39881904305015847 0 0.21807952791558899 -0.38844114998579821 0 0.2079077803743635 -0.39423828597955568 0 0.2086283830616808 -0.40733293002118898 0 0.22109399866912671 -0.39881904305015847 0 0.2079077803743635 -0.39423828597955568 0 0.2079077803743635 -0.39423828597955568 0 0.19289629213530571 -0.40153387565190818 0 0.19462390421506151 -0.38765940086423678 0 0.19289629213530571 -0.40153387565190818 0 0.19462390421506151 -0.38765940086423678 0 0.17645588608826671 -0.38306977467941727 0 0.21172146962880081 -0.38203217310278498 0 0.19462390421506151 -0.38765940086423678 0 0.20133278074283961 -0.37645701622005928 0 0.19462390421506151 -0.38765940086423678 0 0.20133278074283961 -0.37645701622005928 0 0.17645588608826671 -0.38306977467941727 0 0.20133278074283961 -0.37645701622005928 0 0.17645588608826671 -0.38306977467941727 0 0.1863121642240772 -0.37048192246816652 0 0.20133278074283961 -0.37645701622005928 0 0.17645588608826671 -0.38306977467941727 0 0.1863121642240772 -0.37048192246816652 0 0.16586473307507801 -0.37334626187033249 0 0.17645588608826671 -0.38306977467941727 0 0.19289629213530571 -0.40153387565190818 0 0.17645588608826671 -0.38306977467941727 0 0.1707750691430642 -0.40389078651555937 0 0.1707750691430642 -0.40389078651555937 0 0.15157899143369369 -0.38968253313877532 0 0.15078338402556021 -0.40807071556887242 0 0.17645588608826671 -0.38306977467941727 0 0.1707750691430642 -0.40389078651555937 0 0.15157899143369369 -0.38968253313877532 0 0.16586473307507801 -0.37334626187033249 0 0.17645588608826671 -0.38306977467941727 0 0.15157899143369369 -0.38968253313877532 0 0.16586473307507801 -0.37334626187033249 0 0.15170901343536339 -0.37586316969125472 0 0.15157899143369369 -0.38968253313877532 0 0.17645588608826671 -0.38306977467941727 0 0.15157899143369369 -0.38968253313877532 0 0.15170901343536339 -0.37586316969125472 0 0.15157899143369369 -0.38968253313877532 0 0.13614122473974241 -0.38234841372082068 0 0.12964343717385621 -0.367966648186694 0 0.15170901343536339 -0.37586316969125472 0 0.13614122473974241 -0.38234841372082068 0 0.15157899143369369 -0.38968253313877532 0 0.13614122473974241 -0.38234841372082068 0 0.12670209677912081 -0.39629529159813331 0 0.13614122473974241 -0.38234841372082068 0 0.12670209677912081 -0.39629529159813331 0 0.1210725848766777 -0.38193442598924598 0 0.12964343717385621 -0.367966648186694 0 0.13614122473974241 -0.38234841372082068 0 0.1210725848766777 -0.38193442598924598 0 0.15157899143369369 -0.38968253313877532 0 0.12670209677912081 -0.39629529159813331 0 0.15157899143369369 -0.38968253313877532 0 0.12670209677912081 -0.39629529159813331 0 0.15078338402556021 -0.40807071556887242 0 0.15078338402556021 -0.40807071556887242 0 0.14716735702356859 -0.42611739373831048 0 0.1210404942669823 -0.41796687969920998 0 0.12670209677912081 -0.39629529159813331 0 0.15078338402556021 -0.40807071556887242 0 0.1210404942669823 -0.41796687969920998 0 0.14716735702356859 -0.42611739373831048 0 0.12824500471797429 -0.44111862644875499 0 0.1210404942669823 -0.41796687969920998 0 0.14716735702356859 -0.42611739373831048 0 0.1668897182361771 -0.43896749182371869 0 0.1531527583814484 -0.44627970193302202 0 0.14716735702356859 -0.42611739373831048 0 0.17438608759669841 -0.42666818125452288 0 0.14716735702356859 -0.42611739373831048 0 0.17438608759669841 -0.42666818125452288 0 0.1668897182361771 -0.43896749182371869 0 0.15078338402556021 -0.40807071556887242 0 0.14716735702356859 -0.42611739373831048 0 0.17438608759669841 -0.42666818125452288 0 0.1707750691430642 -0.40389078651555937 0 0.15078338402556021 -0.40807071556887242 0 0.17438608759669841 -0.42666818125452288 0 0.19289629213530571 -0.40153387565190818 0 0.1707750691430642 -0.40389078651555937 0 0.18491556676122409 -0.41482795304818149 0 0.1707750691430642 -0.40389078651555937 0 0.18491556676122409 -0.41482795304818149 0 0.17438608759669841 -0.42666818125452288 0 0.19492301548916299 -0.43939045711320551 0 0.17438608759669841 -0.42666818125452288 0 0.18286475826282811 -0.4428282461311383 0 0.20160481816982831 -0.4272189687707354 0 0.18491556676122409 -0.41482795304818149 0 0.17438608759669841 -0.42666818125452288 0 0.17438608759669841 -0.42666818125452288 0 0.18286475826282811 -0.4428282461311383 0 0.1668897182361771 -0.43896749182371869 0 0.17394576450835539 -0.4507513444933739 0 0.18286475826282811 -0.4428282461311383 0 0.1668897182361771 -0.43896749182371869 0 0.18768031179402631 -0.45014461522119947 0 0.17394576450835539 -0.4507513444933739 0 0.17886338369508259 -0.45709669188121332 0 0.18768031179402631 -0.45014461522119947 0 0.18286475826282811 -0.4428282461311383 0 0.18768031179402631 -0.45014461522119947 0 0.17394576450835539 -0.4507513444933739 0 0.18286475826282811 -0.4428282461311383 0 0.18768031179402631 -0.45014461522119947 0 0.17394576450835539 -0.4507513444933739 0 0.18153695454437119 -0.46683529523665163 0 0.17886338369508259 -0.45709669188121332 0 0.16365799726421909 -0.46024830085937901 0 0.18768031179402631 -0.45014461522119947 0 0.18153695454437119 -0.46683529523665163 0 0.17886338369508259 -0.45709669188121332 0 0.17394576450835539 -0.4507513444933739 0 0.17886338369508259 -0.45709669188121332 0 0.16365799726421909 -0.46024830085937901 0 0.18153695454437119 -0.46683529523665163 0 0.16365799726421909 -0.46024830085937901 0 0.165325283380862 -0.47414975733316572 0 0.16365799726421909 -0.46024830085937901 0 0.14976704045446479 -0.47161351470140328 0 0.165325283380862 -0.47414975733316572 0 0.17394576450835539 -0.4507513444933739 0 0.1668897182361771 -0.43896749182371869 0 0.1531527583814484 -0.44627970193302202 0 0.17394576450835539 -0.4507513444933739 0 0.16365799726421909 -0.46024830085937901 0 0.1531527583814484 -0.44627970193302202 0 0.14716735702356859 -0.42611739373831048 0 0.1531527583814484 -0.44627970193302202 0 0.12824500471797429 -0.44111862644875499 0 0.1531527583814484 -0.44627970193302202 0 0.12824500471797429 -0.44111862644875499 0 0.1395425460212113 -0.4600171342137287 0 0.12824500471797429 -0.44111862644875499 0 0.1395425460212113 -0.4600171342137287 0 0.1104953765956751 -0.45877784573399649 0 0.16365799726421909 -0.46024830085937901 0 0.1395425460212113 -0.4600171342137287 0 0.14976704045446479 -0.47161351470140328 0 0.16365799726421909 -0.46024830085937901 0 0.1531527583814484 -0.44627970193302202 0 0.1395425460212113 -0.4600171342137287 0 0.1395425460212113 -0.4600171342137287 0 0.14976704045446479 -0.47161351470140328 0 0.13696113909529911 -0.4763510840783734 0 0.14489004681788481 -0.48707487866658411 0 0.165325283380862 -0.47414975733316572 0 0.14976704045446479 -0.47161351470140328 0 0.14489004681788481 -0.48707487866658411 0 0.165325283380862 -0.47414975733316572 0 0.14976704045446479 -0.47161351470140328 0 0.13696113909529911 -0.4763510840783734 0 0.14489004681788481 -0.48707487866658411 0 0.1395425460212113 -0.4600171342137287 0 0.13696113909529911 -0.4763510840783734 0 0.1234056689517148 -0.4753591627729189 0 0.13696113909529911 -0.4763510840783734 0 0.124454810254907 -0.50000000000000133 0 0.1234056689517148 -0.4753591627729189 0 0.13696113909529911 -0.4763510840783734 0 0.14489004681788481 -0.48707487866658411 0 0.124454810254907 -0.50000000000000133 0 0.14846475189180119 -0.5 0 0.14489004681788481 -0.48707487866658411 0 0.124454810254907 -0.50000000000000133 0 0.14489004681788481 -0.48707487866658411 0 0.124454810254907 -0.50000000000000133 0 0.14846475189180119 -0.5 0 0.14489004681788481 -0.48707487866658411 0 0.16064007625764709 -0.48935932530963699 0 0.14846475189180119 -0.5 0 0.16064007625764709 -0.48935932530963699 0 0.17247469352869549 -0.5 0 0.16064007625764709 -0.48935932530963699 0 0.17247469352869549 -0.5 0 0.18224081239923159 -0.48483550761679223 0 0.16064007625764709 -0.48935932530963699 0 0.165325283380862 -0.47414975733316572 0 0.18224081239923159 -0.48483550761679223 0 0.14489004681788481 -0.48707487866658411 0 0.16064007625764709 -0.48935932530963699 0 0.165325283380862 -0.47414975733316572 0 0.18153695454437119 -0.46683529523665163 0 0.165325283380862 -0.47414975733316572 0 0.18224081239923159 -0.48483550761679223 0 0.19648463516558981 -0.5 0 0.17247469352869549 -0.5 0 0.18224081239923159 -0.48483550761679223 0 0.075561413286511586 -0.48341774274696919 0 0.05997095786520034 -0.47738020212921378 0 0.054311841330275681 -0.50000000000000222 0 0.077692830971819449 -0.5 0 0.075561413286511586 -0.48341774274696919 0 0.054311841330275681 -0.50000000000000222 0 0.075561413286511586 -0.48341774274696919 0 0.089907080202995024 -0.47228698575551681 0 0.065630074400124444 -0.45476040425842512 0 0.075561413286511586 -0.48341774274696919 0 0.065630074400124444 -0.45476040425842512 0 0.05997095786520034 -0.47738020212921378 0 0.075561413286511586 -0.48341774274696919 0 0.089907080202995024 -0.47228698575551681 0 0.1010738206133632 -0.5 0 0.077692830971819449 -0.5 0 0.075561413286511586 -0.48341774274696919 0 0.1010738206133632 -0.5 0 0.089907080202995024 -0.47228698575551681 0 0.1010738206133632 -0.5 0 0.1071389328979864 -0.48151675020802559 0 0.1010738206133632 -0.5 0 0.124454810254907 -0.50000000000000133 0 0.1071389328979864 -0.48151675020802559 0 0.124454810254907 -0.50000000000000133 0 0.1234056689517148 -0.4753591627729189 0 0.1071389328979864 -0.48151675020802559 0 0.1234056689517148 -0.4753591627729189 0 0.1071389328979864 -0.48151675020802559 0 0.1104953765956751 -0.45877784573399649 0 0.089907080202995024 -0.47228698575551681 0 0.1071389328979864 -0.48151675020802559 0 0.1104953765956751 -0.45877784573399649 0 0.089907080202995024 -0.47228698575551681 0 0.1104953765956751 -0.45877784573399649 0 0.087691320410763801 -0.45057620523792929 0 0.1395425460212113 -0.4600171342137287 0 0.1234056689517148 -0.4753591627729189 0 0.1104953765956751 -0.45877784573399649 0 0.12824500471797429 -0.44111862644875499 0 0.1104953765956751 -0.45877784573399649 0 0.1011348799199759 -0.43491518405407159 0 0.1104953765956751 -0.45877784573399649 0 0.087691320410763801 -0.45057620523792929 0 0.1011348799199759 -0.43491518405407159 0 0.087691320410763801 -0.45057620523792929 0 0.071289190935048555 -0.43214060638763652 0 0.1011348799199759 -0.43491518405407159 0 0.089907080202995024 -0.47228698575551681 0 0.087691320410763801 -0.45057620523792929 0 0.065630074400124444 -0.45476040425842512 0 0.065630074400124444 -0.45476040425842512 0 0.05997095786520034 -0.47738020212921378 0 0.065630074400124444 -0.45476040425842512 0 0.071289190935048555 -0.43214060638763652 0 0.065630074400124444 -0.45476040425842512 0 0.071289190935048555 -0.43214060638763652 0 0.056783731180929831 -0.44052937899198569 0 0.087691320410763801 -0.45057620523792929 0 0.065630074400124444 -0.45476040425842512 0 0.071289190935048555 -0.43214060638763652 0 0.076948307469974747 -0.40952080851684841 0 0.051981409302680248 -0.41615749164600191 0 0.071289190935048555 -0.43214060638763652 0 0.076948307469974747 -0.40952080851684841 0 0.051981409302680248 -0.41615749164600191 0 0.076948307469974747 -0.40952080851684841 0 0.060671962008258362 -0.3976415879987123 0 0.051981409302680248 -0.41615749164600191 0 0.071289190935048555 -0.43214060638763652 0 0.076948307469974747 -0.40952080851684841 0 0.071289190935048555 -0.43214060638763652 0 0.076948307469974747 -0.40952080851684841 0 0.093227904486638716 -0.41772443015035837 0 0.076948307469974747 -0.40952080851684841 0 0.093227904486638716 -0.41772443015035837 0 0.1018252021245479 -0.40290805005749131 0 0.071289190935048555 -0.43214060638763652 0 0.093227904486638716 -0.41772443015035837 0 0.1011348799199759 -0.43491518405407159 0 0.093227904486638716 -0.41772443015035837 0 0.1011348799199759 -0.43491518405407159 0 0.1210404942669823 -0.41796687969920998 0 0.12824500471797429 -0.44111862644875499 0 0.1011348799199759 -0.43491518405407159 0 0.1210404942669823 -0.41796687969920998 0 0.093227904486638716 -0.41772443015035837 0 0.1210404942669823 -0.41796687969920998 0 0.1018252021245479 -0.40290805005749131 0 0.12670209677912081 -0.39629529159813331 0 0.1018252021245479 -0.40290805005749131 0 0.12670209677912081 -0.39629529159813331 0 0.1210404942669823 -0.41796687969920998 0 0.1018252021245479 -0.40290805005749131 0 0.12670209677912081 -0.39629529159813331 0 0.1018252021245479 -0.40290805005749131 0 0.1210725848766777 -0.38193442598924598 0 0.1018252021245479 -0.40290805005749131 0 0.1210725848766777 -0.38193442598924598 0 0.10713483520734431 -0.37185186770187001 0 0.1018252021245479 -0.40290805005749131 0 0.091579777613193067 -0.3805998763552591 0 0.10713483520734431 -0.37185186770187001 0 0.091579777613193067 -0.3805998763552591 0 0.081501561354335506 -0.39132120405861381 0 0.077446040688824352 -0.37322460432357518 0 0.076948307469974747 -0.40952080851684841 0 0.1018252021245479 -0.40290805005749131 0 0.081501561354335506 -0.39132120405861381 0 0.1018252021245479 -0.40290805005749131 0 0.091579777613193067 -0.3805998763552591 0 0.081501561354335506 -0.39132120405861381 0 0.076948307469974747 -0.40952080851684841 0 0.1018252021245479 -0.40290805005749131 0 0.076948307469974747 -0.40952080851684841 0 0.081501561354335506 -0.39132120405861381 0 0.076948307469974747 -0.40952080851684841 0 0.081501561354335506 -0.39132120405861381 0 0.060671962008258362 -0.3976415879987123 0 0.081501561354335506 -0.39132120405861381 0 0.063808457074631231 -0.38151283302859251 0 0.060671962008258362 -0.3976415879987123 0 0.081501561354335506 -0.39132120405861381 0 0.063808457074631231 -0.38151283302859251 0 0.077446040688824352 -0.37322460432357518 0 0.063808457074631231 -0.38151283302859251 0 0.048134006740101917 -0.38510721858403829 0 0.060671962008258362 -0.3976415879987123 0 0.063808457074631231 -0.38151283302859251 0 0.048134006740101917 -0.38510721858403829 0 0.052224593376763599 -0.37423672689752291 0 0.048134006740101917 -0.38510721858403829 0 0.052224593376763599 -0.37423672689752291 0 0.041122553359336518 -0.3745189396943413 0 0.048134006740101917 -0.38510721858403829 0 0.060671962008258362 -0.3976415879987123 0 0.040799338141474989 -0.40028610027700767 0 0.060671962008258362 -0.3976415879987123 0 0.040799338141474989 -0.40028610027700767 0 0.051981409302680248 -0.41615749164600191 0 0.040799338141474989 -0.40028610027700767 0 0.031450163804322147 -0.38299648014708249 0 0.02273834873978673 -0.39721307904883207 0 0.048134006740101917 -0.38510721858403829 0 0.031450163804322147 -0.38299648014708249 0 0.041122553359336518 -0.3745189396943413 0 0.048134006740101917 -0.38510721858403829 0 0.040799338141474989 -0.40028610027700767 0 0.031450163804322147 -0.38299648014708249 0 0.031450163804322147 -0.38299648014708249 0 0.014416824747154619 -0.37592328633005739 0 0.02273834873978673 -0.39721307904883207 0 0.031450163804322147 -0.38299648014708249 0 0.014416824747154619 -0.37592328633005739 0 0.030258067008644449 -0.3667440264152243 0 0.014416824747154619 -0.37592328633005739 0 0.001178295979689481 -0.3881409324793787 0 0.02273834873978673 -0.39721307904883207 0 0.014416824747154619 -0.37592328633005739 0 0.001178295979689481 -0.3881409324793787 0 0.0014496837259096161 -0.37019917058000251 0 0.001178295979689481 -0.3881409324793787 0 0.02273834873978673 -0.39721307904883207 0 0.0080763184361985277 -0.4079839549095946 0 0.040799338141474989 -0.40028610027700767 0 0.02273834873978673 -0.39721307904883207 0 0.030081462129137919 -0.41744632225413558 0 0.030081462129137919 -0.41744632225413558 0 0.0080763184361985277 -0.4079839549095946 0 0.010569624309191479 -0.42328766487564329 0 0.02273834873978673 -0.39721307904883207 0 0.030081462129137919 -0.41744632225413558 0 0.0080763184361985277 -0.4079839549095946 0 -0.0062201247180692348 -0.41868752424963762 0 0.0080763184361985277 -0.4079839549095946 0 0.010569624309191479 -0.42328766487564329 0 -0.0062201247180692348 -0.41868752424963762 0 0.00098278496791487282 -0.43499994183307022 0 0.010569624309191479 -0.42328766487564329 0 0.00098278496791487282 -0.43499994183307022 0 0.010569624309191479 -0.42328766487564329 0 0.021992614728686671 -0.4340029927020036 0 0.030081462129137919 -0.41744632225413558 0 0.021992614728686671 -0.4340029927020036 0 0.038465138029012913 -0.44150166477683561 0 0.030081462129137919 -0.41744632225413558 0 0.010569624309191479 -0.42328766487564329 0 0.021992614728686671 -0.4340029927020036 0 0.030081462129137919 -0.41744632225413558 0 0.051981409302680248 -0.41615749164600191 0 0.038465138029012913 -0.44150166477683561 0 0.040799338141474989 -0.40028610027700767 0 0.030081462129137919 -0.41744632225413558 0 0.051981409302680248 -0.41615749164600191 0 0.051981409302680248 -0.41615749164600191 0 0.056783731180929831 -0.44052937899198569 0 0.038465138029012913 -0.44150166477683561 0 0.071289190935048555 -0.43214060638763652 0 0.051981409302680248 -0.41615749164600191 0 0.056783731180929831 -0.44052937899198569 0 0.065630074400124444 -0.45476040425842512 0 0.056783731180929831 -0.44052937899198569 0 0.048539989077827868 -0.46041700379042189 0 0.056783731180929831 -0.44052937899198569 0 0.048539989077827868 -0.46041700379042189 0 0.038465138029012913 -0.44150166477683561 0 0.065630074400124444 -0.45476040425842512 0 0.048539989077827868 -0.46041700379042189 0 0.05997095786520034 -0.47738020212921378 0 0.048539989077827868 -0.46041700379042189 0 0.038465138029012913 -0.44150166477683561 0 0.029297258176345299 -0.46836801061636929 0 0.021992614728686671 -0.4340029927020036 0 0.038465138029012913 -0.44150166477683561 0 0.01414289402616341 -0.45028778696906641 0 -0.01021388243781865 -0.45148415516460921 0 0.00098278496791487282 -0.43499994183307022 0 0.01414289402616341 -0.45028778696906641 0 0.00098278496791487282 -0.43499994183307022 0 0.021992614728686671 -0.4340029927020036 0 0.01414289402616341 -0.45028778696906641 0 -0.01021388243781865 -0.45148415516460921 0 0.01414289402616341 -0.45028778696906641 0 0.0058249948487519992 -0.47378655522329088 0 0.038465138029012913 -0.44150166477683561 0 0.01414289402616341 -0.45028778696906641 0 0.029297258176345299 -0.46836801061636929 0 0.01414289402616341 -0.45028778696906641 0 0.029297258176345299 -0.46836801061636929 0 0.0058249948487519992 -0.47378655522329088 0 0.029297258176345299 -0.46836801061636929 0 0.0058249948487519992 -0.47378655522329088 0 0.024390952079798359 -0.5 0 -0.0055299371706789557 -0.5 0 0.0058249948487519992 -0.47378655522329088 0 0.024390952079798359 -0.5 0 0.024390952079798359 -0.5 0 0.043002343019838969 -0.48403489736873301 0 0.054311841330275681 -0.50000000000000222 0 0.029297258176345299 -0.46836801061636929 0 0.024390952079798359 -0.5 0 0.043002343019838969 -0.48403489736873301 0 0.048539989077827868 -0.46041700379042189 0 0.029297258176345299 -0.46836801061636929 0 0.043002343019838969 -0.48403489736873301 0 0.048539989077827868 -0.46041700379042189 0 0.043002343019838969 -0.48403489736873301 0 0.05997095786520034 -0.47738020212921378 0 0.05997095786520034 -0.47738020212921378 0 0.054311841330275681 -0.50000000000000222 0 0.043002343019838969 -0.48403489736873301 0 0.05997095786520034 -0.47738020212921378 0 0.054311841330275681 -0.50000000000000222 0 0.087241639590741368 -0.28936629262043623 0 0.090461813947703196 -0.30275748092437949 0 0.074265614944040576 -0.29537428178351749 0 0.087241639590741368 -0.28936629262043623 0 0.077654089852171287 -0.28125970022802832 0 0.092016692267343686 -0.27859791770952169 0 0.087241639590741368 -0.28936629262043623 0 0.074265614944040576 -0.29537428178351749 0 0.077654089852171287 -0.28125970022802832 0 0.087241639590741368 -0.28936629262043623 0 0.092016692267343686 -0.27859791770952169 0 0.10180998694244819 -0.28884208245673387 0 0.087241639590741368 -0.28936629262043623 0 0.090461813947703196 -0.30275748092437949 0 0.10180998694244819 -0.28884208245673387 0 0.090461813947703196 -0.30275748092437949 0 0.076933733953785777 -0.312287948792907 0 0.06912499697456273 -0.30911339078243538 0 0.090461813947703196 -0.30275748092437949 0 0.092387068917125961 -0.3119314518137129 0 0.086387084638438055 -0.31128763931219089 0 0.090461813947703196 -0.30275748092437949 0 0.086387084638438055 -0.31128763931219089 0 0.076933733953785777 -0.312287948792907 0 0.090461813947703196 -0.30275748092437949 0 0.06912499697456273 -0.30911339078243538 0 0.060914123683401412 -0.30514867006951879 0 0.090461813947703196 -0.30275748092437949 0 0.074265614944040576 -0.29537428178351749 0 0.060914123683401412 -0.30514867006951879 0 0.090461813947703196 -0.30275748092437949 0 0.060914123683401412 -0.30514867006951879 0 0.076933733953785777 -0.312287948792907 0 0.06912499697456273 -0.30911339078243538 0 0.068385718831499187 -0.3157777733773246 0 0.06912499697456273 -0.30911339078243538 0 0.064288197420267479 -0.30787531134681517 0 0.060914123683401412 -0.30514867006951879 0 0.06912499697456273 -0.30911339078243538 0 0.065378483169108007 -0.31173360782830978 0 0.068385718831499187 -0.3157777733773246 0 0.064288197420267479 -0.30787531134681517 0 0.061864727394912708 -0.30757379433864318 0 0.062113958188891441 -0.30992056793374018 0 0.065378483169108007 -0.31173360782830978 0 0.061487738162087698 -0.31450880719725333 0 0.062113958188891441 -0.30992056793374018 0 0.06912499697456273 -0.30911339078243538 0 0.064288197420267479 -0.30787531134681517 0 0.065378483169108007 -0.31173360782830978 0 0.064288197420267479 -0.30787531134681517 0 0.065378483169108007 -0.31173360782830978 0 0.062113958188891441 -0.30992056793374018 0 0.064131802234868335 -0.29764185839350082 0 0.074265614944040576 -0.29537428178351749 0 0.060914123683401412 -0.30514867006951879 0 0.064131802234868335 -0.29764185839350082 0 0.064929538038565784 -0.29313043204618 0 0.074265614944040576 -0.29537428178351749 0 0.064929538038565784 -0.29313043204618 0 0.074265614944040576 -0.29537428178351749 0 0.070108322175904653 -0.28853399361832732 0 0.074265614944040576 -0.29537428178351749 0 0.077654089852171287 -0.28125970022802832 0 0.070108322175904653 -0.28853399361832732 0 0.064929538038565784 -0.29313043204618 0 0.070108322175904653 -0.28853399361832732 0 0.062765143881292465 -0.28424374038480138 0 0.077654089852171287 -0.28125970022802832 0 0.070108322175904653 -0.28853399361832732 0 0.062765143881292465 -0.28424374038480138 0 0.062765143881292465 -0.28424374038480138 0 0.071803253486697013 -0.26766580004284579 0 0.056220440876533863 -0.26916260607052173 0 0.077654089852171287 -0.28125970022802832 0 0.062765143881292465 -0.28424374038480138 0 0.071803253486697013 -0.26766580004284579 0 0.071803253486697013 -0.26766580004284579 0 0.065335708183982863 -0.25499807618111581 0 0.08209704847362069 -0.25074917337938168 0 0.071803253486697013 -0.26766580004284579 0 0.065335708183982863 -0.25499807618111581 0 0.056220440876533863 -0.26916260607052173 0 0.071803253486697013 -0.26766580004284579 0 0.08209704847362069 -0.25074917337938168 0 0.087435426970014343 -0.26572614325516442 0 0.08209704847362069 -0.25074917337938168 0 0.087435426970014343 -0.26572614325516442 0 0.10195227185327931 -0.25264655321542367 0 0.077654089852171287 -0.28125970022802832 0 0.071803253486697013 -0.26766580004284579 0 0.087435426970014343 -0.26572614325516442 0 0.077654089852171287 -0.28125970022802832 0 0.087435426970014343 -0.26572614325516442 0 0.092016692267343686 -0.27859791770952169 0 0.087435426970014343 -0.26572614325516442 0 0.092016692267343686 -0.27859791770952169 0 0.10383721457856609 -0.27060168385054262 0 0.10383721457856609 -0.27060168385054262 0 0.1189280483528791 -0.27808952203523229 0 0.10180998694244819 -0.28884208245673387 0 0.092016692267343686 -0.27859791770952169 0 0.10383721457856609 -0.27060168385054262 0 0.10180998694244819 -0.28884208245673387 0 0.10383721457856609 -0.27060168385054262 0 0.10195227185327931 -0.25264655321542367 0 0.1208808610854319 -0.25970788443117943 0 0.087435426970014343 -0.26572614325516442 0 0.10383721457856609 -0.27060168385054262 0 0.10195227185327931 -0.25264655321542367 0 0.10383721457856609 -0.27060168385054262 0 0.1208808610854319 -0.25970788443117943 0 0.1189280483528791 -0.27808952203523229 0 0.13398591315260419 -0.27567973463621481 0 0.1208808610854319 -0.25970788443117943 0 0.1189280483528791 -0.27808952203523229 0 0.1189280483528791 -0.27808952203523229 0 0.1158438525028663 -0.29545281856486583 0 0.10180998694244819 -0.28884208245673387 0 0.1278890963722015 -0.28956777061598998 0 0.1189280483528791 -0.27808952203523229 0 0.1158438525028663 -0.29545281856486583 0 0.090461813947703196 -0.30275748092437949 0 0.10180998694244819 -0.28884208245673387 0 0.10424538547426861 -0.30742011652108298 0 0.1158438525028663 -0.29545281856486583 0 0.10180998694244819 -0.28884208245673387 0 0.10424538547426861 -0.30742011652108298 0 0.090461813947703196 -0.30275748092437949 0 0.092387068917125961 -0.3119314518137129 0 0.10424538547426861 -0.30742011652108298 0 0.12683322860644439 -0.31098052818449412 0 0.1278890963722015 -0.28956777061598998 0 0.1158438525028663 -0.29545281856486583 0 0.12683322860644439 -0.31098052818449412 0 0.1158438525028663 -0.29545281856486583 0 0.10424538547426861 -0.30742011652108298 0 0.1277096158765349 -0.33167236584288751 0 0.1042400327014259 -0.32237860651141509 0 0.1277096158765349 -0.33167236584288751 0 0.12683322860644439 -0.31098052818449412 0 0.1042400327014259 -0.32237860651141509 0 0.12683322860644439 -0.31098052818449412 0 0.1042400327014259 -0.32237860651141509 0 0.12683322860644439 -0.31098052818449412 0 0.10424538547426861 -0.30742011652108298 0 0.1042400327014259 -0.32237860651141509 0 0.1277096158765349 -0.33167236584288751 0 0.1132844846321505 -0.33349979137663632 0 0.1042400327014259 -0.32237860651141509 0 0.1277096158765349 -0.33167236584288751 0 0.1175933922248182 -0.34031097300678109 0 0.1132844846321505 -0.33349979137663632 0 0.1175933922248182 -0.34031097300678109 0 0.1132844846321505 -0.33349979137663632 0 0.1035948977258222 -0.33963722014545972 0 0.1132844846321505 -0.33349979137663632 0 0.1035948977258222 -0.33963722014545972 0 0.1042400327014259 -0.32237860651141509 0 0.1035948977258222 -0.33963722014545972 0 0.1042400327014259 -0.32237860651141509 0 0.089330709239924519 -0.32990023547130659 0 0.1035948977258222 -0.33963722014545972 0 0.08844116445073813 -0.34624952808908871 0 0.089330709239924519 -0.32990023547130659 0 0.1042400327014259 -0.32237860651141509 0 0.089330709239924519 -0.32990023547130659 0 0.097574461564347639 -0.31973909589494359 0 0.1042400327014259 -0.32237860651141509 0 0.089330709239924519 -0.32990023547130659 0 0.097574461564347639 -0.31973909589494359 0 0.1042400327014259 -0.32237860651141509 0 0.092387068917125961 -0.3119314518137129 0 0.10424538547426861 -0.30742011652108298 0 0.097574461564347639 -0.31973909589494359 0 0.10424538547426861 -0.30742011652108298 0 0.097574461564347639 -0.31973909589494359 0 0.1042400327014259 -0.32237860651141509 0 0.12964343717385621 -0.367966648186694 0 0.1145268252230785 -0.35300766908708592 0 0.10713483520734431 -0.37185186770187001 0 0.12964343717385621 -0.367966648186694 0 0.1210725848766777 -0.38193442598924598 0 0.10713483520734431 -0.37185186770187001 0 0.13285301213736089 -0.34698689713072628 0 0.1145268252230785 -0.35300766908708592 0 0.13285301213736089 -0.34698689713072628 0 0.1175933922248182 -0.34031097300678109 0 0.1145268252230785 -0.35300766908708592 0 0.1175933922248182 -0.34031097300678109 0 0.1035948977258222 -0.33963722014545972 0 0.1145268252230785 -0.35300766908708592 0 0.1035948977258222 -0.33963722014545972 0 0.1145268252230785 -0.35300766908708592 0 0.10073779425957929 -0.3548879881316499 0 0.1035948977258222 -0.33963722014545972 0 0.10073779425957929 -0.3548879881316499 0 0.08844116445073813 -0.34624952808908871 0 0.1145268252230785 -0.35300766908708592 0 0.10073779425957929 -0.3548879881316499 0 0.10713483520734431 -0.37185186770187001 0 0.091579777613193067 -0.3805998763552591 0 0.10713483520734431 -0.37185186770187001 0 0.089991248690913239 -0.36369365563474498 0 0.10073779425957929 -0.3548879881316499 0 0.10713483520734431 -0.37185186770187001 0 0.089991248690913239 -0.36369365563474498 0 0.089991248690913239 -0.36369365563474498 0 0.072640683984735846 -0.35365963884978319 0 0.077446040688824352 -0.37322460432357518 0 0.091579777613193067 -0.3805998763552591 0 0.089991248690913239 -0.36369365563474498 0 0.077446040688824352 -0.37322460432357518 0 0.08844116445073813 -0.34624952808908871 0 0.072640683984735846 -0.35365963884978319 0 0.074421385778422167 -0.33742186443119598 0 0.089991248690913239 -0.36369365563474498 0 0.08844116445073813 -0.34624952808908871 0 0.072640683984735846 -0.35365963884978319 0 0.10073779425957929 -0.3548879881316499 0 0.089991248690913239 -0.36369365563474498 0 0.08844116445073813 -0.34624952808908871 0 0.072640683984735846 -0.35365963884978319 0 0.058342421804239 -0.34172675570256861 0 0.056843790210672762 -0.35498064084795322 0 0.072640683984735846 -0.35365963884978319 0 0.074421385778422167 -0.33742186443119598 0 0.058342421804239 -0.34172675570256861 0 0.072640683984735846 -0.35365963884978319 0 0.062047863969529 -0.36677367950336531 0 0.056843790210672762 -0.35498064084795322 0 0.072640683984735846 -0.35365963884978319 0 0.077446040688824352 -0.37322460432357518 0 0.062047863969529 -0.36677367950336531 0 0.063808457074631231 -0.38151283302859251 0 0.077446040688824352 -0.37322460432357518 0 0.062047863969529 -0.36677367950336531 0 0.085765721735137301 -0.3181736757177645 0 0.089330709239924519 -0.32990023547130659 0 0.074003159071310554 -0.32450105695314002 0 0.086387084638438055 -0.31128763931219089 0 0.076933733953785777 -0.312287948792907 0 0.085765721735137301 -0.3181736757177645 0 0.076933733953785777 -0.312287948792907 0 0.085765721735137301 -0.3181736757177645 0 0.074003159071310554 -0.32450105695314002 0 0.092387068917125961 -0.3119314518137129 0 0.097574461564347639 -0.31973909589494359 0 0.085765721735137301 -0.3181736757177645 0 0.092387068917125961 -0.3119314518137129 0 0.086387084638438055 -0.31128763931219089 0 0.085765721735137301 -0.3181736757177645 0 0.097574461564347639 -0.31973909589494359 0 0.085765721735137301 -0.3181736757177645 0 0.089330709239924519 -0.32990023547130659 0 0.08844116445073813 -0.34624952808908871 0 0.089330709239924519 -0.32990023547130659 0 0.074421385778422167 -0.33742186443119598 0 0.089330709239924519 -0.32990023547130659 0 0.074421385778422167 -0.33742186443119598 0 0.089330709239924519 -0.32990023547130659 0 0.074421385778422167 -0.33742186443119598 0 0.074003159071310554 -0.32450105695314002 0 0.074421385778422167 -0.33742186443119598 0 0.064566739271179424 -0.331130734387865 0 0.074003159071310554 -0.32450105695314002 0 0.074421385778422167 -0.33742186443119598 0 0.064566739271179424 -0.331130734387865 0 0.058342421804239 -0.34172675570256861 0 0.064566739271179424 -0.331130734387865 0 0.063075408685592166 -0.3222151227715731 0 0.074003159071310554 -0.32450105695314002 0 0.063075408685592166 -0.3222151227715731 0 0.074003159071310554 -0.32450105695314002 0 0.068385718831499187 -0.3157777733773246 0 0.076933733953785777 -0.312287948792907 0 0.074003159071310554 -0.32450105695314002 0 0.068385718831499187 -0.3157777733773246 0 0.063075408685592166 -0.3222151227715731 0 0.068385718831499187 -0.3157777733773246 0 0.061487738162087698 -0.31450880719725333 0 0.065378483169108007 -0.31173360782830978 0 0.068385718831499187 -0.3157777733773246 0 0.061487738162087698 -0.31450880719725333 0 0.061487738162087698 -0.31450880719725333 0 0.054861015916559057 -0.31255298228487299 0 0.059651335638657182 -0.31108324635509133 0 0.054861015916559057 -0.31255298228487299 0 0.048434365152107688 -0.3172097267298345 0 0.038648865542104401 -0.31139385333291081 0 0.063075408685592166 -0.3222151227715731 0 0.061487738162087698 -0.31450880719725333 0 0.055931140911825307 -0.31815135617537532 0 0.061487738162087698 -0.31450880719725333 0 0.055931140911825307 -0.31815135617537532 0 0.054861015916559057 -0.31255298228487299 0 0.055931140911825307 -0.31815135617537532 0 0.054861015916559057 -0.31255298228487299 0 0.048434365152107688 -0.3172097267298345 0 0.055931140911825307 -0.31815135617537532 0 0.048434365152107688 -0.3172097267298345 0 0.050105753047099112 -0.32184788155245603 0 0.055931140911825307 -0.31815135617537532 0 0.050105753047099112 -0.32184788155245603 0 0.053109718468583013 -0.32911568875116232 0 0.050105753047099112 -0.32184788155245603 0 0.053109718468583013 -0.32911568875116232 0 0.042947787655880407 -0.32291475455345192 0 0.048434365152107688 -0.3172097267298345 0 0.050105753047099112 -0.32184788155245603 0 0.042947787655880407 -0.32291475455345192 0 0.063075408685592166 -0.3222151227715731 0 0.055931140911825307 -0.31815135617537532 0 0.053109718468583013 -0.32911568875116232 0 0.064566739271179424 -0.331130734387865 0 0.063075408685592166 -0.3222151227715731 0 0.053109718468583013 -0.32911568875116232 0 0.064566739271179424 -0.331130734387865 0 0.058342421804239 -0.34172675570256861 0 0.053109718468583013 -0.32911568875116232 0 0.058342421804239 -0.34172675570256861 0 0.043898289860272111 -0.33612530774742699 0 0.04517789555464069 -0.34947216650677171 0 0.058342421804239 -0.34172675570256861 0 0.053109718468583013 -0.32911568875116232 0 0.043898289860272111 -0.33612530774742699 0 0.053109718468583013 -0.32911568875116232 0 0.043898289860272111 -0.33612530774742699 0 0.042947787655880407 -0.32291475455345192 0 0.043898289860272111 -0.33612530774742699 0 0.033965247158650493 -0.32796308058773721 0 0.042947787655880407 -0.32291475455345192 0 0.043898289860272111 -0.33612530774742699 0 0.04517789555464069 -0.34947216650677171 0 0.030576482396173471 -0.34187909507352537 0 0.043898289860272111 -0.33612530774742699 0 0.033965247158650493 -0.32796308058773721 0 0.030576482396173471 -0.34187909507352537 0 0.036165871615285963 -0.32037030487902329 0 0.033965247158650493 -0.32796308058773721 0 0.042947787655880407 -0.32291475455345192 0 0.036165871615285963 -0.32037030487902329 0 0.033965247158650493 -0.32796308058773721 0 0.029101586104508539 -0.31920953104199379 0 0.036165871615285963 -0.32037030487902329 0 0.029101586104508539 -0.31920953104199379 0 0.038648865542104401 -0.31139385333291081 0 0.048434365152107688 -0.3172097267298345 0 0.042947787655880407 -0.32291475455345192 0 0.038648865542104401 -0.31139385333291081 0 0.036165871615285963 -0.32037030487902329 0 0.042947787655880407 -0.32291475455345192 0 0.038648865542104401 -0.31139385333291081 0 0.052224593376763599 -0.37423672689752291 0 0.062047863969529 -0.36677367950336531 0 0.046010085740219302 -0.36327096367727718 0 0.062047863969529 -0.36677367950336531 0 0.056843790210672762 -0.35498064084795322 0 0.046010085740219302 -0.36327096367727718 0 0.063808457074631231 -0.38151283302859251 0 0.052224593376763599 -0.37423672689752291 0 0.062047863969529 -0.36677367950336531 0 0.056843790210672762 -0.35498064084795322 0 0.04517789555464069 -0.34947216650677171 0 0.046010085740219302 -0.36327096367727718 0 0.058342421804239 -0.34172675570256861 0 0.056843790210672762 -0.35498064084795322 0 0.04517789555464069 -0.34947216650677171 0 0.04517789555464069 -0.34947216650677171 0 0.034378023159232919 -0.35491652084408781 0 0.030576482396173471 -0.34187909507352537 0 0.04517789555464069 -0.34947216650677171 0 0.034378023159232919 -0.35491652084408781 0 0.046010085740219302 -0.36327096367727718 0 0.031450163804322147 -0.38299648014708249 0 0.041122553359336518 -0.3745189396943413 0 0.030258067008644449 -0.3667440264152243 0 0.046010085740219302 -0.36327096367727718 0 0.041122553359336518 -0.3745189396943413 0 0.030258067008644449 -0.3667440264152243 0 0.034378023159232919 -0.35491652084408781 0 0.046010085740219302 -0.36327096367727718 0 0.030258067008644449 -0.3667440264152243 0 0.052224593376763599 -0.37423672689752291 0 0.046010085740219302 -0.36327096367727718 0 0.041122553359336518 -0.3745189396943413 0 0.014416824747154619 -0.37592328633005739 0 0.030258067008644449 -0.3667440264152243 0 0.016897664443211911 -0.35643251698494471 0 0.016897664443211911 -0.35643251698494471 0 0.030576482396173471 -0.34187909507352537 0 0.016875997546474369 -0.34008768535312273 0 0.034378023159232919 -0.35491652084408781 0 0.030258067008644449 -0.3667440264152243 0 0.016897664443211911 -0.35643251698494471 0 0.034378023159232919 -0.35491652084408781 0 0.016897664443211911 -0.35643251698494471 0 0.030576482396173471 -0.34187909507352537 0 0.016897664443211911 -0.35643251698494471 0 0.0083774951014328053 -0.3479500164165038 0 0.016875997546474369 -0.34008768535312273 0 -0.00075274073939014601 -0.3564584525775914 0 0.016897664443211911 -0.35643251698494471 0 0.0083774951014328053 -0.3479500164165038 0 -0.0073683429415816156 -0.34561773438271709 0 -0.00075274073939014601 -0.3564584525775914 0 0.0083774951014328053 -0.3479500164165038 0 -0.0073683429415816156 -0.34561773438271709 0 0.0083774951014328053 -0.3479500164165038 0 0.0044609759893579036 -0.33771915893773408 0 -0.00075274073939014601 -0.3564584525775914 0 0.016897664443211911 -0.35643251698494471 0 0.0014496837259096161 -0.37019917058000251 0 0.014416824747154619 -0.37592328633005739 0 0.016897664443211911 -0.35643251698494471 0 0.0014496837259096161 -0.37019917058000251 0 0.017155100797118461 -0.31543707866132359 0 0.029101586104508539 -0.31920953104199379 0 0.038648865542104401 -0.31139385333291081 0 0.017155100797118461 -0.31543707866132359 0 0.038648865542104401 -0.31139385333291081 0 0.017155100797118461 -0.31543707866132359 0 0.02229327079121305 -0.3284747106140557 0 0.010620082302586761 -0.32779600885994298 0 0.017155100797118461 -0.31543707866132359 0 0.029101586104508539 -0.31920953104199379 0 0.02229327079121305 -0.3284747106140557 0 0.033965247158650493 -0.32796308058773721 0 0.029101586104508539 -0.31920953104199379 0 0.02229327079121305 -0.3284747106140557 0 0.033965247158650493 -0.32796308058773721 0 0.030576482396173471 -0.34187909507352537 0 0.02229327079121305 -0.3284747106140557 0 0.030576482396173471 -0.34187909507352537 0 0.016875997546474369 -0.34008768535312273 0 0.02229327079121305 -0.3284747106140557 0 0.016875997546474369 -0.34008768535312273 0 0.02229327079121305 -0.3284747106140557 0 0.010620082302586761 -0.32779600885994298 0 0.016875997546474369 -0.34008768535312273 0 0.0044609759893579036 -0.33771915893773408 0 0.010620082302586761 -0.32779600885994298 0 0.0083774951014328053 -0.3479500164165038 0 0.016875997546474369 -0.34008768535312273 0 0.0044609759893579036 -0.33771915893773408 0 -0.0053138169306343359 -0.33563337472114801 0 0.0044609759893579036 -0.33771915893773408 0 0.0016103038837324639 -0.33199173929296572 0 0.0044609759893579036 -0.33771915893773408 0 0.0016103038837324639 -0.33199173929296572 0 0.010620082302586761 -0.32779600885994298 0 -0.0033260258263804669 -0.32681841465303751 0 0.0016103038837324639 -0.33199173929296572 0 0.010620082302586761 -0.32779600885994298 0 -0.0033260258263804669 -0.32681841465303751 0 0.017155100797118461 -0.31543707866132359 0 -0.0031332965675300618 -0.3192535604675994 0 0.017155100797118461 -0.31543707866132359 0 -0.0033260258263804669 -0.32681841465303751 0 0.017155100797118461 -0.31543707866132359 0 0.010620082302586761 -0.32779600885994298 0 -0.0033260258263804669 -0.32681841465303751 0 -0.0031332965675300618 -0.3192535604675994 0 0.017155100797118461 -0.31543707866132359 0 -0.0031332965675300618 -0.3192535604675994 0 0.017155100797118461 -0.31543707866132359 0 0.0068436558020707403 -0.30952440010844662 0 -0.0064590071102648833 -0.30689811281617091 0 0.0068436558020707403 -0.30952440010844662 0 0.001060383604688247 -0.30155388938627731 0 0.0068436558020707403 -0.30952440010844662 0 0.001060383604688247 -0.30155388938627731 0 0.007984160493644676 -0.29957063481236962 0 0.001060383604688247 -0.30155388938627731 0 0.007984160493644676 -0.29957063481236962 0 0.0021455206274590228 -0.29404508635188592 0 0.007984160493644676 -0.29957063481236962 0 0.011885276994896891 -0.29235765001613923 0 0.017860696452828381 -0.30014143553418582 0 0.0068436558020707403 -0.30952440010844662 0 0.007984160493644676 -0.29957063481236962 0 0.017860696452828381 -0.30014143553418582 0 0.007984160493644676 -0.29957063481236962 0 0.0021455206274590228 -0.29404508635188592 0 0.011885276994896891 -0.29235765001613923 0 0.0045612647380138989 -0.28431467149452821 0 0.0021455206274590228 -0.29404508635188592 0 0.011885276994896891 -0.29235765001613923 0 0.0045612647380138989 -0.28431467149452821 0 0.011885276994896891 -0.29235765001613923 0 0.016822878392555071 -0.28350544084455848 0 0.016822878392555071 -0.28350544084455848 0 0.021937141264880309 -0.29256863105930753 0 0.026088200524735872 -0.2849450754268692 0 0.011885276994896891 -0.29235765001613923 0 0.016822878392555071 -0.28350544084455848 0 0.021937141264880309 -0.29256863105930753 0 0.011885276994896891 -0.29235765001613923 0 0.021937141264880309 -0.29256863105930753 0 0.017860696452828381 -0.30014143553418582 0 0.021937141264880309 -0.29256863105930753 0 0.027099238805566458 -0.29877494142714739 0 0.033727925389907411 -0.29257463336042661 0 0.021937141264880309 -0.29256863105930753 0 0.026088200524735872 -0.2849450754268692 0 0.033727925389907411 -0.29257463336042661 0 0.026088200524735872 -0.2849450754268692 0 0.033727925389907411 -0.29257463336042661 0 0.033869175146827163 -0.28033214879746882 0 0.0068436558020707403 -0.30952440010844662 0 0.017860696452828381 -0.30014143553418582 0 0.031366433419099539 -0.30753985921465771 0 0.017155100797118461 -0.31543707866132359 0 0.038648865542104401 -0.31139385333291081 0 0.031366433419099539 -0.30753985921465771 0 0.017155100797118461 -0.31543707866132359 0 0.0068436558020707403 -0.30952440010844662 0 0.031366433419099539 -0.30753985921465771 0 0.0068436558020707403 -0.30952440010844662 0 0.031366433419099539 -0.30753985921465771 0 0.021937141264880309 -0.29256863105930753 0 0.017860696452828381 -0.30014143553418582 0 0.027099238805566458 -0.29877494142714739 0 0.017860696452828381 -0.30014143553418582 0 0.027099238805566458 -0.29877494142714739 0 0.031366433419099539 -0.30753985921465771 0 0.027099238805566458 -0.29877494142714739 0 0.031366433419099539 -0.30753985921465771 0 0.033727925389907411 -0.29257463336042661 0 0.017155100797118461 -0.31543707866132359 0 0.031366433419099539 -0.30753985921465771 0 0.031366433419099539 -0.30753985921465771 0 0.033727925389907411 -0.29257463336042661 0 0.047362887493082352 -0.29865065004961477 0 0.031366433419099539 -0.30753985921465771 0 0.060914123683401412 -0.30514867006951879 0 0.031366433419099539 -0.30753985921465771 0 0.047362887493082352 -0.29865065004961477 0 0.038648865542104401 -0.31139385333291081 0 0.031366433419099539 -0.30753985921465771 0 0.060914123683401412 -0.30514867006951879 0 0.031366433419099539 -0.30753985921465771 0 0.060914123683401412 -0.30514867006951879 0 0.047362887493082352 -0.29865065004961477 0 0.033727925389907411 -0.29257463336042661 0 0.046925802589697863 -0.28483489502681869 0 0.033869175146827163 -0.28033214879746882 0 0.033727925389907411 -0.29257463336042661 0 0.046925802589697863 -0.28483489502681869 0 0.047362887493082352 -0.29865065004961477 0 0.046925802589697863 -0.28483489502681869 0 0.056417932273465581 -0.29691404967478707 0 0.047362887493082352 -0.29865065004961477 0 0.062765143881292465 -0.28424374038480138 0 0.046925802589697863 -0.28483489502681869 0 0.056417932273465581 -0.29691404967478707 0 0.064131802234868335 -0.29764185839350082 0 0.064929538038565784 -0.29313043204618 0 0.056417932273465581 -0.29691404967478707 0 0.064929538038565784 -0.29313043204618 0 0.062765143881292465 -0.28424374038480138 0 0.056417932273465581 -0.29691404967478707 0 0.038648865542104401 -0.31139385333291081 0 0.060914123683401412 -0.30514867006951879 0 0.060142630287090521 -0.30735062800449892 0 0.064131802234868335 -0.29764185839350082 0 0.056417932273465581 -0.29691404967478707 0 0.060914123683401412 -0.30514867006951879 0 0.038648865542104401 -0.31139385333291081 0 0.060142630287090521 -0.30735062800449892 0 0.054861015916559057 -0.31255298228487299 0 0.038648865542104401 -0.31139385333291081 0 0.060142630287090521 -0.30735062800449892 0 0.056417932273465581 -0.29691404967478707 0 0.060914123683401412 -0.30514867006951879 0 0.047362887493082352 -0.29865065004961477 0 0.060914123683401412 -0.30514867006951879 0 0.061864727394912708 -0.30757379433864318 0 0.060142630287090521 -0.30735062800449892 0 0.064288197420267479 -0.30787531134681517 0 0.060914123683401412 -0.30514867006951879 0 0.061864727394912708 -0.30757379433864318 0 0.061864727394912708 -0.30757379433864318 0 0.060142630287090521 -0.30735062800449892 0 0.062113958188891441 -0.30992056793374018 0 0.061487738162087698 -0.31450880719725333 0 0.062113958188891441 -0.30992056793374018 0 0.059651335638657182 -0.31108324635509133 0 0.060142630287090521 -0.30735062800449892 0 0.062113958188891441 -0.30992056793374018 0 0.059651335638657182 -0.31108324635509133 0 0.054861015916559057 -0.31255298228487299 0 0.060142630287090521 -0.30735062800449892 0 0.059651335638657182 -0.31108324635509133 0 0.051347829525214328 -0.25516012630376839 0 0.056220440876533863 -0.26916260607052173 0 0.039156849566354693 -0.26866517233414422 0 0.065335708183982863 -0.25499807618111581 0 0.051347829525214328 -0.25516012630376839 0 0.065379640124951593 -0.24066628117503369 0 0.065335708183982863 -0.25499807618111581 0 0.051347829525214328 -0.25516012630376839 0 0.056220440876533863 -0.26916260607052173 0 0.062765143881292465 -0.28424374038480138 0 0.046925802589697863 -0.28483489502681869 0 0.056220440876533863 -0.26916260607052173 0 0.046925802589697863 -0.28483489502681869 0 0.056220440876533863 -0.26916260607052173 0 0.039156849566354693 -0.26866517233414422 0 0.046925802589697863 -0.28483489502681869 0 0.039156849566354693 -0.26866517233414422 0 0.033869175146827163 -0.28033214879746882 0 0.039156849566354693 -0.26866517233414422 0 0.033869175146827163 -0.28033214879746882 0 0.023811996408049509 -0.2735459935247111 0 0.039156849566354693 -0.26866517233414422 0 0.035838626459895932 -0.25445004493449003 0 0.026491815037631671 -0.26159265953373739 0 0.051347829525214328 -0.25516012630376839 0 0.039156849566354693 -0.26866517233414422 0 0.035838626459895932 -0.25445004493449003 0 0.035838626459895932 -0.25445004493449003 0 0.026491815037631671 -0.26159265953373739 0 0.021593778469048891 -0.24814621671119719 0 0.026491815037631671 -0.26159265953373739 0 0.023811996408049509 -0.2735459935247111 0 0.01498682322944711 -0.2611745207366058 0 0.026491815037631671 -0.26159265953373739 0 0.01498682322944711 -0.2611745207366058 0 0.021593778469048891 -0.24814621671119719 0 0.026088200524735872 -0.2849450754268692 0 0.033869175146827163 -0.28033214879746882 0 0.023811996408049509 -0.2735459935247111 0 0.039156849566354693 -0.26866517233414422 0 0.026491815037631671 -0.26159265953373739 0 0.023811996408049509 -0.2735459935247111 0 0.023811996408049509 -0.2735459935247111 0 0.0097409198957476087 -0.27304631943005481 0 0.01498682322944711 -0.2611745207366058 0 0.016822878392555071 -0.28350544084455848 0 0.023811996408049509 -0.2735459935247111 0 0.0097409198957476087 -0.27304631943005481 0 0.016822878392555071 -0.28350544084455848 0 0.026088200524735872 -0.2849450754268692 0 0.023811996408049509 -0.2735459935247111 0 0.0045612647380138989 -0.28431467149452821 0 0.016822878392555071 -0.28350544084455848 0 0.0097409198957476087 -0.27304631943005481 0 -0.0046885611662538448 -0.27467123434601781 0 0.0097409198957476087 -0.27304631943005481 0 0.001638160530432056 -0.26101289470167283 0 -0.0046885611662538448 -0.27467123434601781 0 0.0045612647380138989 -0.28431467149452821 0 0.0097409198957476087 -0.27304631943005481 0 0.01498682322944711 -0.2611745207366058 0 0.001638160530432056 -0.26101289470167283 0 0.0072561364612929646 -0.24875986379435261 0 0.01498682322944711 -0.2611745207366058 0 0.0072561364612929646 -0.24875986379435261 0 0.021593778469048891 -0.24814621671119719 0 0.0097409198957476087 -0.27304631943005481 0 0.01498682322944711 -0.2611745207366058 0 0.001638160530432056 -0.26101289470167283 0 -0.0074019412988201817 -0.24854936663358451 0 0.001638160530432056 -0.26101289470167283 0 0.0072561364612929646 -0.24875986379435261 0 -0.0074019412988201817 -0.24854936663358451 0 0.0072561364612929646 -0.24875986379435261 0 0.0019815391129595372 -0.23326154048766989 0 0.0072561364612929646 -0.24875986379435261 0 0.01353775404639445 -0.23686482468736381 0 0.021593778469048891 -0.24814621671119719 0 0.0072561364612929646 -0.24875986379435261 0 0.01353775404639445 -0.23686482468736381 0 0.0019815391129595372 -0.23326154048766989 0 -0.00053481913395022479 -0.2137630812897415 0 0.0019815391129595372 -0.23326154048766989 0 0.01471451644136655 -0.22181613358337859 0 0.01353775404639445 -0.23686482468736381 0 0.0019815391129595372 -0.23326154048766989 0 0.01471451644136655 -0.22181613358337859 0 0.01353775404639445 -0.23686482468736381 0 0.01471451644136655 -0.22181613358337859 0 0.026999032769611631 -0.22954365399234661 0 0.01471451644136655 -0.22181613358337859 0 0.026999032769611631 -0.22954365399234661 0 0.03016143607599606 -0.21166961041805371 0 0.026999032769611631 -0.22954365399234661 0 0.021593778469048891 -0.24814621671119719 0 0.040898115418389967 -0.237290015030903 0 0.01353775404639445 -0.23686482468736381 0 0.026999032769611631 -0.22954365399234661 0 0.021593778469048891 -0.24814621671119719 0 -0.00053481913395022479 -0.2137630812897415 0 0.01471451644136655 -0.22181613358337859 0 0.016409805742316461 -0.20642863036497339 0 -0.00053481913395022479 -0.2137630812897415 0 0.0058434739981291749 -0.19505996769432099 0 0.016409805742316461 -0.20642863036497339 0 -0.00053481913395022479 -0.2137630812897415 0 0.0058434739981291749 -0.19505996769432099 0 0.01471451644136655 -0.22181613358337859 0 0.03016143607599606 -0.21166961041805371 0 0.016409805742316461 -0.20642863036497339 0 0.03016143607599606 -0.21166961041805371 0 0.016409805742316461 -0.20642863036497339 0 0.031864421330040749 -0.18983435883937211 0 0.0058434739981291749 -0.19505996769432099 0 0.016409805742316461 -0.20642863036497339 0 0.031864421330040749 -0.18983435883937211 0 0.031864421330040749 -0.18983435883937211 0 0.05150707552987499 -0.2033118635798416 0 0.047455261874821172 -0.18005746989323271 0 0.03016143607599606 -0.21166961041805371 0 0.031864421330040749 -0.18983435883937211 0 0.05150707552987499 -0.2033118635798416 0 0.031864421330040749 -0.18983435883937211 0 0.05150707552987499 -0.2033118635798416 0 0.03016143607599606 -0.21166961041805371 0 0.05150707552987499 -0.2033118635798416 0 0.041088596166473867 -0.22147512352318341 0 0.05150707552987499 -0.2033118635798416 0 0.041088596166473867 -0.22147512352318341 0 0.055407999529823303 -0.22602584764872671 0 0.05150707552987499 -0.2033118635798416 0 0.071149729729709177 -0.21678936832031101 0 0.05150707552987499 -0.2033118635798416 0 0.055407999529823303 -0.22602584764872671 0 0.071149729729709177 -0.21678936832031101 0 0.05150707552987499 -0.2033118635798416 0 0.070179327469090461 -0.20063938955103139 0 0.064189474076591924 -0.1864951449916771 0 0.05150707552987499 -0.2033118635798416 0 0.064189474076591924 -0.1864951449916771 0 0.047455261874821172 -0.18005746989323271 0 0.051347829525214328 -0.25516012630376839 0 0.035838626459895932 -0.25445004493449003 0 0.040898115418389967 -0.237290015030903 0 0.035838626459895932 -0.25445004493449003 0 0.021593778469048891 -0.24814621671119719 0 0.040898115418389967 -0.237290015030903 0 0.026999032769611631 -0.22954365399234661 0 0.040898115418389967 -0.237290015030903 0 0.041088596166473867 -0.22147512352318341 0 0.026999032769611631 -0.22954365399234661 0 0.03016143607599606 -0.21166961041805371 0 0.041088596166473867 -0.22147512352318341 0 0.040898115418389967 -0.237290015030903 0 0.041088596166473867 -0.22147512352318341 0 0.055407999529823303 -0.22602584764872671 0 0.040898115418389967 -0.237290015030903 0 0.055407999529823303 -0.22602584764872671 0 0.065379640124951593 -0.24066628117503369 0 0.051347829525214328 -0.25516012630376839 0 0.040898115418389967 -0.237290015030903 0 0.065379640124951593 -0.24066628117503369 0 0.065335708183982863 -0.25499807618111581 0 0.08209704847362069 -0.25074917337938168 0 0.065379640124951593 -0.24066628117503369 0 0.08209704847362069 -0.25074917337938168 0 0.10195227185327931 -0.25264655321542367 0 0.090792383929543391 -0.23026687306078061 0 0.08209704847362069 -0.25074917337938168 0 0.065379640124951593 -0.24066628117503369 0 0.090792383929543391 -0.23026687306078061 0 0.090792383929543391 -0.23026687306078061 0 0.071149729729709177 -0.21678936832031101 0 0.090792383929543391 -0.23026687306078061 0 0.071149729729709177 -0.21678936832031101 0 0.089414017858259531 -0.20970881774356209 0 0.055407999529823303 -0.22602584764872671 0 0.065379640124951593 -0.24066628117503369 0 0.071149729729709177 -0.21678936832031101 0 0.065379640124951593 -0.24066628117503369 0 0.090792383929543391 -0.23026687306078061 0 0.071149729729709177 -0.21678936832031101 0 0.071149729729709177 -0.21678936832031101 0 0.070179327469090461 -0.20063938955103139 0 0.089414017858259531 -0.20970881774356209 0 0.05150707552987499 -0.2033118635798416 0 0.071149729729709177 -0.21678936832031101 0 0.070179327469090461 -0.20063938955103139 0 0.070179327469090461 -0.20063938955103139 0 0.083271349076903922 -0.19114288263661861 0 0.064189474076591924 -0.1864951449916771 0 0.070179327469090461 -0.20063938955103139 0 0.083271349076903922 -0.19114288263661861 0 0.089414017858259531 -0.20970881774356209 0 0.083271349076903922 -0.19114288263661861 0 0.089414017858259531 -0.20970881774356209 0 0.098963235842677563 -0.19657029782595231 0 0.089414017858259531 -0.20970881774356209 0 0.098963235842677563 -0.19657029782595231 0 0.1110756185422275 -0.21313599349844231 0 0.090792383929543391 -0.23026687306078061 0 0.089414017858259531 -0.20970881774356209 0 0.1110756185422275 -0.21313599349844231 0 0.098963235842677563 -0.19657029782595231 0 0.1110756185422275 -0.21313599349844231 0 0.11107417708151569 -0.18559489645479299 0 0.1110756185422275 -0.21313599349844231 0 0.11107417708151569 -0.18559489645479299 0 0.1314761689024517 -0.19219162598023959 0 0.1110756185422275 -0.21313599349844231 0 0.11107417708151569 -0.18559489645479299 0 0.1110756185422275 -0.21313599349844231 0 0.11318810299470369 -0.23598163823489529 0 0.12850364820595331 -0.22750422579700491 0 0.1208808610854319 -0.25970788443117943 0 0.11318810299470369 -0.23598163823489529 0 0.1313098299079942 -0.24396976042201809 0 0.10195227185327931 -0.25264655321542367 0 0.1208808610854319 -0.25970788443117943 0 0.11318810299470369 -0.23598163823489529 0 0.11318810299470369 -0.23598163823489529 0 0.12850364820595331 -0.22750422579700491 0 0.1313098299079942 -0.24396976042201809 0 0.10195227185327931 -0.25264655321542367 0 0.090792383929543391 -0.23026687306078061 0 0.11318810299470369 -0.23598163823489529 0 0.090792383929543391 -0.23026687306078061 0 0.1110756185422275 -0.21313599349844231 0 0.11318810299470369 -0.23598163823489529 0 0.094839186637113104 -0.14947227465157251 0 0.1110712941600925 -0.13051270236749449 0 0.111072735620804 -0.1580537994111437 0 0.094839186637113104 -0.14947227465157251 0 0.095625712457041295 -0.1334101419337802 0 0.1110712941600925 -0.13051270236749449 0 0.095625712457041295 -0.1334101419337802 0 0.1110712941600925 -0.13051270236749449 0 0.10134097292599541 -0.121259740946941 0 0.095625712457041295 -0.1334101419337802 0 0.1110712941600925 -0.13051270236749449 0 0.1110712941600925 -0.13051270236749449 0 0.12662101070287141 -0.13750334345265089 0 0.13508646391308621 -0.12600769217292379 0 0.1110712941600925 -0.13051270236749449 0 0.13508646391308621 -0.12600769217292379 0 0.1110712941600925 -0.13051270236749449 0 0.12203859052377219 -0.14663482975687511 0 0.12662101070287141 -0.13750334345265089 0 0.1110712941600925 -0.13051270236749449 0 0.1244951109857452 -0.1203529848868761 0 0.13508646391308621 -0.12600769217292379 0 0.12203859052377219 -0.14663482975687511 0 0.111072735620804 -0.1580537994111437 0 0.12892468117211131 -0.15666310802434039 0 0.1110712941600925 -0.13051270236749449 0 0.111072735620804 -0.1580537994111437 0 0.1110712941600925 -0.13051270236749449 0 0.12203859052377219 -0.14663482975687511 0 0.111072735620804 -0.1580537994111437 0 0.111072735620804 -0.1580537994111437 0 0.1234787183091393 -0.17217479769050981 0 0.12892468117211131 -0.15666310802434039 0 0.111072735620804 -0.1580537994111437 0 0.11107417708151569 -0.18559489645479299 0 0.1234787183091393 -0.17217479769050981 0 0.11107417708151569 -0.18559489645479299 0 0.1314761689024517 -0.19219162598023959 0 0.111072735620804 -0.1580537994111437 0 0.1234787183091393 -0.17217479769050981 0 0.11107417708151569 -0.18559489645479299 0 0.098963235842677563 -0.19657029782595231 0 0.11107417708151569 -0.18559489645479299 0 0.093868575766757015 -0.17239581978625759 0 0.111072735620804 -0.1580537994111437 0 0.11107417708151569 -0.18559489645479299 0 0.093868575766757015 -0.17239581978625759 0 0.094839186637113104 -0.14947227465157251 0 0.111072735620804 -0.1580537994111437 0 0.093868575766757015 -0.17239581978625759 0 0.094839186637113104 -0.14947227465157251 0 0.093868575766757015 -0.17239581978625759 0 0.078630377646870073 -0.1609749981264505 0 0.093868575766757015 -0.17239581978625759 0 0.078630377646870073 -0.1609749981264505 0 0.076582835770705515 -0.17621237193012071 0 0.083271349076903922 -0.19114288263661861 0 0.098963235842677563 -0.19657029782595231 0 0.093868575766757015 -0.17239581978625759 0 0.083271349076903922 -0.19114288263661861 0 0.093868575766757015 -0.17239581978625759 0 0.076582835770705515 -0.17621237193012071 0 0.083271349076903922 -0.19114288263661861 0 0.076582835770705515 -0.17621237193012071 0 0.064189474076591924 -0.1864951449916771 0 0.076582835770705515 -0.17621237193012071 0 0.064189474076591924 -0.1864951449916771 0 0.062954402286404629 -0.17005301410959989 0 0.078630377646870073 -0.1609749981264505 0 0.076582835770705515 -0.17621237193012071 0 0.062954402286404629 -0.17005301410959989 0 0.078630377646870073 -0.1609749981264505 0 0.062954402286404629 -0.17005301410959989 0 0.063581600496990548 -0.1519653898852408 0 0.063581600496990548 -0.1519653898852408 0 0.076335658911884069 -0.14477898869177869 0 0.066784943708655592 -0.13540571965542161 0 0.078630377646870073 -0.1609749981264505 0 0.063581600496990548 -0.1519653898852408 0 0.076335658911884069 -0.14477898869177869 0 0.094839186637113104 -0.14947227465157251 0 0.078630377646870073 -0.1609749981264505 0 0.076335658911884069 -0.14477898869177869 0 0.094839186637113104 -0.14947227465157251 0 0.095625712457041295 -0.1334101419337802 0 0.076335658911884069 -0.14477898869177869 0 0.095625712457041295 -0.1334101419337802 0 0.079664021380890612 -0.12566464947746619 0 0.10134097292599541 -0.121259740946941 0 0.095625712457041295 -0.1334101419337802 0 0.076335658911884069 -0.14477898869177869 0 0.079664021380890612 -0.12566464947746619 0 0.079664021380890612 -0.12566464947746619 0 0.066784943708655592 -0.13540571965542161 0 0.058152342805634388 -0.1236805937218577 0 0.076335658911884069 -0.14477898869177869 0 0.079664021380890612 -0.12566464947746619 0 0.066784943708655592 -0.13540571965542161 0 0.053586655481677639 -0.13988048334286629 0 0.045679428127862819 -0.1253315646128193 0 0.058152342805634388 -0.1236805937218577 0 0.066784943708655592 -0.13540571965542161 0 0.053586655481677639 -0.13988048334286629 0 0.058152342805634388 -0.1236805937218577 0 0.063581600496990548 -0.1519653898852408 0 0.066784943708655592 -0.13540571965542161 0 0.053586655481677639 -0.13988048334286629 0 0.063581600496990548 -0.1519653898852408 0 0.053586655481677639 -0.13988048334286629 0 0.044370777803716933 -0.15638887475875299 0 0.053586655481677639 -0.13988048334286629 0 0.039200360943485058 -0.13744629710184589 0 0.044370777803716933 -0.15638887475875299 0 0.039200360943485058 -0.13744629710184589 0 0.044370777803716933 -0.15638887475875299 0 0.02188334785061893 -0.14802613332717449 0 0.045679428127862819 -0.1253315646128193 0 0.039200360943485058 -0.13744629710184589 0 0.031544928571029328 -0.1196954125554483 0 0.053586655481677639 -0.13988048334286629 0 0.045679428127862819 -0.1253315646128193 0 0.039200360943485058 -0.13744629710184589 0 0.064189474076591924 -0.1864951449916771 0 0.062954402286404629 -0.17005301410959989 0 0.047455261874821172 -0.18005746989323271 0 0.062954402286404629 -0.17005301410959989 0 0.063581600496990548 -0.1519653898852408 0 0.044370777803716933 -0.15638887475875299 0 0.062954402286404629 -0.17005301410959989 0 0.047455261874821172 -0.18005746989323271 0 0.044370777803716933 -0.15638887475875299 0 0.044370777803716933 -0.15638887475875299 0 0.031427292507451653 -0.17045034009861471 0 0.02188334785061893 -0.14802613332717449 0 0.047455261874821172 -0.18005746989323271 0 0.044370777803716933 -0.15638887475875299 0 0.031427292507451653 -0.17045034009861471 0 0.031864421330040749 -0.18983435883937211 0 0.047455261874821172 -0.18005746989323271 0 0.031427292507451653 -0.17045034009861471 0 0.031864421330040749 -0.18983435883937211 0 0.031427292507451653 -0.17045034009861471 0 0.012221767130207889 -0.17635685409890031 0 0.031864421330040749 -0.18983435883937211 0 0.012221767130207889 -0.17635685409890031 0 0.0058434739981291749 -0.19505996769432099 0 0.031864421330040749 -0.18983435883937211 0 0.012221767130207889 -0.17635685409890031 0 0.012221767130207889 -0.17635685409890031 0 0.02188334785061893 -0.14802613332717449 0 0.031427292507451653 -0.17045034009861471 0 0.012221767130207889 -0.17635685409890031 0 0.02188334785061893 -0.14802613332717449 0 0.0043408472213855853 -0.1709494822463099 0 0.012221767130207889 -0.17635685409890031 0 0.0044631311353323967 -0.15533498840657239 0 0.012221767130207889 -0.17635685409890031 0 0.02188334785061893 -0.14802613332717449 0 0.0044631311353323967 -0.15533498840657239 0 -0.00089121633836973589 -0.16327629310308001 0 0.0043408472213855853 -0.1709494822463099 0 0.0044631311353323967 -0.15533498840657239 0 0.0058434739981291749 -0.19505996769432099 0 0.012221767130207889 -0.17635685409890031 0 0.0058434739981291749 -0.19505996769432099 0 0.012221767130207889 -0.17635685409890031 0 0.001720711736504155 -0.18321484223918161 0 0.0043408472213855853 -0.1709494822463099 0 0.012221767130207889 -0.17635685409890031 0 0.0043408472213855853 -0.1709494822463099 0 0.012221767130207889 -0.17635685409890031 0 0.001720711736504155 -0.18321484223918161 0 0.01224617715836321 -0.13724651146592881 0 0.012533467824568901 -0.12403542566598751 0 0.031544928571029328 -0.1196954125554483 0 0.039200360943485058 -0.13744629710184589 0 0.02188334785061893 -0.14802613332717449 0 0.031544928571029328 -0.1196954125554483 0 0.02188334785061893 -0.14802613332717449 0 0.01224617715836321 -0.13724651146592881 0 0.031544928571029328 -0.1196954125554483 0 0.02188334785061893 -0.14802613332717449 0 0.031544928571029328 -0.1196954125554483 0 0.0044631311353323967 -0.15533498840657239 0 0.00207234792727306 -0.14230533698230219 0 0.01224617715836321 -0.13724651146592881 0 0.02188334785061893 -0.14802613332717449 0 0.0044631311353323967 -0.15533498840657239 0 0.01224617715836321 -0.13724651146592881 0 -8.7367507044229444e-05 -0.1320758947210427 0 0.00207234792727306 -0.14230533698230219 0 0.01224617715836321 -0.13724651146592881 0 -8.7367507044229444e-05 -0.1320758947210427 0 0.01224617715836321 -0.13724651146592881 0 0.012533467824568901 -0.12403542566598751 0 0.002348869369470805 -0.11731109275913 0 0.023020280963197831 -0.1035081769100045 0 -8.7367507044229444e-05 -0.1320758947210427 0 0.002348869369470805 -0.11731109275913 0 0.012533467824568901 -0.12403542566598751 0 0.002348869369470805 -0.11731109275913 0 0.012533467824568901 -0.12403542566598751 0 0.023020280963197831 -0.1035081769100045 0 0.012533467824568901 -0.12403542566598751 0 0.023020280963197831 -0.1035081769100045 0 0.031544928571029328 -0.1196954125554483 0 0.012533467824568901 -0.12403542566598751 0 0.023020280963197831 -0.1035081769100045 0 0.002348869369470805 -0.11731109275913 0 0.023020280963197831 -0.1035081769100045 0 0.00271208556382007 -0.09883127110100752 0 0.023020280963197831 -0.1035081769100045 0 0.00271208556382007 -0.09883127110100752 0 0.01208762864279588 -0.083210489898039489 0 -0.00083418359899767053 -0.072522553478430687 0 -0.01018293480097566 -0.085106020112889605 0 0.01208762864279588 -0.083210489898039489 0 -0.01018293480097566 -0.085106020112889605 0 0.00271208556382007 -0.09883127110100752 0 0.01208762864279588 -0.083210489898039489 0 -0.01018293480097566 -0.085106020112889605 0 0.01208762864279588 -0.083210489898039489 0 -0.00083418359899767053 -0.072522553478430687 0 0.01244861960884153 -0.069356819812348355 0 0.0055518271476778479 -0.060554578777902927 0 -0.00083418359899767053 -0.072522553478430687 0 0.01208762864279588 -0.083210489898039489 0 0.01244861960884153 -0.069356819812348355 0 0.01244861960884153 -0.069356819812348355 0 0.0055518271476778479 -0.060554578777902927 0 0.020658946618663531 -0.058672826047181707 0 0.02477887923406771 -0.071823650860188049 0 0.042357693807677121 -0.065656459852736215 0 0.020658946618663531 -0.058672826047181707 0 0.01244861960884153 -0.069356819812348355 0 0.02477887923406771 -0.071823650860188049 0 0.020658946618663531 -0.058672826047181707 0 0.01208762864279588 -0.083210489898039489 0 0.01244861960884153 -0.069356819812348355 0 0.02477887923406771 -0.071823650860188049 0 0.01208762864279588 -0.083210489898039489 0 0.034358192086567152 -0.08131495968318711 0 0.01208762864279588 -0.083210489898039489 0 0.02477887923406771 -0.071823650860188049 0 0.034358192086567152 -0.08131495968318711 0 0.023020280963197831 -0.1035081769100045 0 0.01208762864279588 -0.083210489898039489 0 0.034358192086567152 -0.08131495968318711 0 0.023020280963197831 -0.1035081769100045 0 0.034358192086567152 -0.08131495968318711 0 0.023020280963197831 -0.1035081769100045 0 0.034358192086567152 -0.08131495968318711 0 0.041206509291439972 -0.091364691783722515 0 0.034358192086567152 -0.08131495968318711 0 0.044940930060985103 -0.080414223622470873 0 0.044940930060985103 -0.080414223622470873 0 0.041206509291439972 -0.091364691783722515 0 0.034358192086567152 -0.08131495968318711 0 0.044940930060985103 -0.080414223622470873 0 0.041206509291439972 -0.091364691783722515 0 0.02477887923406771 -0.071823650860188049 0 0.034358192086567152 -0.08131495968318711 0 0.042357693807677121 -0.065656459852736215 0 0.034358192086567152 -0.08131495968318711 0 0.042357693807677121 -0.065656459852736215 0 0.034358192086567152 -0.08131495968318711 0 0.044940930060985103 -0.080414223622470873 0 0.042357693807677121 -0.065656459852736215 0 0.044940930060985103 -0.080414223622470873 0 0.042357693807677121 -0.065656459852736215 0 0.04922049719153343 -0.067865218971171398 0 0.042357693807677121 -0.065656459852736215 0 0.04922049719153343 -0.067865218971171398 0 0.042357693807677121 -0.065656459852736215 0 0.04922049719153343 -0.067865218971171398 0 0.047412572973300017 -0.061716556127691148 0 0.04922049719153343 -0.067865218971171398 0 0.052516739773351563 -0.068926098243374923 0 0.057353323497364467 -0.063713891590689298 0 0.04922049719153343 -0.067865218971171398 0 0.052516739773351563 -0.068926098243374923 0 0.044940930060985103 -0.080414223622470873 0 0.052516739773351563 -0.068926098243374923 0 0.059456295693036253 -0.079178767042997367 0 0.044940930060985103 -0.080414223622470873 0 0.04922049719153343 -0.067865218971171398 0 0.044940930060985103 -0.080414223622470873 0 0.04922049719153343 -0.067865218971171398 0 0.052516739773351563 -0.068926098243374923 0 0.052516739773351563 -0.068926098243374923 0 0.059456295693036253 -0.079178767042997367 0 0.064028295168381086 -0.066851515572077122 0 0.052516739773351563 -0.068926098243374923 0 0.057353323497364467 -0.063713891590689298 0 0.064028295168381086 -0.066851515572077122 0 0.041206509291439972 -0.091364691783722515 0 0.059456295693036253 -0.079178767042997367 0 0.06225117261196856 -0.095577457706679927 0 0.044940930060985103 -0.080414223622470873 0 0.041206509291439972 -0.091364691783722515 0 0.059456295693036253 -0.079178767042997367 0 0.041206509291439972 -0.091364691783722515 0 0.059456295693036253 -0.079178767042997367 0 0.044940930060985103 -0.080414223622470873 0 0.059456295693036253 -0.079178767042997367 0 0.059456295693036253 -0.079178767042997367 0 0.062234417156402329 -0.078942310826358914 0 0.041206509291439972 -0.091364691783722515 0 0.06225117261196856 -0.095577457706679927 0 0.048039519072448307 -0.1101370025177419 0 0.06225117261196856 -0.095577457706679927 0 0.048039519072448307 -0.1101370025177419 0 0.06904978789292035 -0.1107599220236726 0 0.058152342805634388 -0.1236805937218577 0 0.048039519072448307 -0.1101370025177419 0 0.06904978789292035 -0.1107599220236726 0 0.048039519072448307 -0.1101370025177419 0 0.06904978789292035 -0.1107599220236726 0 0.045679428127862819 -0.1253315646128193 0 0.058152342805634388 -0.1236805937218577 0 0.048039519072448307 -0.1101370025177419 0 0.045679428127862819 -0.1253315646128193 0 0.048039519072448307 -0.1101370025177419 0 0.031544928571029328 -0.1196954125554483 0 0.023020280963197831 -0.1035081769100045 0 0.041206509291439972 -0.091364691783722515 0 0.031544928571029328 -0.1196954125554483 0 0.041206509291439972 -0.091364691783722515 0 0.048039519072448307 -0.1101370025177419 0 0.031544928571029328 -0.1196954125554483 0 0.023020280963197831 -0.1035081769100045 0 0.041206509291439972 -0.091364691783722515 0 0.041206509291439972 -0.091364691783722515 0 0.031544928571029328 -0.1196954125554483 0 0.0217108161930991 -0.001085578434556951 0 0.02238708532816237 -0.016890391705211571 0 0.038128611492150757 -0.01355130648960292 0 0.0217108161930991 -0.001085578434556951 0 0.0094716142527038819 -0.0079088637512633383 0 0.02238708532816237 -0.016890391705211571 0 -0.008081950935871246 -0.0078643453545879025 0 0.0057465999670243432 0.0055996356184830438 0 0.0094716142527038819 -0.0079088637512633383 0 0.0057465999670243432 0.0055996356184830438 0 0.0217108161930991 -0.001085578434556951 0 0.0094716142527038819 -0.0079088637512633383 0 -0.008081950935871246 -0.0078643453545879025 0 0.0094716142527038819 -0.0079088637512633383 0 0.0069763512184407676 -0.022647556875415451 0 -0.0099906299789442321 -0.0293115812195653 0 0.0069763512184407676 -0.022647556875415451 0 0.0050241786169890248 -0.03713629370316586 0 0.0094716142527038819 -0.0079088637512633383 0 0.0069763512184407676 -0.022647556875415451 0 0.02238708532816237 -0.016890391705211571 0 0.02238708532816237 -0.016890391705211571 0 0.021886622530709179 -0.036171048666990703 0 0.034138560027680287 -0.024152117691514111 0 0.0069763512184407676 -0.022647556875415451 0 0.02238708532816237 -0.016890391705211571 0 0.021886622530709179 -0.036171048666990703 0 0.021886622530709179 -0.036171048666990703 0 0.0050241786169890248 -0.03713629370316586 0 0.020658946618663531 -0.058672826047181707 0 0.021886622530709179 -0.036171048666990703 0 0.020658946618663531 -0.058672826047181707 0 0.035330847008373439 -0.042144240077773162 0 0.021886622530709179 -0.036171048666990703 0 0.032219792099813592 -0.034239878983983049 0 0.034138560027680287 -0.024152117691514111 0 0.021886622530709179 -0.036171048666990703 0 0.035330847008373439 -0.042144240077773162 0 0.032219792099813592 -0.034239878983983049 0 0.0069763512184407676 -0.022647556875415451 0 0.021886622530709179 -0.036171048666990703 0 0.0050241786169890248 -0.03713629370316586 0 -0.0071811579328509706 -0.049712626935109173 0 0.0055518271476778479 -0.060554578777902927 0 0.020658946618663531 -0.058672826047181707 0 -0.0071811579328509706 -0.049712626935109173 0 0.020658946618663531 -0.058672826047181707 0 -0.0071811579328509706 -0.049712626935109173 0 0.0050241786169890248 -0.03713629370316586 0 0.020658946618663531 -0.058672826047181707 0 0.0055518271476778479 -0.060554578777902927 0 0.020658946618663531 -0.058672826047181707 0 0.020658946618663531 -0.058672826047181707 0 0.047642533568066622 -0.055311732721341003 0 0.035330847008373439 -0.042144240077773162 0 0.020658946618663531 -0.058672826047181707 0 0.047642533568066622 -0.055311732721341003 0 0.042357693807677121 -0.065656459852736215 0 0.020658946618663531 -0.058672826047181707 0 0.047642533568066622 -0.055311732721341003 0 0.042357693807677121 -0.065656459852736215 0 0.020658946618663531 -0.058672826047181707 0 0.042357693807677121 -0.065656459852736215 0 0.047642533568066622 -0.055311732721341003 0 0.042357693807677121 -0.065656459852736215 0 0.047412572973300017 -0.061716556127691148 0 0.047642533568066622 -0.055311732721341003 0 0.04922049719153343 -0.067865218971171398 0 0.053761519378825527 -0.054549547826943351 0 0.047642533568066622 -0.055311732721341003 0 0.053761519378825527 -0.054549547826943351 0 0.057477536026820139 -0.036060360610697888 0 0.04922049719153343 -0.067865218971171398 0 0.047412572973300017 -0.061716556127691148 0 0.053761519378825527 -0.054549547826943351 0 0.04922049719153343 -0.067865218971171398 0 0.057353323497364467 -0.063713891590689298 0 0.053761519378825527 -0.054549547826943351 0 0.047412572973300017 -0.061716556127691148 0 0.047642533568066622 -0.055311732721341003 0 0.053761519378825527 -0.054549547826943351 0 0.047642533568066622 -0.055311732721341003 0 0.053761519378825527 -0.054549547826943351 0 0.057353323497364467 -0.063713891590689298 0 0.053761519378825527 -0.054549547826943351 0 0.06723956597473027 -0.060377077339879508 0 0.053761519378825527 -0.054549547826943351 0 0.061655070364728309 -0.031403233020862488 0 0.057477536026820139 -0.036060360610697888 0 0.053761519378825527 -0.054549547826943351 0 0.061655070364728309 -0.031403233020862488 0 0.066082813200167345 -0.044591377035408969 0 0.047642533568066622 -0.055311732721341003 0 0.057477536026820139 -0.036060360610697888 0 0.047718036491888341 -0.036244064231816073 0 0.053761519378825527 -0.054549547826943351 0 0.061655070364728309 -0.031403233020862488 0 0.047642533568066622 -0.055311732721341003 0 0.057477536026820139 -0.036060360610697888 0 0.061655070364728309 -0.031403233020862488 0 0.057477536026820139 -0.036060360610697888 0 0.055324357297392018 -0.030367969142294511 0 0.057477536026820139 -0.036060360610697888 0 0.047718036491888341 -0.036244064231816073 0 0.055324357297392018 -0.030367969142294511 0 0.047718036491888341 -0.036244064231816073 0 0.039686342753942019 -0.032099660641540233 0 0.035330847008373439 -0.042144240077773162 0 0.047642533568066622 -0.055311732721341003 0 0.047718036491888341 -0.036244064231816073 0 0.035330847008373439 -0.042144240077773162 0 0.039686342753942019 -0.032099660641540233 0 0.035330847008373439 -0.042144240077773162 0 0.032219792099813592 -0.034239878983983049 0 0.02238708532816237 -0.016890391705211571 0 0.034138560027680287 -0.024152117691514111 0 0.038128611492150757 -0.01355130648960292 0 0.039686342753942019 -0.032099660641540233 0 0.032219792099813592 -0.034239878983983049 0 0.034138560027680287 -0.024152117691514111 0 0.034138560027680287 -0.024152117691514111 0 0.049024478141954458 -0.023718002222614741 0 0.038128611492150757 -0.01355130648960292 0 0.049024478141954458 -0.023718002222614741 0 0.053333918461092873 -0.01328775243377656 0 0.038128611492150757 -0.01355130648960292 0 0.047718036491888341 -0.036244064231816073 0 0.039686342753942019 -0.032099660641540233 0 0.049024478141954458 -0.023718002222614741 0 0.039686342753942019 -0.032099660641540233 0 0.034138560027680287 -0.024152117691514111 0 0.049024478141954458 -0.023718002222614741 0 0.047718036491888341 -0.036244064231816073 0 0.049024478141954458 -0.023718002222614741 0 0.055324357297392018 -0.030367969142294511 0 0.049024478141954458 -0.023718002222614741 0 0.055324357297392018 -0.030367969142294511 0 0.056680071202434228 -0.025913299250085391 0 0.061655070364728309 -0.031403233020862488 0 0.056680071202434228 -0.025913299250085391 0 0.060716379005662152 -0.01816399261456984 0 0.061655070364728309 -0.031403233020862488 0 0.055324357297392018 -0.030367969142294511 0 0.056680071202434228 -0.025913299250085391 0 0.049024478141954458 -0.023718002222614741 0 0.056680071202434228 -0.025913299250085391 0 0.060716379005662152 -0.01816399261456984 0 0.049024478141954458 -0.023718002222614741 0 0.060716379005662152 -0.01816399261456984 0 0.053333918461092873 -0.01328775243377656 0 0.060716379005662152 -0.01816399261456984 0 0.053333918461092873 -0.01328775243377656 0 0.069548621350630641 -0.0082569182147814307 0 0.053333918461092873 -0.01328775243377656 0 0.049251502315066371 -0.0027485426273138819 0 0.069548621350630641 -0.0082569182147814307 0 0.053333918461092873 -0.01328775243377656 0 0.049251502315066371 -0.0027485426273138819 0 0.038128611492150757 -0.01355130648960292 0 0.061392891900666088 0.0054489801558786077 0 0.049251502315066371 -0.0027485426273138819 0 0.076792188437033629 -0.0044115068200708124 0 0.0217108161930991 -0.001085578434556951 0 0.049251502315066371 -0.0027485426273138819 0 0.038128611492150757 -0.01355130648960292 0 0.0217108161930991 -0.001085578434556951 0 0.049251502315066371 -0.0027485426273138819 0 0.076792188437033629 -0.0044115068200708124 0 0.1043328745590008 -0.006074471012827736 0 0.095468603896129905 0.0032048388713090512 0 0.076792188437033629 -0.0044115068200708124 0 0.1043328745590008 -0.006074471012827736 0 0.089373688792089206 -0.011043439040499229 0 0.076792188437033629 -0.0044115068200708124 0 0.1043328745590008 -0.006074471012827736 0 0.089373688792089206 -0.011043439040499229 0 0.079601028667628138 -0.0150023615810559 0 0.089862916173340357 -0.01708762558901326 0 0.089373688792089206 -0.011043439040499229 0 0.089862916173340357 -0.01708762558901326 0 0.096279436123443099 -0.01264123019952843 0 0.089373688792089206 -0.011043439040499229 0 0.079601028667628138 -0.0150023615810559 0 0.076792188437033629 -0.0044115068200708124 0 0.049251502315066371 -0.0027485426273138819 0 0.076792188437033629 -0.0044115068200708124 0 0.049251502315066371 -0.0027485426273138819 0 0.076792188437033629 -0.0044115068200708124 0 0.069548621350630641 -0.0082569182147814307 0 0.069548621350630641 -0.0082569182147814307 0 0.07420405090032231 -0.012324735278690029 0 0.070874365145996834 -0.02162815449885196 0 0.076792188437033629 -0.0044115068200708124 0 0.069548621350630641 -0.0082569182147814307 0 0.07420405090032231 -0.012324735278690029 0 0.079601028667628138 -0.0150023615810559 0 0.076792188437033629 -0.0044115068200708124 0 0.07420405090032231 -0.012324735278690029 0 0.079601028667628138 -0.0150023615810559 0 0.07420405090032231 -0.012324735278690029 0 0.070874365145996834 -0.02162815449885196 0 0.061655070364728309 -0.031403233020862488 0 0.069548621350630641 -0.0082569182147814307 0 0.079601028667628138 -0.0150023615810559 0 0.070874365145996834 -0.02162815449885196 0 0.083110828861718888 -0.024746455878309429 0 0.061655070364728309 -0.031403233020862488 0 0.060716379005662152 -0.01816399261456984 0 0.069548621350630641 -0.0082569182147814307 0 0.061655070364728309 -0.031403233020862488 0 0.069548621350630641 -0.0082569182147814307 0 0.070874365145996834 -0.02162815449885196 0 0.061655070364728309 -0.031403233020862488 0 0.070874365145996834 -0.02162815449885196 0 0.074255817864639778 -0.034265107270482049 0 0.070874365145996834 -0.02162815449885196 0 0.083110828861718888 -0.024746455878309429 0 0.074255817864639778 -0.034265107270482049 0 0.079601028667628138 -0.0150023615810559 0 0.083110828861718888 -0.024746455878309429 0 0.089862916173340357 -0.01708762558901326 0 0.083110828861718888 -0.024746455878309429 0 0.089862916173340357 -0.01708762558901326 0 0.094022778193201012 -0.026123982876348699 0 0.083110828861718888 -0.024746455878309429 0 0.091714906782867311 -0.036797226709749317 0 0.094022778193201012 -0.026123982876348699 0 0.091714906782867311 -0.036797226709749317 0 0.079933656766624769 -0.051289529191830711 0 0.1061057941544242 -0.048029510556719501 0 0.091714906782867311 -0.036797226709749317 0 0.074255817864639778 -0.034265107270482049 0 0.079933656766624769 -0.051289529191830711 0 0.083110828861718888 -0.024746455878309429 0 0.091714906782867311 -0.036797226709749317 0 0.074255817864639778 -0.034265107270482049 0 0.074255817864639778 -0.034265107270482049 0 0.066082813200167345 -0.044591377035408969 0 0.079933656766624769 -0.051289529191830711 0 0.061655070364728309 -0.031403233020862488 0 0.074255817864639778 -0.034265107270482049 0 0.066082813200167345 -0.044591377035408969 0 0.053761519378825527 -0.054549547826943351 0 0.066082813200167345 -0.044591377035408969 0 0.079933656766624769 -0.051289529191830711 0 0.053761519378825527 -0.054549547826943351 0 0.079933656766624769 -0.051289529191830711 0 0.053761519378825527 -0.054549547826943351 0 0.06723956597473027 -0.060377077339879508 0 0.079933656766624769 -0.051289529191830711 0 0.06723956597473027 -0.060377077339879508 0 0.079933656766624769 -0.051289529191830711 0 0.082781044923730202 -0.063604138799858309 0 0.079933656766624769 -0.051289529191830711 0 0.1061057941544242 -0.048029510556719501 0 0.082781044923730202 -0.063604138799858309 0 0.079933656766624769 -0.051289529191830711 0 0.1061057941544242 -0.048029510556719501 0 0.1061057941544242 -0.048029510556719501 0 0.082781044923730202 -0.063604138799858309 0 0.111068071689429 -0.068942951262236568 0 0.1061057941544242 -0.048029510556719501 0 0.082781044923730202 -0.063604138799858309 0 0.1061057941544242 -0.048029510556719501 0 0.11106694476720951 -0.047411546375587969 0 0.11106694476720951 -0.047411546375587969 0 0.111068071689429 -0.068942951262236568 0 0.12044520320843211 -0.058176758004082361 0 0.11106694476720951 -0.047411546375587969 0 0.111068071689429 -0.068942951262236568 0 0.1061057941544242 -0.048029510556719501 0 0.11106694476720951 -0.047411546375587969 0 0.111068071689429 -0.068942951262236568 0 0.12044520320843211 -0.058176758004082361 0 0.11106694476720951 -0.047411546375587969 0 0.1268960241544852 -0.045439865843174693 0 0.1145384225706095 -0.042398793956269408 0 0.11874886145434339 -0.01988594297582702 0 0.1268960241544852 -0.045439865843174693 0 0.11106694476720951 -0.047411546375587969 0 0.1268960241544852 -0.045439865843174693 0 0.1110668037332045 -0.044716897026090753 0 0.1110657475635783 -0.024537318092090879 0 0.11106694476720951 -0.047411546375587969 0 0.1110668037332045 -0.044716897026090753 0 0.1145384225706095 -0.042398793956269408 0 0.11106694476720951 -0.047411546375587969 0 0.1145384225706095 -0.042398793956269408 0 0.1268960241544852 -0.045439865843174693 0 0.1061057941544242 -0.048029510556719501 0 0.11106694476720951 -0.047411546375587969 0 0.1110668037332045 -0.044716897026090753 0 0.1110668037332045 -0.044716897026090753 0 0.1145384225706095 -0.042398793956269408 0 0.1110657475635783 -0.024537318092090879 0 0.11874886145434339 -0.01988594297582702 0 0.1268960241544852 -0.045439865843174693 0 0.11106694476720951 -0.047411546375587969 0 0.1110668037332045 -0.044716897026090753 0 0.1110668037332045 -0.044716897026090753 0 0.1145384225706095 -0.042398793956269408 0 0.1110668037332045 -0.044716897026090753 0 0.1055557892623542 -0.033443297064595402 0 0.1033412620220773 -0.038743671180952483 0 0.1110668037332045 -0.044716897026090753 0 0.1055557892623542 -0.033443297064595402 0 0.1110657475635783 -0.024537318092090879 0 0.1055557892623542 -0.033443297064595402 0 0.1033412620220773 -0.038743671180952483 0 0.099735706130166191 -0.032363650611350291 0 0.1061057941544242 -0.048029510556719501 0 0.1110668037332045 -0.044716897026090753 0 0.1033412620220773 -0.038743671180952483 0 0.1061057941544242 -0.048029510556719501 0 0.1110668037332045 -0.044716897026090753 0 0.091714906782867311 -0.036797226709749317 0 0.1061057941544242 -0.048029510556719501 0 0.1033412620220773 -0.038743671180952483 0 0.091714906782867311 -0.036797226709749317 0 0.099735706130166191 -0.032363650611350291 0 0.094022778193201012 -0.026123982876348699 0 0.091714906782867311 -0.036797226709749317 0 0.1033412620220773 -0.038743671180952483 0 0.099735706130166191 -0.032363650611350291 0 0.094022778193201012 -0.026123982876348699 0 0.099939803117056927 -0.019438719481823939 0 0.10256942686274539 -0.02685494841249338 0 0.099735706130166191 -0.032363650611350291 0 0.094022778193201012 -0.026123982876348699 0 0.10256942686274539 -0.02685494841249338 0 0.089862916173340357 -0.01708762558901326 0 0.099939803117056927 -0.019438719481823939 0 0.096279436123443099 -0.01264123019952843 0 0.089862916173340357 -0.01708762558901326 0 0.094022778193201012 -0.026123982876348699 0 0.099939803117056927 -0.019438719481823939 0 0.099939803117056927 -0.019438719481823939 0 0.1110657475635783 -0.024537318092090879 0 0.1038427994338427 -0.01228339429365575 0 0.099939803117056927 -0.019438719481823939 0 0.10256942686274539 -0.02685494841249338 0 0.1110657475635783 -0.024537318092090879 0 0.1055557892623542 -0.033443297064595402 0 0.10256942686274539 -0.02685494841249338 0 0.1110657475635783 -0.024537318092090879 0 0.1055557892623542 -0.033443297064595402 0 0.099735706130166191 -0.032363650611350291 0 0.10256942686274539 -0.02685494841249338 0 0.1110657475635783 -0.024537318092090879 0 0.11874886145434339 -0.01988594297582702 0 0.11106469139395241 -0.0043577391580909642 0 0.1145384225706095 -0.042398793956269408 0 0.1110657475635783 -0.024537318092090879 0 0.11874886145434339 -0.01988594297582702 0 0.1110657475635783 -0.024537318092090879 0 0.11106469139395241 -0.0043577391580909642 0 0.1241013306504634 -0.00126979730434574 0 0.11106469139395241 -0.0043577391580909642 0 0.13403156470564001 -0.01549442786512698 0 0.11874886145434339 -0.01988594297582702 0 0.11106469139395241 -0.0043577391580909642 0 0.13403156470564001 -0.01549442786512698 0 0.11106469139395241 -0.0043577391580909642 0 0.13403156470564001 -0.01549442786512698 0 0.11616446291822149 0.0009867659353553224 0 0.1241013306504634 -0.00126979730434574 0 0.11106469139395241 -0.0043577391580909642 0 0.1110642626353554 0.0038342857635015049 0 0.11106469139395241 -0.0043577391580909642 0 0.1110657475635783 -0.024537318092090879 0 0.11106469139395241 -0.0043577391580909642 0 0.1038427994338427 -0.01228339429365575 0 0.11106469139395241 -0.0043577391580909642 0 0.1043328745590008 -0.006074471012827736 0 0.1038427994338427 -0.01228339429365575 0 0.095468603896129905 0.0032048388713090512 0 0.11106469139395241 -0.0043577391580909642 0 0.095468603896129905 0.0032048388713090512 0 0.11106469139395241 -0.0043577391580909642 0 0.1043328745590008 -0.006074471012827736 0 0.1043328745590008 -0.006074471012827736 0 0.1038427994338427 -0.01228339429365575 0 0.096279436123443099 -0.01264123019952843 0 0.089373688792089206 -0.011043439040499229 0 0.1043328745590008 -0.006074471012827736 0 0.096279436123443099 -0.01264123019952843 0 0.099939803117056927 -0.019438719481823939 0 0.1038427994338427 -0.01228339429365575 0 0.096279436123443099 -0.01264123019952843 0 0.079765876201786601 -0.094234890917057473 0 0.090060056713392317 -0.1113828415296032 0 0.097109735642090717 -0.098021729451106668 0 0.079765876201786601 -0.094234890917057473 0 0.090060056713392317 -0.1113828415296032 0 0.06904978789292035 -0.1107599220236726 0 0.090060056713392317 -0.1113828415296032 0 0.06904978789292035 -0.1107599220236726 0 0.079664021380890612 -0.12566464947746619 0 0.090060056713392317 -0.1113828415296032 0 0.10134097292599541 -0.121259740946941 0 0.079664021380890612 -0.12566464947746619 0 0.090060056713392317 -0.1113828415296032 0 0.06904978789292035 -0.1107599220236726 0 0.079664021380890612 -0.12566464947746619 0 0.058152342805634388 -0.1236805937218577 0 0.06904978789292035 -0.1107599220236726 0 0.06225117261196856 -0.095577457706679927 0 0.079765876201786601 -0.094234890917057473 0 0.06904978789292035 -0.1107599220236726 0 0.062234417156402329 -0.078942310826358914 0 0.068332551824409768 -0.085783267286662093 0 0.077954997458855341 -0.080982909940217215 0 0.059456295693036253 -0.079178767042997367 0 0.06225117261196856 -0.095577457706679927 0 0.068332551824409768 -0.085783267286662093 0 0.06225117261196856 -0.095577457706679927 0 0.079765876201786601 -0.094234890917057473 0 0.068332551824409768 -0.085783267286662093 0 0.059456295693036253 -0.079178767042997367 0 0.062234417156402329 -0.078942310826358914 0 0.068332551824409768 -0.085783267286662093 0 0.079765876201786601 -0.094234890917057473 0 0.068332551824409768 -0.085783267286662093 0 0.077954997458855341 -0.080982909940217215 0 0.06723956597473027 -0.060377077339879508 0 0.064028295168381086 -0.066851515572077122 0 0.082781044923730202 -0.063604138799858309 0 0.059456295693036253 -0.079178767042997367 0 0.062234417156402329 -0.078942310826358914 0 0.082781044923730202 -0.063604138799858309 0 0.059456295693036253 -0.079178767042997367 0 0.064028295168381086 -0.066851515572077122 0 0.082781044923730202 -0.063604138799858309 0 0.059456295693036253 -0.079178767042997367 0 0.082781044923730202 -0.063604138799858309 0 0.062234417156402329 -0.078942310826358914 0 0.077954997458855341 -0.080982909940217215 0 0.082781044923730202 -0.063604138799858309 0 0.057353323497364467 -0.063713891590689298 0 0.06723956597473027 -0.060377077339879508 0 0.064028295168381086 -0.066851515572077122 0 0.077954997458855341 -0.080982909940217215 0 0.082781044923730202 -0.063604138799858309 0 0.093583221149761669 -0.082010797624453624 0 0.079765876201786601 -0.094234890917057473 0 0.093583221149761669 -0.082010797624453624 0 0.097109735642090717 -0.098021729451106668 0 0.079765876201786601 -0.094234890917057473 0 0.077954997458855341 -0.080982909940217215 0 0.093583221149761669 -0.082010797624453624 0 0.093583221149761669 -0.082010797624453624 0 0.111068071689429 -0.068942951262236568 0 0.1110691986116488 -0.090474356148885188 0 0.093583221149761669 -0.082010797624453624 0 0.1110691986116488 -0.090474356148885188 0 0.097109735642090717 -0.098021729451106668 0 0.082781044923730202 -0.063604138799858309 0 0.093583221149761669 -0.082010797624453624 0 0.111068071689429 -0.068942951262236568 0 0.12044520320843211 -0.058176758004082361 0 0.111068071689429 -0.068942951262236568 0 0.12359760756783621 -0.077980187999416875 0 0.111068071689429 -0.068942951262236568 0 0.1110691986116488 -0.090474356148885188 0 0.111068071689429 -0.068942951262236568 0 0.12359760756783621 -0.077980187999416875 0 0.1110691986116488 -0.090474356148885188 0 0.12359760756783621 -0.077980187999416875 0 0.1110691986116488 -0.090474356148885188 0 0.1247667822469833 -0.094603111154835509 0 0.1247667822469833 -0.094603111154835509 0 0.1110703255338643 -0.11200576103553379 0 0.13251754910958141 -0.1022781194865121 0 0.1110691986116488 -0.090474356148885188 0 0.1110703255338643 -0.11200576103553379 0 0.1110691986116488 -0.090474356148885188 0 0.1247667822469833 -0.094603111154835509 0 0.1110703255338643 -0.11200576103553379 0 0.1110691986116488 -0.090474356148885188 0 0.097109735642090717 -0.098021729451106668 0 0.1110703255338643 -0.11200576103553379 0 0.090060056713392317 -0.1113828415296032 0 0.097109735642090717 -0.098021729451106668 0 0.1110703255338643 -0.11200576103553379 0 0.090060056713392317 -0.1113828415296032 0 0.1110703255338643 -0.11200576103553379 0 0.1110712941600925 -0.13051270236749449 0 0.10134097292599541 -0.121259740946941 0 0.1110703255338643 -0.11200576103553379 0 0.090060056713392317 -0.1113828415296032 0 0.10134097292599541 -0.121259740946941 0 0.1110703255338643 -0.11200576103553379 0 0.1110712941600925 -0.13051270236749449 0 0.1110703255338643 -0.11200576103553379 0 0.1244951109857452 -0.1203529848868761 0 0.1110712941600925 -0.13051270236749449 0 0.1110703255338643 -0.11200576103553379 0 0.1110703255338643 -0.11200576103553379 0 0.14075236033593799 -0.1128857839715522 0 0.1110703255338643 -0.11200576103553379 0 0.1244951109857452 -0.1203529848868761 0 0.14075236033593799 -0.1128857839715522 0 0.1244951109857452 -0.1203529848868761 0 0.14075236033593799 -0.1128857839715522 0 0.13508646391308621 -0.12600769217292379 0 0.14075236033593799 -0.1128857839715522 0 0.17043439513801181 -0.1137658069075705 0 0.14075236033593799 -0.1128857839715522 0 0.1591016336660796 -0.1215026819783514 0 0.13508646391308621 -0.12600769217292379 0 0.1591016336660796 -0.1215026819783514 0 0.13508646391308621 -0.12600769217292379 0 0.14621976162777481 -0.1060495915937488 0 0.13977851580334641 -0.085846349676890296 0 0.1533153804440896 -0.092729166951817821 0 0.14075236033593799 -0.1128857839715522 0 0.14621976162777481 -0.1060495915937488 0 0.1600023654421576 -0.1046503988106547 0 0.14621976162777481 -0.1060495915937488 0 0.13977851580334641 -0.085846349676890296 0 0.14621976162777481 -0.1060495915937488 0 0.1533153804440896 -0.092729166951817821 0 0.1600023654421576 -0.1046503988106547 0 0.1110703255338643 -0.11200576103553379 0 0.14075236033593799 -0.1128857839715522 0 0.13251754910958141 -0.1022781194865121 0 0.1247667822469833 -0.094603111154835509 0 0.13251754910958141 -0.1022781194865121 0 0.13977851580334641 -0.085846349676890296 0 0.14621976162777481 -0.1060495915937488 0 0.13251754910958141 -0.1022781194865121 0 0.13977851580334641 -0.085846349676890296 0 0.14075236033593799 -0.1128857839715522 0 0.14621976162777481 -0.1060495915937488 0 0.13251754910958141 -0.1022781194865121 0 0.12359760756783621 -0.077980187999416875 0 0.1247667822469833 -0.094603111154835509 0 0.13977851580334641 -0.085846349676890296 0 0.12359760756783621 -0.077980187999416875 0 0.13977851580334641 -0.085846349676890296 0 0.13333726997891801 -0.065643107760031738 0 0.13977851580334641 -0.085846349676890296 0 0.13333726997891801 -0.065643107760031738 0 0.14752880998169199 -0.069126175059886052 0 0.13977851580334641 -0.085846349676890296 0 0.13333726997891801 -0.065643107760031738 0 0.12044520320843211 -0.058176758004082361 0 0.12359760756783621 -0.077980187999416875 0 0.13333726997891801 -0.065643107760031738 0 0.14752880998169199 -0.069126175059886052 0 0.15449844762979709 -0.079210062000389603 0 0.16534332314343919 -0.066172810310391433 0 0.13977851580334641 -0.085846349676890296 0 0.14752880998169199 -0.069126175059886052 0 0.15449844762979709 -0.079210062000389603 0 0.13977851580334641 -0.085846349676890296 0 0.15449844762979709 -0.079210062000389603 0 0.1533153804440896 -0.092729166951817821 0 0.15449844762979709 -0.079210062000389603 0 0.1533153804440896 -0.092729166951817821 0 0.16638174870055461 -0.088044902470279018 0 0.15449844762979709 -0.079210062000389603 0 0.16638174870055461 -0.088044902470279018 0 0.16534332314343919 -0.066172810310391433 0 0.16534332314343919 -0.066172810310391433 0 0.18600015293391889 -0.083587075069055661 0 0.16534332314343919 -0.066172810310391433 0 0.18600015293391889 -0.083587075069055661 0 0.1902408166419349 -0.063653690646425509 0 0.16638174870055461 -0.088044902470279018 0 0.16534332314343919 -0.066172810310391433 0 0.18600015293391889 -0.083587075069055661 0 0.16638174870055461 -0.088044902470279018 0 0.18600015293391889 -0.083587075069055661 0 0.1815388957007569 -0.10312750993221841 0 0.1815388957007569 -0.10312750993221841 0 0.18311680341907299 -0.1169976717837789 0 0.19708371769526301 -0.1150201012677961 0 0.1815388957007569 -0.10312750993221841 0 0.18311680341907299 -0.1169976717837789 0 0.17043439513801181 -0.1137658069075705 0 0.18311680341907299 -0.1169976717837789 0 0.1591016336660796 -0.1215026819783514 0 0.18311680341907299 -0.1169976717837789 0 0.17043439513801181 -0.1137658069075705 0 0.1591016336660796 -0.1215026819783514 0 0.18311680341907299 -0.1169976717837789 0 0.1591016336660796 -0.1215026819783514 0 0.17103137087963541 -0.1290824278749787 0 0.14075236033593799 -0.1128857839715522 0 0.17043439513801181 -0.1137658069075705 0 0.1591016336660796 -0.1215026819783514 0 0.14075236033593799 -0.1128857839715522 0 0.17043439513801181 -0.1137658069075705 0 0.1600023654421576 -0.1046503988106547 0 0.1533153804440896 -0.092729166951817821 0 0.16638174870055461 -0.088044902470279018 0 0.1600023654421576 -0.1046503988106547 0 0.1815388957007569 -0.10312750993221841 0 0.17043439513801181 -0.1137658069075705 0 0.1600023654421576 -0.1046503988106547 0 0.16638174870055461 -0.088044902470279018 0 0.1815388957007569 -0.10312750993221841 0 0.1600023654421576 -0.1046503988106547 0 0.1454712798881049 -0.003730971849526866 0 0.13403156470564001 -0.01549442786512698 0 0.1569984380173273 -0.026631116572163761 0 0.1454712798881049 -0.003730971849526866 0 0.1569984380173273 -0.026631116572163761 0 0.1637454324533367 -0.01207635113786649 0 0.1454712798881049 -0.003730971849526866 0 0.13373112663479869 -0.0028115886610750019 0 0.13403156470564001 -0.01549442786512698 0 0.1241013306504634 -0.00126979730434574 0 0.13373112663479869 -0.0028115886610750019 0 0.13403156470564001 -0.01549442786512698 0 0.13403156470564001 -0.01549442786512698 0 0.13006182297500279 -0.02818687572521553 0 0.14057084158554251 -0.031927266216732593 0 0.11874886145434339 -0.01988594297582702 0 0.13006182297500279 -0.02818687572521553 0 0.1268960241544852 -0.045439865843174693 0 0.11874886145434339 -0.01988594297582702 0 0.13403156470564001 -0.01549442786512698 0 0.13006182297500279 -0.02818687572521553 0 0.13403156470564001 -0.01549442786512698 0 0.14057084158554251 -0.031927266216732593 0 0.1569984380173273 -0.026631116572163761 0 0.13403156470564001 -0.01549442786512698 0 0.1569984380173273 -0.026631116572163761 0 0.14057084158554251 -0.031927266216732593 0 0.1268960241544852 -0.045439865843174693 0 0.1562816529443998 -0.041779572606894091 0 0.14057084158554251 -0.031927266216732593 0 0.1562816529443998 -0.041779572606894091 0 0.1569984380173273 -0.026631116572163761 0 0.1268960241544852 -0.045439865843174693 0 0.1562816529443998 -0.041779572606894091 0 0.1268960241544852 -0.045439865843174693 0 0.14468649335295949 -0.048758545551727199 0 0.1562816529443998 -0.041779572606894091 0 0.13006182297500279 -0.02818687572521553 0 0.14057084158554251 -0.031927266216732593 0 0.1268960241544852 -0.045439865843174693 0 0.12044520320843211 -0.058176758004082361 0 0.13333726997891801 -0.065643107760031738 0 0.1268960241544852 -0.045439865843174693 0 0.13333726997891801 -0.065643107760031738 0 0.1268960241544852 -0.045439865843174693 0 0.13333726997891801 -0.065643107760031738 0 0.1268960241544852 -0.045439865843174693 0 0.14468649335295949 -0.048758545551727199 0 0.13333726997891801 -0.065643107760031738 0 0.14752880998169199 -0.069126175059886052 0 0.14468649335295949 -0.048758545551727199 0 0.16534332314343919 -0.066172810310391433 0 0.14468649335295949 -0.048758545551727199 0 0.1562816529443998 -0.041779572606894091 0 0.16534332314343919 -0.066172810310391433 0 0.14468649335295949 -0.048758545551727199 0 0.14752880998169199 -0.069126175059886052 0 0.16534332314343919 -0.066172810310391433 0 0.14468649335295949 -0.048758545551727199 0 0.16534332314343919 -0.066172810310391433 0 0.1743832686160221 -0.052431338233580919 0 0.1562816529443998 -0.041779572606894091 0 0.16534332314343919 -0.066172810310391433 0 0.1743832686160221 -0.052431338233580919 0 0.1902408166419349 -0.063653690646425509 0 0.1743832686160221 -0.052431338233580919 0 0.18566728173431429 -0.038119279370612658 0 0.1902408166419349 -0.063653690646425509 0 0.1743832686160221 -0.052431338233580919 0 0.18566728173431429 -0.038119279370612658 0 0.1562816529443998 -0.041779572606894091 0 0.18566728173431429 -0.038119279370612658 0 0.1799653113290145 -0.037767805279200532 0 0.1562816529443998 -0.041779572606894091 0 0.18566728173431429 -0.038119279370612658 0 0.1799653113290145 -0.037767805279200532 0 0.18352544288220721 -0.02643904852971838 0 0.1799653113290145 -0.037767805279200532 0 0.1569984380173273 -0.026631116572163761 0 0.1799653113290145 -0.037767805279200532 0 0.1562816529443998 -0.041779572606894091 0 0.1569984380173273 -0.026631116572163761 0 0.18566728173431429 -0.038119279370612658 0 0.1562816529443998 -0.041779572606894091 0 0.1799653113290145 -0.037767805279200532 0 0.1569984380173273 -0.026631116572163761 0 0.17157070889149501 -0.02546215785151933 0 0.17157070889149501 -0.02546215785151933 0 0.17532609562794901 -0.017265125093693819 0 0.1637454324533367 -0.01207635113786649 0 0.1569984380173273 -0.026631116572163761 0 0.17157070889149501 -0.02546215785151933 0 0.1637454324533367 -0.01207635113786649 0 0.1799653113290145 -0.037767805279200532 0 0.17157070889149501 -0.02546215785151933 0 0.18352544288220721 -0.02643904852971838 0 0.18352544288220721 -0.02643904852971838 0 0.17532609562794901 -0.017265125093693819 0 0.18464571804255381 -0.01434874739392517 0 0.17157070889149501 -0.02546215785151933 0 0.18352544288220721 -0.02643904852971838 0 0.17532609562794901 -0.017265125093693819 0 0.17532609562794901 -0.017265125093693819 0 0.18464571804255381 -0.01434874739392517 0 0.17522714050184721 -0.0049488647019317131 0 0.18464571804255381 -0.01434874739392517 0 0.17522714050184721 -0.0049488647019317131 0 0.1875025085325798 -0.00089400050155696853 0 0.1601032952255865 0.003960831588106911 0 0.1454712798881049 -0.003730971849526866 0 0.1637454324533367 -0.01207635113786649 0 0.1601032952255865 0.003960831588106911 0 0.17522714050184721 -0.0049488647019317131 0 0.1637454324533367 -0.01207635113786649 0 0.17532609562794901 -0.017265125093693819 0 0.17522714050184721 -0.0049488647019317131 0 0.1637454324533367 -0.01207635113786649 0 0.20658404310945239 -0.0047970488307741092 0 0.19732880705779859 -0.02003632072507585 0 0.21527408670860021 -0.016870533990492289 0 0.2148085754180758 0.0052537978973309406 0 0.20658404310945239 -0.0047970488307741092 0 0.2227394312342845 -0.0066353046367786921 0 0.20658404310945239 -0.0047970488307741092 0 0.21527408670860021 -0.016870533990492289 0 0.2227394312342845 -0.0066353046367786921 0 0.18464571804255381 -0.01434874739392517 0 0.1875025085325798 -0.00089400050155696853 0 0.19732880705779859 -0.02003632072507585 0 0.20658404310945239 -0.0047970488307741092 0 0.1875025085325798 -0.00089400050155696853 0 0.19732880705779859 -0.02003632072507585 0 0.18566728173431429 -0.038119279370612658 0 0.19732880705779859 -0.02003632072507585 0 0.2150529105242289 -0.034458986134331217 0 0.18566728173431429 -0.038119279370612658 0 0.18352544288220721 -0.02643904852971838 0 0.19732880705779859 -0.02003632072507585 0 0.18352544288220721 -0.02643904852971838 0 0.18464571804255381 -0.01434874739392517 0 0.19732880705779859 -0.02003632072507585 0 0.19732880705779859 -0.02003632072507585 0 0.21527408670860021 -0.016870533990492289 0 0.2150529105242289 -0.034458986134331217 0 0.18566728173431429 -0.038119279370612658 0 0.2150529105242289 -0.034458986134331217 0 0.18566728173431429 -0.038119279370612658 0 0.2150529105242289 -0.034458986134331217 0 0.20491372214368109 -0.052751152430799877 0 0.18566728173431429 -0.038119279370612658 0 0.20491372214368109 -0.052751152430799877 0 0.1902408166419349 -0.063653690646425509 0 0.20491372214368109 -0.052751152430799877 0 0.1902408166419349 -0.063653690646425509 0 0.21150083880492521 -0.067705321726837742 0 0.20491372214368109 -0.052751152430799877 0 0.22178985079401409 -0.054693465837619838 0 0.21150083880492521 -0.067705321726837742 0 0.2150529105242289 -0.034458986134331217 0 0.20491372214368109 -0.052751152430799877 0 0.22178985079401409 -0.054693465837619838 0 0.22178985079401409 -0.054693465837619838 0 0.23873029704772 -0.060004330127490971 0 0.2254105552342264 -0.069340092208567308 0 0.22178985079401409 -0.054693465837619838 0 0.23873029704772 -0.060004330127490971 0 0.23000289942002669 -0.044988868749372947 0 0.23873029704772 -0.060004330127490971 0 0.24861083198888209 -0.053598656101898408 0 0.24443853931414289 -0.030798692898044659 0 0.25571340908958867 -0.062031832045884867 0 0.24861083198888209 -0.053598656101898408 0 0.24529266408970271 -0.065670516910433796 0 0.23873029704772 -0.060004330127490971 0 0.24861083198888209 -0.053598656101898408 0 0.24529266408970271 -0.065670516910433796 0 0.23873029704772 -0.060004330127490971 0 0.24443853931414289 -0.030798692898044659 0 0.23873029704772 -0.060004330127490971 0 0.23000289942002669 -0.044988868749372947 0 0.24443853931414289 -0.030798692898044659 0 0.2150529105242289 -0.034458986134331217 0 0.24443853931414289 -0.030798692898044659 0 0.2150529105242289 -0.034458986134331217 0 0.23000289942002669 -0.044988868749372947 0 0.24443853931414289 -0.030798692898044659 0 0.2150529105242289 -0.034458986134331217 0 0.22178985079401409 -0.054693465837619838 0 0.23000289942002669 -0.044988868749372947 0 0.21527408670860021 -0.016870533990492289 0 0.2150529105242289 -0.034458986134331217 0 0.2314216026089275 -0.01657052648233805 0 0.2150529105242289 -0.034458986134331217 0 0.2314216026089275 -0.01657052648233805 0 0.24443853931414289 -0.030798692898044659 0 0.2314216026089275 -0.01657052648233805 0 0.24443853931414289 -0.030798692898044659 0 0.24837822010643121 -0.01064171941143479 0 0.24443853931414289 -0.030798692898044659 0 0.24837822010643121 -0.01064171941143479 0 0.23486169414593761 0.0044328377206448756 0 0.2314216026089275 -0.01657052648233805 0 0.24837822010643121 -0.01064171941143479 0 0.23486169414593761 0.0044328377206448756 0 0.24837822010643121 -0.01064171941143479 0 0.23486169414593761 0.0044328377206448756 0 0.2314216026089275 -0.01657052648233805 0 0.2227394312342845 -0.0066353046367786921 0 0.21527408670860021 -0.016870533990492289 0 0.2314216026089275 -0.01657052648233805 0 0.2227394312342845 -0.0066353046367786921 0 0.20665698272439861 -0.1010013398277199 0 0.20584527481288081 -0.083162880912667866 0 0.21995740980504969 -0.097151917108780711 0 0.20665698272439861 -0.1010013398277199 0 0.21995740980504969 -0.097151917108780711 0 0.22731381251487801 -0.11841560458638439 0 0.20665698272439861 -0.1010013398277199 0 0.21131158985563189 -0.1225609285287194 0 0.19708371769526301 -0.1150201012677961 0 0.20665698272439861 -0.1010013398277199 0 0.21131158985563189 -0.1225609285287194 0 0.22731381251487801 -0.11841560458638439 0 0.20665698272439861 -0.1010013398277199 0 0.22731381251487801 -0.11841560458638439 0 0.21131158985563189 -0.1225609285287194 0 0.19708371769526301 -0.1150201012677961 0 0.20204244888725309 -0.12834584035683219 0 0.19708371769526301 -0.1150201012677961 0 0.19170225420145701 -0.1255490584026607 0 0.20204244888725309 -0.12834584035683219 0 0.18311680341907299 -0.1169976717837789 0 0.19708371769526301 -0.1150201012677961 0 0.19170225420145701 -0.1255490584026607 0 0.1815388957007569 -0.10312750993221841 0 0.20665698272439861 -0.1010013398277199 0 0.19708371769526301 -0.1150201012677961 0 0.18600015293391889 -0.083587075069055661 0 0.1815388957007569 -0.10312750993221841 0 0.20665698272439861 -0.1010013398277199 0 0.18600015293391889 -0.083587075069055661 0 0.20665698272439861 -0.1010013398277199 0 0.20584527481288081 -0.083162880912667866 0 0.18600015293391889 -0.083587075069055661 0 0.20665698272439861 -0.1010013398277199 0 0.1902408166419349 -0.063653690646425509 0 0.21150083880492521 -0.067705321726837742 0 0.20584527481288081 -0.083162880912667866 0 0.18600015293391889 -0.083587075069055661 0 0.1902408166419349 -0.063653690646425509 0 0.20584527481288081 -0.083162880912667866 0 0.21150083880492521 -0.067705321726837742 0 0.20584527481288081 -0.083162880912667866 0 0.22056734931864541 -0.081637123969937081 0 0.20584527481288081 -0.083162880912667866 0 0.22056734931864541 -0.081637123969937081 0 0.21995740980504969 -0.097151917108780711 0 0.22056734931864541 -0.081637123969937081 0 0.23302205478129859 -0.089209967356937619 0 0.2254105552342264 -0.069340092208567308 0 0.22056734931864541 -0.081637123969937081 0 0.23302205478129859 -0.089209967356937619 0 0.21995740980504969 -0.097151917108780711 0 0.23873029704772 -0.060004330127490971 0 0.23302205478129859 -0.089209967356937619 0 0.2254105552342264 -0.069340092208567308 0 0.22178985079401409 -0.054693465837619838 0 0.21150083880492521 -0.067705321726837742 0 0.2254105552342264 -0.069340092208567308 0 0.21150083880492521 -0.067705321726837742 0 0.22056734931864541 -0.081637123969937081 0 0.2254105552342264 -0.069340092208567308 0 0.25462483508046457 -0.083048591473203981 0 0.24529266408970271 -0.065670516910433796 0 0.23873029704772 -0.060004330127490971 0 0.23302205478129859 -0.089209967356937619 0 0.23873029704772 -0.060004330127490971 0 0.24319344378213639 -0.077541246202979044 0 0.24529266408970271 -0.065670516910433796 0 0.25462483508046457 -0.083048591473203981 0 0.24319344378213639 -0.077541246202979044 0 0.24529266408970271 -0.065670516910433796 0 0.23873029704772 -0.060004330127490971 0 0.23302205478129859 -0.089209967356937619 0 0.24319344378213639 -0.077541246202979044 0 0.23302205478129859 -0.089209967356937619 0 0.24319344378213639 -0.077541246202979044 0 0.24429744486126961 -0.092415030224378816 0 0.25462483508046457 -0.083048591473203981 0 0.24319344378213639 -0.077541246202979044 0 0.24429744486126961 -0.092415030224378816 0 0.23302205478129859 -0.089209967356937619 0 0.24429744486126961 -0.092415030224378816 0 0.23338547966978729 -0.1068379626933337 0 0.2528876129834236 -0.094220099255164988 0 0.24429744486126961 -0.092415030224378816 0 0.24867124287050699 -0.1036323143646536 0 0.24867124287050699 -0.1036323143646536 0 0.23338547966978729 -0.1068379626933337 0 0.24429744486126961 -0.092415030224378816 0 0.24867124287050699 -0.1036323143646536 0 0.23338547966978729 -0.1068379626933337 0 0.23302205478129859 -0.089209967356937619 0 0.21995740980504969 -0.097151917108780711 0 0.22731381251487801 -0.11841560458638439 0 0.23302205478129859 -0.089209967356937619 0 0.22731381251487801 -0.11841560458638439 0 0.23302205478129859 -0.089209967356937619 0 0.23338547966978729 -0.1068379626933337 0 0.22731381251487801 -0.11841560458638439 0 0.21131158985563189 -0.1225609285287194 0 0.22731381251487801 -0.11841560458638439 0 0.2243374920012384 -0.13364364382207591 0 0.23338547966978729 -0.1068379626933337 0 0.22731381251487801 -0.11841560458638439 0 0.2421878029690071 -0.11792375126597229 0 0.22731381251487801 -0.11841560458638439 0 0.2421878029690071 -0.11792375126597229 0 0.245910845877507 -0.13409340539063849 0 0.24867124287050699 -0.1036323143646536 0 0.23338547966978729 -0.1068379626933337 0 0.2421878029690071 -0.11792375126597229 0 0.25101743794683912 -0.1146121967995704 0 0.24867124287050699 -0.1036323143646536 0 0.2421878029690071 -0.11792375126597229 0 0.25101743794683912 -0.1146121967995704 0 0.25433990433771841 -0.1243544269907422 0 0.2421878029690071 -0.11792375126597229 0 0.22731381251487801 -0.11841560458638439 0 0.245910845877507 -0.13409340539063849 0 0.245910845877507 -0.13409340539063849 0 0.23480427244398749 -0.14470340832726761 0 0.2243374920012384 -0.13364364382207591 0 0.25433990433771841 -0.1243544269907422 0 0.2421878029690071 -0.11792375126597229 0 0.245910845877507 -0.13409340539063849 0 0.25172611852857912 -0.16117425348272191 0 0.24825163994429519 -0.14855324651142299 0 0.24139489266072089 -0.15489719825353579 0 0.245910845877507 -0.13409340539063849 0 0.24825163994429519 -0.14855324651142299 0 0.23480427244398749 -0.14470340832726761 0 0.23480427244398749 -0.14470340832726761 0 0.24139489266072089 -0.15489719825353579 0 0.22950912267113219 -0.1579286806245345 0 0.24825163994429519 -0.14855324651142299 0 0.23480427244398749 -0.14470340832726761 0 0.24139489266072089 -0.15489719825353579 0 0.23480427244398749 -0.14470340832726761 0 0.22136117148759951 -0.1488716830577676 0 0.22950912267113219 -0.1579286806245345 0 0.23480427244398749 -0.14470340832726761 0 0.22136117148759951 -0.1488716830577676 0 0.2243374920012384 -0.13364364382207591 0 0.22136117148759951 -0.1488716830577676 0 0.2243374920012384 -0.13364364382207591 0 0.22731381251487801 -0.11841560458638439 0 0.245910845877507 -0.13409340539063849 0 0.2243374920012384 -0.13364364382207591 0 0.22731381251487801 -0.11841560458638439 0 0.2243374920012384 -0.13364364382207591 0 0.21131158985563189 -0.1225609285287194 0 0.2243374920012384 -0.13364364382207591 0 0.20933898145883961 -0.14011376792283381 0 0.21131158985563189 -0.1225609285287194 0 0.20933898145883961 -0.14011376792283381 0 0.20204244888725309 -0.12834584035683219 0 0.22136117148759951 -0.1488716830577676 0 0.20933898145883961 -0.14011376792283381 0 0.2046869147736663 -0.1547144632641109 0 0.22136117148759951 -0.1488716830577676 0 0.2046869147736663 -0.1547144632641109 0 0.2150163908689125 -0.1627032594048381 0 0.22136117148759951 -0.1488716830577676 0 0.2243374920012384 -0.13364364382207591 0 0.20933898145883961 -0.14011376792283381 0 0.20933898145883961 -0.14011376792283381 0 0.2046869147736663 -0.1547144632641109 0 0.19991565863556859 -0.14511136399123001 0 0.20933898145883961 -0.14011376792283381 0 0.19991565863556859 -0.14511136399123001 0 0.1959755485336879 -0.13697594020718429 0 0.2046869147736663 -0.1547144632641109 0 0.19991565863556859 -0.14511136399123001 0 0.18966118977608079 -0.1486412845707909 0 0.19991565863556859 -0.14511136399123001 0 0.18966118977608079 -0.1486412845707909 0 0.1959755485336879 -0.13697594020718429 0 0.18966118977608079 -0.1486412845707909 0 0.1959755485336879 -0.13697594020718429 0 0.18288499689202431 -0.13393341546785001 0 0.19170225420145701 -0.1255490584026607 0 0.1959755485336879 -0.13697594020718429 0 0.18288499689202431 -0.13393341546785001 0 0.19170225420145701 -0.1255490584026607 0 0.20204244888725309 -0.12834584035683219 0 0.1959755485336879 -0.13697594020718429 0 0.20933898145883961 -0.14011376792283381 0 0.20204244888725309 -0.12834584035683219 0 0.1959755485336879 -0.13697594020718429 0 0.19432264321285611 -0.1816642756381843 0 0.20617363014839349 -0.17138394852464489 0 0.20786688018092489 -0.1870703820251727 0 0.19432264321285611 -0.1816642756381843 0 0.1922402646605145 -0.1654529865563992 0 0.20617363014839349 -0.17138394852464489 0 0.19432264321285611 -0.1816642756381843 0 0.1922402646605145 -0.1654529865563992 0 0.17984174796593341 -0.17708923445271119 0 0.2046869147736663 -0.1547144632641109 0 0.1922402646605145 -0.1654529865563992 0 0.20617363014839349 -0.17138394852464489 0 0.2046869147736663 -0.1547144632641109 0 0.18966118977608079 -0.1486412845707909 0 0.1922402646605145 -0.1654529865563992 0 0.2046869147736663 -0.1547144632641109 0 0.20617363014839349 -0.17138394852464489 0 0.2150163908689125 -0.1627032594048381 0 0.20617363014839349 -0.17138394852464489 0 0.2150163908689125 -0.1627032594048381 0 0.2186364061125603 -0.17810730856617929 0 0.20617363014839349 -0.17138394852464489 0 0.2186364061125603 -0.17810730856617929 0 0.20786688018092489 -0.1870703820251727 0 0.2186364061125603 -0.17810730856617929 0 0.20786688018092489 -0.1870703820251727 0 0.21908074750825621 -0.19026954482832831 0 0.2299670202167462 -0.18426705026212989 0 0.22478585645270571 -0.16835020989676461 0 0.23838650933985181 -0.17066499135125021 0 0.2186364061125603 -0.17810730856617929 0 0.2299670202167462 -0.18426705026212989 0 0.22478585645270571 -0.16835020989676461 0 0.2186364061125603 -0.17810730856617929 0 0.2299670202167462 -0.18426705026212989 0 0.21908074750825621 -0.19026954482832831 0 0.2150163908689125 -0.1627032594048381 0 0.22478585645270571 -0.16835020989676461 0 0.22950912267113219 -0.1579286806245345 0 0.22136117148759951 -0.1488716830577676 0 0.2150163908689125 -0.1627032594048381 0 0.22950912267113219 -0.1579286806245345 0 0.2150163908689125 -0.1627032594048381 0 0.2186364061125603 -0.17810730856617929 0 0.22478585645270571 -0.16835020989676461 0 0.22478585645270571 -0.16835020989676461 0 0.22950912267113219 -0.1579286806245345 0 0.23838650933985181 -0.17066499135125021 0 0.25172611852857912 -0.16117425348272191 0 0.24139489266072089 -0.15489719825353579 0 0.23838650933985181 -0.17066499135125021 0 0.24139489266072089 -0.15489719825353579 0 0.22950912267113219 -0.1579286806245345 0 0.23838650933985181 -0.17066499135125021 0 0.25232087801029662 -0.1743036082448125 0 0.25172611852857912 -0.16117425348272191 0 0.23838650933985181 -0.17066499135125021 0 0.2299670202167462 -0.18426705026212989 0 0.24088166612482639 -0.18220765828638469 0 0.2388908918787678 -0.19256860285265909 0 0.2299670202167462 -0.18426705026212989 0 0.23838650933985181 -0.17066499135125021 0 0.24088166612482639 -0.18220765828638469 0 0.25232087801029662 -0.1743036082448125 0 0.23838650933985181 -0.17066499135125021 0 0.24088166612482639 -0.18220765828638469 0 0.25232087801029662 -0.1743036082448125 0 0.24088166612482639 -0.18220765828638469 0 0.2494281514357099 -0.18788699375990289 0 0.2494281514357099 -0.18788699375990289 0 0.2388908918787678 -0.19256860285265909 0 0.24761350086738881 -0.19571291374376831 0 0.24088166612482639 -0.18220765828638469 0 0.2494281514357099 -0.18788699375990289 0 0.2388908918787678 -0.19256860285265909 0 0.2388908918787678 -0.19256860285265909 0 0.2423767928016016 -0.20294914559991359 0 0.22809607852579289 -0.19997878680688611 0 0.25542854451629388 -0.1998498607268 0 0.2423767928016016 -0.20294914559991359 0 0.24761350086738881 -0.19571291374376831 0 0.2388908918787678 -0.19256860285265909 0 0.2423767928016016 -0.20294914559991359 0 0.24761350086738881 -0.19571291374376831 0 0.25147688088271641 -0.21194752874198031 0 0.25542854451629388 -0.1998498607268 0 0.2423767928016016 -0.20294914559991359 0 0.25147688088271641 -0.21194752874198031 0 0.2423767928016016 -0.20294914559991359 0 0.2355474620994345 -0.21068857441053529 0 0.25147688088271641 -0.21194752874198031 0 0.2355474620994345 -0.21068857441053529 0 0.23934177232259221 -0.22380736018715999 0 0.2423767928016016 -0.20294914559991359 0 0.2355474620994345 -0.21068857441053529 0 0.22809607852579289 -0.19997878680688611 0 0.22168370940054469 -0.21540197150896589 0 0.22809607852579289 -0.19997878680688611 0 0.21083735250525679 -0.20192419648127349 0 0.2355474620994345 -0.21068857441053529 0 0.22168370940054469 -0.21540197150896589 0 0.22809607852579289 -0.19997878680688611 0 0.2355474620994345 -0.21068857441053529 0 0.22168370940054469 -0.21540197150896589 0 0.23934177232259221 -0.22380736018715999 0 0.2299670202167462 -0.18426705026212989 0 0.2388908918787678 -0.19256860285265909 0 0.22809607852579289 -0.19997878680688611 0 0.2299670202167462 -0.18426705026212989 0 0.21908074750825621 -0.19026954482832831 0 0.22809607852579289 -0.19997878680688611 0 0.21908074750825621 -0.19026954482832831 0 0.22809607852579289 -0.19997878680688611 0 0.21083735250525679 -0.20192419648127349 0 0.25956792639756249 -0.22419618385450099 0 0.2458949266121517 -0.24119477616399751 0 0.23934177232259221 -0.22380736018715999 0 0.2458949266121517 -0.24119477616399751 0 0.23934177232259221 -0.22380736018715999 0 0.22657928359371141 -0.23525257407078701 0 0.22168370940054469 -0.21540197150896589 0 0.23934177232259221 -0.22380736018715999 0 0.22657928359371141 -0.23525257407078701 0 0.22168370940054469 -0.21540197150896589 0 0.22657928359371141 -0.23525257407078701 0 0.2115991114340609 -0.22695975730143261 0 0.2302258654200407 -0.25604080434424459 0 0.22657928359371141 -0.23525257407078701 0 0.20825914018731509 -0.24176904314253461 0 0.2302258654200407 -0.25604080434424459 0 0.20825914018731509 -0.24176904314253461 0 0.2302258654200407 -0.25604080434424459 0 0.2458949266121517 -0.24119477616399751 0 0.22657928359371141 -0.23525257407078701 0 0.22657928359371141 -0.23525257407078701 0 0.20825914018731509 -0.24176904314253461 0 0.2115991114340609 -0.22695975730143261 0 0.20825914018731509 -0.24176904314253461 0 0.2115991114340609 -0.22695975730143261 0 0.20062311415931891 -0.2256504216691933 0 0.22168370940054469 -0.21540197150896589 0 0.2115991114340609 -0.22695975730143261 0 0.20430044051251961 -0.21548295975203391 0 0.2115991114340609 -0.22695975730143261 0 0.20062311415931891 -0.2256504216691933 0 0.20430044051251961 -0.21548295975203391 0 0.20825914018731509 -0.24176904314253461 0 0.20062311415931891 -0.2256504216691933 0 0.1862924149545897 -0.22749728194082469 0 0.20062311415931891 -0.2256504216691933 0 0.20430044051251961 -0.21548295975203391 0 0.1926644637081093 -0.21654306620914071 0 0.20062311415931891 -0.2256504216691933 0 0.1926644637081093 -0.21654306620914071 0 0.1862924149545897 -0.22749728194082469 0 0.20825914018731509 -0.24176904314253461 0 0.1862924149545897 -0.22749728194082469 0 0.20825914018731509 -0.24176904314253461 0 0.19216952572399271 -0.24625439499940641 0 0.1862924149545897 -0.22749728194082469 0 0.20786688018092489 -0.1870703820251727 0 0.21083735250525679 -0.20192419648127349 0 0.1958608584331378 -0.1970601101099905 0 0.20786688018092489 -0.1870703820251727 0 0.21908074750825621 -0.19026954482832831 0 0.21083735250525679 -0.20192419648127349 0 0.22168370940054469 -0.21540197150896589 0 0.21083735250525679 -0.20192419648127349 0 0.20430044051251961 -0.21548295975203391 0 0.21083735250525679 -0.20192419648127349 0 0.20430044051251961 -0.21548295975203391 0 0.19687774908402619 -0.20781386219113809 0 0.19687774908402619 -0.20781386219113809 0 0.1958608584331378 -0.1970601101099905 0 0.18072563026110719 -0.20805897840325191 0 0.19687774908402619 -0.20781386219113809 0 0.1926644637081093 -0.21654306620914071 0 0.18072563026110719 -0.20805897840325191 0 0.20430044051251961 -0.21548295975203391 0 0.19687774908402619 -0.20781386219113809 0 0.1926644637081093 -0.21654306620914071 0 0.1958608584331378 -0.1970601101099905 0 0.18072563026110719 -0.20805897840325191 0 0.21083735250525679 -0.20192419648127349 0 0.19687774908402619 -0.20781386219113809 0 0.1958608584331378 -0.1970601101099905 0 0.19432264321285611 -0.1816642756381843 0 0.20786688018092489 -0.1870703820251727 0 0.1958608584331378 -0.1970601101099905 0 0.19432264321285611 -0.1816642756381843 0 0.1958608584331378 -0.1970601101099905 0 0.18028368911352 -0.19257410642798159 0 0.18028368911352 -0.19257410642798159 0 0.18072563026110719 -0.20805897840325191 0 0.16123398134048339 -0.19992518084684799 0 0.1958608584331378 -0.1970601101099905 0 0.18028368911352 -0.19257410642798159 0 0.18072563026110719 -0.20805897840325191 0 0.18028368911352 -0.19257410642798159 0 0.18072563026110719 -0.20805897840325191 0 0.1926644637081093 -0.21654306620914071 0 0.18072563026110719 -0.20805897840325191 0 0.1862924149545897 -0.22749728194082469 0 0.18072563026110719 -0.20805897840325191 0 0.16409835017509311 -0.22014213048147699 0 0.18072563026110719 -0.20805897840325191 0 0.16123398134048339 -0.19992518084684799 0 0.16409835017509311 -0.22014213048147699 0 0.16123398134048339 -0.19992518084684799 0 0.15415387058183119 -0.18125047226734689 0 0.1680194230563424 -0.18517538835000391 0 0.18028368911352 -0.19257410642798159 0 0.16123398134048339 -0.19992518084684799 0 0.1680194230563424 -0.18517538835000391 0 0.1735801302704959 -0.25009110129751427 0 0.18231756712108699 -0.26383775936566878 0 0.18152159869109671 -0.23594836888446041 0 0.18231756712108699 -0.26383775936566878 0 0.19216952572399271 -0.24625439499940641 0 0.18152159869109671 -0.23594836888446041 0 0.18231756712108699 -0.26383775936566878 0 0.18152159869109671 -0.23594836888446041 0 0.19216952572399271 -0.24625439499940641 0 0.18152159869109671 -0.23594836888446041 0 0.1862924149545897 -0.22749728194082469 0 0.1735801302704959 -0.25009110129751427 0 0.18152159869109671 -0.23594836888446041 0 0.17235773068871291 -0.23931872091140829 0 0.18152159869109671 -0.23594836888446041 0 0.17235773068871291 -0.23931872091140829 0 0.17055663314039701 -0.23052911234105941 0 0.18072563026110719 -0.20805897840325191 0 0.18152159869109671 -0.23594836888446041 0 0.17055663314039701 -0.23052911234105941 0 0.18072563026110719 -0.20805897840325191 0 0.18152159869109671 -0.23594836888446041 0 0.18072563026110719 -0.20805897840325191 0 0.18152159869109671 -0.23594836888446041 0 0.1862924149545897 -0.22749728194082469 0 0.18072563026110719 -0.20805897840325191 0 0.16409835017509311 -0.22014213048147699 0 0.17055663314039701 -0.23052911234105941 0 0.16409835017509311 -0.22014213048147699 0 0.16377256065286189 -0.24070630112259919 0 0.14747107008907701 -0.23222528255969921 0 0.16409835017509311 -0.22014213048147699 0 0.17055663314039701 -0.23052911234105941 0 0.16377256065286189 -0.24070630112259919 0 0.1578031145482737 -0.25808536852191172 0 0.1735801302704959 -0.25009110129751427 0 0.16377256065286189 -0.24070630112259919 0 0.1578031145482737 -0.25808536852191172 0 0.16377256065286189 -0.24070630112259919 0 0.14747107008907701 -0.23222528255969921 0 0.17235773068871291 -0.23931872091140829 0 0.17055663314039701 -0.23052911234105941 0 0.16377256065286189 -0.24070630112259919 0 0.1735801302704959 -0.25009110129751427 0 0.17235773068871291 -0.23931872091140829 0 0.16377256065286189 -0.24070630112259919 0 0.1578031145482737 -0.25808536852191172 0 0.14747107008907701 -0.23222528255969921 0 0.1578031145482737 -0.25808536852191172 0 0.14457918263284869 -0.24901401909077739 0 0.14747107008907701 -0.23222528255969921 0 0.14457918263284869 -0.24901401909077739 0 0.14747107008907701 -0.23222528255969921 0 0.1313098299079942 -0.24396976042201809 0 0.16409835017509311 -0.22014213048147699 0 0.14747107008907701 -0.23222528255969921 0 0.13947361949576409 -0.21220845426996951 0 0.14747107008907701 -0.23222528255969921 0 0.13947361949576409 -0.21220845426996951 0 0.16409835017509311 -0.22014213048147699 0 0.14747107008907701 -0.23222528255969921 0 0.14747107008907701 -0.23222528255969921 0 0.12850364820595331 -0.22750422579700491 0 0.13947361949576409 -0.21220845426996951 0 0.14747107008907701 -0.23222528255969921 0 0.12850364820595331 -0.22750422579700491 0 0.1313098299079942 -0.24396976042201809 0 0.14747107008907701 -0.23222528255969921 0 0.1313098299079942 -0.24396976042201809 0 0.16123398134048339 -0.19992518084684799 0 0.1458632593072765 -0.19371399483855309 0 0.15415387058183119 -0.18125047226734689 0 0.16123398134048339 -0.19992518084684799 0 0.1458632593072765 -0.19371399483855309 0 0.13947361949576409 -0.21220845426996951 0 0.16123398134048339 -0.19992518084684799 0 0.16409835017509311 -0.22014213048147699 0 0.13947361949576409 -0.21220845426996951 0 0.1110756185422275 -0.21313599349844231 0 0.12850364820595331 -0.22750422579700491 0 0.13947361949576409 -0.21220845426996951 0 0.1110756185422275 -0.21313599349844231 0 0.13947361949576409 -0.21220845426996951 0 0.1314761689024517 -0.19219162598023959 0 0.1458632593072765 -0.19371399483855309 0 0.13947361949576409 -0.21220845426996951 0 0.1314761689024517 -0.19219162598023959 0 0.13947361949576409 -0.21220845426996951 0 0.1314761689024517 -0.19219162598023959 0 0.1458632593072765 -0.19371399483855309 0 0.1314761689024517 -0.19219162598023959 0 0.1410235773105491 -0.1820434389066494 0 0.1234787183091393 -0.17217479769050981 0 0.1314761689024517 -0.19219162598023959 0 0.1234787183091393 -0.17217479769050981 0 0.1314761689024517 -0.19219162598023959 0 0.1410235773105491 -0.1820434389066494 0 0.1234787183091393 -0.17217479769050981 0 0.1410235773105491 -0.1820434389066494 0 0.14269071920786239 -0.16764499463070739 0 0.1458632593072765 -0.19371399483855309 0 0.1410235773105491 -0.1820434389066494 0 0.15415387058183119 -0.18125047226734689 0 0.15415387058183119 -0.18125047226734689 0 0.14269071920786239 -0.16764499463070739 0 0.16237258593310269 -0.16763516319551089 0 0.1410235773105491 -0.1820434389066494 0 0.15415387058183119 -0.18125047226734689 0 0.14269071920786239 -0.16764499463070739 0 0.14269071920786239 -0.16764499463070739 0 0.14326268672299791 -0.14958371871869361 0 0.15407762764822189 -0.15578564611827431 0 0.14269071920786239 -0.16764499463070739 0 0.15407762764822189 -0.15578564611827431 0 0.16237258593310269 -0.16763516319551089 0 0.1234787183091393 -0.17217479769050981 0 0.14269071920786239 -0.16764499463070739 0 0.12892468117211131 -0.15666310802434039 0 0.14269071920786239 -0.16764499463070739 0 0.12892468117211131 -0.15666310802434039 0 0.14326268672299791 -0.14958371871869361 0 0.12203859052377219 -0.14663482975687511 0 0.12892468117211131 -0.15666310802434039 0 0.13100463664809181 -0.14588650793811311 0 0.12203859052377219 -0.14663482975687511 0 0.13100463664809181 -0.14588650793811311 0 0.12662101070287141 -0.13750334345265089 0 0.13100463664809181 -0.14588650793811311 0 0.13736152323831141 -0.13809920111329721 0 0.14326268672299791 -0.14958371871869361 0 0.12892468117211131 -0.15666310802434039 0 0.13100463664809181 -0.14588650793811311 0 0.14326268672299791 -0.14958371871869361 0 0.13100463664809181 -0.14588650793811311 0 0.12662101070287141 -0.13750334345265089 0 0.13736152323831141 -0.13809920111329721 0 0.12662101070287141 -0.13750334345265089 0 0.13736152323831141 -0.13809920111329721 0 0.13508646391308621 -0.12600769217292379 0 0.13736152323831141 -0.13809920111329721 0 0.13508646391308621 -0.12600769217292379 0 0.14910529173173581 -0.13489940437613571 0 0.1591016336660796 -0.1215026819783514 0 0.13508646391308621 -0.12600769217292379 0 0.14910529173173581 -0.13489940437613571 0 0.14910529173173581 -0.13489940437613571 0 0.157247889196341 -0.1443703901609793 0 0.16138232676985481 -0.13378653540933219 0 0.13736152323831141 -0.13809920111329721 0 0.14910529173173581 -0.13489940437613571 0 0.14326268672299791 -0.14958371871869361 0 0.14910529173173581 -0.13489940437613571 0 0.14326268672299791 -0.14958371871869361 0 0.157247889196341 -0.1443703901609793 0 0.14326268672299791 -0.14958371871869361 0 0.15407762764822189 -0.15578564611827431 0 0.157247889196341 -0.1443703901609793 0 0.15407762764822189 -0.15578564611827431 0 0.157247889196341 -0.1443703901609793 0 0.16616179783317361 -0.1522713547655983 0 0.16616179783317361 -0.1522713547655983 0 0.16949760447206219 -0.1398956815778416 0 0.1778306107057574 -0.1473298984325099 0 0.157247889196341 -0.1443703901609793 0 0.16616179783317361 -0.1522713547655983 0 0.16949760447206219 -0.1398956815778416 0 0.1591016336660796 -0.1215026819783514 0 0.16138232676985481 -0.13378653540933219 0 0.17103137087963541 -0.1290824278749787 0 0.1591016336660796 -0.1215026819783514 0 0.14910529173173581 -0.13489940437613571 0 0.16138232676985481 -0.13378653540933219 0 0.157247889196341 -0.1443703901609793 0 0.16138232676985481 -0.13378653540933219 0 0.16949760447206219 -0.1398956815778416 0 0.16138232676985481 -0.13378653540933219 0 0.16949760447206219 -0.1398956815778416 0 0.17103137087963541 -0.1290824278749787 0 0.18311680341907299 -0.1169976717837789 0 0.19170225420145701 -0.1255490584026607 0 0.18288499689202431 -0.13393341546785001 0 0.18311680341907299 -0.1169976717837789 0 0.17103137087963541 -0.1290824278749787 0 0.18288499689202431 -0.13393341546785001 0 0.16949760447206219 -0.1398956815778416 0 0.18288499689202431 -0.13393341546785001 0 0.1778306107057574 -0.1473298984325099 0 0.16949760447206219 -0.1398956815778416 0 0.17103137087963541 -0.1290824278749787 0 0.18288499689202431 -0.13393341546785001 0 0.16616179783317361 -0.1522713547655983 0 0.1778306107057574 -0.1473298984325099 0 0.17763854884376859 -0.1595500476903812 0 0.18966118977608079 -0.1486412845707909 0 0.18288499689202431 -0.13393341546785001 0 0.1778306107057574 -0.1473298984325099 0 0.18966118977608079 -0.1486412845707909 0 0.1778306107057574 -0.1473298984325099 0 0.17763854884376859 -0.1595500476903812 0 0.18966118977608079 -0.1486412845707909 0 0.1922402646605145 -0.1654529865563992 0 0.17763854884376859 -0.1595500476903812 0 0.1922402646605145 -0.1654529865563992 0 0.17763854884376859 -0.1595500476903812 0 0.17984174796593341 -0.17708923445271119 0 0.17763854884376859 -0.1595500476903812 0 0.17984174796593341 -0.17708923445271119 0 0.16237258593310269 -0.16763516319551089 0 0.19432264321285611 -0.1816642756381843 0 0.18028368911352 -0.19257410642798159 0 0.17984174796593341 -0.17708923445271119 0 0.18028368911352 -0.19257410642798159 0 0.17984174796593341 -0.17708923445271119 0 0.18028368911352 -0.19257410642798159 0 0.17984174796593341 -0.17708923445271119 0 0.1680194230563424 -0.18517538835000391 0 0.15415387058183119 -0.18125047226734689 0 0.1680194230563424 -0.18517538835000391 0 0.16237258593310269 -0.16763516319551089 0 0.17984174796593341 -0.17708923445271119 0 0.1680194230563424 -0.18517538835000391 0 0.16237258593310269 -0.16763516319551089 0 0.15407762764822189 -0.15578564611827431 0 0.16616179783317361 -0.1522713547655983 0 0.16237258593310269 -0.16763516319551089 0 0.16616179783317361 -0.1522713547655983 0 0.17763854884376859 -0.1595500476903812 0 0.16237258593310269 -0.16763516319551089 0 
</DataArray>
</Points>
<Cells>
<DataArray type="UInt32" Name="connectivity" format="ascii">
0 1 2 3 4 5 6 7 8 9 10 11 12 13 14 15 16 17 18 19 20 21 22 23 24 25 26 27 28 29 30 31 32 33 34 35 36 37 38 39 40 41 42 43 44 45 46 47 48 49 50 51 52 53 54 55 56 57 58 59 60 61 62 63 64 65 66 67 68 69 70 71 72 73 74 75 76 77 78 79 80 81 82 83 84 85 86 87 88 89 90 91 92 93 94 95 96 97 98 99 100 101 102 103 104 105 106 107 108 109 110 111 112 113 114 115 116 117 118 119 120 121 122 123 124 125 126 127 128 129 130 131 132 133 134 135 136 137 138 139 140 141 142 143 144 145 146 147 148 149 150 151 152 153 154 155 156 157 158 159 160 161 162 163 164 165 166 167 168 169 170 171 172 173 174 175 176 177 178 179 180 181 182 183 184 185 186 187 188 189 190 191 192 193 194 195 196 197 198 199 200 201 202 203 204 205 206 207 208 209 210 211 212 213 214 215 216 217 218 219 220 221 222 223 224 225 226 227 228 229 230 231 232 233 234 235 236 237 238 239 240 241 242 243 244 245 246 247 248 249 250 251 252 253 254 255 256 257 258 259 260 261 262 263 264 265 266 267 268 269 270 271 272 273 274 275 276 277 278 279 280 281 282 283 284 285 286 287 288 289 290 291 292 293 294 295 296 297 298 299 300 301 302 303 304 305 306 307 308 309 310 311 312 313 314 315 316 317 318 319 320 321 322 323 324 325 326 327 328 329 330 331 332 333 334 335 336 337 338 339 340 341 342 343 344 345 346 347 348 349 350 351 352 353 354 355 356 357 358 359 360 361 362 363 364 365 366 367 368 369 370 371 372 373 374 375 376 377 378 379 380 381 382 383 384 385 386 387 388 389 390 391 392 393 394 395 396 397 398 399 400 401 402 403 404 405 406 407 408 409 410 411 412 413 414 415 416 417 418 419 420 421 422 423 424 425 426 427 428 429 430 431 432 433 434 435 436 437 438 439 440 441 442 443 444 445 446 447 448 449 450 451 452 453 454 455 456 457 458 459 460 461 462 463 464 465 466 467 468 469 470 471 472 473 474 475 476 477 478 479 480 481 482 483 484 485 486 487 488 489 490 491 492 493 494 495 496 497 498 499 500 501 502 503 504 505 506 507 508 509 510 511 512 513 514 515 516 517 518 519 520 521 522 523 524 525 526 527 528 529 530 531 532 533 534 535 536 537 538 539 540 541 542 543 544 545 546 547 548 549 550 551 552 553 554 555 556 557 558 559 560 561 562 563 564 565 566 567 568 569 570 571 572 573 574 575 576 577 578 579 580 581 582 583 584 585 586 587 588 589 590 591 592 593 594 595 596 597 598 599 600 601 602 603 604 605 606 607 608 609 610 611 612 613 614 615 616 617 618 619 620 621 622 623 624 625 626 627 628 629 630 631 632 633 634 635 636 637 638 639 640 641 642 643 644 645 646 647 648 649 650 651 652 653 654 655 656 657 658 659 660 661 662 663 664 665 666 667 668 669 670 671 672 673 674 675 676 677 678 679 680 681 682 683 684 685 686 687 688 689 690 691 692 693 694 695 696 697 698 699 700 701 702 703 704 705 706 707 708 709 710 711 712 713 714 715 716 717 718 719 720 721 722 723 724 725 726 727 728 729 730 731 732 733 734 735 736 737 738 739 740 741 742 743 744 745 746 747 748 749 750 751 752 753 754 755 756 757 758 759 760 761 762 763 764 765 766 767 768 769 770 771 772 773 774 775 776 777 778 779 780 781 782 783 784 785 786 787 788 789 790 791 792 793 794 795 796 797 798 799 800 801 802 803 804 805 806 807 808 809 810 811 812 813 814 815 816 817 818 819 820 821 822 823 824 825 826 827 828 829 830 831 832 833 834 835 836 837 838 839 840 841 842 843 844 845 846 847 848 849 850 851 852 853 854 855 856 857 858 859 860 861 862 863 864 865 866 867 868 869 870 871 872 873 874 875 876 877 878 879 880 881 882 883 884 885 886 887 888 889 890 891 892 893 894 895 896 897 898 899 900 901 902 903 904 905 906 907 908 909 910 911 912 913 914 915 916 917 918 919 920 921 922 923 924 925 926 927 928 929 930 931 932 933 934 935 936 937 938 939 940 941 942 943 944 945 946 947 948 949 950 951 952 953 954 955 956 957 958 959 960 961 962 963 964 965 966 967 968 969 970 971 972 973 974 975 976 977 978 979 980 981 982 983 984 985 986 987 988 989 990 991 992 993 994 995 996 997 998 999 1000 1001 1002 1003 1004 1005 1006 1007 1008 1009 1010 1011 1012 1013 1014 1015 1016 1017 1018 1019 1020 1021 1022 1023 1024 1025 1026 1027 1028 1029 1030 1031 1032 1033 1034 1035 1036 1037 1038 1039 1040 1041 1042 1043 1044 1045 1046 1047 1048 1049 1050 1051 1052 1053 1054 1055 1056 1057 1058 1059 1060 1061 1062 1063 1064 1065 1066 1067 1068 1069 1070 1071 1072 1073 1074 1075 1076 1077 1078 1079 1080 1081 1082 1083 1084 1085 1086 1087 1088 1089 1090 1091 1092 1093 1094 1095 1096 1097 1098 1099 1100 1101 1102 1103 1104 1105 1106 1107 1108 1109 1110 1111 1112 1113 1114 1115 1116 1117 1118 1119 1120 1121 1122 1123 1124 1125 1126 1127 1128 1129 1130 1131 1132 1133 1134 1135 1136 1137 1138 1139 1140 1141 1142 1143 1144 1145 1146 1147 1148 1149 1150 1151 1152 1153 1154 1155 1156 1157 1158 1159 1160 1161 1162 1163 1164 1165 1166 1167 1168 1169 1170 1171 1172 1173 1174 1175 1176 1177 1178 1179 1180 1181 1182 1183 1184 1185 1186 1187 1188 1189 1190 1191 1192 1193 1194 1195 1196 1197 1198 1199 1200 1201 1202 1203 1204 1205 1206 1207 1208 1209 1210 1211 1212 1213 1214 1215 1216 1217 1218 1219 1220 1221 1222 1223 1224 1225 1226 1227 1228 1229 1230 1231 1232 1233 1234 1235 1236 1237 1238 1239 1240 1241 1242 1243 1244 1245 1246 1247 1248 1249 1250 1251 1252 1253 1254 1255 1256 1257 1258 1259 1260 1261 1262 1263 1264 1265 1266 1267 1268 1269 1270 1271 1272 1273 1274 1275 1276 1277 1278 1279 1280 1281 1282 1283 1284 1285 1286 1287 1288 1289 1290 1291 1292 1293 1294 1295 1296 1297 1298 1299 1300 1301 1302 1303 1304 1305 1306 1307 1308 1309 1310 1311 1312 1313 1314 1315 1316 1317 1318 1319 1320 1321 1322 1323 1324 1325 1326 1327 1328 1329 1330 1331 1332 1333 1334 1335 1336 1337 1338 1339 1340 1341 1342 1343 1344 1345 1346 1347 1348 1349 1350 1351 1352 1353 1354 1355 1356 1357 1358 1359 1360 1361 1362 1363 1364 1365 1366 1367 1368 1369 1370 1371 1372 1373 1374 1375 1376 1377 1378 1379 1380 1381 1382 1383 1384 1385 1386 1387 1388 1389 1390 1391 1392 1393 1394 1395 1396 1397 1398 1399 1400 1401 1402 1403 1404 1405 1406 1407 1408 1409 1410 1411 1412 1413 1414 1415 1416 1417 1418 1419 1420 1421 1422 1423 1424 1425 1426 1427 1428 1429 1430 1431 1432 1433 1434 1435 1436 1437 1438 1439 1440 1441 1442 1443 1444 1445 1446 1447 1448 1449 1450 1451 1452 1453 1454 1455 1456 1457 1458 1459 1460 1461 1462 1463 1464 1465 1466 1467 1468 1469 1470 1471 1472 1473 1474 1475 1476 1477 1478 1479 1480 1481 1482 1483 1484 1485 1486 1487 1488 1489 1490 1491 1492 1493 1494 1495 1496 1497 1498 1499 1500 1501 1502 1503 1504 1505 1506 1507 1508 1509 1510 1511 1512 1513 1514 1515 1516 1517 1518 1519 1520 1521 1522 1523 1524 1525 1526 1527 1528 1529 1530 1531 1532 1533 1534 1535 1536 1537 1538 1539 1540 1541 1542 1543 1544 1545 1546 1547 1548 1549 1550 1551 1552 1553 1554 1555 1556 1557 1558 1559 1560 1561 1562 1563 1564 1565 1566 1567 1568 1569 1570 1571 1572 1573 1574 1575 1576 1577 1578 1579 1580 1581 1582 1583 1584 1585 1586 1587 1588 1589 1590 1591 1592 1593 1594 1595 1596 1597 1598 1599 1600 1601 1602 1603 1604 1605 1606 1607 1608 1609 1610 1611 1612 1613 1614 1615 1616 1617 1618 1619 1620 1621 1622 1623 1624 1625 1626 1627 1628 1629 1630 1631 1632 1633 1634 1635 1636 1637 1638 1639 1640 1641 1642 1643 1644 1645 1646 1647 1648 1649 1650 1651 1652 1653 1654 1655 1656 1657 1658 1659 1660 1661 1662 1663 1664 1665 1666 1667 1668 1669 1670 1671 1672 1673 1674 1675 1676 1677 1678 1679 1680 1681 1682 1683 1684 1685 1686 1687 1688 1689 1690 1691 1692 1693 1694 1695 1696 1697 1698 1699 1700 1701 1702 1703 1704 1705 1706 1707 1708 1709 1710 1711 1712 1713 1714 1715 1716 1717 1718 1719 1720 1721 1722 1723 1724 1725 1726 1727 1728 1729 1730 1731 1732 1733 1734 1735 1736 1737 1738 1739 1740 1741 1742 1743 1744 1745 1746 1747 1748 1749 1750 1751 1752 1753 1754 1755 1756 1757 1758 1759 1760 1761 1762 1763 1764 1765 1766 1767 1768 1769 1770 1771 1772 1773 1774 1775 1776 1777 1778 1779 1780 1781 1782 1783 1784 1785 1786 1787 1788 1789 1790 1791 1792 1793 1794 1795 1796 1797 1798 1799 1800 1801 1802 1803 1804 1805 1806 1807 1808 1809 1810 1811 1812 1813 1814 1815 1816 1817 1818 1819 1820 1821 1822 1823 1824 1825 1826 1827 1828 1829 1830 1831 1832 1833 1834 1835 1836 1837 1838 1839 1840 1841 1842 1843 1844 1845 1846 1847 1848 1849 1850 1851 1852 1853 1854 1855 1856 1857 1858 1859 1860 1861 1862 1863 1864 1865 1866 1867 1868 1869 1870 1871 1872 1873 1874 1875 1876 1877 1878 1879 1880 1881 1882 1883 1884 1885 1886 1887 1888 1889 1890 1891 1892 1893 1894 1895 1896 1897 1898 1899 1900 1901 1902 1903 1904 1905 1906 1907 1908 1909 1910 1911 1912 1913 1914 1915 1916 1917 1918 1919 1920 1921 1922 1923 1924 1925 1926 1927 1928 1929 1930 1931 1932 1933 1934 1935 1936 1937 1938 1939 1940 1941 1942 1943 1944 1945 1946 1947 1948 1949 1950 1951 1952 1953 1954 1955 1956 1957 1958 1959 1960 1961 1962 1963 1964 1965 1966 1967 1968 1969 1970 1971 1972 1973 1974 1975 1976 1977 1978 1979 1980 1981 1982 1983 1984 1985 1986 1987 1988 1989 1990 1991 1992 1993 1994 1995 1996 1997 1998 1999 2000 2001 2002 2003 2004 2005 2006 2007 2008 2009 2010 2011 2012 2013 2014 2015 2016 2017 2018 2019 2020 2021 2022 2023 2024 2025 2026 2027 2028 2029 2030 2031 2032 2033 2034 2035 2036 2037 2038 2039 2040 2041 2042 2043 2044 2045 2046 2047 2048 2049 2050 2051 2052 2053 2054 2055 2056 2057 2058 2059 2060 2061 2062 2063 2064 2065 2066 2067 2068 2069 2070 2071 2072 2073 2074 2075 2076 2077 2078 2079 2080 2081 2082 2083 2084 2085 2086 2087 2088 2089 2090 2091 2092 2093 2094 2095 2096 2097 2098 2099 2100 2101 2102 2103 2104 2105 2106 2107 2108 2109 2110 2111 2112 2113 2114 2115 2116 2117 2118 2119 2120 2121 2122 2123 2124 2125 2126 2127 2128 2129 2130 2131 2132 2133 2134 2135 2136 2137 2138 2139 2140 2141 2142 2143 2144 2145 2146 2147 2148 2149 2150 2151 2152 2153 2154 2155 2156 2157 2158 2159 2160 2161 2162 2163 2164 2165 2166 2167 2168 2169 2170 2171 2172 2173 2174 2175 2176 2177 2178 2179 2180 2181 2182 2183 2184 2185 2186 2187 2188 2189 2190 2191 2192 2193 2194 2195 2196 2197 2198 2199 2200 2201 2202 2203 2204 2205 2206 2207 2208 2209 2210 2211 2212 2213 2214 2215 2216 2217 2218 2219 2220 2221 2222 2223 2224 2225 2226 2227 2228 2229 2230 2231 2232 2233 2234 2235 2236 2237 2238 2239 2240 2241 2242 2243 2244 2245 2246 2247 2248 2249 2250 2251 2252 2253 2254 2255 2256 2257 2258 2259 2260 2261 2262 2263 2264 2265 2266 2267 2268 2269 2270 2271 2272 2273 2274 2275 2276 2277 2278 2279 2280 2281 2282 2283 2284 2285 2286 2287 2288 2289 2290 2291 2292 2293 2294 2295 2296 2297 2298 2299 2300 2301 2302 2303 2304 2305 2306 2307 2308 2309 2310 2311 2312 2313 2314 2315 2316 2317 2318 2319 2320 2321 2322 2323 2324 2325 2326 2327 2328 2329 2330 2331 2332 2333 2334 2335 2336 2337 2338 2339 2340 2341 2342 2343 2344 2345 2346 2347 2348 2349 2350 2351 2352 2353 2354 2355 2356 2357 2358 2359 2360 2361 2362 2363 2364 2365 2366 2367 2368 2369 2370 2371 2372 2373 2374 2375 2376 2377 2378 2379 2380 2381 2382 2383 2384 2385 2386 2387 2388 2389 2390 2391 2392 2393 2394 2395 2396 2397 2398 2399 2400 2401 2402 2403 2404 2405 2406 2407 2408 2409 2410 2411 2412 2413 2414 2415 2416 2417 2418 2419 2420 2421 2422 2423 2424 2425 2426 2427 2428 2429 2430 2431 2432 2433 2434 2435 2436 2437 2438 2439 2440 2441 2442 2443 2444 2445 2446 2447 2448 2449 2450 2451 2452 2453 2454 2455 2456 2457 2458 2459 2460 2461 2462 2463 2464 2465 2466 2467 2468 2469 2470 2471 2472 2473 2474 2475 2476 2477 2478 2479 2480 2481 2482 2483 2484 2485 2486 2487 2488 2489 2490 2491 2492 2493 2494 2495 2496 2497 2498 2499 2500 2501 2502 2503 2504 2505 2506 2507 2508 2509 2510 2511 2512 2513 2514 2515 2516 2517 2518 2519 2520 2521 2522 2523 2524 2525 2526 2527 2528 2529 2530 2531 2532 2533 2534 2535 2536 2537 2538 2539 2540 2541 2542 2543 2544 2545 2546 2547 2548 2549 2550 2551 2552 2553 2554 2555 2556 2557 2558 2559 2560 2561 2562 2563 2564 2565 2566 2567 2568 2569 2570 2571 2572 2573 2574 2575 2576 2577 2578 2579 2580 2581 2582 2583 2584 2585 2586 2587 2588 2589 2590 2591 2592 2593 2594 2595 2596 2597 2598 2599 2600 2601 2602 2603 2604 2605 2606 2607 2608 2609 2610 2611 2612 2613 2614 2615 2616 2617 2618 2619 2620 2621 2622 2623 2624 2625 2626 2627 2628 2629 2630 2631 2632 2633 2634 2635 2636 2637 2638 2639 2640 2641 2642 2643 2644 2645 2646 2647 2648 2649 2650 2651 2652 2653 2654 2655 2656 2657 2658 2659 2660 2661 2662 2663 2664 2665 2666 2667 2668 2669 2670 2671 2672 2673 2674 2675 2676 2677 2678 2679 2680 2681 2682 2683 2684 2685 2686 2687 2688 2689 2690 2691 2692 2693 2694 2695 2696 2697 2698 2699 2700 2701 2702 2703 2704 2705 2706 2707 2708 2709 2710 2711 2712 2713 2714 2715 2716 2717 2718 2719 2720 2721 2722 2723 2724 2725 2726 2727 2728 2729 2730 2731 2732 2733 2734 2735 2736 2737 2738 2739 2740 2741 2742 2743 2744 2745 2746 2747 2748 2749 2750 2751 2752 2753 2754 2755 2756 2757 2758 2759 2760 2761 2762 2763 2764 2765 2766 2767 2768 2769 2770 2771 2772 2773 2774 2775 2776 2777 2778 2779 2780 2781 2782 2783 2784 2785 2786 2787 2788 2789 2790 2791 2792 2793 2794 2795 2796 2797 2798 2799 2800 2801 2802 2803 2804 2805 2806 2807 2808 2809 2810 2811 2812 2813 2814 2815 2816 2817 2818 2819 2820 2821 2822 2823 2824 2825 2826 2827 2828 2829 2830 2831 2832 2833 2834 2835 2836 2837 2838 2839 2840 2841 2842 2843 2844 2845 2846 2847 2848 2849 2850 2851 2852 2853 2854 2855 2856 2857 2858 2859 2860 2861 2862 2863 2864 2865 2866 2867 2868 2869 2870 2871 2872 2873 2874 2875 2876 2877 2878 2879 2880 2881 2882 2883 2884 2885 2886 2887 2888 2889 2890 2891 2892 2893 2894 2895 2896 2897 2898 2899 2900 2901 2902 2903 2904 2905 2906 2907 2908 2909 2910 2911 2912 2913 2914 2915 2916 2917 2918 2919 2920 2921 2922 2923 2924 2925 2926 2927 2928 2929 2930 2931 2932 2933 2934 2935 2936 2937 2938 2939 2940 2941 2942 2943 2944 2945 2946 2947 2948 2949 2950 2951 2952 2953 2954 2955 2956 2957 2958 2959 2960 2961 2962 2963 2964 2965 2966 2967 2968 2969 2970 2971 2972 2973 2974 2975 2976 2977 2978 2979 2980 2981 2982 2983 2984 2985 2986 2987 2988 2989 2990 2991 2992 2993 2994 2995 2996 2997 2998 2999 3000 3001 3002 3003 3004 3005 3006 3007 3008 3009 3010 3011 3012 3013 3014 3015 3016 3017 3018 3019 3020 3021 3022 3023 3024 3025 3026 3027 3028 3029 3030 3031 3032 3033 3034 3035 3036 3037 3038 3039 3040 3041 3042 3043 3044 3045 3046 3047 3048 3049 3050 3051 3052 3053 3054 3055 3056 3057 3058 3059 3060 3061 3062 3063 3064 3065 3066 3067 3068 3069 3070 3071 3072 3073 3074 3075 3076 3077 3078 3079 3080 3081 3082 3083 3084 3085 3086 3087 3088 3089 3090 3091 3092 3093 3094 3095 3096 3097 3098 3099 3100 3101 3102 3103 3104 3105 3106 3107 3108 3109 3110 3111 3112 3113 3114 3115 3116 3117 3118 3119 3120 3121 3122 3123 3124 3125 3126 3127 3128 3129 3130 3131 3132 3133 3134 3135 3136 3137 3138 3139 3140 3141 3142 3143 3144 3145 3146 3147 3148 3149 3150 3151 3152 3153 3154 3155 3156 3157 3158 3159 3160 3161 3162 3163 3164 3165 3166 3167 3168 3169 3170 3171 3172 3173 3174 3175 3176 3177 3178 3179 3180 3181 3182 3183 3184 3185 3186 3187 3188 3189 3190 3191 3192 3193 3194 3195 3196 3197 3198 3199 3200 3201 3202 3203 3204 3205 3206 3207 3208 3209 3210 3211 3212 3213 3214 3215 3216 3217 3218 3219 3220 3221 3222 3223 3224 3225 3226 3227 3228 3229 3230 3231 3232 3233 3234 3235 3236 3237 3238 3239 3240 3241 3242 3243 3244 3245 3246 3247 3248 3249 3250 3251 3252 3253 3254 3255 3256 3257 3258 3259 3260 3261 3262 3263 3264 3265 3266 3267 3268 3269 3270 3271 3272 3273 3274 3275 3276 3277 3278 3279 3280 3281 3282 3283 3284 3285 3286 3287 3288 3289 3290 3291 3292 3293 3294 3295 3296 3297 3298 3299 3300 3301 3302 3303 3304 3305 3306 3307 3308 3309 3310 3311 3312 3313 3314 3315 3316 3317 3318 3319 3320 3321 3322 3323 3324 3325 3326 3327 3328 3329 3330 3331 3332 3333 3334 3335 3336 3337 3338 3339 3340 3341 3342 3343 3344 3345 3346 3347 3348 3349 3350 3351 3352 3353 3354 3355 3356 3357 3358 3359 3360 3361 3362 3363 3364 3365 3366 3367 3368 3369 3370 3371 3372 3373 3374 3375 3376 3377 3378 3379 3380 3381 3382 3383 3384 3385 3386 3387 3388 3389 3390 3391 3392 3393 3394 3395 3396 3397 3398 3399 3400 3401 3402 3403 3404 3405 3406 3407 3408 3409 3410 3411 3412 3413 3414 3415 3416 3417 3418 3419 3420 3421 3422 3423 3424 3425 3426 3427 3428 3429 3430 3431 3432 3433 3434 3435 3436 3437 3438 3439 3440 3441 3442 3443 3444 3445 3446 3447 3448 3449 3450 3451 3452 3453 3454 3455 3456 3457 3458 3459 3460 3461 3462 3463 3464 3465 3466 3467 3468 3469 3470 3471 3472 3473 3474 3475 3476 3477 3478 3479 3480 3481 3482 3483 3484 3485 3486 3487 3488 3489 3490 3491 3492 3493 3494 3495 3496 3497 3498 3499 3500 3501 3502 3503 3504 3505 3506 3507 3508 3509 3510 3511 3512 3513 3514 3515 3516 3517 3518 3519 3520 3521 3522 3523 3524 3525 3526 3527 3528 3529 3530 3531 3532 3533 3534 3535 3536 3537 3538 3539 3540 3541 3542 3543 3544 3545 3546 3547 3548 3549 3550 3551 3552 3553 3554 3555 3556 3557 3558 3559 3560 3561 3562 3563 3564 3565 3566 3567 3568 3569 3570 3571 3572 3573 3574 3575 3576 3577 3578 3579 3580 3581 3582 3583 3584 3585 3586 3587 3588 3589 3590 3591 3592 3593 3594 3595 3596 3597 3598 3599 3600 3601 3602 3603 3604 3605 3606 3607 3608 3609 3610 3611 3612 3613 3614 3615 3616 3617 3618 3619 3620 3621 3622 3623 3624 3625 3626 3627 3628 3629 3630 3631 3632 3633 3634 3635 3636 3637 3638 3639 3640 3641 3642 3643 3644 3645 3646 3647 3648 3649 3650 3651 3652 3653 3654 3655 3656 3657 3658 3659 3660 3661 3662 3663 3664 3665 3666 3667 3668 3669 3670 3671 3672 3673 3674 3675 3676 3677 3678 3679 3680 3681 3682 3683 3684 3685 3686 3687 3688 3689 3690 3691 3692 3693 3694 3695 3696 3697 3698 3699 3700 3701 3702 3703 3704 3705 3706 3707 3708 3709 3710 3711 3712 3713 3714 3715 3716 3717 3718 3719 3720 3721 3722 3723 3724 3725 3726 3727 3728 3729 3730 3731 3732 3733 3734 3735 3736 3737 3738 3739 3740 3741 3742 3743 3744 3745 3746 3747 3748 3749 3750 3751 3752 3753 3754 3755 3756 3757 3758 3759 3760 3761 3762 3763 3764 3765 3766 3767 3768 3769 3770 3771 3772 3773 3774 3775 3776 3777 3778 3779 3780 3781 3782 3783 3784 3785 3786 3787 3788 3789 3790 3791 3792 3793 3794 3795 3796 3797 3798 3799 3800 3801 3802 3803 3804 3805 3806 3807 3808 3809 3810 3811 3812 3813 3814 3815 3816 3817 3818 3819 3820 3821 3822 3823 3824 3825 3826 3827 3828 3829 3830 3831 3832 3833 3834 3835 3836 3837 3838 3839 3840 3841 3842 3843 3844 3845 3846 3847 3848 3849 3850 3851 3852 3853 3854 3855 3856 3857 3858 3859 3860 3861 3862 3863 3864 3865 3866 3867 3868 3869 3870 3871 3872 3873 3874 3875 3876 3877 3878 3879 3880 3881 3882 3883 3884 3885 3886 3887 3888 3889 3890 3891 3892 3893 3894 3895 3896 3897 3898 3899 3900 3901 3902 3903 3904 3905 3906 3907 3908 3909 3910 3911 3912 3913 3914 3915 3916 3917 3918 3919 3920 3921 3922 3923 3924 3925 3926 3927 3928 3929 3930 3931 3932 3933 3934 3935 3936 3937 3938 3939 3940 3941 3942 3943 3944 3945 3946 3947 3948 3949 3950 3951 3952 3953 3954 3955 3956 3957 3958 3959 3960 3961 3962 3963 3964 3965 3966 3967 3968 3969 3970 3971 3972 3973 3974 3975 3976 3977 3978 3979 3980 3981 3982 3983 3984 3985 3986 3987 3988 3989 3990 3991 3992 3993 3994 3995 3996 3997 3998 3999 4000 4001 4002 4003 4004 4005 4006 4007 4008 4009 4010 4011 4012 4013 4014 4015 4016 4017 4018 4019 4020 4021 4022 4023 4024 4025 4026 4027 4028 4029 4030 4031 4032 4033 4034 4035 4036 4037 4038 4039 4040 4041 4042 4043 4044 4045 4046 4047 4048 4049 4050 4051 4052 4053 4054 4055 4056 4057 4058 4059 4060 4061 4062 4063 4064 4065 4066 4067 4068 4069 4070 4071 4072 4073 4074 4075 4076 4077 4078 4079 4080 4081 4082 4083 4084 4085 4086 4087 4088 4089 4090 4091 4092 4093 4094 4095 4096 4097 4098 4099 4100 4101 4102 4103 4104 4105 4106 4107 4108 4109 4110 4111 4112 4113 4114 4115 4116 4117 4118 4119 4120 4121 4122 4123 4124 4125 4126 4127 4128 4129 4130 4131 4132 4133 4134 4135 4136 4137 4138 4139 4140 4141 4142 4143 4144 4145 4146 4147 4148 4149 4150 4151 4152 4153 4154 4155 4156 4157 4158 4159 4160 4161 4162 4163 4164 4165 4166 4167 4168 4169 4170 4171 4172 4173 4174 4175 4176 4177 4178 4179 4180 4181 4182 4183 4184 4185 4186 4187 4188 4189 4190 4191 4192 4193 4194 4195 4196 4197 4198 4199 4200 4201 4202 4203 4204 4205 4206 4207 4208 4209 4210 4211 4212 4213 4214 4215 4216 4217 4218 4219 4220 4221 4222 4223 4224 4225 4226 4227 4228 4229 4230 4231 4232 4233 4234 4235 4236 4237 4238 4239 4240 4241 4242 4243 4244 4245 4246 4247 4248 4249 4250 4251 4252 4253 4254 4255 4256 4257 4258 4259 4260 4261 4262 4263 4264 4265 4266 4267 4268 4269 4270 4271 4272 4273 4274 4275 4276 4277 4278 4279 4280 4281 4282 4283 4284 4285 4286 4287 4288 4289 4290 4291 4292 4293 4294 4295 4296 4297 4298 4299 4300 4301 4302 4303 4304 4305 4306 4307 4308 4309 4310 4311 4312 4313 4314 4315 4316 4317 4318 4319 4320 4321 4322 4323 4324 4325 4326 4327 4328 4329 4330 4331 4332 4333 4334 4335 4336 4337 4338 4339 4340 4341 4342 4343 4344 4345 4346 4347 4348 4349 4350 4351 4352 4353 4354 4355 4356 4357 4358 4359 4360 4361 4362 4363 4364 4365 4366 4367 4368 4369 4370 4371 4372 4373 4374 4375 4376 4377 4378 4379 4380 4381 4382 4383 4384 4385 4386 4387 4388 4389 4390 4391 4392 4393 4394 4395 4396 4397 4398 4399 4400 4401 4402 4403 4404 4405 4406 4407 4408 4409 4410 4411 4412 4413 4414 4415 4416 4417 4418 4419 4420 4421 4422 4423 4424 4425 4426 4427 4428 4429 4430 4431 4432 4433 4434 4435 4436 4437 4438 4439 4440 4441 4442 4443 4444 4445 4446 4447 4448 4449 4450 4451 4452 4453 4454 4455 4456 4457 4458 4459 4460 4461 4462 4463 4464 4465 4466 4467 4468 4469 4470 4471 4472 4473 4474 4475 4476 4477 4478 4479 4480 4481 4482 4483 4484 4485 4486 4487 4488 4489 4490 4491 4492 4493 4494 4495 4496 4497 4498 4499 4500 4501 4502 4503 4504 4505 4506 4507 4508 4509 4510 4511 4512 4513 4514 4515 4516 4517 4518 4519 4520 4521 4522 4523 4524 4525 4526 4527 4528 4529 4530 4531 4532 4533 4534 4535 4536 4537 4538 4539 4540 4541 4542 4543 4544 4545 4546 4547 4548 4549 4550 4551 4552 4553 4554 4555 4556 4557 4558 4559 4560 4561 4562 4563 4564 4565 4566 4567 4568 4569 4570 4571 4572 4573 4574 4575 4576 4577 4578 4579 4580 4581 4582 4583 4584 4585 4586 4587 4588 4589 4590 4591 4592 4593 4594 4595 4596 4597 4598 4599 4600 4601 4602 4603 4604 4605 4606 4607 4608 4609 4610 4611 4612 4613 4614 4615 4616 4617 4618 4619 4620 4621 4622 4623 4624 4625 4626 4627 4628 4629 4630 4631 4632 4633 4634 4635 4636 4637 4638 4639 4640 4641 4642 4643 4644 4645 4646 4647 4648 4649 4650 4651 4652 4653 4654 4655 4656 4657 4658 4659 4660 4661 4662 4663 4664 4665 4666 4667 4668 4669 4670 4671 4672 4673 4674 4675 4676 4677 4678 4679 4680 4681 4682 4683 4684 4685 4686 4687 4688 4689 4690 4691 4692 4693 4694 4695 4696 4697 4698 4699 4700 4701 4702 4703 4704 4705 4706 4707 4708 4709 4710 4711 4712 4713 4714 4715 4716 4717 4718 4719 4720 4721 4722 4723 4724 4725 4726 4727 4728 4729 4730 4731 4732 4733 4734 4735 4736 4737 4738 4739 4740 4741 4742 4743 4744 4745 4746 4747 4748 4749 4750 4751 4752 4753 4754 4755 4756 4757 4758 4759 4760 4761 4762 4763 4764 4765 4766 4767 4768 4769 4770 4771 4772 4773 4774 4775 4776 4777 4778 4779 4780 4781 4782 4783 4784 4785 4786 4787 4788 4789 4790 4791 4792 4793 4794 4795 4796 4797 4798 4799 4800 4801 4802 4803 4804 4805 4806 4807 4808 4809 4810 4811 4812 4813 4814 4815 4816 4817 4818 4819 4820 4821 4822 4823 4824 4825 4826 4827 4828 4829 4830 4831 4832 4833 4834 4835 4836 4837 4838 4839 4840 4841 4842 4843 4844 4845 4846 4847 4848 4849 4850 4851 4852 4853 4854 4855 4856 4857 4858 4859 4860 4861 4862 4863 4864 4865 4866 4867 4868 4869 4870 4871 4872 4873 4874 4875 4876 4877 4878 4879 4880 4881 4882 4883 4884 4885 4886 4887 4888 4889 4890 4891 4892 4893 4894 4895 4896 4897 4898 4899 4900 4901 4902 4903 4904 4905 4906 4907 4908 4909 4910 4911 4912 4913 4914 4915 4916 4917 4918 4919 4920 4921 4922 4923 4924 4925 4926 4927 4928 4929 4930 4931 4932 4933 4934 4935 4936 4937 4938 4939 4940 4941 4942 4943 4944 4945 4946 4947 4948 4949 4950 4951 4952 4953 4954 4955 4956 4957 4958 4959 4960 4961 4962 4963 4964 4965 4966 4967 4968 4969 4970 4971 4972 4973 4974 4975 4976 4977 4978 4979 4980 4981 4982 4983 4984 4985 4986 4987 4988 4989 4990 4991 4992 4993 4994 4995 4996 4997 4998 4999 5000 5001 5002 5003 5004 5005 5006 5007 5008 5009 5010 5011 5012 5013 5014 5015 5016 5017 5018 5019 5020 5021 5022 5023 5024 5025 5026 5027 5028 5029 5030 5031 5032 5033 5034 5035 5036 5037 5038 5039 5040 5041 5042 5043 5044 5045 5046 5047 5048 5049 5050 5051 5052 5053 5054 5055 5056 5057 5058 5059 5060 5061 5062 5063 5064 5065 5066 5067 5068 5069 5070 5071 5072 5073 5074 5075 5076 5077 5078 5079 5080 5081 5082 5083 5084 5085 5086 5087 5088 5089 5090 5091 5092 5093 5094 5095 5096 5097 5098 5099 5100 5101 5102 5103 5104 5105 5106 5107 5108 5109 5110 5111 5112 5113 5114 5115 5116 5117 5118 5119 5120 5121 5122 5123 5124 5125 5126 5127 5128 5129 5130 5131 5132 5133 5134 5135 5136 5137 5138 5139 5140 5141 5142 5143 5144 5145 5146 5147 5148 5149 5150 5151 5152 5153 5154 5155 5156 5157 5158 5159 5160 5161 5162 5163 5164 5165 5166 5167 5168 5169 5170 5171 5172 5173 5174 5175 5176 5177 5178 5179 5180 5181 5182 5183 5184 5185 5186 5187 5188 5189 5190 5191 5192 5193 5194 5195 5196 5197 5198 5199 5200 5201 5202 5203 5204 5205 5206 5207 5208 5209 5210 5211 5212 5213 5214 5215 5216 5217 5218 5219 5220 5221 5222 5223 5224 5225 5226 5227 5228 5229 5230 5231 5232 5233 5234 5235 5236 5237 5238 5239 5240 5241 5242 5243 5244 5245 5246 5247 5248 5249 5250 5251 5252 5253 5254 5255 5256 5257 5258 5259 5260 5261 5262 5263 5264 5265 5266 5267 5268 5269 5270 5271 5272 5273 5274 5275 5276 5277 5278 5279 5280 5281 5282 5283 5284 5285 5286 5287 5288 5289 5290 5291 5292 5293 5294 5295 5296 5297 5298 5299 5300 5301 5302 5303 5304 5305 5306 5307 5308 5309 5310 5311 5312 5313 5314 5315 5316 5317 5318 5319 5320 5321 5322 5323 5324 5325 5326 5327 5328 5329 5330 5331 5332 5333 5334 5335 5336 5337 5338 5339 5340 5341 5342 5343 5344 5345 5346 5347 5348 5349 5350 5351 5352 5353 5354 5355 5356 5357 5358 5359 5360 5361 5362 5363 5364 5365 5366 5367 5368 5369 5370 5371 5372 5373 5374 5375 5376 5377 5378 5379 5380 5381 5382 5383 5384 5385 5386 5387 5388 5389 5390 5391 5392 5393 5394 5395 5396 5397 5398 5399 5400 5401 5402 5403 5404 5405 5406 5407 5408 5409 5410 5411 5412 5413 5414 5415 5416 5417 5418 5419 5420 5421 5422 5423 5424 5425 5426 5427 5428 5429 5430 5431 5432 5433 5434 5435 5436 5437 5438 5439 5440 5441 5442 5443 5444 5445 5446 5447 5448 5449 5450 5451 5452 5453 5454 5455 5456 5457 5458 5459 5460 5461 5462 5463 5464 5465 5466 5467 5468 5469 5470 5471 5472 5473 5474 5475 5476 5477 5478 5479 5480 5481 5482 5483 5484 5485 5486 5487 5488 5489 5490 5491 5492 5493 5494 5495 5496 5497 5498 5499 5500 5501 5502 5503 5504 5505 5506 5507 5508 5509 5510 5511 5512 5513 5514 5515 5516 5517 5518 5519 5520 5521 5522 5523 5524 5525 5526 5527 5528 5529 5530 5531 5532 5533 5534 5535 5536 5537 5538 5539 5540 5541 5542 5543 5544 5545 5546 5547 5548 5549 5550 5551 5552 5553 5554 5555 5556 5557 5558 5559 5560 5561 5562 5563 5564 5565 5566 5567 5568 5569 5570 5571 5572 5573 5574 5575 5576 5577 5578 5579 5580 5581 5582 5583 5584 5585 5586 5587 5588 5589 5590 5591 5592 5593 5594 5595 5596 5597 5598 5599 5600 5601 5602 5603 5604 5605 5606 5607 5608 5609 5610 5611 5612 5613 5614 5615 5616 5617 5618 5619 5620 5621 5622 5623 5624 5625 5626 5627 5628 5629 5630 5631 5632 5633 5634 5635 5636 5637 5638 5639 5640 5641 5642 5643 5644 5645 5646 5647 5648 5649 5650 5651 5652 5653 5654 5655 5656 5657 5658 5659 5660 5661 5662 5663 5664 5665 5666 5667 5668 5669 5670 5671 5672 5673 5674 5675 5676 5677 5678 5679 5680 5681 5682 5683 5684 5685 5686 5687 5688 5689 5690 5691 5692 5693 5694 5695 5696 5697 5698 5699 5700 5701 5702 5703 5704 5705 5706 5707 5708 5709 5710 5711 5712 5713 5714 5715 5716 5717 5718 5719 5720 5721 5722 5723 5724 5725 5726 5727 5728 5729 5730 5731 5732 5733 5734 5735 5736 5737 5738 5739 5740 5741 5742 5743 5744 5745 5746 5747 5748 5749 5750 5751 5752 5753 5754 5755 5756 5757 5758 5759 5760 5761 5762 5763 5764 5765 5766 5767 5768 5769 5770 5771 5772 5773 5774 5775 5776 5777 5778 5779 5780 5781 5782 5783 5784 5785 5786 5787 5788 5789 5790 5791 5792 5793 5794 5795 5796 5797 5798 5799 5800 5801 5802 5803 5804 5805 5806 5807 5808 5809 5810 5811 5812 5813 5814 5815 5816 5817 5818 5819 5820 5821 5822 5823 5824 5825 5826 5827 5828 5829 5830 5831 5832 5833 5834 5835 5836 5837 5838 5839 5840 5841 5842 5843 5844 5845 5846 5847 5848 5849 5850 5851 5852 5853 5854 5855 5856 5857 5858 5859 5860 5861 5862 5863 5864 5865 5866 5867 5868 5869 5870 5871 5872 5873 5874 5875 5876 5877 5878 5879 5880 5881 5882 5883 5884 5885 5886 5887 5888 5889 5890 5891 5892 5893 5894 5895 5896 5897 5898 5899 5900 5901 5902 5903 5904 5905 5906 5907 5908 5909 5910 5911 5912 5913 5914 5915 5916 5917 5918 5919 5920 5921 5922 5923 5924 5925 5926 5927 5928 5929 5930 5931 5932 5933 5934 5935 5936 5937 5938 5939 5940 5941 5942 5943 5944 5945 5946 5947 5948 5949 5950 5951 5952 5953 5954 5955 5956 5957 5958 5959 5960 5961 5962 5963 5964 5965 5966 5967 5968 5969 5970 5971 5972 5973 5974 5975 5976 5977 5978 5979 5980 5981 5982 5983 5984 5985 5986 5987 5988 5989 5990 5991 5992 5993 5994 5995 5996 5997 5998 5999 6000 6001 6002 6003 6004 6005 6006 6007 6008 6009 6010 6011 6012 6013 6014 6015 6016 6017 6018 6019 6020 6021 6022 6023 6024 6025 6026 6027 6028 6029 6030 6031 6032 6033 6034 6035 6036 6037 6038 6039 6040 6041 6042 6043 6044 6045 6046 6047 6048 6049 6050 6051 6052 6053 6054 6055 6056 6057 6058 6059 6060 6061 6062 6063 6064 6065 6066 6067 6068 6069 6070 6071 6072 6073 6074 6075 6076 6077 6078 6079 6080 6081 6082 6083 6084 6085 6086 6087 6088 6089 6090 6091 6092 6093 6094 6095 6096 6097 6098 6099 6100 6101 6102 6103 6104 6105 6106 6107 6108 6109 6110 6111 6112 6113 6114 6115 6116 6117 6118 6119 6120 6121 6122 6123 6124 6125 6126 6127 6128 6129 6130 6131 6132 6133 6134 6135 6136 6137 6138 6139 6140 6141 6142 6143 6144 6145 6146 6147 6148 6149 6150 6151 6152 6153 6154 6155 6156 6157 6158 6159 6160 6161 6162 6163 6164 6165 6166 6167 6168 6169 6170 6171 6172 6173 6174 6175 6176 6177 6178 6179 6180 6181 6182 6183 6184 6185 6186 6187 6188 6189 6190 6191 6192 6193 6194 6195 6196 6197 6198 6199 6200 6201 6202 6203 6204 6205 6206 6207 6208 6209 6210 6211 6212 6213 6214 6215 6216 6217 6218 6219 6220 6221 6222 6223 6224 6225 6226 6227 6228 6229 6230 6231 6232 6233 6234 6235 6236 6237 6238 6239 6240 6241 6242 6243 6244 6245 6246 6247 6248 6249 6250 6251 6252 6253 6254 6255 6256 6257 6258 6259 6260 6261 6262 6263 6264 6265 6266 6267 6268 6269 6270 6271 6272 6273 6274 6275 6276 6277 6278 6279 6280 6281 6282 6283 6284 6285 6286 6287 6288 6289 6290 6291 6292 6293 6294 6295 6296 6297 6298 6299 6300 6301 6302 6303 6304 6305 6306 6307 6308 6309 6310 6311 6312 6313 6314 6315 6316 6317 6318 6319 6320 6321 6322 6323 6324 6325 6326 6327 6328 6329 6330 6331 6332 6333 6334 6335 6336 6337 6338 6339 6340 6341 6342 6343 6344 6345 6346 6347 6348 6349 6350 6351 6352 6353 6354 6355 6356 6357 6358 6359 6360 6361 6362 6363 6364 6365 6366 6367 6368 6369 6370 6371 6372 6373 6374 6375 6376 6377 6378 6379 6380 6381 6382 6383 6384 6385 6386 6387 6388 6389 6390 6391 6392 6393 6394 6395 6396 6397 6398 6399 6400 6401 6402 6403 6404 6405 6406 6407 6408 6409 6410 6411 6412 6413 6414 6415 6416 6417 6418 6419 6420 6421 6422 6423 6424 6425 6426 6427 6428 6429 6430 6431 6432 6433 6434 6435 6436 6437 6438 6439 6440 6441 6442 6443 6444 6445 6446 6447 6448 6449 6450 6451 6452 6453 6454 6455 6456 6457 6458 6459 6460 6461 6462 6463 6464 6465 6466 6467 6468 6469 6470 6471 6472 6473 6474 6475 6476 6477 6478 6479 6480 6481 6482 6483 6484 6485 6486 6487 6488 6489 6490 6491 6492 6493 6494 6495 6496 6497 6498 6499 6500 6501 6502 6503 6504 6505 6506 6507 6508 6509 6510 6511 6512 6513 6514 6515 6516 6517 6518 6519 6520 6521 6522 6523 6524 6525 6526 6527 6528 6529 6530 6531 6532 6533 6534 6535 6536 6537 6538 6539 6540 6541 6542 6543 6544 6545 6546 6547 6548 6549 6550 6551 6552 6553 6554 6555 6556 6557 6558 6559 6560 6561 6562 6563 6564 6565 6566 6567 6568 6569 6570 6571 6572 6573 6574 6575 6576 6577 6578 6579 6580 6581 6582 6583 6584 6585 6586 6587 6588 6589 6590 6591 6592 6593 6594 6595 6596 6597 6598 6599 6600 6601 6602 6603 6604 6605 6606 6607 6608 6609 6610 6611 6612 6613 6614 6615 6616 6617 6618 6619 6620 6621 6622 6623 6624 6625 6626 6627 6628 6629 6630 6631 6632 6633 6634 6635 6636 6637 6638 6639 6640 6641 6642 6643 6644 6645 6646 6647 6648 6649 6650 6651 6652 6653 6654 6655 6656 6657 6658 6659 6660 6661 6662 6663 6664 6665 6666 6667 6668 6669 6670 6671 6672 6673 6674 6675 6676 6677 6678 6679 6680 6681 6682 6683 6684 6685 6686 6687 6688 6689 6690 6691 6692 6693 6694 6695 6696 6697 6698 6699 6700 6701 6702 6703 6704 6705 6706 6707 6708 6709 6710 6711 6712 6713 6714 6715 6716 6717 6718 6719 6720 6721 6722 6723 6724 6725 6726 6727 6728 6729 6730 6731 6732 6733 6734 6735 6736 6737 6738 6739 6740 6741 6742 6743 6744 6745 6746 6747 6748 6749 6750 6751 6752 6753 6754 6755 6756 6757 6758 6759 6760 6761 6762 6763 6764 6765 6766 6767 6768 6769 6770 6771 6772 6773 6774 6775 6776 6777 6778 6779 6780 6781 6782 6783 6784 6785 6786 6787 6788 6789 6790 6791 6792 6793 6794 6795 6796 6797 6798 6799 6800 6801 6802 6803 6804 6805 6806 6807 6808 6809 6810 6811 6812 6813 6814 6815 6816 6817 6818 6819 6820 6821 6822 6823 6824 6825 6826 6827 6828 6829 6830 6831 6832 6833 6834 6835 6836 6837 6838 6839 6840 6841 6842 6843 6844 6845 6846 6847 6848 6849 6850 6851 6852 6853 6854 6855 6856 6857 6858 6859 6860 6861 6862 6863 6864 6865 6866 6867 6868 6869 6870 6871 6872 6873 6874 6875 6876 6877 6878 6879 6880 6881 6882 6883 6884 6885 6886 6887 6888 6889 6890 6891 6892 6893 6894 6895 6896 6897 6898 6899 6900 6901 6902 6903 6904 6905 6906 6907 6908 6909 6910 6911 6912 6913 6914 6915 6916 6917 6918 6919 6920 6921 6922 6923 6924 6925 6926 6927 6928 6929 6930 6931 6932 6933 6934 6935 6936 6937 6938 6939 6940 6941 6942 6943 6944 6945 6946 6947 6948 6949 6950 6951 6952 6953 6954 6955 6956 6957 6958 6959 6960 6961 6962 6963 6964 6965 6966 6967 6968 6969 6970 6971 6972 6973 6974 6975 6976 6977 6978 6979 6980 6981 6982 6983 6984 6985 6986 6987 6988 6989 6990 6991 6992 6993 6994 6995 6996 6997 6998 6999 7000 7001 7002 7003 7004 7005 7006 7007 7008 7009 7010 7011 7012 7013 7014 7015 7016 7017 7018 7019 7020 7021 7022 7023 7024 7025 7026 7027 7028 7029 7030 7031 7032 7033 7034 7035 7036 7037 7038 7039 7040 7041 7042 7043 7044 7045 7046 7047 7048 7049 7050 7051 7052 7053 7054 7055 7056 7057 7058 7059 7060 7061 7062 7063 7064 7065 7066 7067 7068 7069 7070 7071 7072 7073 7074 7075 7076 7077 7078 7079 7080 7081 7082 7083 7084 7085 7086 7087 7088 7089 7090 7091 7092 7093 7094 7095 7096 7097 7098 7099 7100 7101 7102 7103 7104 7105 7106 7107 7108 7109 7110 7111 7112 7113 7114 7115 7116 7117 7118 7119 7120 7121 7122 7123 7124 7125 7126 7127 7128 7129 7130 7131 7132 7133 7134 7135 7136 7137 7138 7139 7140 7141 7142 7143 7144 7145 7146 7147 7148 7149 7150 7151 7152 7153 7154 7155 7156 7157 7158 7159 7160 7161 7162 7163 7164 7165 7166 7167 7168 7169 7170 7171 7172 7173 7174 7175 7176 7177 7178 7179 7180 7181 7182 7183 7184 7185 7186 7187 7188 7189 7190 7191 7192 7193 7194 7195 7196 7197 7198 7199 7200 7201 7202 7203 7204 7205 7206 7207 7208 7209 7210 7211 7212 7213 7214 7215 7216 7217 7218 7219 7220 7221 7222 7223 7224 7225 7226 7227 7228 7229 7230 7231 7232 7233 7234 7235 7236 7237 7238 7239 7240 7241 7242 7243 7244 7245 7246 7247 7248 7249 7250 7251 7252 7253 7254 7255 7256 7257 7258 7259 7260 7261 7262 7263 7264 7265 7266 7267 7268 7269 7270 7271 7272 7273 7274 7275 7276 7277 7278 7279 7280 7281 7282 7283 7284 7285 7286 7287 7288 7289 7290 7291 7292 7293 7294 7295 7296 7297 7298 7299 7300 7301 7302 7303 7304 7305 7306 7307 7308 7309 7310 7311 7312 7313 7314 7315 7316 7317 7318 7319 7320 7321 7322 7323 7324 7325 7326 7327 7328 7329 7330 7331 7332 7333 7334 7335 7336 7337 7338 7339 7340 7341 7342 7343 7344 7345 7346 7347 7348 7349 7350 7351 7352 7353 7354 7355 7356 7357 7358 7359 7360 7361 7362 7363 7364 7365 7366 7367 7368 7369 7370 7371 7372 7373 7374 7375 7376 7377 7378 7379 7380 7381 7382 7383 7384 7385 7386 7387 7388 7389 7390 7391 7392 7393 7394 7395 7396 7397 7398 7399 7400 7401 7402 7403 7404 7405 7406 7407 7408 7409 7410 7411 7412 7413 7414 7415 7416 7417 7418 7419 7420 7421 7422 7423 7424 7425 7426 7427 7428 7429 7430 7431 7432 7433 7434 7435 7436 7437 7438 7439 7440 7441 7442 7443 7444 7445 7446 7447 7448 7449 7450 7451 7452 7453 7454 7455 7456 7457 7458 7459 7460 7461 7462 7463 7464 7465 7466 7467 7468 7469 7470 7471 7472 7473 7474 7475 7476 7477 7478 7479 7480 7481 7482 7483 7484 7485 7486 7487 7488 7489 7490 7491 7492 7493 7494 7495 7496 7497 7498 7499 7500 7501 7502 7503 7504 7505 7506 7507 7508 7509 7510 7511 7512 7513 7514 7515 7516 7517 7518 7519 7520 7521 7522 7523 7524 7525 7526 7527 7528 7529 7530 7531 7532 7533 7534 7535 7536 7537 7538 7539 7540 7541 7542 7543 7544 7545 7546 7547 7548 7549 7550 7551 7552 7553 7554 7555 7556 7557 7558 7559 7560 7561 7562 7563 7564 7565 7566 7567 7568 7569 7570 7571 7572 7573 7574 7575 7576 7577 7578 7579 7580 7581 7582 7583 7584 7585 7586 7587 7588 7589 7590 7591 7592 7593 7594 7595 7596 7597 7598 7599 7600 7601 7602 7603 7604 7605 7606 7607 7608 7609 7610 7611 7612 7613 7614 7615 7616 7617 7618 7619 7620 7621 7622 7623 7624 7625 7626 7627 7628 7629 7630 7631 7632 7633 7634 7635 7636 7637 7638 7639 7640 7641 7642 7643 7644 7645 7646 7647 7648 7649 7650 7651 7652 7653 7654 7655 7656 7657 7658 7659 7660 7661 7662 7663 7664 7665 7666 7667 7668 7669 7670 7671 7672 7673 7674 7675 7676 7677 7678 7679 7680 7681 7682 7683 7684 7685 7686 7687 7688 7689 7690 7691 7692 7693 7694 7695 7696 7697 7698 7699 7700 7701 7702 7703 7704 7705 7706 7707 7708 7709 7710 7711 7712 7713 7714 7715 7716 7717 7718 7719 7720 7721 7722 7723 7724 7725 7726 7727 7728 7729 7730 7731 7732 7733 7734 7735 7736 7737 7738 7739 7740 7741 7742 7743 7744 7745 7746 7747 7748 7749 7750 7751 7752 7753 7754 7755 7756 7757 7758 7759 7760 7761 7762 7763 7764 7765 7766 7767 7768 7769 7770 7771 7772 7773 7774 7775 7776 7777 7778 7779 7780 7781 7782 7783 7784 7785 7786 7787 7788 7789 7790 7791 7792 7793 7794 7795 7796 7797 7798 7799 7800 7801 7802 7803 7804 7805 7806 7807 7808 7809 7810 7811 7812 7813 7814 7815 7816 7817 7818 7819 7820 7821 7822 7823 7824 7825 7826 7827 7828 7829 7830 7831 7832 7833 7834 7835 7836 7837 7838 7839 7840 7841 7842 7843 7844 7845 7846 7847 7848 7849 7850 7851 7852 7853 7854 7855 7856 7857 7858 7859 7860 7861 7862 7863 7864 7865 7866 7867 7868 7869 7870 7871 7872 7873 7874 7875 7876 7877 7878 7879 7880 7881 7882 7883 7884 7885 7886 7887 7888 7889 7890 7891 7892 7893 7894 7895 7896 7897 7898 7899 7900 7901 7902 7903 7904 7905 7906 7907 7908 7909 7910 7911 7912 7913 7914 7915 7916 7917 7918 7919 7920 7921 7922 7923 7924 7925 7926 7927 7928 7929 7930 7931 7932 7933 7934 7935 7936 7937 7938 7939 7940 7941 7942 7943 7944 7945 7946 7947 7948 7949 7950 7951 7952 7953 7954 7955 7956 7957 7958 7959 7960 7961 7962 7963 7964 7965 7966 7967 7968 7969 7970 7971 7972 7973 7974 7975 7976 7977 7978 7979 7980 7981 7982 7983 7984 7985 7986 7987 7988 7989 7990 7991 7992 7993 7994 7995 7996 7997 7998 7999 8000 8001 8002 8003 8004 8005 8006 8007 8008 8009 8010 8011 8012 8013 8014 8015 8016 8017 8018 8019 8020 8021 8022 8023 8024 8025 8026 8027 8028 8029 8030 8031 8032 8033 8034 8035 8036 8037 8038 8039 8040 8041 8042 8043 8044 8045 8046 8047 8048 8049 8050 8051 8052 8053 8054 8055 8056 8057 8058 8059 8060 8061 8062 8063 8064 8065 8066 8067 8068 8069 8070 8071 8072 8073 8074 8075 8076 8077 8078 8079 8080 8081 8082 8083 8084 8085 8086 8087 8088 8089 8090 8091 8092 8093 8094 8095 8096 8097 8098 8099 8100 8101 8102 8103 8104 8105 8106 8107 8108 8109 8110 8111 8112 8113 8114 8115 8116 8117 8118 8119 8120 8121 8122 8123 8124 8125 8126 8127 8128 8129 8130 8131 8132 8133 8134 8135 8136 8137 8138 8139 8140 8141 8142 8143 8144 8145 8146 8147 8148 8149 8150 8151 8152 8153 8154 8155 8156 8157 8158 8159 8160 8161 8162 8163 8164 8165 8166 8167 8168 8169 8170 8171 8172 8173 8174 8175 8176 8177 8178 8179 8180 8181 8182 8183 8184 8185 8186 8187 8188 8189 8190 8191 8192 8193 8194 8195 8196 8197 8198 8199 8200 8201 8202 8203 8204 8205 8206 8207 8208 8209 8210 8211 8212 8213 8214 8215 8216 8217 8218 8219 8220 8221 8222 8223 8224 8225 8226 8227 8228 8229 8230 8231 8232 8233 8234 8235 8236 8237 8238 8239 8240 8241 8242 8243 8244 8245 8246 8247 8248 8249 8250 8251 8252 8253 8254 8255 8256 8257 8258 8259 8260 8261 8262 8263 8264 8265 8266 8267 8268 8269 8270 8271 8272 8273 8274 8275 8276 8277 8278 8279 8280 8281 8282 8283 8284 8285 8286 8287 8288 8289 8290 8291 8292 8293 8294 8295 8296 8297 8298 8299 8300 8301 8302 8303 8304 8305 8306 8307 8308 8309 8310 8311 8312 8313 8314 8315 8316 8317 8318 8319 8320 8321 8322 8323 8324 8325 8326 8327 8328 8329 8330 8331 8332 8333 8334 8335 8336 8337 8338 8339 8340 8341 8342 8343 8344 8345 8346 8347 8348 8349 8350 8351 8352 8353 8354 8355 8356 8357 8358 8359 8360 8361 8362 8363 8364 8365 8366 8367 8368 8369 8370 8371 8372 8373 8374 8375 8376 8377 8378 8379 8380 8381 8382 8383 8384 8385 8386 8387 8388 8389 8390 8391 8392 8393 8394 8395 8396 8397 8398 8399 8400 8401 8402 8403 8404 8405 8406 8407 8408 8409 8410 8411 8412 8413 8414 8415 8416 8417 8418 8419 8420 8421 8422 8423 8424 8425 8426 8427 8428 8429 8430 8431 8432 8433 8434 8435 8436 8437 8438 8439 8440 8441 8442 8443 8444 8445 8446 8447 8448 8449 8450 8451 8452 8453 8454 8455 8456 8457 8458 8459 8460 8461 8462 8463 8464 8465 8466 8467 8468 8469 8470 8471 8472 8473 8474 8475 8476 8477 8478 8479 8480 8481 8482 8483 8484 8485 8486 8487 8488 8489 8490 8491 8492 8493 8494 8495 8496 8497 8498 8499 8500 8501 8502 8503 8504 8505 8506 8507 8508 8509 8510 8511 8512 8513 8514 8515 8516 8517 8518 8519 8520 8521 8522 8523 8524 8525 8526 8527 8528 8529 8530 8531 8532 8533 8534 8535 8536 8537 8538 8539 8540 8541 8542 8543 8544 8545 8546 8547 8548 8549 8550 8551 8552 8553 8554 8555 8556 8557 8558 8559 8560 8561 8562 8563 8564 8565 8566 8567 8568 8569 8570 8571 8572 8573 8574 8575 8576 8577 8578 8579 8580 8581 8582 8583 8584 8585 8586 8587 8588 8589 8590 8591 8592 8593 8594 8595 8596 8597 8598 8599 8600 8601 8602 8603 8604 8605 8606 8607 8608 8609 8610 8611 8612 8613 8614 8615 8616 8617 8618 8619 8620 8621 8622 8623 8624 8625 8626 8627 8628 8629 8630 8631 8632 8633 8634 8635 8636 8637 8638 8639 8640 8641 8642 8643 8644 8645 8646 8647 8648 8649 8650 8651 8652 8653 8654 8655 8656 8657 8658 8659 8660 8661 8662 8663 8664 8665 8666 8667 8668 8669 8670 8671 8672 8673 8674 8675 8676 8677 8678 8679 8680 8681 8682 8683 8684 8685 8686 8687 8688 8689 8690 8691 8692 8693 8694 8695 8696 8697 8698 8699 8700 8701 8702 8703 8704 8705 8706 8707 8708 8709 8710 8711 8712 8713 8714 8715 8716 8717 8718 8719 8720 8721 8722 8723 8724 8725 8726 8727 8728 8729 8730 8731 8732 8733 8734 8735 8736 8737 8738 8739 8740 8741 8742 8743 8744 8745 8746 8747 8748 8749 8750 8751 8752 8753 8754 8755 8756 8757 8758 8759 8760 8761 8762 8763 8764 8765 8766 8767 8768 8769 8770 8771 8772 8773 8774 8775 8776 8777 8778 8779 8780 8781 8782 8783 8784 8785 8786 8787 8788 8789 8790 8791 8792 8793 8794 8795 8796 8797 8798 8799 8800 8801 8802 8803 8804 8805 8806 8807 8808 8809 8810 8811 8812 8813 8814 8815 8816 8817 8818 8819 8820 8821 8822 8823 8824 8825 8826 8827 8828 8829 8830 8831 8832 8833 8834 8835 8836 8837 8838 8839 8840 8841 8842 8843 8844 8845 8846 8847 8848 8849 8850 8851 8852 8853 8854 8855 8856 8857 8858 8859 8860 8861 8862 8863 8864 8865 8866 8867 8868 8869 8870 8871 8872 8873 8874 8875 8876 8877 8878 8879 8880 8881 8882 8883 8884 8885 8886 8887 8888 8889 8890 8891 8892 8893 8894 8895 8896 8897 8898 8899 8900 8901 8902 8903 8904 8905 8906 8907 8908 8909 8910 8911 8912 8913 8914 8915 8916 8917 8918 8919 8920 8921 8922 8923 8924 8925 8926 8927 8928 8929 8930 8931 8932 8933 8934 8935 8936 8937 8938 8939 8940 8941 8942 8943 8944 8945 8946 8947 8948 8949 8950 8951 8952 8953 8954 8955 8956 8957 8958 8959 8960 8961 8962 8963 8964 8965 8966 8967 8968 8969 8970 8971 8972 8973 8974 8975 8976 8977 8978 8979 8980 8981 8982 8983 8984 8985 8986 8987 8988 8989 8990 8991 8992 8993 8994 8995 8996 8997 8998 8999 9000 9001 9002 9003 9004 9005 9006 9007 9008 9009 9010 9011 9012 9013 9014 9015 9016 9017 9018 9019 9020 9021 9022 9023 9024 9025 9026 9027 9028 9029 9030 9031 9032 9033 9034 9035 9036 9037 9038 9039 9040 9041 9042 9043 9044 9045 9046 9047 9048 9049 9050 9051 9052 9053 9054 9055 9056 9057 9058 9059 9060 9061 9062 9063 9064 9065 9066 9067 9068 9069 9070 9071 9072 9073 9074 9075 9076 9077 9078 9079 9080 9081 9082 9083 9084 9085 9086 9087 9088 9089 9090 9091 9092 9093 9094 9095 9096 9097 9098 9099 9100 9101 9102 9103 9104 9105 9106 9107 9108 9109 9110 9111 9112 9113 9114 9115 9116 9117 9118 9119 9120 9121 9122 9123 9124 9125 9126 9127 9128 9129 9130 9131 9132 9133 9134 9135 9136 9137 9138 9139 9140 9141 9142 9143 9144 9145 9146 9147 9148 9149 9150 9151 9152 9153 9154 9155 9156 9157 9158 9159 9160 9161 9162 9163 9164 9165 9166 9167 9168 9169 9170 9171 9172 9173 9174 9175 9176 9177 9178 9179 9180 9181 9182 9183 9184 9185 9186 9187 9188 9189 9190 9191 9192 9193 9194 9195 9196 9197 9198 9199 9200 9201 9202 9203 9204 9205 9206 9207 9208 9209 9210 9211 9212 9213 9214 9215 9216 9217 9218 9219 9220 9221 9222 9223 9224 9225 9226 9227 9228 9229 9230 9231 9232 9233 9234 9235 9236 9237 9238 9239 9240 9241 9242 9243 9244 9245 9246 9247 9248 9249 9250 9251 9252 9253 9254 9255 9256 9257 9258 9259 9260 9261 9262 9263 9264 9265 9266 9267 9268 9269 9270 9271 9272 9273 9274 9275 9276 9277 9278 9279 9280 9281 9282 9283 9284 9285 9286 9287 9288 9289 9290 9291 9292 9293 9294 9295 9296 9297 9298 9299 9300 9301 9302 9303 9304 9305 9306 9307 9308 9309 9310 9311 9312 9313 9314 9315 9316 9317 9318 9319 9320 9321 9322 9323 9324 9325 9326 9327 9328 9329 9330 9331 9332 9333 9334 9335 9336 9337 9338 9339 9340 9341 9342 9343 9344 9345 9346 9347 9348 9349 9350 9351 9352 9353 9354 9355 9356 9357 9358 9359 9360 9361 9362 9363 9364 9365 9366 9367 9368 9369 9370 9371 9372 9373 9374 9375 9376 9377 9378 9379 9380 9381 9382 9383 9384 9385 9386 9387 9388 9389 9390 9391 9392 9393 9394 9395 9396 9397 9398 9399 9400 9401 9402 9403 9404 9405 9406 9407 9408 9409 9410 9411 9412 9413 9414 9415 9416 9417 9418 9419 9420 9421 9422 9423 9424 9425 9426 9427 9428 9429 9430 9431 9432 9433 9434 9435 9436 9437 9438 9439 9440 9441 9442 9443 9444 9445 9446 9447 9448 9449 9450 9451 9452 9453 9454 9455 9456 9457 9458 9459 9460 9461 9462 9463 9464 9465 9466 9467 9468 9469 9470 9471 9472 9473 9474 9475 9476 9477 9478 9479 9480 9481 9482 9483 9484 9485 9486 9487 9488 9489 9490 9491 9492 9493 9494 9495 9496 9497 9498 9499 9500 9501 9502 9503 9504 9505 9506 9507 9508 9509 9510 9511 9512 9513 9514 9515 9516 9517 9518 9519 9520 9521 9522 9523 9524 9525 9526 9527 9528 9529 9530 9531 9532 9533 9534 9535 9536 9537 9538 9539 9540 9541 9542 9543 9544 9545 9546 9547 9548 9549 9550 9551 9552 9553 9554 9555 9556 9557 9558 9559 9560 9561 9562 9563 9564 9565 9566 9567 9568 9569 9570 9571 9572 9573 9574 9575 9576 9577 9578 9579 9580 9581 9582 9583 9584 9585 9586 9587 9588 9589 9590 9591 9592 9593 9594 9595 9596 9597 9598 9599 9600 9601 9602 9603 9604 9605 9606 9607 9608 9609 9610 9611 9612 9613 9614 9615 9616 9617 9618 9619 9620 9621 9622 9623 9624 9625 9626 9627 9628 9629 9630 9631 9632 9633 9634 9635 9636 9637 9638 9639 9640 9641 9642 9643 9644 9645 9646 9647 9648 9649 9650 9651 9652 9653 9654 9655 9656 9657 9658 9659 9660 9661 9662 9663 9664 9665 9666 9667 9668 9669 9670 9671 9672 9673 9674 9675 9676 9677 9678 9679 9680 9681 9682 9683 9684 9685 9686 9687 9688 9689 9690 9691 9692 9693 9694 9695 9696 9697 9698 9699 9700 9701 9702 9703 9704 9705 9706 9707 9708 9709 9710 9711 9712 9713 9714 9715 9716 9717 9718 9719 9720 9721 9722 9723 9724 9725 9726 9727 9728 9729 9730 9731 9732 9733 9734 9735 9736 9737 9738 9739 9740 9741 9742 9743 9744 9745 9746 9747 9748 9749 9750 9751 9752 9753 9754 9755 9756 9757 9758 9759 9760 9761 9762 9763 9764 9765 9766 9767 9768 9769 9770 9771 9772 9773 9774 9775 9776 9777 9778 9779 9780 9781 9782 9783 9784 9785 9786 9787 9788 9789 9790 9791 9792 9793 9794 9795 9796 9797 9798 9799 9800 9801 9802 9803 9804 9805 9806 9807 9808 9809 9810 9811 9812 9813 9814 9815 9816 9817 9818 9819 9820 9821 9822 9823 9824 9825 9826 9827 9828 9829 9830 9831 9832 9833 9834 9835 9836 9837 9838 9839 9840 9841 9842 9843 9844 9845 9846 9847 9848 9849 9850 9851 9852 9853 9854 9855 9856 9857 9858 9859 9860 9861 9862 9863 9864 9865 9866 9867 9868 9869 9870 9871 9872 9873 9874 9875 9876 9877 9878 9879 9880 9881 9882 9883 9884 9885 9886 9887 9888 9889 9890 9891 9892 9893 9894 9895 9896 9897 9898 9899 9900 9901 9902 9903 9904 9905 9906 9907 9908 9909 9910 9911 9912 9913 9914 9915 9916 9917 9918 9919 9920 9921 9922 9923 9924 9925 9926 9927 9928 9929 9930 9931 9932 9933 9934 9935 9936 9937 9938 9939 9940 9941 9942 9943 9944 9945 9946 9947 9948 9949 9950 9951 9952 9953 9954 9955 9956 9957 9958 9959 9960 9961 9962 9963 9964 9965 9966 9967 9968 9969 9970 9971 9972 9973 9974 9975 9976 9977 9978 9979 9980 9981 9982 9983 9984 9985 9986 9987 9988 9989 9990 9991 9992 9993 9994 9995 9996 9997 9998 9999 10000 10001 10002 10003 10004 10005 10006 10007 10008 10009 10010 10011 10012 10013 10014 10015 10016 10017 10018 10019 10020 10021 10022 10023 10024 10025 10026 10027 10028 10029 10030 10031 10032 10033 10034 10035 10036 10037 10038 10039 10040 10041 10042 10043 10044 10045 10046 10047 10048 10049 10050 10051 10052 10053 10054 10055 10056 10057 10058 10059 10060 10061 10062 10063 10064 10065 10066 10067 10068 10069 10070 10071 10072 10073 10074 10075 10076 10077 10078 10079 10080 10081 10082 10083 10084 10085 10086 10087 10088 10089 10090 10091 10092 10093 10094 10095 10096 10097 10098 10099 10100 10101 10102 10103 10104 10105 10106 10107 10108 10109 10110 10111 10112 10113 10114 10115 10116 10117 10118 10119 10120 10121 10122 10123 10124 10125 10126 10127 10128 10129 10130 10131 10132 10133 10134 10135 10136 10137 10138 10139 10140 10141 10142 10143 10144 10145 10146 10147 10148 10149 10150 10151 10152 10153 10154 10155 10156 10157 10158 10159 10160 10161 10162 10163 10164 10165 10166 10167 10168 10169 10170 10171 10172 10173 10174 10175 10176 10177 10178 10179 10180 10181 10182 10183 10184 10185 10186 10187 10188 10189 10190 10191 10192 10193 10194 10195 10196 10197 10198 10199 10200 10201 10202 10203 10204 10205 10206 10207 10208 10209 10210 10211 10212 10213 10214 10215 10216 10217 10218 10219 10220 10221 10222 10223 10224 10225 10226 10227 10228 10229 10230 10231 10232 10233 10234 10235 10236 10237 10238 10239 10240 10241 10242 10243 10244 10245 10246 10247 10248 10249 10250 10251 10252 10253 10254 10255 10256 10257 10258 10259 10260 10261 10262 10263 10264 10265 10266 10267 10268 10269 10270 10271 10272 10273 10274 10275 10276 10277 10278 10279 10280 10281 10282 10283 10284 10285 10286 10287 10288 10289 10290 10291 10292 10293 10294 10295 10296 10297 10298 10299 10300 10301 10302 10303 10304 10305 10306 10307 10308 10309 10310 10311 10312 10313 10314 10315 10316 10317 10318 10319 10320 10321 10322 10323 10324 10325 10326 10327 10328 10329 10330 10331 10332 10333 10334 10335 10336 10337 10338 10339 10340 10341 10342 10343 10344 10345 10346 10347 10348 10349 10350 10351 10352 10353 10354 10355 10356 10357 10358 10359 10360 10361 10362 10363 10364 10365 10366 10367 10368 10369 10370 10371 10372 10373 10374 10375 10376 10377 10378 10379 10380 10381 10382 10383 10384 10385 10386 10387 10388 10389 10390 10391 10392 10393 10394 10395 10396 10397 10398 10399 10400 10401 10402 10403 10404 10405 10406 10407 10408 10409 10410 10411 10412 10413 10414 10415 10416 10417 10418 10419 10420 10421 10422 10423 10424 10425 10426 10427 10428 10429 10430 10431 10432 10433 10434 10435 10436 10437 10438 10439 10440 10441 10442 10443 10444 10445 10446 10447 10448 10449 10450 10451 10452 10453 10454 10455 10456 10457 10458 10459 10460 10461 10462 10463 10464 10465 10466 10467 10468 10469 10470 10471 10472 10473 10474 10475 10476 10477 10478 10479 10480 10481 10482 10483 10484 10485 10486 10487 10488 10489 10490 10491 10492 10493 10494 10495 10496 10497 10498 10499 10500 10501 10502 10503 10504 10505 10506 10507 10508 10509 10510 10511 10512 10513 10514 10515 10516 10517 10518 10519 10520 10521 10522 10523 10524 10525 10526 10527 10528 10529 10530 10531 10532 10533 10534 10535 10536 10537 10538 10539 10540 10541 10542 10543 10544 10545 10546 10547 10548 10549 10550 10551 10552 10553 10554 10555 10556 10557 10558 10559 10560 10561 10562 10563 10564 10565 10566 10567 10568 10569 10570 10571 10572 10573 10574 10575 10576 10577 10578 10579 10580 10581 10582 10583 10584 10585 10586 10587 10588 10589 10590 10591 10592 10593 10594 10595 10596 10597 10598 10599 10600 10601 10602 10603 10604 10605 10606 10607 10608 10609 10610 10611 10612 10613 10614 10615 10616 10617 10618 10619 10620 10621 10622 10623 10624 10625 10626 10627 10628 10629 10630 10631 10632 10633 10634 10635 10636 10637 10638 10639 10640 10641 10642 10643 10644 10645 10646 10647 10648 10649 10650 10651 10652 10653 10654 10655 10656 10657 10658 10659 10660 10661 10662 10663 10664 10665 10666 10667 10668 10669 10670 10671 10672 10673 10674 10675 10676 10677 10678 10679 10680 10681 10682 10683 10684 10685 10686 10687 10688 10689 10690 10691 10692 10693 10694 10695 10696 10697 10698 10699 10700 10701 10702 10703 10704 10705 10706 10707 10708 10709 10710 10711 10712 10713 10714 10715 10716 10717 10718 10719 10720 10721 10722 10723 10724 10725 10726 10727 10728 10729 10730 10731 10732 10733 10734 10735 10736 10737 10738 10739 10740 10741 10742 10743 10744 10745 10746 10747 10748 10749 10750 10751 10752 10753 10754 10755 10756 10757 10758 10759 10760 10761 10762 10763 10764 10765 10766 10767 10768 10769 10770 10771 10772 10773 10774 10775 10776 10777 10778 10779 10780 10781 10782 10783 10784 10785 10786 10787 10788 10789 10790 10791 10792 10793 10794 10795 10796 10797 10798 10799 10800 10801 10802 10803 10804 10805 10806 10807 10808 10809 10810 10811 10812 10813 10814 10815 10816 10817 10818 10819 10820 10821 10822 10823 10824 10825 10826 10827 10828 10829 10830 10831 10832 10833 10834 10835 10836 10837 10838 10839 10840 10841 10842 10843 10844 10845 10846 10847 10848 10849 10850 10851 10852 10853 10854 10855 10856 10857 10858 10859 10860 10861 10862 10863 10864 10865 10866 10867 10868 10869 10870 10871 10872 10873 10874 10875 10876 10877 10878 10879 10880 10881 10882 10883 10884 10885 10886 10887 10888 10889 10890 10891 10892 10893 10894 10895 10896 10897 10898 10899 10900 10901 10902 10903 10904 10905 10906 10907 10908 10909 10910 10911 10912 10913 10914 10915 10916 10917 10918 10919 10920 10921 10922 10923 10924 10925 10926 10927 10928 10929 10930 10931 10932 10933 10934 10935 10936 10937 10938 10939 10940 10941 10942 10943 10944 10945 10946 10947 10948 10949 10950 10951 10952 10953 10954 10955 10956 10957 10958 10959 10960 10961 10962 10963 10964 10965 10966 10967 10968 10969 10970 10971 10972 10973 10974 10975 10976 10977 10978 10979 10980 10981 10982 10983 10984 10985 10986 10987 10988 10989 10990 10991 10992 10993 10994 10995 10996 10997 10998 10999 11000 11001 11002 11003 11004 11005 11006 11007 11008 11009 11010 11011 11012 11013 11014 11015 11016 11017 11018 11019 11020 11021 11022 11023 11024 11025 11026 11027 11028 11029 11030 11031 11032 11033 11034 11035 11036 11037 11038 11039 11040 11041 11042 11043 11044 11045 11046 11047 11048 11049 11050 11051 11052 11053 11054 11055 11056 11057 11058 11059 11060 11061 11062 11063 11064 11065 11066 11067 11068 11069 11070 11071 11072 11073 11074 11075 11076 11077 11078 11079 11080 11081 11082 11083 11084 11085 11086 11087 11088 11089 11090 11091 11092 11093 11094 11095 11096 11097 11098 11099 11100 11101 11102 11103 11104 11105 11106 11107 11108 11109 11110 11111 11112 11113 11114 11115 11116 11117 11118 11119 11120 11121 11122 11123 11124 11125 11126 11127 11128 11129 11130 11131 11132 11133 11134 11135 11136 11137 11138 11139 11140 11141 11142 11143 11144 11145 11146 11147 11148 11149 11150 11151 11152 11153 11154 11155 11156 11157 11158 11159 11160 11161 11162 11163 11164 11165 11166 11167 11168 11169 11170 11171 11172 11173 11174 11175 11176 11177 11178 11179 11180 11181 11182 11183 11184 11185 11186 11187 11188 11189 11190 11191 11192 11193 11194 11195 11196 11197 11198 11199 11200 11201 11202 11203 11204 11205 11206 11207 11208 11209 11210 11211 11212 11213 11214 11215 11216 11217 11218 11219 11220 11221 11222 11223 11224 11225 11226 11227 11228 11229 11230 11231 11232 11233 11234 11235 11236 11237 11238 11239 11240 11241 11242 11243 11244 11245 11246 11247 11248 11249 11250 11251 11252 11253 11254 11255 11256 11257 11258 11259 11260 11261 11262 11263 11264 11265 11266 11267 11268 11269 11270 11271 11272 11273 11274 11275 11276 11277 11278 11279 11280 11281 11282 11283 11284 11285 11286 11287 11288 11289 11290 11291 11292 11293 11294 11295 11296 11297 11298 11299 11300 11301 11302 11303 11304 11305 11306 11307 11308 11309 11310 11311 11312 11313 11314 11315 11316 11317 11318 11319 11320 11321 11322 11323 11324 11325 11326 11327 11328 11329 11330 11331 11332 11333 11334 11335 11336 11337 11338 11339 11340 11341 11342 11343 11344 11345 11346 11347 11348 11349 11350 11351 11352 11353 11354 11355 11356 11357 11358 11359 11360 11361 11362 11363 11364 11365 11366 11367 11368 11369 11370 11371 11372 11373 11374 11375 11376 11377 11378 11379 11380 11381 11382 11383 11384 11385 11386 11387 11388 11389 11390 11391 11392 11393 11394 11395 11396 11397 11398 11399 11400 11401 11402 11403 11404 11405 11406 11407 11408 11409 11410 11411 11412 11413 11414 11415 11416 11417 11418 11419 11420 11421 11422 11423 11424 11425 11426 11427 11428 11429 11430 11431 11432 11433 11434 11435 11436 11437 11438 11439 11440 11441 11442 11443 11444 11445 11446 11447 11448 11449 11450 11451 11452 11453 11454 11455 11456 11457 11458 11459 11460 11461 11462 11463 11464 11465 11466 11467 11468 11469 11470 11471 11472 11473 11474 11475 11476 11477 11478 11479 11480 11481 11482 11483 11484 11485 11486 11487 11488 11489 11490 11491 11492 11493 11494 11495 11496 11497 11498 11499 11500 11501 11502 11503 11504 11505 11506 11507 11508 11509 11510 11511 11512 11513 11514 11515 11516 11517 11518 11519 11520 11521 11522 11523 11524 11525 11526 11527 11528 11529 11530 11531 11532 11533 11534 11535 11536 11537 11538 11539 11540 11541 11542 11543 11544 11545 11546 11547 11548 11549 11550 11551 11552 11553 11554 11555 11556 11557 11558 11559 11560 11561 11562 11563 11564 11565 11566 11567 11568 11569 11570 11571 11572 11573 11574 11575 11576 11577 11578 11579 11580 11581 11582 11583 11584 11585 11586 11587 11588 11589 11590 11591 11592 11593 11594 11595 11596 11597 11598 11599 11600 11601 11602 11603 11604 11605 11606 11607 11608 11609 11610 11611 11612 11613 11614 11615 11616 11617 11618 11619 11620 11621 11622 11623 11624 11625 11626 11627 11628 11629 11630 11631 11632 11633 11634 11635 11636 11637 11638 11639 11640 11641 11642 11643 11644 11645 11646 11647 11648 11649 11650 11651 11652 11653 11654 11655 11656 11657 11658 11659 11660 11661 11662 11663 11664 11665 11666 11667 11668 11669 11670 11671 11672 11673 11674 11675 11676 11677 11678 11679 11680 11681 11682 11683 11684 11685 11686 11687 11688 11689 11690 11691 11692 11693 11694 11695 11696 11697 11698 11699 11700 11701 11702 11703 11704 11705 11706 11707 11708 11709 11710 11711 11712 11713 11714 11715 11716 11717 11718 11719 11720 11721 11722 11723 11724 11725 11726 11727 11728 11729 11730 11731 11732 11733 11734 11735 11736 11737 11738 11739 11740 11741 11742 11743 11744 11745 11746 11747 11748 11749 11750 11751 11752 11753 11754 11755 11756 11757 11758 11759 11760 11761 11762 11763 11764 11765 11766 11767 11768 11769 11770 11771 11772 11773 11774 11775 11776 11777 11778 11779 11780 11781 11782 11783 11784 11785 11786 11787 11788 11789 11790 11791 11792 11793 11794 11795 11796 11797 11798 11799 11800 11801 11802 11803 11804 11805 11806 11807 11808 11809 11810 11811 11812 11813 11814 11815 11816 11817 11818 11819 11820 11821 11822 11823 11824 11825 11826 11827 11828 11829 11830 11831 11832 11833 11834 11835 11836 11837 11838 11839 11840 11841 11842 11843 11844 11845 11846 11847 11848 11849 11850 11851 11852 11853 11854 11855 11856 11857 11858 11859 11860 11861 11862 11863 11864 11865 11866 11867 11868 11869 11870 11871 11872 11873 11874 11875 11876 11877 11878 11879 11880 11881 11882 11883 11884 11885 11886 11887 11888 11889 11890 11891 11892 11893 11894 11895 11896 11897 11898 11899 11900 11901 11902 11903 11904 11905 11906 11907 11908 11909 11910 11911 11912 11913 11914 11915 11916 11917 11918 11919 11920 11921 11922 11923 11924 11925 11926 11927 11928 11929 11930 11931 11932 11933 11934 11935 11936 11937 11938 11939 11940 11941 11942 11943 11944 11945 11946 11947 11948 11949 11950 11951 11952 11953 11954 11955 11956 11957 11958 11959 11960 11961 11962 11963 11964 11965 11966 11967 11968 11969 11970 11971 11972 11973 11974 11975 11976 11977 11978 11979 11980 11981 11982 11983 11984 11985 11986 11987 11988 11989 11990 11991 11992 11993 11994 11995 11996 11997 11998 11999 12000 12001 12002 12003 12004 12005 12006 12007 12008 12009 12010 12011 12012 12013 12014 12015 12016 12017 12018 12019 12020 12021 12022 12023 12024 12025 12026 12027 12028 12029 12030 12031 12032 12033 12034 12035 12036 12037 12038 12039 12040 12041 12042 12043 12044 12045 12046 12047 12048 12049 12050 12051 12052 12053 12054 12055 12056 12057 12058 12059 12060 12061 12062 12063 12064 12065 12066 12067 12068 12069 12070 12071 12072 12073 12074 12075 12076 12077 12078 12079 12080 12081 12082 12083 12084 12085 12086 12087 12088 12089 12090 12091 12092 12093 12094 12095 12096 12097 12098 12099 12100 12101 12102 12103 12104 12105 12106 12107 12108 12109 12110 12111 12112 12113 12114 12115 12116 12117 12118 12119 12120 12121 12122 12123 12124 12125 12126 12127 12128 12129 12130 12131 12132 12133 12134 12135 12136 12137 12138 12139 12140 12141 12142 12143 12144 12145 12146 12147 12148 12149 12150 12151 12152 12153 12154 12155 12156 12157 12158 12159 12160 12161 12162 12163 12164 12165 12166 12167 12168 12169 12170 12171 12172 12173 12174 12175 12176 12177 12178 12179 12180 12181 12182 12183 12184 12185 12186 12187 12188 12189 12190 12191 12192 12193 12194 12195 12196 12197 12198 12199 12200 12201 12202 12203 12204 12205 12206 12207 12208 12209 12210 12211 12212 12213 12214 12215 12216 12217 12218 12219 12220 12221 12222 12223 12224 12225 12226 12227 12228 12229 12230 12231 12232 12233 12234 12235 12236 12237 12238 12239 12240 12241 12242 12243 12244 12245 12246 12247 12248 12249 12250 12251 12252 12253 12254 12255 12256 12257 12258 12259 12260 12261 12262 12263 12264 12265 12266 12267 12268 12269 12270 12271 12272 12273 12274 12275 12276 12277 12278 12279 12280 12281 12282 12283 12284 12285 12286 12287 12288 12289 12290 12291 12292 12293 12294 12295 12296 12297 12298 12299 12300 12301 12302 12303 12304 12305 12306 12307 12308 12309 12310 12311 12312 12313 12314 12315 12316 12317 12318 12319 12320 12321 12322 12323 12324 12325 12326 12327 12328 12329 12330 12331 12332 12333 12334 12335 12336 12337 12338 12339 12340 12341 12342 12343 12344 12345 12346 12347 12348 12349 12350 12351 12352 12353 12354 12355 12356 12357 12358 12359 12360 12361 12362 12363 12364 12365 12366 12367 12368 12369 12370 12371 12372 12373 12374 12375 12376 12377 12378 12379 12380 12381 12382 12383 12384 12385 12386 12387 12388 12389 12390 12391 12392 12393 12394 12395 12396 12397 12398 12399 12400 12401 12402 12403 12404 12405 12406 12407 12408 12409 12410 12411 12412 12413 12414 12415 12416 12417 12418 12419 12420 12421 12422 12423 12424 12425 12426 12427 12428 12429 12430 12431 12432 12433 12434 12435 12436 12437 12438 12439 12440 12441 12442 12443 12444 12445 12446 12447 12448 12449 12450 12451 12452 12453 12454 12455 12456 12457 12458 12459 12460 12461 12462 12463 12464 12465 12466 12467 12468 12469 12470 12471 12472 12473 12474 12475 12476 12477 12478 12479 12480 12481 12482 12483 12484 12485 12486 12487 12488 12489 12490 12491 12492 12493 12494 12495 12496 12497 12498 12499 12500 12501 12502 12503 12504 12505 12506 12507 12508 12509 12510 12511 12512 12513 12514 12515 12516 12517 12518 12519 12520 12521 12522 12523 12524 12525 12526 12527 12528 12529 12530 12531 12532 12533 12534 12535 12536 12537 12538 12539 12540 12541 12542 12543 12544 12545 12546 12547 12548 12549 12550 12551 12552 12553 12554 12555 12556 12557 12558 12559 12560 12561 12562 12563 12564 12565 12566 12567 12568 12569 12570 12571 12572 12573 12574 12575 12576 12577 12578 12579 12580 12581 12582 12583 12584 12585 12586 12587 12588 12589 12590 12591 12592 12593 12594 12595 12596 12597 12598 12599 12600 12601 12602 12603 12604 12605 12606 12607 12608 12609 12610 12611 12612 12613 12614 12615 12616 12617 12618 12619 12620 12621 12622 12623 12624 12625 12626 12627 12628 12629 12630 12631 12632 12633 12634 12635 12636 12637 12638 12639 12640 12641 12642 12643 12644 12645 12646 12647 12648 12649 12650 12651 12652 12653 12654 12655 12656 12657 12658 12659 12660 12661 12662 12663 12664 12665 12666 12667 12668 12669 12670 12671 12672 12673 12674 12675 12676 12677 12678 12679 12680 12681 12682 12683 12684 12685 12686 12687 12688 12689 12690 12691 12692 12693 12694 12695 12696 12697 12698 12699 12700 12701 12702 12703 12704 12705 12706 12707 12708 12709 12710 12711 12712 12713 12714 12715 12716 12717 12718 12719 12720 12721 12722 12723 12724 12725 12726 12727 12728 12729 12730 12731 12732 12733 12734 12735 12736 12737 12738 12739 12740 12741 12742 12743 12744 12745 12746 12747 12748 12749 12750 12751 12752 12753 12754 12755 12756 12757 12758 12759 12760 12761 12762 12763 12764 12765 12766 12767 12768 12769 12770 12771 12772 12773 12774 12775 12776 12777 12778 12779 12780 12781 12782 12783 12784 12785 12786 12787 12788 12789 12790 12791 12792 12793 12794 12795 12796 12797 12798 12799 12800 12801 12802 12803 12804 12805 12806 12807 12808 12809 12810 12811 12812 12813 12814 12815 12816 12817 12818 12819 12820 12821 12822 12823 12824 12825 12826 12827 12828 12829 12830 12831 12832 12833 12834 12835 12836 12837 12838 12839 12840 12841 12842 12843 12844 12845 12846 12847 12848 12849 12850 12851 12852 12853 12854 12855 12856 12857 12858 12859 12860 12861 12862 12863 12864 12865 12866 12867 12868 12869 12870 12871 12872 12873 12874 12875 12876 12877 12878 12879 12880 12881 12882 12883 12884 12885 12886 12887 12888 12889 12890 12891 12892 12893 12894 12895 12896 12897 12898 12899 12900 12901 12902 12903 12904 12905 12906 12907 12908 12909 12910 12911 12912 12913 12914 12915 12916 12917 12918 12919 12920 12921 12922 12923 12924 12925 12926 12927 12928 12929 12930 12931 12932 12933 12934 12935 12936 12937 12938 12939 12940 12941 12942 12943 12944 12945 12946 12947 12948 12949 12950 12951 12952 12953 12954 12955 12956 12957 12958 12959 12960 12961 12962 12963 12964 12965 12966 12967 12968 12969 12970 12971 12972 12973 12974 12975 12976 12977 12978 12979 12980 12981 12982 12983 12984 12985 12986 12987 12988 12989 12990 12991 12992 12993 12994 12995 12996 12997 12998 12999 13000 13001 13002 13003 13004 13005 13006 13007 13008 13009 13010 13011 13012 13013 13014 13015 13016 13017 13018 13019 13020 13021 13022 13023 13024 13025 13026 13027 13028 13029 13030 13031 13032 13033 13034 13035 13036 13037 13038 13039 13040 13041 13042 13043 13044 13045 13046 13047 13048 13049 13050 13051 13052 13053 13054 13055 13056 13057 13058 13059 13060 13061 13062 13063 13064 13065 13066 13067 13068 13069 13070 13071 13072 13073 13074 13075 13076 13077 13078 13079 13080 13081 13082 13083 13084 13085 13086 13087 13088 13089 13090 13091 13092 13093 13094 13095 13096 13097 13098 13099 13100 13101 13102 13103 13104 13105 13106 13107 13108 13109 13110 13111 13112 13113 13114 13115 13116 13117 13118 13119 13120 13121 13122 13123 13124 13125 13126 13127 13128 13129 13130 13131 13132 13133 13134 13135 13136 13137 13138 13139 13140 13141 13142 13143 13144 13145 13146 13147 13148 13149 13150 13151 13152 13153 13154 13155 13156 13157 13158 13159 13160 13161 13162 13163 13164 13165 13166 13167 13168 13169 13170 13171 13172 13173 13174 13175 13176 13177 13178 13179 13180 13181 13182 13183 13184 13185 13186 13187 13188 13189 13190 13191 13192 13193 13194 13195 13196 13197 13198 13199 13200 13201 13202 13203 13204 13205 13206 13207 13208 13209 13210 13211 13212 13213 13214 13215 13216 13217 13218 13219 13220 13221 13222 13223 13224 13225 13226 13227 13228 13229 13230 13231 13232 13233 13234 13235 13236 13237 13238 13239 13240 13241 13242 13243 13244 13245 13246 13247 13248 13249 13250 13251 13252 13253 13254 13255 13256 13257 13258 13259 13260 13261 13262 13263 13264 13265 13266 13267 13268 13269 13270 13271 13272 13273 13274 13275 13276 13277 13278 13279 13280 13281 13282 13283 13284 13285 13286 13287 13288 13289 13290 13291 13292 13293 13294 13295 13296 13297 13298 13299 13300 13301 13302 13303 13304 13305 13306 13307 13308 13309 13310 13311 13312 13313 13314 13315 13316 13317 13318 13319 13320 13321 13322 13323 13324 13325 13326 13327 13328 13329 13330 13331 13332 13333 13334 13335 13336 13337 13338 13339 13340 13341 13342 13343 13344 13345 13346 13347 13348 13349 13350 13351 13352 13353 13354 13355 13356 13357 13358 13359 13360 13361 13362 13363 13364 13365 13366 13367 13368 13369 13370 13371 13372 13373 13374 13375 13376 13377 13378 13379 13380 13381 13382 13383 13384 13385 13386 13387 13388 13389 13390 13391 13392 13393 13394 13395 13396 13397 13398 13399 13400 13401 13402 13403 13404 13405 13406 13407 13408 13409 13410 13411 13412 13413 13414 13415 13416 13417 13418 13419 13420 13421 13422 13423 13424 13425 13426 13427 13428 13429 13430 13431 13432 13433 13434 13435 13436 13437 13438 13439 13440 13441 13442 13443 13444 13445 13446 13447 13448 13449 13450 13451 13452 13453 13454 13455 13456 13457 13458 13459 13460 13461 13462 13463 13464 13465 13466 13467 13468 13469 13470 13471 13472 13473 13474 13475 13476 13477 13478 13479 13480 13481 13482 13483 13484 13485 13486 13487 13488 13489 13490 13491 13492 13493 13494 13495 13496 13497 13498 13499 13500 13501 13502 13503 13504 13505 13506 13507 13508 13509 13510 13511 13512 13513 13514 13515 13516 13517 13518 13519 13520 13521 13522 13523 13524 13525 13526 13527 13528 13529 13530 13531 13532 13533 13534 13535 13536 13537 13538 13539 13540 13541 13542 13543 13544 13545 13546 13547 13548 13549 13550 13551 13552 13553 13554 13555 13556 13557 13558 13559 13560 13561 13562 13563 13564 13565 13566 13567 13568 13569 13570 13571 13572 13573 13574 13575 13576 13577 13578 13579 13580 13581 13582 13583 13584 13585 13586 13587 13588 13589 13590 13591 13592 13593 13594 13595 13596 13597 13598 13599 13600 13601 13602 13603 13604 13605 13606 13607 13608 13609 13610 13611 13612 13613 13614 13615 13616 13617 13618 13619 13620 13621 13622 13623 13624 13625 13626 13627 13628 13629 13630 13631 13632 13633 13634 13635 13636 13637 13638 13639 13640 13641 13642 13643 13644 13645 13646 13647 13648 13649 13650 13651 13652 13653 13654 13655 13656 13657 13658 13659 13660 13661 13662 13663 13664 13665 13666 13667 13668 13669 13670 13671 13672 13673 13674 13675 13676 13677 13678 13679 13680 13681 13682 13683 13684 13685 13686 13687 13688 13689 13690 13691 13692 13693 13694 13695 13696 13697 13698 13699 13700 13701 13702 13703 13704 13705 13706 13707 13708 13709 13710 13711 13712 13713 13714 13715 13716 13717 13718 13719 13720 13721 13722 13723 13724 13725 13726 13727 13728 13729 13730 13731 13732 13733 13734 13735 13736 13737 13738 13739 13740 13741 13742 13743 13744 13745 13746 13747 13748 13749 13750 13751 13752 13753 13754 13755 13756 13757 13758 13759 13760 13761 13762 13763 13764 13765 13766 13767 13768 13769 13770 13771 13772 13773 13774 13775 13776 13777 13778 13779 13780 13781 13782 13783 13784 13785 13786 13787 13788 13789 13790 13791 13792 13793 13794 13795 13796 13797 13798 13799 13800 13801 13802 13803 13804 13805 13806 13807 13808 13809 13810 13811 13812 13813 13814 13815 13816 13817 13818 13819 13820 13821 13822 13823 13824 13825 13826 13827 13828 13829 13830 13831 13832 13833 13834 13835 13836 13837 13838 13839 13840 13841 13842 13843 13844 13845 13846 13847 13848 13849 13850 13851 13852 13853 13854 13855 13856 13857 13858 13859 13860 13861 13862 13863 13864 13865 13866 13867 13868 13869 13870 13871 13872 13873 13874 13875 13876 13877 13878 13879 13880 13881 13882 13883 13884 13885 13886 13887 13888 13889 13890 13891 13892 13893 13894 13895 13896 13897 13898 13899 13900 13901 13902 13903 13904 13905 13906 13907 13908 13909 13910 13911 13912 13913 13914 13915 13916 13917 13918 13919 13920 13921 13922 13923 13924 13925 13926 13927 13928 13929 13930 13931 13932 13933 13934 13935 13936 13937 13938 13939 13940 13941 13942 13943 13944 13945 13946 13947 13948 13949 13950 13951 13952 13953 13954 13955 13956 13957 13958 13959 13960 13961 13962 13963 13964 13965 13966 13967 13968 13969 13970 13971 13972 13973 13974 13975 13976 13977 13978 13979 13980 13981 13982 13983 13984 13985 13986 13987 13988 13989 13990 13991 13992 13993 13994 13995 13996 13997 13998 13999 14000 14001 14002 14003 14004 14005 14006 14007 14008 14009 14010 14011 14012 14013 14014 14015 14016 14017 14018 14019 14020 14021 14022 14023 14024 14025 14026 14027 14028 14029 14030 14031 14032 14033 14034 14035 14036 14037 14038 14039 14040 14041 14042 14043 14044 14045 14046 14047 14048 14049 14050 14051 14052 14053 14054 14055 14056 14057 14058 14059 14060 14061 14062 14063 14064 14065 14066 14067 14068 14069 14070 14071 14072 14073 14074 14075 14076 14077 14078 14079 14080 14081 14082 14083 14084 14085 14086 14087 14088 14089 14090 14091 14092 14093 14094 14095 14096 14097 14098 14099 14100 14101 14102 14103 14104 14105 14106 14107 14108 14109 14110 14111 14112 14113 14114 14115 14116 14117 14118 14119 14120 14121 14122 14123 14124 14125 14126 14127 14128 14129 14130 14131 14132 14133 14134 14135 14136 14137 14138 14139 14140 14141 14142 14143 14144 14145 14146 14147 14148 14149 14150 14151 14152 14153 14154 14155 14156 14157 14158 14159 14160 14161 14162 14163 14164 14165 14166 14167 14168 14169 14170 14171 14172 14173 14174 14175 14176 14177 14178 14179 14180 14181 14182 14183 14184 14185 14186 14187 14188 14189 14190 14191 14192 14193 14194 14195 14196 14197 14198 14199 14200 14201 14202 14203 14204 14205 14206 14207 14208 14209 14210 14211 14212 14213 14214 14215 14216 14217 14218 14219 14220 14221 14222 14223 14224 14225 14226 14227 14228 14229 14230 14231 14232 14233 14234 14235 14236 14237 14238 14239 14240 14241 14242 14243 14244 14245 14246 14247 14248 14249 14250 14251 14252 14253 14254 14255 14256 14257 14258 14259 14260 14261 14262 14263 14264 14265 14266 14267 14268 14269 14270 14271 14272 14273 14274 14275 14276 14277 14278 14279 14280 14281 14282 14283 14284 14285 14286 14287 14288 14289 14290 14291 14292 14293 14294 14295 14296 14297 14298 14299 14300 14301 14302 14303 14304 14305 14306 14307 14308 14309 14310 14311 14312 14313 14314 14315 14316 14317 14318 14319 14320 14321 14322 14323 14324 14325 14326 14327 14328 14329 14330 14331 14332 14333 14334 14335 14336 14337 14338 14339 14340 14341 14342 14343 14344 14345 14346 14347 14348 14349 14350 14351 14352 14353 14354 14355 14356 14357 14358 14359 14360 14361 14362 14363 14364 14365 14366 14367 14368 14369 14370 14371 14372 14373 14374 14375 14376 14377 14378 14379 14380 14381 14382 14383 14384 14385 14386 14387 14388 14389 14390 14391 14392 14393 14394 14395 14396 14397 14398 14399 14400 14401 14402 14403 14404 14405 14406 14407 14408 14409 14410 14411 14412 14413 14414 14415 14416 14417 14418 14419 14420 14421 14422 14423 14424 14425 14426 14427 14428 14429 14430 14431 14432 14433 14434 14435 14436 14437 14438 14439 14440 14441 14442 14443 14444 14445 14446 14447 14448 14449 14450 14451 14452 14453 14454 14455 14456 14457 14458 14459 14460 14461 14462 14463 14464 14465 14466 14467 14468 14469 14470 14471 14472 14473 14474 14475 14476 14477 14478 14479 14480 14481 14482 14483 14484 14485 14486 14487 14488 14489 14490 14491 14492 14493 14494 14495 14496 14497 14498 14499 14500 14501 14502 14503 14504 14505 14506 14507 14508 14509 14510 14511 14512 14513 14514 14515 14516 14517 14518 14519 14520 14521 14522 14523 14524 14525 14526 14527 14528 14529 14530 14531 14532 14533 14534 14535 14536 14537 14538 14539 14540 14541 14542 14543 14544 14545 14546 14547 14548 14549 14550 14551 14552 14553 14554 14555 14556 14557 14558 14559 14560 14561 14562 14563 14564 14565 14566 14567 14568 14569 14570 14571 14572 14573 14574 14575 14576 14577 14578 14579 14580 14581 14582 14583 14584 14585 14586 14587 14588 14589 14590 14591 14592 14593 14594 14595 14596 14597 14598 14599 14600 14601 14602 14603 14604 14605 14606 14607 14608 14609 14610 14611 14612 14613 14614 14615 14616 14617 14618 14619 14620 14621 14622 14623 14624 14625 14626 14627 14628 14629 14630 14631 14632 14633 14634 14635 14636 14637 14638 14639 14640 14641 14642 14643 14644 14645 14646 14647 14648 14649 14650 14651 14652 14653 14654 14655 14656 14657 14658 14659 14660 14661 14662 14663 14664 14665 14666 14667 14668 14669 14670 14671 14672 14673 14674 14675 14676 14677 14678 14679 14680 14681 14682 14683 14684 14685 14686 14687 14688 14689 14690 14691 14692 14693 14694 14695 14696 14697 14698 14699 14700 14701 14702 14703 14704 14705 14706 14707 14708 14709 14710 14711 14712 14713 14714 14715 14716 14717 14718 14719 14720 14721 14722 14723 14724 14725 14726 14727 14728 14729 14730 14731 14732 14733 14734 14735 14736 14737 14738 14739 14740 14741 14742 14743 14744 14745 14746 14747 14748 14749 14750 14751 14752 14753 14754 14755 14756 14757 14758 14759 14760 14761 14762 14763 14764 14765 14766 14767 14768 14769 14770 14771 14772 14773 14774 14775 14776 14777 14778 14779 14780 14781 14782 14783 14784 14785 14786 14787 14788 14789 14790 14791 14792 14793 14794 14795 14796 14797 14798 14799 14800 14801 14802 14803 14804 14805 14806 14807 14808 14809 14810 14811 14812 14813 14814 14815 14816 14817 14818 14819 14820 14821 14822 14823 14824 14825 14826 14827 14828 14829 14830 14831 14832 14833 14834 14835 14836 14837 14838 14839 14840 14841 14842 14843 14844 14845 14846 14847 14848 14849 14850 14851 14852 14853 14854 14855 14856 14857 14858 14859 14860 14861 14862 14863 14864 14865 14866 14867 14868 14869 14870 14871 14872 14873 14874 14875 14876 14877 14878 14879 14880 14881 14882 14883 14884 14885 14886 14887 14888 14889 14890 14891 14892 14893 14894 14895 14896 14897 14898 14899 14900 14901 14902 14903 14904 14905 14906 14907 14908 14909 14910 14911 14912 14913 14914 14915 14916 14917 14918 14919 14920 14921 14922 14923 14924 14925 14926 14927 14928 14929 14930 14931 14932 14933 14934 14935 14936 14937 14938 14939 14940 14941 14942 14943 14944 14945 14946 14947 14948 14949 14950 14951 14952 14953 14954 14955 14956 14957 14958 14959 14960 14961 14962 14963 14964 14965 14966 14967 14968 14969 14970 14971 14972 14973 14974 14975 14976 14977 14978 14979 14980 14981 14982 14983 14984 14985 14986 14987 14988 14989 14990 14991 14992 14993 14994 14995 14996 14997 14998 14999 15000 15001 15002 15003 15004 15005 15006 15007 15008 15009 15010 15011 15012 15013 15014 15015 15016 15017 15018 15019 15020 15021 15022 15023 15024 15025 15026 15027 15028 15029 15030 15031 15032 15033 15034 15035 15036 15037 15038 15039 15040 15041 15042 15043 15044 15045 15046 15047 15048 15049 15050 15051 15052 15053 15054 15055 15056 15057 15058 15059 15060 15061 15062 15063 15064 15065 15066 15067 15068 15069 15070 15071 15072 15073 15074 15075 15076 15077 15078 15079 15080 15081 15082 15083 15084 15085 15086 15087 15088 15089 15090 15091 15092 15093 15094 15095 15096 15097 15098 15099 15100 15101 15102 15103 15104 15105 15106 15107 15108 15109 15110 15111 15112 15113 15114 15115 15116 15117 15118 15119 15120 15121 15122 15123 15124 15125 15126 15127 15128 15129 15130 15131 15132 15133 15134 15135 15136 15137 15138 15139 15140 15141 15142 15143 15144 15145 15146 15147 15148 15149 15150 15151 15152 15153 15154 15155 15156 15157 15158 15159 15160 15161 15162 15163 15164 15165 15166 15167 15168 15169 15170 15171 15172 15173 15174 15175 15176 15177 15178 15179 15180 15181 15182 15183 15184 15185 15186 15187 15188 15189 15190 15191 15192 15193 15194 15195 15196 15197 15198 15199 15200 15201 15202 15203 15204 15205 15206 15207 15208 15209 15210 15211 15212 15213 15214 15215 15216 15217 15218 15219 15220 15221 15222 15223 15224 15225 15226 15227 15228 15229 15230 15231 15232 15233 15234 15235 15236 15237 15238 15239 15240 15241 15242 15243 15244 15245 15246 15247 15248 15249 15250 15251 15252 15253 15254 15255 15256 15257 15258 15259 15260 15261 15262 15263 15264 15265 15266 15267 15268 15269 15270 15271 15272 15273 15274 15275 15276 15277 15278 15279 15280 15281 15282 15283 15284 15285 15286 15287 15288 15289 15290 15291 15292 15293 15294 15295 15296 15297 15298 15299 15300 15301 15302 15303 15304 15305 15306 15307 15308 15309 15310 15311 15312 15313 15314 15315 15316 15317 15318 15319 15320 15321 15322 15323 15324 15325 15326 15327 15328 15329 15330 15331 15332 15333 15334 15335 15336 15337 15338 15339 15340 15341 15342 15343 15344 15345 15346 15347 15348 15349 15350 15351 15352 15353 15354 15355 15356 15357 15358 15359 15360 15361 15362 15363 15364 15365 15366 15367 15368 15369 15370 15371 15372 15373 15374 15375 15376 15377 15378 15379 15380 15381 15382 15383 15384 15385 15386 15387 15388 15389 15390 15391 15392 15393 15394 15395 15396 15397 15398 15399 15400 15401 15402 15403 15404 15405 15406 15407 15408 15409 15410 15411 15412 15413 15414 15415 15416 15417 15418 15419 15420 15421 15422 15423 15424 15425 15426 15427 15428 15429 15430 15431 15432 15433 15434 15435 15436 15437 15438 15439 15440 15441 15442 15443 15444 15445 15446 15447 15448 15449 15450 15451 15452 15453 15454 15455 15456 15457 15458 15459 15460 15461 15462 15463 15464 15465 15466 15467 15468 15469 15470 15471 15472 15473 15474 15475 15476 15477 15478 15479 15480 15481 15482 15483 15484 15485 15486 15487 15488 15489 15490 15491 15492 15493 15494 15495 15496 15497 15498 15499 15500 15501 15502 15503 15504 15505 15506 15507 15508 15509 15510 15511 15512 15513 15514 15515 15516 15517 15518 15519 15520 15521 15522 15523 15524 15525 15526 15527 15528 15529 15530 15531 15532 15533 15534 15535 15536 15537 15538 15539 15540 15541 15542 15543 15544 15545 15546 15547 15548 15549 15550 15551 15552 15553 15554 15555 15556 15557 15558 15559 15560 15561 15562 15563 15564 15565 15566 15567 15568 15569 15570 15571 15572 15573 15574 15575 15576 15577 15578 15579 15580 15581 15582 15583 15584 15585 15586 15587 15588 15589 15590 15591 15592 15593 15594 15595 15596 15597 15598 15599 15600 15601 15602 15603 15604 15605 15606 15607 15608 15609 15610 15611 15612 15613 15614 15615 15616 15617 15618 15619 15620 15621 15622 15623 15624 15625 15626 15627 15628 15629 15630 15631 15632 15633 15634 15635 15636 15637 15638 15639 15640 15641 15642 15643 15644 15645 15646 15647 15648 15649 15650 15651 15652 15653 15654 15655 15656 15657 15658 15659 15660 15661 15662 15663 15664 15665 15666 15667 15668 15669 15670 15671 15672 15673 15674 15675 15676 15677 15678 15679 15680 15681 15682 15683 15684 15685 15686 15687 15688 15689 15690 15691 15692 15693 15694 15695 15696 15697 15698 15699 15700 15701 15702 15703 15704 15705 15706 15707 15708 15709 15710 15711 15712 15713 15714 15715 15716 15717 15718 15719 15720 15721 15722 15723 15724 15725 15726 15727 15728 15729 15730 15731 15732 15733 15734 15735 15736 15737 15738 15739 15740 15741 15742 15743 15744 15745 15746 15747 15748 15749 15750 15751 15752 15753 15754 15755 15756 15757 15758 15759 15760 15761 15762 15763 15764 15765 15766 15767 15768 15769 15770 15771 15772 15773 15774 15775 15776 15777 15778 15779 15780 15781 15782 15783 15784 15785 15786 15787 15788 15789 15790 15791 15792 15793 15794 15795 15796 15797 15798 15799 15800 15801 15802 15803 15804 15805 15806 15807 15808 15809 15810 15811 15812 15813 15814 15815 15816 15817 15818 15819 15820 15821 15822 15823 15824 15825 15826 15827 15828 15829 15830 15831 15832 15833 15834 15835 15836 15837 15838 15839 15840 15841 15842 15843 15844 15845 15846 15847 15848 15849 15850 15851 15852 15853 15854 15855 15856 15857 15858 15859 15860 15861 15862 15863 15864 15865 15866 15867 15868 15869 15870 15871 15872 15873 15874 15875 15876 15877 15878 15879 15880 15881 15882 15883 15884 15885 15886 15887 15888 15889 15890 15891 15892 15893 15894 15895 15896 15897 15898 15899 15900 15901 15902 15903 15904 15905 15906 15907 15908 15909 15910 15911 15912 15913 15914 15915 15916 15917 15918 15919 15920 15921 15922 15923 15924 15925 15926 15927 15928 15929 15930 15931 15932 15933 15934 15935 15936 15937 15938 15939 15940 15941 15942 15943 15944 15945 15946 15947 15948 15949 15950 15951 15952 15953 15954 15955 15956 15957 15958 15959 15960 15961 15962 15963 15964 15965 15966 15967 15968 15969 15970 15971 15972 15973 15974 15975 15976 15977 15978 15979 15980 15981 15982 15983 15984 15985 15986 15987 15988 15989 15990 15991 15992 15993 15994 15995 15996 15997 15998 15999 16000 16001 16002 16003 16004 16005 16006 16007 16008 16009 16010 16011 16012 16013 16014 16015 16016 16017 16018 16019 16020 16021 16022 16023 16024 16025 16026 16027 16028 16029 16030 16031 16032 16033 16034 16035 16036 16037 16038 16039 16040 16041 16042 16043 16044 16045 16046 16047 16048 16049 16050 16051 16052 16053 16054 16055 16056 16057 16058 16059 16060 16061 16062 16063 16064 16065 16066 16067 16068 16069 16070 16071 16072 16073 16074 16075 16076 16077 16078 16079 16080 16081 16082 16083 16084 16085 16086 16087 16088 16089 16090 16091 16092 16093 16094 16095 16096 16097 16098 16099 16100 16101 16102 16103 16104 16105 16106 16107 16108 16109 16110 16111 16112 16113 16114 16115 16116 16117 16118 16119 16120 16121 16122 16123 16124 16125 16126 16127 16128 16129 16130 16131 16132 16133 16134 16135 16136 16137 16138 16139 16140 16141 16142 16143 16144 16145 16146 16147 16148 16149 16150 16151 16152 16153 16154 16155 16156 16157 16158 16159 16160 16161 16162 16163 16164 16165 16166 16167 16168 16169 16170 16171 16172 16173 16174 16175 16176 16177 16178 16179 16180 16181 16182 16183 16184 16185 16186 16187 16188 16189 16190 16191 16192 16193 16194 16195 16196 16197 16198 16199 16200 16201 16202 16203 16204 16205 16206 16207 16208 16209 16210 16211 16212 16213 16214 16215 16216 16217 16218 16219 16220 16221 16222 16223 16224 16225 16226 16227 16228 16229 16230 16231 16232 16233 16234 16235 16236 16237 16238 16239 16240 16241 16242 16243 16244 16245 16246 16247 16248 16249 16250 16251 16252 16253 16254 16255 16256 16257 16258 16259 16260 16261 16262 16263 16264 16265 16266 16267 16268 16269 16270 16271 16272 16273 16274 16275 16276 16277 16278 16279 16280 16281 16282 16283 16284 16285 16286 16287 16288 16289 16290 16291 16292 16293 16294 16295 16296 16297 16298 16299 16300 16301 16302 16303 16304 16305 16306 16307 16308 16309 16310 16311 16312 16313 16314 16315 16316 16317 16318 16319 16320 16321 16322 16323 16324 16325 16326 16327 16328 16329 16330 16331 16332 16333 16334 16335 16336 16337 16338 16339 16340 16341 16342 16343 16344 16345 16346 16347 16348 16349 16350 16351 16352 16353 16354 16355 16356 16357 16358 16359 16360 16361 16362 16363 16364 16365 16366 16367 16368 16369 16370 16371 16372 16373 16374 16375 16376 16377 16378 16379 16380 16381 16382 16383 16384 16385 16386 16387 16388 16389 16390 16391 16392 16393 16394 16395 16396 16397 16398 16399 16400 16401 16402 16403 16404 16405 16406 16407 16408 16409 16410 16411 16412 16413 16414 16415 16416 16417 16418 16419 16420 16421 16422 16423 16424 16425 16426 16427 16428 16429 16430 16431 16432 16433 16434 16435 16436 16437 16438 16439 16440 16441 16442 16443 16444 16445 16446 16447 16448 16449 16450 16451 16452 16453 16454 16455 16456 16457 16458 16459 16460 16461 16462 16463 16464 16465 16466 16467 16468 16469 16470 16471 16472 16473 16474 16475 16476 16477 16478 16479 16480 16481 16482 16483 16484 16485 16486 16487 16488 16489 16490 16491 16492 16493 16494 16495 16496 16497 16498 16499 16500 16501 16502 16503 16504 16505 16506 16507 16508 16509 16510 16511 16512 16513 16514 16515 16516 16517 16518 16519 16520 16521 16522 16523 16524 16525 16526 16527 16528 16529 16530 16531 16532 16533 16534 16535 16536 16537 16538 16539 16540 16541 16542 16543 16544 16545 16546 16547 16548 16549 16550 16551 16552 16553 16554 16555 16556 16557 16558 16559 16560 16561 16562 16563 16564 16565 16566 16567 16568 16569 16570 16571 16572 16573 16574 16575 16576 16577 16578 16579 16580 16581 16582 16583 16584 16585 16586 16587 16588 16589 16590 16591 16592 16593 16594 16595 16596 16597 16598 16599 16600 16601 16602 16603 16604 16605 16606 16607 16608 16609 16610 16611 16612 16613 16614 16615 16616 16617 16618 16619 16620 16621 16622 16623 16624 16625 16626 16627 16628 16629 16630 16631 16632 16633 16634 16635 16636 16637 16638 16639 16640 16641 16642 16643 16644 16645 16646 16647 16648 16649 16650 16651 16652 16653 16654 16655 16656 16657 16658 16659 16660 16661 16662 16663 16664 16665 16666 16667 16668 16669 16670 16671 16672 16673 16674 16675 16676 16677 16678 16679 16680 16681 16682 16683 16684 16685 16686 16687 16688 16689 16690 16691 16692 16693 16694 16695 16696 16697 16698 16699 16700 16701 16702 16703 16704 16705 16706 16707 16708 16709 16710 16711 16712 16713 16714 16715 16716 16717 16718 16719 16720 16721 16722 16723 16724 16725 16726 16727 16728 16729 16730 16731 16732 16733 16734 16735 16736 16737 16738 16739 16740 16741 16742 16743 16744 16745 16746 16747 16748 16749 16750 16751 16752 16753 16754 16755 16756 16757 16758 16759 16760 16761 16762 16763 16764 16765 16766 16767 16768 16769 16770 16771 16772 16773 16774 16775 16776 16777 16778 16779 16780 16781 16782 16783 16784 16785 16786 16787 16788 16789 16790 16791 16792 16793 16794 16795 16796 16797 16798 16799 16800 16801 16802 16803 16804 16805 16806 16807 16808 16809 16810 16811 16812 16813 16814 16815 16816 16817 16818 16819 16820 16821 16822 16823 16824 16825 16826 16827 16828 16829 16830 16831 16832 16833 16834 16835 16836 16837 16838 16839 16840 16841 16842 16843 16844 16845 16846 16847 16848 16849 16850 16851 16852 16853 16854 16855 16856 16857 16858 16859 16860 16861 16862 16863 16864 16865 16866 16867 16868 16869 16870 16871 16872 16873 16874 16875 16876 16877 16878 16879 16880 16881 16882 16883 16884 16885 16886 16887 16888 16889 16890 16891 16892 16893 16894 16895 16896 16897 16898 16899 16900 16901 16902 16903 16904 16905 16906 16907 16908 16909 16910 16911 16912 16913 16914 16915 16916 16917 16918 16919 16920 16921 16922 16923 16924 16925 16926 16927 16928 16929 16930 16931 16932 16933 16934 16935 16936 16937 16938 16939 16940 16941 16942 16943 16944 16945 16946 16947 16948 16949 16950 16951 16952 16953 16954 16955 16956 16957 16958 16959 16960 16961 16962 16963 16964 16965 16966 16967 16968 16969 16970 16971 16972 16973 16974 16975 16976 16977 16978 16979 16980 16981 16982 16983 16984 16985 16986 16987 16988 16989 16990 16991 16992 16993 16994 16995 16996 16997 16998 16999 17000 17001 17002 17003 17004 17005 17006 17007 17008 17009 17010 17011 17012 17013 17014 17015 17016 17017 17018 17019 17020 17021 17022 17023 17024 17025 17026 17027 17028 17029 17030 17031 17032 17033 17034 17035 17036 17037 17038 17039 17040 17041 17042 17043 17044 17045 17046 17047 17048 17049 17050 17051 17052 17053 17054 17055 17056 17057 17058 17059 17060 17061 17062 17063 17064 17065 17066 17067 17068 17069 17070 17071 17072 17073 17074 17075 17076 17077 17078 17079 17080 17081 17082 17083 17084 17085 17086 17087 17088 17089 17090 17091 17092 17093 17094 17095 17096 17097 17098 17099 17100 17101 17102 17103 17104 17105 17106 17107 17108 17109 17110 17111 17112 17113 17114 17115 17116 17117 17118 17119 17120 17121 17122 17123 17124 17125 17126 17127 17128 17129 17130 17131 17132 17133 17134 17135 17136 17137 17138 17139 17140 17141 17142 17143 17144 17145 17146 17147 17148 17149 17150 17151 17152 17153 17154 17155 17156 17157 17158 17159 17160 17161 17162 17163 17164 17165 17166 17167 17168 17169 17170 17171 17172 17173 17174 17175 17176 17177 17178 17179 17180 17181 17182 17183 17184 17185 17186 17187 17188 17189 17190 17191 17192 17193 17194 17195 17196 17197 17198 17199 17200 17201 17202 17203 17204 17205 17206 17207 17208 17209 17210 17211 17212 17213 17214 17215 17216 17217 17218 17219 17220 17221 17222 17223 17224 17225 17226 17227 17228 17229 17230 17231 17232 17233 17234 17235 17236 17237 17238 17239 17240 17241 17242 17243 17244 17245 17246 17247 17248 17249 17250 17251 17252 17253 17254 17255 17256 17257 17258 17259 17260 17261 17262 17263 17264 17265 17266 17267 17268 17269 17270 17271 17272 17273 17274 17275 17276 17277 17278 17279 17280 17281 17282 17283 17284 17285 17286 17287 17288 17289 17290 17291 17292 17293 17294 17295 17296 17297 17298 17299 17300 17301 17302 17303 17304 17305 17306 17307 17308 17309 17310 17311 17312 17313 17314 17315 17316 17317 17318 17319 17320 17321 17322 17323 17324 17325 17326 17327 17328 17329 17330 17331 17332 17333 17334 17335 17336 17337 17338 17339 17340 17341 17342 17343 17344 17345 17346 17347 17348 17349 17350 17351 17352 17353 17354 17355 17356 17357 17358 17359 17360 17361 17362 17363 17364 17365 17366 17367 17368 17369 17370 17371 17372 17373 17374 17375 17376 17377 17378 17379 17380 17381 17382 17383 17384 17385 17386 17387 17388 17389 17390 17391 17392 17393 17394 17395 17396 17397 17398 17399 17400 17401 17402 17403 17404 17405 17406 17407 17408 17409 17410 17411 17412 17413 17414 17415 17416 17417 17418 17419 17420 17421 17422 17423 17424 17425 17426 17427 17428 17429 17430 17431 17432 17433 17434 17435 17436 17437 17438 17439 17440 17441 17442 17443 17444 17445 17446 17447 17448 17449 17450 17451 17452 17453 17454 17455 17456 17457 17458 17459 17460 17461 17462 17463 17464 17465 17466 17467 17468 17469 17470 17471 17472 17473 17474 17475 17476 17477 17478 17479 17480 17481 17482 17483 17484 17485 17486 17487 17488 17489 17490 17491 17492 17493 17494 17495 17496 17497 17498 17499 17500 17501 17502 17503 17504 17505 17506 17507 17508 17509 17510 17511 17512 17513 17514 17515 17516 17517 17518 17519 17520 17521 17522 17523 17524 17525 17526 17527 17528 17529 17530 17531 17532 17533 17534 17535 17536 17537 17538 17539 17540 17541 17542 17543 17544 17545 17546 17547 17548 17549 17550 17551 17552 17553 17554 17555 17556 17557 17558 17559 17560 17561 17562 17563 17564 17565 17566 17567 17568 17569 17570 17571 17572 17573 17574 17575 17576 17577 17578 17579 17580 17581 17582 17583 17584 17585 17586 17587 17588 17589 17590 17591 17592 17593 17594 17595 17596 17597 17598 17599 17600 17601 17602 17603 17604 17605 17606 17607 17608 17609 17610 17611 17612 17613 17614 17615 17616 17617 17618 17619 17620 17621 17622 17623 17624 17625 17626 17627 17628 17629 17630 17631 17632 17633 17634 17635 17636 17637 17638 17639 17640 17641 17642 17643 17644 17645 17646 17647 17648 17649 17650 17651 17652 17653 17654 17655 17656 17657 17658 17659 17660 17661 17662 17663 17664 17665 17666 17667 17668 17669 17670 17671 17672 17673 17674 17675 17676 17677 17678 17679 17680 17681 17682 17683 17684 17685 17686 17687 17688 17689 17690 17691 17692 17693 17694 17695 17696 17697 17698 17699 17700 17701 17702 17703 17704 17705 17706 17707 17708 17709 17710 17711 17712 17713 17714 17715 17716 17717 17718 17719 17720 17721 17722 17723 17724 17725 17726 17727 17728 17729 17730 17731 17732 17733 17734 17735 17736 17737 17738 17739 17740 17741 17742 17743 17744 17745 17746 17747 17748 17749 17750 17751 17752 17753 17754 17755 17756 17757 17758 17759 17760 17761 17762 17763 17764 17765 17766 17767 17768 17769 17770 17771 17772 17773 17774 17775 17776 17777 17778 17779 17780 17781 17782 17783 17784 17785 17786 17787 17788 17789 17790 17791 17792 17793 17794 17795 17796 17797 17798 17799 17800 17801 17802 17803 17804 17805 17806 17807 17808 17809 17810 17811 17812 17813 17814 17815 17816 17817 17818 17819 17820 17821 17822 17823 17824 17825 17826 17827 17828 17829 17830 17831 17832 17833 17834 17835 17836 17837 17838 17839 17840 17841 17842 17843 17844 17845 17846 17847 17848 17849 17850 17851 17852 17853 17854 17855 17856 17857 17858 17859 17860 17861 17862 17863 17864 17865 17866 17867 17868 17869 17870 17871 17872 17873 17874 17875 17876 17877 17878 17879 17880 17881 17882 17883 17884 17885 17886 17887 17888 17889 17890 17891 17892 17893 17894 17895 17896 17897 17898 17899 17900 17901 17902 17903 17904 17905 17906 17907 17908 17909 17910 17911 17912 17913 17914 17915 17916 17917 17918 17919 17920 17921 17922 17923 17924 17925 17926 17927 17928 17929 17930 17931 17932 17933 17934 17935 17936 17937 17938 17939 17940 17941 17942 17943 17944 17945 17946 17947 17948 17949 17950 17951 17952 17953 17954 17955 17956 17957 17958 17959 17960 17961 17962 17963 17964 17965 17966 17967 17968 17969 17970 17971 17972 17973 17974 17975 17976 17977 17978 17979 17980 17981 17982 17983 17984 17985 17986 17987 17988 17989 17990 17991 17992 17993 17994 17995 17996 17997 17998 17999 18000 18001 18002 18003 18004 18005 18006 18007 18008 18009 18010 18011 18012 18013 18014 18015 18016 18017 18018 18019 18020 18021 18022 18023 18024 18025 18026 18027 18028 18029 18030 18031 18032 18033 18034 18035 18036 18037 18038 18039 18040 18041 18042 18043 18044 18045 18046 18047 18048 18049 18050 18051 18052 18053 18054 18055 18056 18057 18058 18059 18060 18061 18062 18063 18064 18065 18066 18067 18068 18069 18070 18071 18072 18073 18074 18075 18076 18077 18078 18079 18080 18081 18082 18083 18084 18085 18086 18087 18088 18089 18090 18091 18092 18093 18094 18095 18096 18097 18098 18099 18100 18101 18102 18103 18104 18105 18106 18107 18108 18109 18110 18111 18112 18113 18114 18115 18116 18117 18118 18119 18120 18121 18122 18123 18124 18125 18126 18127 18128 18129 18130 18131 18132 18133 18134 18135 18136 18137 18138 18139 18140 18141 18142 18143 18144 18145 18146 18147 18148 18149 18150 18151 18152 18153 18154 18155 18156 18157 18158 18159 18160 18161 18162 18163 18164 18165 18166 18167 18168 18169 18170 18171 18172 18173 18174 18175 18176 18177 18178 18179 18180 18181 18182 18183 18184 18185 18186 18187 18188 18189 18190 18191 18192 18193 18194 18195 18196 18197 18198 18199 18200 18201 18202 18203 18204 18205 18206 18207 18208 18209 18210 18211 18212 18213 18214 18215 18216 18217 18218 18219 18220 18221 18222 18223 18224 18225 18226 18227 18228 18229 18230 18231 18232 18233 18234 18235 18236 18237 18238 18239 18240 18241 18242 18243 18244 18245 18246 18247 18248 18249 18250 18251 18252 18253 18254 18255 18256 18257 18258 18259 18260 18261 18262 18263 18264 18265 18266 18267 18268 18269 18270 18271 18272 18273 18274 18275 18276 18277 18278 18279 18280 18281 18282 18283 18284 18285 18286 18287 18288 18289 18290 18291 18292 18293 18294 18295 18296 18297 18298 18299 18300 18301 18302 18303 18304 18305 18306 18307 18308 18309 18310 18311 18312 18313 18314 18315 18316 18317 18318 18319 18320 18321 18322 18323 18324 18325 18326 18327 18328 18329 18330 18331 18332 18333 18334 18335 18336 18337 18338 18339 18340 18341 18342 18343 18344 18345 18346 18347 18348 18349 18350 18351 18352 18353 18354 18355 18356 18357 18358 18359 18360 18361 18362 18363 18364 18365 18366 18367 18368 18369 18370 18371 18372 18373 18374 18375 18376 18377 18378 18379 18380 18381 18382 18383 18384 18385 18386 18387 18388 18389 18390 18391 18392 18393 18394 18395 18396 18397 18398 18399 18400 18401 18402 18403 18404 18405 18406 18407 18408 18409 18410 18411 18412 18413 18414 18415 18416 18417 18418 18419 18420 18421 18422 18423 18424 18425 18426 18427 18428 18429 18430 18431 18432 18433 18434 18435 18436 18437 18438 18439 18440 18441 18442 18443 18444 18445 18446 18447 18448 18449 18450 18451 18452 18453 18454 18455 18456 18457 18458 18459 18460 18461 18462 18463 18464 18465 18466 18467 18468 18469 18470 18471 18472 18473 18474 18475 18476 18477 18478 18479 18480 18481 18482 18483 18484 18485 18486 18487 18488 18489 18490 18491 18492 18493 18494 18495 18496 18497 18498 18499 18500 18501 18502 18503 18504 18505 18506 18507 18508 18509 18510 18511 18512 18513 18514 18515 18516 18517 18518 18519 18520 18521 18522 18523 18524 18525 18526 18527 18528 18529 18530 18531 18532 18533 18534 18535 18536 18537 18538 18539 18540 18541 18542 18543 18544 18545 18546 18547 18548 18549 18550 18551 18552 18553 18554 18555 18556 18557 18558 18559 18560 18561 18562 18563 18564 18565 18566 18567 18568 18569 18570 18571 18572 18573 18574 18575 18576 18577 18578 18579 18580 18581 18582 18583 18584 18585 18586 18587 18588 18589 18590 18591 18592 18593 18594 18595 18596 18597 18598 18599 18600 18601 18602 18603 18604 18605 18606 18607 18608 18609 18610 18611 18612 18613 18614 18615 18616 18617 18618 18619 18620 18621 18622 18623 18624 18625 18626 18627 18628 18629 18630 18631 18632 18633 18634 18635 18636 18637 18638 18639 18640 18641 18642 18643 18644 18645 18646 18647 18648 18649 18650 18651 18652 18653 18654 18655 18656 18657 18658 18659 18660 18661 18662 18663 18664 18665 18666 18667 18668 18669 18670 18671 18672 18673 18674 18675 18676 18677 18678 18679 18680 18681 18682 18683 18684 18685 18686 18687 18688 18689 18690 18691 18692 18693 18694 18695 18696 18697 18698 18699 18700 18701 18702 18703 18704 18705 18706 18707 18708 18709 18710 18711 18712 18713 18714 18715 18716 18717 18718 18719 18720 18721 18722 18723 18724 18725 18726 18727 18728 18729 18730 18731 18732 18733 18734 18735 18736 18737 18738 18739 18740 18741 18742 18743 18744 18745 18746 18747 18748 18749 18750 18751 18752 18753 18754 18755 18756 18757 18758 18759 18760 18761 18762 18763 18764 18765 18766 18767 18768 18769 18770 18771 18772 18773 18774 18775 18776 18777 18778 18779 18780 18781 18782 18783 18784 18785 18786 18787 18788 18789 18790 18791 18792 18793 18794 18795 18796 18797 18798 18799 18800 18801 18802 18803 18804 18805 18806 18807 18808 18809 18810 18811 18812 18813 18814 18815 18816 18817 18818 18819 18820 18821 18822 18823 18824 18825 18826 18827 18828 18829 18830 18831 18832 18833 18834 18835 18836 18837 18838 18839 18840 18841 18842 18843 18844 18845 18846 18847 18848 18849 18850 18851 18852 18853 18854 18855 18856 18857 18858 18859 18860 18861 18862 18863 18864 18865 18866 18867 18868 18869 18870 18871 18872 18873 18874 18875 18876 18877 18878 18879 18880 18881 18882 18883 18884 18885 18886 18887 18888 18889 18890 18891 18892 18893 18894 18895 18896 18897 18898 18899 18900 18901 18902 18903 18904 18905 18906 18907 18908 18909 18910 18911 18912 18913 18914 18915 18916 18917 18918 18919 18920 18921 18922 18923 18924 18925 18926 18927 18928 18929 18930 18931 18932 18933 18934 18935 18936 18937 18938 18939 18940 18941 18942 18943 18944 18945 18946 18947 18948 18949 18950 18951 18952 18953 18954 18955 18956 18957 18958 18959 18960 18961 18962 18963 18964 18965 18966 18967 18968 18969 18970 18971 18972 18973 18974 18975 18976 18977 18978 18979 18980 18981 18982 18983 18984 18985 18986 18987 18988 18989 18990 18991 18992 18993 18994 18995 18996 18997 18998 18999 19000 19001 19002 19003 19004 19005 19006 19007 19008 19009 19010 19011 19012 19013 19014 19015 19016 19017 19018 19019 19020 19021 19022 19023 19024 19025 19026 19027 19028 19029 19030 19031 19032 19033 19034 19035 19036 19037 19038 19039 19040 19041 19042 19043 19044 19045 19046 19047 19048 19049 19050 19051 19052 19053 19054 19055 19056 19057 19058 19059 19060 19061 19062 19063 19064 19065 19066 19067 19068 19069 19070 19071 19072 19073 19074 19075 19076 19077 19078 19079 19080 19081 19082 19083 19084 19085 19086 19087 19088 19089 19090 19091 19092 19093 19094 19095 19096 19097 19098 19099 19100 19101 19102 19103 19104 19105 19106 19107 19108 19109 19110 19111 19112 19113 19114 19115 19116 19117 19118 19119 19120 19121 19122 19123 19124 19125 19126 19127 19128 19129 19130 19131 19132 19133 19134 19135 19136 19137 19138 19139 19140 19141 19142 19143 19144 19145 19146 19147 19148 19149 19150 19151 19152 19153 19154 19155 19156 19157 19158 19159 19160 19161 19162 19163 19164 19165 19166 19167 19168 19169 19170 19171 19172 19173 19174 19175 19176 19177 19178 19179 19180 19181 19182 19183 19184 19185 19186 19187 19188 19189 19190 19191 19192 19193 19194 19195 19196 19197 19198 19199 19200 19201 19202 19203 19204 19205 19206 19207 19208 19209 19210 19211 19212 19213 19214 19215 19216 19217 19218 19219 19220 19221 19222 19223 19224 19225 19226 19227 19228 19229 19230 19231 19232 19233 19234 19235 19236 19237 19238 19239 19240 19241 19242 19243 19244 19245 19246 19247 19248 19249 19250 19251 19252 19253 19254 19255 19256 19257 19258 19259 19260 19261 19262 19263 19264 19265 19266 19267 19268 19269 19270 19271 19272 19273 19274 19275 19276 19277 19278 19279 19280 19281 19282 19283 19284 19285 19286 19287 19288 19289 19290 19291 19292 19293 19294 19295 19296 19297 19298 19299 19300 19301 19302 19303 19304 19305 19306 19307 19308 19309 19310 19311 19312 19313 19314 19315 19316 19317 19318 19319 19320 19321 19322 19323 19324 19325 19326 19327 19328 19329 19330 19331 19332 19333 19334 19335 19336 19337 19338 19339 19340 19341 19342 19343 19344 19345 19346 19347 19348 19349 19350 19351 19352 19353 19354 19355 19356 19357 19358 19359 19360 19361 19362 19363 19364 19365 19366 19367 19368 19369 19370 19371 19372 19373 19374 19375 19376 19377 19378 19379 19380 19381 19382 19383 19384 19385 19386 19387 19388 19389 19390 19391 19392 19393 19394 19395 19396 19397 19398 19399 19400 19401 19402 19403 19404 19405 19406 19407 19408 19409 19410 19411 19412 19413 19414 19415 19416 19417 19418 19419 19420 19421 19422 19423 19424 19425 19426 19427 19428 19429 19430 19431 19432 19433 19434 19435 19436 19437 19438 19439 19440 19441 19442 19443 19444 19445 19446 19447 19448 19449 19450 19451 19452 19453 19454 19455 19456 19457 19458 19459 19460 19461 19462 19463 19464 19465 19466 19467 19468 19469 19470 19471 19472 19473 19474 19475 19476 19477 19478 19479 19480 19481 19482 19483 19484 19485 19486 19487 19488 19489 19490 19491 19492 19493 19494 19495 19496 19497 19498 19499 19500 19501 19502 19503 19504 19505 19506 19507 19508 19509 19510 19511 19512 19513 19514 19515 19516 19517 19518 19519 19520 19521 19522 19523 19524 19525 19526 19527 19528 19529 19530 19531 19532 19533 19534 19535 19536 19537 19538 19539 19540 19541 19542 19543 19544 19545 19546 19547 19548 19549 19550 19551 19552 19553 19554 19555 19556 19557 19558 19559 19560 19561 19562 19563 19564 19565 19566 19567 19568 19569 19570 19571 19572 19573 19574 19575 19576 19577 19578 19579 19580 19581 19582 19583 19584 19585 19586 19587 19588 19589 19590 19591 19592 19593 19594 19595 19596 19597 19598 19599 19600 19601 19602 19603 19604 19605 19606 19607 19608 19609 19610 19611 19612 19613 19614 19615 19616 19617 19618 19619 19620 19621 19622 19623 19624 19625 19626 19627 19628 19629 19630 19631 19632 19633 19634 19635 19636 19637 19638 19639 19640 19641 19642 19643 19644 19645 19646 19647 19648 19649 19650 19651 19652 19653 19654 19655 19656 19657 19658 19659 19660 19661 19662 19663 19664 19665 19666 19667 19668 19669 19670 19671 19672 19673 19674 19675 19676 19677 19678 19679 19680 19681 19682 19683 19684 19685 19686 19687 19688 19689 19690 19691 19692 19693 19694 19695 19696 19697 19698 19699 19700 19701 19702 19703 19704 19705 19706 19707 19708 19709 19710 19711 19712 19713 19714 19715 19716 19717 19718 19719 19720 19721 19722 19723 19724 19725 19726 19727 19728 19729 19730 19731 19732 19733 19734 19735 19736 19737 19738 19739 19740 19741 19742 19743 19744 19745 19746 19747 19748 19749 19750 19751 19752 19753 19754 19755 19756 19757 19758 19759 19760 19761 19762 19763 19764 19765 19766 19767 19768 19769 19770 19771 19772 19773 19774 19775 19776 19777 19778 19779 19780 19781 19782 19783 19784 19785 19786 19787 19788 19789 19790 19791 19792 19793 19794 19795 19796 19797 19798 19799 19800 19801 19802 19803 19804 19805 19806 19807 19808 19809 19810 19811 19812 19813 19814 19815 19816 19817 19818 19819 19820 19821 19822 19823 19824 19825 19826 19827 19828 19829 19830 19831 19832 19833 19834 19835 19836 19837 19838 19839 19840 19841 19842 19843 19844 19845 19846 19847 19848 19849 19850 19851 19852 19853 19854 19855 19856 19857 19858 19859 19860 19861 19862 19863 19864 19865 19866 19867 19868 19869 19870 19871 19872 19873 19874 19875 19876 19877 19878 19879 19880 19881 19882 19883 19884 19885 19886 19887 19888 19889 19890 19891 19892 19893 19894 19895 19896 19897 19898 19899 19900 19901 19902 19903 19904 19905 19906 19907 19908 19909 19910 19911 19912 19913 19914 19915 19916 19917 19918 19919 19920 19921 19922 19923 19924 19925 19926 19927 19928 19929 19930 19931 19932 19933 19934 19935 19936 19937 19938 19939 19940 19941 19942 19943 19944 19945 19946 19947 19948 19949 19950 19951 19952 19953 19954 19955 19956 19957 19958 19959 19960 19961 19962 19963 19964 19965 19966 19967 19968 19969 19970 19971 19972 19973 19974 19975 19976 19977 19978 19979 19980 19981 19982 19983 19984 19985 19986 19987 19988 19989 19990 19991 19992 19993 19994 19995 19996 19997 19998 19999 20000 20001 20002 20003 20004 20005 20006 20007 20008 20009 20010 20011 20012 20013 20014 20015 20016 20017 20018 20019 20020 20021 20022 20023 20024 20025 20026 20027 20028 20029 20030 20031 20032 20033 20034 20035 20036 20037 20038 20039 20040 20041 20042 20043 20044 20045 20046 20047 20048 20049 20050 20051 20052 20053 20054 20055 20056 20057 20058 20059 20060 20061 20062 20063 20064 20065 20066 20067 20068 20069 20070 20071 20072 20073 20074 20075 20076 20077 20078 20079 20080 20081 20082 20083 20084 20085 20086 20087 20088 20089 20090 20091 20092 20093 20094 20095 20096 20097 20098 20099 20100 20101 20102 20103 20104 20105 20106 20107 20108 20109 20110 20111 20112 20113 20114 20115 20116 20117 20118 20119 20120 20121 20122 20123 20124 20125 20126 20127 20128 20129 20130 20131 20132 20133 20134 20135 20136 20137 20138 20139 20140 20141 20142 20143 20144 20145 20146 20147 20148 20149 20150 20151 20152 20153 20154 20155 20156 20157 20158 20159 20160 20161 20162 20163 20164 20165 20166 20167 20168 20169 20170 20171 20172 20173 20174 20175 20176 20177 20178 20179 20180 20181 20182 20183 20184 20185 20186 20187 20188 20189 20190 20191 20192 20193 20194 20195 20196 20197 20198 20199 20200 20201 20202 20203 20204 20205 20206 20207 20208 20209 20210 20211 20212 20213 20214 20215 20216 20217 20218 20219 20220 20221 20222 20223 20224 20225 20226 20227 20228 20229 20230 20231 20232 20233 20234 20235 20236 20237 20238 20239 20240 20241 20242 20243 20244 20245 20246 20247 20248 20249 20250 20251 20252 20253 20254 20255 20256 20257 20258 20259 20260 20261 20262 20263 20264 20265 20266 20267 20268 20269 20270 20271 20272 20273 20274 20275 20276 20277 20278 20279 20280 20281 20282 20283 20284 20285 20286 20287 20288 20289 20290 20291 20292 20293 20294 20295 20296 20297 20298 20299 20300 20301 20302 20303 20304 20305 20306 20307 20308 20309 20310 20311 20312 20313 20314 20315 20316 20317 20318 20319 20320 20321 20322 20323 20324 20325 20326 20327 20328 20329 20330 20331 20332 20333 20334 20335 20336 20337 20338 20339 20340 20341 20342 20343 20344 20345 20346 20347 20348 20349 20350 20351 20352 20353 20354 20355 20356 20357 20358 20359 20360 20361 20362 20363 20364 20365 20366 20367 20368 20369 20370 20371 20372 20373 20374 20375 20376 20377 20378 20379 20380 20381 20382 20383 20384 20385 20386 20387 20388 20389 20390 20391 20392 20393 20394 20395 20396 20397 20398 20399 20400 20401 20402 20403 20404 20405 20406 20407 20408 20409 20410 20411 20412 20413 20414 20415 20416 20417 20418 20419 20420 20421 20422 20423 20424 20425 20426 20427 20428 20429 20430 20431 20432 20433 20434 20435 20436 20437 20438 20439 20440 20441 20442 20443 20444 20445 20446 20447 20448 20449 20450 20451 20452 20453 20454 20455 20456 20457 20458 20459 20460 20461 20462 20463 20464 20465 20466 20467 20468 20469 20470 20471 20472 20473 20474 20475 20476 20477 20478 20479 20480 20481 20482 20483 20484 20485 20486 20487 20488 20489 20490 20491 20492 20493 20494 20495 20496 20497 20498 20499 20500 20501 20502 20503 20504 20505 20506 20507 20508 20509 20510 20511 20512 20513 20514 20515 20516 20517 20518 20519 20520 20521 20522 20523 20524 20525 20526 20527 20528 20529 20530 20531 20532 20533 20534 20535 20536 20537 20538 20539 20540 20541 20542 20543 20544 20545 20546 20547 20548 20549 20550 20551 20552 20553 20554 20555 20556 20557 20558 20559 20560 20561 20562 20563 20564 20565 20566 20567 20568 20569 20570 20571 20572 20573 20574 20575 20576 20577 20578 20579 20580 20581 20582 20583 20584 20585 20586 20587 20588 20589 20590 20591 20592 20593 20594 20595 20596 20597 20598 20599 20600 20601 20602 20603 20604 20605 20606 20607 20608 20609 20610 20611 20612 20613 20614 20615 20616 20617 20618 20619 20620 20621 20622 20623 20624 20625 20626 20627 20628 20629 20630 20631 20632 20633 20634 20635 20636 20637 20638 20639 20640 20641 20642 20643 20644 20645 20646 20647 20648 20649 20650 20651 20652 20653 20654 20655 20656 20657 20658 20659 20660 20661 20662 20663 20664 20665 20666 20667 20668 20669 20670 20671 20672 20673 20674 20675 20676 20677 20678 20679 20680 20681 20682 20683 20684 20685 20686 20687 20688 20689 20690 20691 20692 20693 20694 20695 20696 20697 20698 20699 20700 20701 20702 20703 20704 20705 20706 20707 20708 20709 20710 20711 20712 20713 20714 20715 20716 20717 20718 20719 20720 20721 20722 20723 20724 20725 20726 20727 20728 20729 20730 20731 20732 20733 20734 20735 20736 20737 20738 20739 20740 20741 20742 20743 20744 20745 20746 20747 20748 20749 20750 20751 20752 20753 20754 20755 20756 20757 20758 20759 20760 20761 20762 20763 20764 20765 20766 20767 20768 20769 20770 20771 20772 20773 20774 20775 20776 20777 20778 20779 20780 20781 20782 20783 20784 20785 20786 20787 20788 20789 20790 20791 20792 20793 20794 20795 20796 20797 20798 20799 20800 20801 20802 20803 20804 20805 20806 20807 20808 20809 20810 20811 20812 20813 20814 20815 20816 20817 20818 20819 20820 20821 20822 20823 20824 20825 20826 20827 20828 20829 20830 20831 20832 20833 20834 20835 20836 20837 20838 20839 20840 20841 20842 20843 20844 20845 20846 20847 20848 20849 20850 20851 20852 20853 20854 20855 20856 20857 20858 20859 20860 20861 20862 20863 20864 20865 20866 20867 20868 20869 20870 20871 20872 20873 20874 20875 20876 20877 20878 20879 20880 20881 20882 20883 20884 20885 20886 20887 20888 20889 20890 20891 20892 20893 20894 20895 20896 20897 20898 20899 20900 20901 20902 20903 20904 20905 20906 20907 20908 20909 20910 20911 20912 20913 20914 20915 20916 20917 20918 20919 20920 20921 20922 20923 20924 20925 20926 20927 20928 20929 20930 20931 20932 20933 20934 20935 20936 20937 20938 20939 20940 20941 20942 20943 20944 20945 20946 20947 20948 20949 20950 20951 20952 20953 20954 20955 20956 20957 20958 20959 20960 20961 20962 20963 20964 20965 20966 20967 20968 20969 20970 20971 20972 20973 20974 20975 20976 20977 20978 20979 20980 20981 20982 20983 20984 20985 20986 20987 20988 20989 20990 20991 20992 20993 20994 20995 20996 20997 20998 20999 21000 21001 21002 21003 21004 21005 21006 21007 21008 21009 21010 21011 21012 21013 21014 21015 21016 21017 21018 21019 21020 21021 21022 21023 21024 21025 21026 21027 21028 21029 21030 21031 21032 21033 21034 21035 21036 21037 21038 21039 21040 21041 21042 21043 21044 21045 21046 21047 21048 21049 21050 21051 21052 21053 21054 21055 21056 21057 21058 21059 21060 21061 21062 21063 21064 21065 21066 21067 21068 21069 21070 21071 21072 21073 21074 21075 21076 21077 21078 21079 21080 21081 21082 21083 21084 21085 21086 21087 21088 21089 21090 21091 21092 21093 21094 21095 21096 21097 21098 21099 21100 21101 21102 21103 21104 21105 21106 21107 21108 21109 21110 21111 21112 21113 21114 21115 21116 21117 21118 21119 21120 21121 21122 21123 21124 21125 21126 21127 21128 21129 21130 21131 21132 21133 21134 21135 21136 21137 21138 21139 21140 21141 21142 21143 21144 21145 21146 21147 21148 21149 21150 21151 21152 21153 21154 21155 21156 21157 21158 21159 21160 21161 21162 21163 21164 21165 21166 21167 21168 21169 21170 21171 21172 21173 21174 21175 21176 21177 21178 21179 21180 21181 21182 21183 21184 21185 21186 21187 21188 21189 21190 21191 21192 21193 21194 21195 21196 21197 21198 21199 21200 21201 21202 21203 21204 21205 21206 21207 21208 21209 21210 21211 21212 21213 21214 21215 21216 21217 21218 21219 21220 21221 21222 21223 21224 21225 21226 21227 21228 21229 21230 21231 21232 21233 21234 21235 21236 21237 21238 21239 21240 21241 21242 21243 21244 21245 21246 21247 21248 21249 21250 21251 21252 21253 21254 21255 21256 21257 21258 21259 21260 21261 21262 21263 21264 21265 21266 21267 21268 21269 21270 21271 21272 21273 21274 21275 21276 21277 21278 21279 21280 21281 21282 21283 21284 21285 21286 21287 21288 21289 21290 21291 21292 21293 21294 21295 21296 21297 21298 21299 21300 21301 21302 21303 21304 21305 21306 21307 21308 21309 21310 21311 21312 21313 21314 21315 21316 21317 21318 21319 21320 21321 21322 21323 21324 21325 21326 21327 21328 21329 21330 21331 21332 21333 21334 21335 21336 21337 21338 21339 21340 21341 21342 21343 21344 21345 21346 21347 21348 21349 21350 21351 21352 21353 21354 21355 21356 21357 21358 21359 21360 21361 21362 21363 21364 21365 21366 21367 21368 21369 21370 21371 21372 21373 21374 21375 21376 21377 21378 21379 21380 21381 21382 21383 21384 21385 21386 21387 21388 21389 21390 21391 21392 21393 21394 21395 21396 21397 21398 21399 21400 21401 21402 21403 21404 21405 21406 21407 21408 21409 21410 21411 21412 21413 21414 21415 21416 21417 21418 21419 21420 21421 21422 21423 21424 21425 21426 21427 21428 21429 21430 21431 21432 21433 21434 21435 21436 21437 21438 21439 21440 21441 21442 21443 21444 21445 21446 21447 21448 21449 21450 21451 21452 21453 21454 21455 21456 21457 21458 21459 21460 21461 21462 21463 21464 21465 21466 21467 21468 21469 21470 21471 21472 21473 21474 21475 21476 21477 21478 21479 21480 21481 21482 21483 21484 21485 21486 21487 21488 21489 21490 21491 21492 21493 21494 21495 21496 21497 21498 21499 21500 21501 21502 21503 21504 21505 21506 21507 21508 21509 21510 21511 21512 21513 21514 21515 21516 21517 21518 21519 21520 21521 21522 21523 21524 21525 21526 21527 21528 21529 21530 21531 21532 21533 21534 21535 21536 21537 21538 21539 21540 21541 21542 21543 21544 21545 21546 21547 21548 21549 21550 21551 21552 21553 21554 21555 21556 21557 21558 21559 21560 21561 21562 21563 21564 21565 21566 21567 21568 21569 21570 21571 21572 21573 21574 21575 21576 21577 21578 21579 21580 21581 21582 21583 21584 21585 21586 21587 21588 21589 21590 21591 21592 21593 21594 21595 21596 21597 21598 21599 21600 21601 21602 21603 21604 21605 21606 21607 21608 21609 21610 21611 21612 21613 21614 21615 21616 21617 21618 21619 21620 21621 21622 21623 21624 21625 21626 21627 21628 21629 21630 21631 21632 21633 21634 21635 21636 21637 21638 21639 21640 21641 21642 21643 21644 21645 21646 21647 21648 21649 21650 21651 21652 21653 21654 21655 21656 21657 21658 21659 21660 21661 21662 21663 21664 21665 21666 21667 21668 21669 21670 21671 21672 21673 21674 21675 21676 21677 21678 21679 21680 21681 21682 21683 21684 21685 21686 21687 21688 21689 21690 21691 21692 21693 21694 21695 21696 21697 21698 21699 21700 21701 21702 21703 21704 21705 21706 21707 21708 21709 21710 21711 21712 21713 21714 21715 21716 21717 21718 21719 21720 21721 21722 21723 21724 21725 21726 21727 21728 21729 21730 21731 21732 21733 21734 21735 21736 21737 21738 21739 21740 21741 21742 21743 21744 21745 21746 21747 21748 21749 21750 21751 21752 21753 21754 21755 21756 21757 21758 21759 21760 21761 21762 21763 21764 21765 21766 21767 21768 21769 21770 21771 21772 21773 21774 21775 21776 21777 21778 21779 21780 21781 21782 21783 21784 21785 21786 21787 21788 21789 21790 21791 21792 21793 21794 21795 21796 21797 21798 21799 21800 21801 21802 21803 21804 21805 21806 21807 21808 21809 21810 21811 21812 21813 21814 21815 21816 21817 21818 21819 21820 21821 21822 21823 21824 21825 21826 21827 21828 21829 21830 21831 21832 21833 21834 21835 21836 21837 21838 21839 21840 21841 21842 21843 21844 21845 21846 21847 21848 21849 21850 21851 21852 21853 21854 21855 21856 21857 21858 21859 21860 21861 21862 21863 21864 21865 21866 21867 21868 21869 21870 21871 21872 21873 21874 21875 21876 21877 21878 21879 21880 21881 21882 21883 21884 21885 21886 21887 21888 21889 21890 21891 21892 21893 21894 21895 21896 21897 21898 21899 21900 21901 21902 21903 21904 21905 21906 21907 21908 21909 21910 21911 21912 21913 21914 21915 21916 21917 21918 21919 21920 21921 21922 21923 21924 21925 21926 21927 21928 21929 21930 21931 21932 21933 21934 21935 21936 21937 21938 21939 21940 21941 21942 21943 21944 21945 21946 21947 21948 21949 21950 21951 21952 21953 21954 21955 21956 21957 21958 21959 21960 21961 21962 21963 21964 21965 21966 21967 21968 21969 21970 21971 21972 21973 21974 21975 21976 21977 21978 21979 21980 21981 21982 21983 21984 21985 21986 21987 21988 21989 21990 21991 21992 21993 21994 21995 21996 21997 21998 21999 22000 22001 22002 22003 22004 22005 22006 22007 22008 22009 22010 22011 22012 22013 22014 22015 22016 22017 22018 22019 22020 22021 22022 22023 22024 22025 22026 22027 22028 22029 22030 22031 22032 22033 22034 22035 22036 22037 22038 22039 22040 22041 22042 22043 22044 22045 22046 22047 22048 22049 22050 22051 22052 22053 22054 22055 22056 22057 22058 22059 22060 22061 22062 22063 22064 22065 22066 22067 22068 22069 22070 22071 22072 22073 22074 22075 22076 22077 22078 22079 22080 22081 22082 22083 22084 22085 22086 22087 22088 22089 22090 22091 22092 22093 22094 22095 22096 22097 22098 22099 22100 22101 22102 22103 22104 22105 22106 22107 22108 22109 22110 22111 22112 22113 22114 22115 22116 22117 22118 22119 22120 22121 22122 22123 22124 22125 22126 22127 22128 22129 22130 22131 22132 22133 22134 22135 22136 22137 22138 22139 22140 22141 22142 22143 22144 22145 22146 22147 22148 22149 22150 22151 22152 22153 22154 22155 22156 22157 22158 22159 22160 22161 22162 22163 22164 22165 22166 22167 22168 22169 22170 22171 22172 22173 22174 22175 22176 22177 22178 22179 22180 22181 22182 22183 22184 22185 22186 22187 22188 22189 22190 22191 22192 22193 22194 22195 22196 22197 22198 22199 22200 22201 22202 22203 22204 22205 22206 22207 22208 22209 22210 22211 22212 22213 22214 22215 22216 22217 22218 22219 22220 22221 22222 22223 22224 22225 22226 22227 22228 22229 22230 22231 22232 22233 22234 22235 22236 22237 22238 22239 22240 22241 22242 22243 22244 22245 22246 22247 22248 22249 22250 22251 22252 22253 22254 22255 22256 22257 22258 22259 22260 22261 22262 22263 22264 22265 22266 22267 22268 22269 22270 22271 22272 22273 22274 22275 22276 22277 22278 22279 22280 22281 22282 22283 22284 22285 22286 22287 22288 22289 22290 22291 22292 22293 22294 22295 22296 22297 22298 22299 22300 22301 22302 22303 22304 22305 22306 22307 22308 22309 22310 22311 22312 22313 22314 22315 22316 22317 22318 22319 22320 22321 22322 22323 22324 22325 22326 22327 22328 22329 22330 22331 22332 22333 22334 22335 22336 22337 22338 22339 22340 22341 22342 22343 22344 22345 22346 22347 22348 22349 22350 22351 22352 22353 22354 22355 22356 22357 22358 22359 22360 22361 22362 22363 22364 22365 22366 22367 22368 22369 22370 22371 22372 22373 22374 22375 22376 22377 22378 22379 22380 22381 22382 22383 22384 22385 22386 22387 22388 22389 22390 22391 22392 22393 22394 22395 22396 22397 22398 22399 22400 22401 22402 22403 22404 22405 22406 22407 22408 22409 22410 22411 22412 22413 22414 22415 22416 22417 22418 22419 22420 22421 22422 22423 22424 22425 22426 22427 22428 22429 22430 22431 22432 22433 22434 22435 22436 22437 22438 22439 22440 22441 22442 22443 22444 22445 22446 22447 22448 22449 22450 22451 22452 22453 22454 22455 22456 22457 22458 22459 22460 22461 22462 22463 22464 22465 22466 22467 22468 22469 22470 22471 22472 22473 22474 22475 22476 22477 22478 22479 22480 22481 22482 22483 22484 22485 22486 22487 22488 22489 22490 22491 22492 22493 22494 22495 22496 22497 22498 22499 22500 22501 22502 22503 22504 22505 22506 22507 22508 22509 22510 22511 22512 22513 22514 22515 22516 22517 22518 22519 22520 22521 22522 22523 22524 22525 22526 22527 22528 22529 22530 22531 22532 22533 22534 22535 22536 22537 22538 22539 22540 22541 22542 22543 22544 22545 22546 22547 22548 22549 22550 22551 22552 22553 22554 22555 22556 22557 22558 22559 22560 22561 22562 22563 22564 22565 22566 22567 22568 22569 22570 22571 22572 22573 22574 22575 22576 22577 22578 22579 22580 22581 22582 22583 22584 22585 22586 22587 22588 22589 22590 22591 22592 22593 22594 22595 22596 22597 22598 22599 22600 22601 22602 22603 22604 22605 22606 22607 22608 22609 22610 22611 22612 22613 22614 22615 22616 22617 22618 22619 22620 22621 22622 22623 22624 22625 22626 22627 22628 22629 22630 22631 22632 22633 22634 22635 22636 22637 22638 22639 22640 22641 22642 22643 22644 22645 22646 22647 22648 22649 22650 22651 22652 22653 22654 22655 22656 22657 22658 22659 22660 22661 22662 22663 22664 22665 22666 22667 22668 22669 22670 22671 22672 22673 22674 22675 22676 22677 22678 22679 22680 22681 22682 22683 22684 22685 22686 22687 22688 22689 22690 22691 22692 22693 22694 22695 22696 22697 22698 22699 22700 22701 22702 22703 22704 22705 22706 22707 22708 22709 22710 22711 22712 22713 22714 22715 22716 22717 22718 22719 22720 22721 22722 22723 22724 22725 22726 22727 22728 22729 22730 22731 22732 22733 22734 22735 22736 22737 22738 22739 22740 22741 22742 22743 22744 22745 22746 22747 22748 22749 22750 22751 22752 22753 22754 22755 22756 22757 22758 22759 22760 22761 22762 22763 22764 22765 22766 22767 22768 22769 22770 22771 22772 22773 22774 22775 22776 22777 22778 22779 22780 22781 22782 22783 22784 22785 22786 22787 22788 22789 22790 22791 22792 22793 22794 22795 22796 22797 22798 22799 22800 22801 22802 22803 22804 22805 22806 22807 22808 22809 22810 22811 22812 22813 22814 22815 22816 22817 22818 22819 22820 22821 22822 22823 22824 22825 22826 22827 22828 22829 22830 22831 22832 22833 22834 22835 22836 22837 22838 22839 22840 22841 22842 22843 22844 22845 22846 22847 22848 22849 22850 22851 22852 22853 22854 22855 22856 22857 22858 22859 22860 22861 22862 22863 22864 22865 22866 22867 22868 22869 22870 22871 22872 22873 22874 22875 22876 22877 22878 22879 22880 22881 22882 22883 22884 22885 22886 22887 22888 22889 22890 22891 22892 22893 22894 22895 22896 22897 22898 22899 22900 22901 22902 22903 22904 22905 22906 22907 22908 22909 22910 22911 22912 22913 22914 22915 22916 22917 22918 22919 22920 22921 22922 22923 22924 22925 22926 22927 22928 22929 22930 22931 22932 22933 22934 22935 22936 22937 22938 22939 22940 22941 22942 22943 22944 22945 22946 22947 22948 22949 22950 22951 22952 22953 22954 22955 22956 22957 22958 22959 22960 22961 22962 22963 22964 22965 22966 22967 22968 22969 22970 22971 22972 22973 22974 22975 22976 22977 22978 22979 22980 22981 22982 22983 22984 22985 22986 22987 22988 22989 22990 22991 22992 22993 22994 22995 22996 22997 22998 22999 23000 23001 23002 23003 23004 23005 23006 23007 23008 23009 23010 23011 23012 23013 23014 23015 23016 23017 23018 23019 23020 23021 23022 23023 23024 23025 23026 23027 23028 23029 23030 23031 23032 23033 23034 23035 23036 23037 23038 23039 23040 23041 23042 23043 23044 23045 23046 23047 23048 23049 23050 23051 23052 23053 23054 23055 23056 23057 23058 23059 23060 23061 23062 23063 23064 23065 23066 23067 23068 23069 23070 23071 23072 23073 23074 23075 23076 23077 23078 23079 23080 23081 23082 23083 23084 23085 23086 23087 23088 23089 23090 23091 23092 23093 23094 23095 23096 23097 23098 23099 23100 23101 23102 23103 23104 23105 23106 23107 23108 23109 23110 23111 23112 23113 23114 23115 23116 23117 23118 23119 23120 23121 23122 23123 23124 23125 23126 23127 23128 23129 23130 23131 23132 23133 23134 23135 23136 23137 23138 23139 23140 23141 23142 23143 23144 23145 23146 23147 23148 23149 23150 23151 23152 23153 23154 23155 23156 23157 23158 23159 23160 23161 23162 23163 23164 23165 23166 23167 23168 23169 23170 23171 23172 23173 23174 23175 23176 23177 23178 23179 23180 23181 23182 23183 23184 23185 23186 23187 23188 23189 23190 23191 23192 23193 23194 23195 23196 23197 23198 23199 23200 23201 23202 23203 23204 23205 23206 23207 23208 23209 23210 23211 23212 23213 23214 23215 23216 23217 23218 23219 23220 23221 23222 23223 23224 23225 23226 23227 23228 23229 23230 23231 23232 23233 23234 23235 23236 23237 23238 23239 23240 23241 23242 23243 23244 23245 23246 23247 23248 23249 23250 23251 23252 23253 23254 23255 23256 23257 23258 23259 23260 23261 23262 23263 23264 23265 23266 23267 23268 23269 23270 23271 23272 23273 23274 23275 23276 23277 23278 23279 23280 23281 23282 23283 23284 23285 23286 23287 23288 23289 23290 23291 23292 23293 23294 23295 23296 23297 23298 23299 23300 23301 23302 23303 23304 23305 23306 23307 23308 23309 23310 23311 23312 23313 23314 23315 23316 23317 23318 23319 23320 23321 23322 23323 23324 23325 23326 23327 23328 23329 23330 23331 23332 23333 23334 23335 23336 23337 23338 23339 23340 23341 23342 23343 23344 23345 23346 23347 23348 23349 23350 23351 23352 23353 23354 23355 23356 23357 23358 23359 23360 23361 23362 23363 23364 23365 23366 23367 23368 23369 23370 23371 23372 23373 23374 23375 23376 23377 23378 23379 23380 23381 23382 23383 23384 23385 23386 23387 23388 23389 23390 23391 23392 23393 23394 23395 23396 23397 23398 23399 23400 23401 23402 23403 23404 23405 23406 23407 23408 23409 23410 23411 23412 23413 23414 23415 23416 23417 23418 23419 23420 23421 23422 23423 23424 23425 23426 23427 23428 23429 23430 23431 23432 23433 23434 23435 23436 23437 23438 23439 23440 23441 23442 23443 23444 23445 23446 23447 23448 23449 23450 23451 23452 23453 23454 23455 23456 23457 23458 23459 23460 23461 23462 23463 23464 23465 23466 23467 23468 23469 23470 23471 23472 23473 23474 23475 23476 23477 23478 23479 23480 23481 23482 23483 23484 23485 23486 23487 23488 23489 23490 23491 23492 23493 23494 23495 23496 23497 23498 23499 23500 23501 23502 23503 23504 23505 23506 23507 23508 23509 23510 23511 23512 23513 23514 23515 23516 23517 23518 23519 23520 23521 23522 23523 23524 23525 23526 23527 23528 23529 23530 23531 23532 23533 23534 23535 23536 23537 23538 23539 23540 23541 23542 23543 23544 23545 23546 23547 23548 23549 23550 23551 23552 23553 23554 23555 23556 23557 23558 23559 23560 23561 23562 23563 23564 23565 23566 23567 23568 23569 23570 23571 23572 23573 23574 23575 23576 23577 23578 23579 23580 23581 23582 23583 23584 23585 23586 23587 23588 23589 23590 23591 23592 23593 23594 23595 23596 23597 23598 23599 23600 23601 23602 23603 23604 23605 23606 23607 23608 23609 23610 23611 23612 23613 23614 23615 23616 23617 23618 23619 23620 23621 23622 23623 23624 23625 23626 23627 23628 23629 23630 23631 23632 23633 23634 23635 23636 23637 23638 23639 23640 23641 23642 23643 23644 23645 23646 23647 23648 23649 23650 23651 23652 23653 23654 23655 23656 23657 23658 23659 23660 23661 23662 23663 23664 23665 23666 23667 23668 23669 23670 23671 23672 23673 23674 23675 23676 23677 23678 23679 23680 23681 23682 23683 23684 23685 23686 23687 23688 23689 23690 23691 23692 23693 23694 23695 23696 23697 23698 23699 23700 23701 23702 23703 23704 23705 23706 23707 23708 23709 23710 23711 23712 23713 23714 23715 23716 23717 23718 23719 23720 23721 23722 23723 23724 23725 23726 23727 23728 23729 23730 23731 23732 23733 23734 23735 23736 23737 23738 23739 23740 23741 23742 23743 23744 23745 23746 23747 23748 23749 23750 23751 23752 23753 23754 23755 23756 23757 23758 23759 23760 23761 23762 23763 23764 23765 23766 23767 23768 23769 23770 23771 23772 23773 23774 23775 23776 23777 23778 23779 23780 23781 23782 23783 23784 23785 23786 23787 23788 23789 23790 23791 23792 23793 23794 23795 23796 23797 23798 23799 23800 23801 23802 23803 23804 23805 23806 23807 23808 23809 23810 23811 23812 23813 23814 23815 23816 23817 23818 23819 23820 23821 23822 23823 23824 23825 23826 23827 23828 23829 23830 23831 23832 23833 23834 23835 23836 23837 23838 23839 23840 23841 23842 23843 23844 23845 23846 23847 23848 23849 23850 23851 23852 23853 23854 23855 23856 23857 23858 23859 23860 23861 23862 23863 23864 23865 23866 23867 23868 23869 23870 23871 23872 23873 23874 23875 23876 23877 23878 23879 23880 23881 23882 23883 23884 23885 23886 23887 23888 23889 23890 23891 23892 23893 23894 23895 23896 23897 23898 23899 23900 23901 23902 23903 23904 23905 23906 23907 23908 23909 23910 23911 23912 23913 23914 23915 23916 23917 23918 23919 23920 23921 23922 23923 23924 23925 23926 23927 23928 23929 23930 23931 23932 23933 23934 23935 23936 23937 23938 23939 23940 23941 23942 23943 23944 23945 23946 23947 23948 23949 23950 23951 23952 23953 23954 23955 23956 23957 23958 23959 23960 23961 23962 23963 23964 23965 23966 23967 23968 23969 23970 23971 23972 23973 23974 23975 23976 23977 23978 23979 23980 23981 23982 23983 23984 23985 23986 23987 23988 23989 23990 23991 23992 23993 23994 23995 23996 23997 23998 23999 24000 24001 24002 24003 24004 24005 24006 24007 24008 24009 24010 24011 24012 24013 24014 24015 24016 24017 24018 24019 24020 24021 24022 24023 24024 24025 24026 24027 24028 24029 24030 24031 24032 24033 24034 24035 24036 24037 24038 24039 24040 24041 24042 24043 24044 24045 24046 24047 24048 24049 24050 24051 24052 24053 24054 24055 24056 24057 24058 24059 24060 24061 24062 24063 24064 24065 24066 24067 24068 24069 24070 24071 24072 24073 24074 24075 24076 24077 24078 24079 24080 24081 24082 24083 24084 24085 24086 24087 24088 24089 24090 24091 24092 24093 24094 24095 24096 24097 24098 24099 24100 24101 24102 24103 24104 24105 24106 24107 24108 24109 24110 24111 24112 24113 24114 24115 24116 24117 24118 24119 24120 24121 24122 24123 24124 24125 24126 24127 24128 24129 24130 24131 24132 24133 24134 24135 24136 24137 24138 24139 24140 24141 24142 24143 24144 24145 24146 24147 24148 24149 24150 24151 24152 24153 24154 24155 24156 24157 24158 24159 24160 24161 24162 24163 24164 24165 24166 24167 24168 24169 24170 24171 24172 24173 24174 24175 24176 24177 24178 24179 24180 24181 24182 24183 24184 24185 24186 24187 24188 24189 24190 24191 24192 24193 24194 24195 24196 24197 24198 24199 24200 24201 24202 24203 24204 24205 24206 24207 24208 24209 24210 24211 24212 24213 24214 24215 24216 24217 24218 24219 24220 24221 24222 24223 24224 24225 24226 24227 24228 24229 24230 24231 24232 24233 24234 24235 24236 24237 24238 24239 24240 24241 24242 24243 24244 24245 24246 24247 24248 24249 24250 24251 24252 24253 24254 24255 24256 24257 24258 24259 24260 24261 24262 24263 24264 24265 24266 24267 24268 24269 24270 24271 24272 24273 24274 24275 24276 24277 24278 24279 24280 24281 24282 24283 24284 24285 24286 24287 24288 24289 24290 24291 24292 24293 24294 24295 24296 24297 24298 24299 24300 24301 24302 24303 24304 24305 24306 24307 24308 24309 24310 24311 24312 24313 24314 24315 24316 24317 24318 24319 24320 24321 24322 24323 24324 24325 24326 24327 24328 24329 24330 24331 24332 24333 24334 24335 24336 24337 24338 24339 24340 24341 24342 24343 24344 24345 24346 24347 24348 24349 24350 24351 24352 24353 24354 24355 24356 24357 24358 24359 24360 24361 24362 24363 24364 24365 24366 24367 24368 24369 24370 24371 24372 24373 24374 24375 24376 24377 24378 24379 24380 24381 24382 24383 24384 24385 24386 24387 24388 24389 24390 24391 24392 24393 24394 24395 24396 24397 24398 24399 24400 24401 24402 24403 24404 24405 24406 24407 24408 24409 24410 24411 24412 24413 24414 24415 24416 24417 24418 24419 24420 24421 24422 24423 24424 24425 24426 24427 24428 24429 24430 24431 24432 24433 24434 24435 24436 24437 24438 24439 24440 24441 24442 24443 24444 24445 24446 24447 24448 24449 24450 24451 24452 24453 24454 24455 24456 24457 24458 24459 24460 24461 24462 24463 24464 24465 24466 24467 24468 24469 24470 24471 24472 24473 24474 24475 24476 24477 24478 24479 24480 24481 24482 24483 24484 24485 24486 24487 24488 24489 24490 24491 24492 24493 24494 24495 24496 24497 24498 24499 24500 24501 24502 24503 24504 24505 24506 24507 24508 24509 24510 24511 24512 24513 24514 24515 24516 24517 24518 24519 24520 24521 24522 24523 24524 24525 24526 24527 24528 24529 24530 24531 24532 24533 24534 24535 24536 24537 24538 24539 24540 24541 24542 24543 24544 24545 24546 24547 24548 24549 24550 24551 24552 24553 24554 24555 24556 24557 24558 24559 24560 24561 24562 24563 24564 24565 24566 24567 24568 24569 24570 24571 24572 24573 24574 24575 24576 24577 24578 24579 24580 24581 24582 24583 24584 24585 24586 24587 24588 24589 24590 24591 24592 24593 24594 24595 24596 24597 24598 24599 24600 24601 24602 24603 24604 24605 24606 24607 24608 24609 24610 24611 24612 24613 24614 24615 24616 24617 24618 24619 24620 24621 24622 24623 24624 24625 24626 24627 24628 24629 24630 24631 24632 24633 24634 24635 24636 24637 24638 24639 24640 24641 24642 24643 24644 24645 24646 24647 24648 24649 24650 24651 24652 24653 24654 24655 24656 24657 24658 24659 24660 24661 24662 24663 24664 24665 24666 24667 24668 24669 24670 24671 24672 24673 24674 24675 24676 24677 24678 24679 24680 24681 24682 24683 24684 24685 24686 24687 24688 24689 24690 24691 24692 24693 24694 24695 24696 24697 24698 24699 24700 24701 24702 24703 24704 24705 24706 24707 24708 24709 24710 24711 24712 24713 24714 24715 24716 24717 24718 24719 24720 24721 24722 24723 24724 24725 24726 24727 24728 24729 24730 24731 24732 24733 24734 24735 24736 24737 24738 24739 24740 24741 24742 24743 24744 24745 24746 24747 24748 24749 24750 24751 24752 24753 24754 24755 24756 24757 24758 24759 24760 24761 24762 24763 24764 24765 24766 24767 24768 24769 24770 24771 24772 24773 24774 24775 24776 24777 24778 24779 24780 24781 24782 24783 24784 24785 24786 24787 24788 24789 24790 24791 24792 24793 24794 24795 24796 24797 24798 24799 24800 24801 24802 24803 24804 24805 24806 24807 24808 24809 24810 24811 24812 24813 24814 24815 24816 24817 24818 24819 24820 24821 24822 24823 24824 24825 24826 24827 24828 24829 24830 24831 24832 24833 24834 24835 24836 24837 24838 24839 24840 24841 24842 24843 24844 24845 24846 24847 24848 24849 24850 24851 24852 24853 24854 24855 24856 24857 24858 24859 24860 24861 24862 24863 24864 24865 24866 24867 24868 24869 24870 24871 24872 24873 24874 24875 24876 24877 24878 24879 24880 24881 24882 24883 24884 24885 24886 24887 24888 24889 24890 24891 24892 24893 24894 24895 24896 24897 24898 24899 24900 24901 24902 24903 24904 24905 24906 24907 24908 24909 24910 24911 24912 24913 24914 24915 24916 24917 24918 24919 24920 24921 24922 24923 24924 24925 24926 24927 24928 24929 24930 24931 24932 24933 24934 24935 24936 24937 24938 24939 24940 24941 24942 24943 24944 24945 24946 24947 24948 24949 24950 24951 24952 24953 24954 24955 24956 24957 24958 24959 24960 24961 24962 24963 24964 24965 24966 24967 24968 24969 24970 24971 24972 24973 24974 24975 24976 24977 24978 24979 24980 24981 24982 24983 24984 24985 24986 24987 24988 24989 24990 24991 24992 24993 24994 24995 24996 24997 24998 24999 25000 25001 25002 25003 25004 25005 25006 25007 25008 25009 25010 25011 25012 25013 25014 25015 25016 25017 25018 25019 25020 25021 25022 25023 25024 25025 25026 25027 25028 25029 25030 25031 25032 25033 25034 25035 25036 25037 25038 25039 25040 25041 25042 25043 25044 25045 25046 25047 25048 25049 25050 25051 25052 25053 25054 25055 25056 25057 25058 25059 25060 25061 25062 25063 25064 25065 25066 25067 25068 25069 25070 25071 25072 25073 25074 25075 25076 25077 25078 25079 25080 25081 25082 25083 25084 25085 25086 25087 25088 25089 25090 25091 25092 25093 25094 25095 25096 25097 25098 25099 25100 25101 25102 25103 25104 25105 25106 25107 25108 25109 25110 25111 25112 25113 25114 25115 25116 25117 25118 25119 25120 25121 25122 25123 25124 25125 25126 25127 25128 25129 25130 25131 25132 25133 25134 25135 25136 25137 25138 25139 25140 25141 25142 25143 25144 25145 25146 25147 25148 25149 25150 25151 25152 25153 25154 25155 25156 25157 25158 25159 25160 25161 25162 25163 25164 25165 25166 25167 25168 25169 25170 25171 25172 25173 25174 25175 25176 25177 25178 25179 25180 25181 25182 25183 25184 25185 25186 25187 25188 25189 25190 25191 25192 25193 25194 25195 25196 25197 25198 25199 25200 25201 25202 25203 25204 25205 25206 25207 25208 25209 25210 25211 25212 25213 25214 25215 25216 25217 25218 25219 25220 25221 25222 25223 25224 25225 25226 25227 25228 25229 25230 25231 25232 25233 25234 25235 25236 25237 25238 25239 25240 25241 25242 25243 25244 25245 25246 25247 25248 25249 25250 25251 25252 25253 25254 25255 25256 25257 25258 25259 25260 25261 25262 25263 25264 25265 25266 25267 25268 25269 25270 25271 25272 25273 25274 25275 25276 25277 25278 25279 25280 25281 25282 25283 25284 25285 25286 25287 25288 25289 25290 25291 25292 25293 25294 25295 25296 25297 25298 25299 25300 25301 25302 25303 25304 25305 25306 25307 25308 25309 25310 25311 25312 25313 25314 25315 25316 25317 25318 25319 25320 25321 25322 25323 25324 25325 25326 25327 25328 25329 25330 25331 25332 25333 25334 25335 25336 25337 25338 25339 25340 25341 25342 25343 25344 25345 25346 25347 25348 25349 25350 25351 25352 25353 25354 25355 25356 25357 25358 25359 25360 25361 25362 25363 25364 25365 25366 25367 25368 25369 25370 25371 25372 25373 25374 25375 25376 25377 25378 25379 25380 25381 25382 25383 25384 25385 25386 25387 25388 25389 25390 25391 25392 25393 25394 25395 25396 25397 25398 25399 25400 25401 25402 25403 25404 25405 25406 25407 25408 25409 25410 25411 25412 25413 25414 25415 25416 25417 25418 25419 25420 25421 25422 25423 25424 25425 25426 25427 25428 25429 25430 25431 25432 25433 25434 25435 25436 25437 25438 25439 25440 25441 25442 25443 25444 25445 25446 25447 25448 25449 25450 25451 25452 25453 25454 25455 25456 25457 25458 25459 25460 25461 25462 25463 25464 25465 25466 25467 25468 25469 25470 25471 25472 25473 25474 25475 25476 25477 25478 25479 25480 25481 25482 25483 25484 25485 25486 25487 25488 25489 25490 25491 25492 25493 25494 25495 25496 25497 25498 25499 25500 25501 25502 25503 25504 25505 25506 25507 25508 25509 25510 25511 25512 25513 25514 25515 25516 25517 25518 25519 25520 25521 25522 25523 25524 25525 25526 25527 25528 25529 25530 25531 25532 25533 25534 25535 25536 25537 25538 25539 25540 25541 25542 25543 25544 25545 25546 25547 25548 25549 25550 25551 25552 25553 25554 25555 25556 25557 25558 25559 25560 25561 25562 25563 25564 25565 25566 25567 25568 25569 25570 25571 25572 25573 25574 25575 25576 25577 25578 25579 25580 25581 25582 25583 25584 25585 25586 25587 25588 25589 25590 25591 25592 25593 25594 25595 25596 25597 25598 25599 25600 25601 25602 25603 25604 25605 25606 25607 25608 25609 25610 25611 25612 25613 25614 25615 25616 25617 25618 25619 25620 25621 25622 25623 25624 25625 25626 25627 25628 25629 25630 25631 25632 25633 25634 25635 25636 25637 25638 25639 25640 25641 25642 25643 25644 25645 25646 25647 25648 25649 25650 25651 25652 25653 25654 25655 25656 25657 25658 25659 25660 25661 25662 25663 25664 25665 25666 25667 25668 25669 25670 25671 25672 25673 25674 25675 25676 25677 25678 25679 25680 25681 25682 25683 25684 25685 25686 25687 25688 25689 25690 25691 25692 25693 25694 25695 25696 25697 25698 25699 25700 25701 25702 25703 25704 25705 25706 25707 25708 25709 25710 25711 25712 25713 25714 25715 25716 25717 25718 25719 25720 25721 25722 25723 25724 25725 25726 25727 25728 25729 25730 25731 25732 25733 25734 25735 25736 25737 25738 25739 25740 25741 25742 25743 25744 25745 25746 25747 25748 25749 25750 25751 25752 25753 25754 25755 25756 25757 25758 25759 25760 25761 25762 25763 25764 25765 25766 25767 25768 25769 25770 25771 25772 25773 25774 25775 25776 25777 25778 25779 25780 25781 25782 25783 25784 25785 25786 25787 25788 25789 25790 25791 25792 25793 25794 25795 25796 25797 25798 25799 25800 25801 25802 25803 25804 25805 25806 25807 25808 25809 25810 25811 25812 25813 25814 25815 25816 25817 25818 25819 25820 25821 25822 25823 25824 25825 25826 25827 25828 25829 25830 25831 25832 25833 25834 25835 25836 25837 25838 25839 25840 25841 25842 25843 25844 25845 25846 25847 25848 25849 25850 25851 25852 25853 25854 25855 25856 25857 25858 25859 25860 25861 25862 25863 25864 25865 25866 25867 25868 25869 25870 25871 25872 25873 25874 25875 25876 25877 25878 25879 25880 25881 25882 25883 25884 25885 25886 25887 25888 25889 25890 25891 25892 25893 25894 25895 25896 25897 25898 25899 25900 25901 25902 25903 25904 25905 25906 25907 25908 25909 25910 25911 25912 25913 25914 25915 25916 25917 25918 25919 25920 25921 25922 25923 25924 25925 25926 25927 25928 25929 25930 25931 25932 25933 25934 25935 25936 25937 25938 25939 25940 25941 25942 25943 25944 25945 25946 25947 25948 25949 25950 25951 25952 25953 25954 25955 25956 25957 25958 25959 25960 25961 25962 25963 25964 25965 25966 25967 25968 25969 25970 25971 25972 25973 25974 25975 25976 25977 25978 25979 25980 25981 25982 25983 25984 25985 25986 25987 25988 25989 25990 25991 25992 25993 25994 25995 25996 25997 25998 25999 26000 26001 26002 26003 26004 26005 26006 26007 26008 26009 26010 26011 26012 26013 26014 26015 26016 26017 26018 26019 26020 26021 26022 26023 26024 26025 26026 26027 26028 26029 26030 26031 26032 26033 26034 26035 26036 26037 26038 26039 26040 26041 26042 26043 26044 26045 26046 26047 26048 26049 26050 26051 26052 26053 26054 26055 26056 26057 26058 26059 26060 26061 26062 26063 26064 26065 26066 26067 26068 26069 26070 26071 26072 26073 26074 26075 26076 26077 26078 26079 26080 26081 26082 26083 26084 26085 26086 26087 26088 26089 26090 26091 26092 26093 26094 26095 26096 26097 26098 26099 26100 26101 26102 26103 26104 26105 26106 26107 26108 26109 26110 26111 26112 26113 26114 26115 26116 26117 26118 26119 26120 26121 26122 26123 26124 26125 26126 26127 26128 26129 26130 26131 26132 26133 26134 26135 26136 26137 26138 26139 26140 26141 26142 26143 26144 26145 26146 26147 26148 26149 26150 26151 26152 26153 26154 26155 26156 26157 26158 26159 26160 26161 26162 26163 26164 26165 26166 26167 26168 26169 26170 26171 26172 26173 26174 26175 26176 26177 26178 26179 26180 26181 26182 26183 26184 26185 26186 26187 26188 26189 26190 26191 26192 26193 26194 26195 26196 26197 26198 26199 26200 26201 26202 26203 26204 26205 26206 26207 26208 26209 26210 26211 26212 26213 26214 26215 26216 26217 26218 26219 26220 26221 26222 26223 26224 26225 26226 26227 26228 26229 26230 26231 26232 26233 26234 26235 26236 26237 26238 26239 26240 26241 26242 26243 26244 26245 26246 26247 26248 26249 26250 26251 26252 26253 26254 26255 26256 26257 26258 26259 26260 26261 26262 26263 26264 26265 26266 26267 26268 26269 26270 26271 26272 26273 26274 26275 26276 26277 26278 26279 26280 26281 26282 26283 26284 26285 26286 26287 26288 26289 26290 26291 26292 26293 26294 26295 26296 26297 26298 26299 26300 26301 26302 26303 26304 26305 26306 26307 26308 26309 26310 26311 26312 26313 26314 26315 26316 26317 26318 26319 26320 26321 26322 26323 26324 26325 26326 26327 26328 26329 26330 26331 26332 26333 26334 26335 26336 26337 26338 26339 26340 26341 26342 26343 26344 26345 26346 26347 26348 26349 26350 26351 26352 26353 26354 26355 26356 26357 26358 26359 26360 26361 26362 26363 26364 26365 26366 26367 26368 26369 26370 26371 26372 26373 26374 26375 26376 26377 26378 26379 26380 26381 26382 26383 26384 26385 26386 26387 26388 26389 26390 26391 26392 26393 26394 26395 26396 26397 26398 26399 26400 26401 26402 26403 26404 26405 26406 26407 26408 26409 26410 26411 26412 26413 26414 26415 26416 26417 26418 26419 26420 26421 26422 26423 26424 26425 26426 26427 26428 26429 26430 26431 26432 26433 26434 26435 26436 26437 26438 26439 26440 26441 26442 26443 26444 26445 26446 26447 26448 26449 26450 26451 26452 26453 26454 26455 26456 26457 26458 26459 26460 26461 26462 26463 26464 26465 26466 26467 26468 26469 26470 26471 26472 26473 26474 26475 26476 26477 26478 26479 26480 26481 26482 26483 26484 26485 26486 26487 26488 26489 26490 26491 26492 26493 26494 26495 26496 26497 26498 26499 26500 26501 26502 26503 26504 26505 26506 26507 26508 26509 26510 26511 26512 26513 26514 26515 26516 26517 26518 26519 26520 26521 26522 26523 26524 26525 26526 26527 26528 26529 26530 26531 26532 26533 26534 26535 26536 26537 26538 26539 26540 26541 26542 26543 26544 26545 26546 26547 26548 26549 26550 26551 26552 26553 26554 26555 26556 26557 26558 26559 26560 26561 26562 26563 26564 26565 26566 26567 26568 26569 26570 26571 26572 26573 26574 26575 26576 26577 26578 26579 26580 26581 26582 26583 26584 26585 26586 26587 26588 26589 26590 26591 26592 26593 26594 26595 26596 26597 26598 26599 26600 26601 26602 26603 26604 26605 26606 26607 26608 26609 26610 26611 26612 26613 26614 26615 26616 26617 26618 26619 26620 26621 26622 26623 26624 26625 26626 26627 26628 26629 26630 26631 26632 26633 26634 26635 26636 26637 26638 26639 26640 26641 26642 26643 26644 26645 26646 26647 26648 26649 26650 26651 26652 26653 26654 26655 26656 26657 26658 26659 26660 26661 26662 26663 26664 26665 26666 26667 26668 26669 26670 26671 26672 26673 26674 26675 26676 26677 26678 26679 26680 26681 26682 26683 26684 26685 26686 26687 26688 26689 26690 26691 26692 26693 26694 26695 26696 26697 26698 26699 26700 26701 26702 26703 26704 26705 26706 26707 26708 26709 26710 26711 26712 26713 26714 26715 26716 26717 26718 26719 26720 26721 26722 26723 26724 26725 26726 26727 26728 26729 26730 26731 26732 26733 26734 26735 26736 26737 26738 26739 26740 26741 26742 26743 26744 26745 26746 26747 26748 26749 26750 26751 26752 26753 26754 26755 26756 26757 26758 26759 26760 26761 26762 26763 26764 26765 26766 26767 26768 26769 26770 26771 26772 26773 26774 26775 26776 26777 26778 26779 26780 26781 26782 26783 26784 26785 26786 26787 26788 26789 26790 26791 26792 26793 26794 26795 26796 26797 26798 26799 26800 26801 26802 26803 26804 26805 26806 26807 26808 26809 26810 26811 26812 26813 26814 26815 26816 26817 26818 26819 26820 26821 26822 26823 26824 26825 26826 26827 26828 26829 26830 26831 26832 26833 26834 26835 26836 26837 26838 26839 26840 26841 26842 26843 26844 26845 26846 26847 26848 26849 26850 26851 26852 26853 26854 26855 26856 26857 26858 26859 26860 26861 26862 26863 26864 26865 26866 26867 26868 26869 26870 26871 26872 26873 26874 26875 26876 26877 26878 26879 26880 26881 26882 26883 26884 26885 26886 26887 26888 26889 26890 26891 26892 26893 26894 26895 26896 26897 26898 26899 26900 26901 26902 26903 26904 26905 26906 26907 26908 26909 26910 26911 26912 26913 26914 26915 26916 26917 26918 26919 26920 26921 26922 26923 26924 26925 26926 26927 26928 26929 26930 26931 26932 26933 26934 26935 26936 26937 26938 26939 26940 26941 26942 26943 26944 26945 26946 26947 26948 26949 26950 26951 26952 26953 26954 26955 26956 26957 26958 26959 26960 26961 26962 26963 26964 26965 26966 26967 26968 26969 26970 26971 26972 26973 26974 26975 26976 26977 26978 26979 26980 26981 26982 26983 26984 26985 26986 26987 26988 26989 26990 26991 26992 26993 26994 26995 26996 26997 26998 26999 27000 27001 27002 27003 27004 27005 27006 27007 27008 27009 27010 27011 27012 27013 27014 27015 27016 27017 27018 27019 27020 27021 27022 27023 27024 27025 27026 27027 27028 27029 27030 27031 27032 27033 27034 27035 27036 27037 27038 27039 27040 27041 27042 27043 27044 27045 27046 27047 27048 27049 27050 27051 27052 27053 27054 27055 27056 27057 27058 27059 27060 27061 27062 27063 27064 27065 27066 27067 27068 27069 27070 27071 27072 27073 27074 27075 27076 27077 27078 27079 27080 27081 27082 27083 27084 27085 27086 27087 27088 27089 27090 27091 27092 27093 27094 27095 27096 27097 27098 27099 27100 27101 27102 27103 27104 27105 27106 27107 27108 27109 27110 27111 27112 27113 27114 27115 27116 27117 27118 27119 27120 27121 27122 27123 27124 27125 27126 27127 27128 27129 27130 27131 27132 27133 27134 27135 27136 27137 27138 27139 27140 27141 27142 27143 27144 27145 27146 27147 27148 27149 27150 27151 27152 27153 27154 27155 27156 27157 27158 27159 27160 27161 27162 27163 27164 27165 27166 27167 27168 27169 27170 27171 27172 27173 27174 27175 27176 27177 27178 27179 27180 27181 27182 27183 27184 27185 27186 27187 27188 27189 27190 27191 27192 27193 27194 27195 27196 27197 27198 27199 27200 27201 27202 27203 27204 27205 27206 27207 27208 27209 27210 27211 27212 27213 27214 27215 27216 27217 27218 27219 27220 27221 27222 27223 27224 27225 27226 27227 27228 27229 27230 27231 27232 27233 27234 27235 27236 27237 27238 27239 27240 27241 27242 27243 27244 27245 27246 27247 27248 27249 27250 27251 27252 27253 27254 27255 27256 27257 27258 27259 27260 27261 27262 27263 27264 27265 27266 27267 27268 27269 27270 27271 27272 27273 27274 27275 27276 27277 27278 27279 27280 27281 27282 27283 27284 27285 27286 27287 27288 27289 27290 27291 27292 27293 27294 27295 27296 27297 27298 27299 27300 27301 27302 27303 27304 27305 27306 27307 27308 27309 27310 27311 27312 27313 27314 27315 27316 27317 27318 27319 27320 27321 27322 27323 27324 27325 27326 27327 27328 27329 27330 27331 27332 27333 27334 27335 27336 27337 27338 27339 27340 27341 27342 27343 27344 27345 27346 27347 27348 27349 27350 27351 27352 27353 27354 27355 27356 27357 27358 27359 27360 27361 27362 27363 27364 27365 27366 27367 27368 27369 27370 27371 27372 27373 27374 27375 27376 27377 27378 27379 27380 27381 27382 27383 27384 27385 27386 27387 27388 27389 27390 27391 27392 27393 27394 27395 27396 27397 27398 27399 27400 27401 27402 27403 27404 27405 27406 27407 27408 27409 27410 27411 27412 27413 27414 27415 27416 27417 27418 27419 27420 27421 27422 27423 27424 27425 27426 27427 27428 27429 27430 27431 27432 27433 27434 27435 27436 27437 27438 27439 27440 27441 27442 27443 27444 27445 27446 27447 27448 27449 27450 27451 27452 27453 27454 27455 27456 27457 27458 27459 27460 27461 27462 27463 27464 27465 27466 27467 27468 27469 27470 27471 27472 27473 27474 27475 27476 27477 27478 27479 27480 27481 27482 27483 27484 27485 27486 27487 27488 27489 27490 27491 27492 27493 27494 27495 27496 27497 27498 27499 27500 27501 27502 27503 27504 27505 27506 27507 27508 27509 27510 27511 27512 27513 27514 27515 27516 27517 27518 27519 27520 27521 27522 27523 27524 27525 27526 27527 27528 27529 27530 27531 27532 27533 27534 27535 27536 27537 27538 27539 27540 27541 27542 27543 27544 27545 27546 27547 27548 27549 27550 27551 27552 27553 27554 27555 27556 27557 27558 27559 27560 27561 27562 27563 27564 27565 27566 27567 27568 27569 27570 27571 27572 27573 27574 27575 27576 27577 27578 27579 27580 27581 27582 27583 27584 27585 27586 27587 27588 27589 27590 27591 27592 27593 27594 27595 27596 27597 27598 27599 27600 27601 27602 27603 27604 27605 27606 27607 27608 27609 27610 27611 27612 27613 27614 27615 27616 27617 27618 27619 27620 27621 27622 27623 27624 27625 27626 27627 27628 27629 27630 27631 27632 27633 27634 27635 27636 27637 27638 27639 27640 27641 27642 27643 27644 27645 27646 27647 27648 27649 27650 27651 27652 27653 27654 27655 27656 27657 27658 27659 27660 27661 27662 27663 27664 27665 27666 27667 27668 27669 27670 27671 27672 27673 27674 27675 27676 27677 27678 27679 27680 27681 27682 27683 27684 27685 27686 27687 27688 27689 27690 27691 27692 27693 27694 27695 27696 27697 27698 27699 27700 27701 27702 27703 27704 27705 27706 27707 27708 27709 27710 27711 27712 27713 27714 27715 27716 27717 27718 27719 27720 27721 27722 27723 27724 27725 27726 27727 27728 27729 27730 27731 27732 27733 27734 27735 27736 27737 27738 27739 27740 27741 27742 27743 27744 27745 27746 27747 27748 27749 27750 27751 27752 27753 27754 27755 27756 27757 27758 27759 27760 27761 27762 27763 27764 27765 27766 27767 27768 27769 27770 27771 27772 27773 27774 27775 27776 27777 27778 27779 27780 27781 27782 27783 27784 27785 27786 27787 27788 27789 27790 27791 27792 27793 27794 27795 27796 27797 27798 27799 27800 27801 27802 27803 27804 27805 27806 27807 27808 27809 27810 27811 27812 27813 27814 27815 27816 27817 27818 27819 27820 27821 27822 27823 27824 27825 27826 27827 27828 27829 27830 27831 27832 27833 27834 27835 27836 27837 27838 27839 27840 27841 27842 27843 27844 27845 27846 27847 27848 27849 27850 27851 27852 27853 27854 27855 27856 27857 27858 27859 27860 27861 27862 27863 27864 27865 27866 27867 27868 27869 27870 27871 27872 27873 27874 27875 27876 27877 27878 27879 27880 27881 27882 27883 27884 27885 27886 27887 27888 27889 27890 27891 27892 27893 27894 27895 27896 27897 27898 27899 27900 27901 27902 27903 27904 27905 27906 27907 27908 27909 27910 27911 27912 27913 27914 27915 27916 27917 27918 27919 27920 27921 27922 27923 27924 27925 27926 27927 27928 27929 27930 27931 27932 27933 27934 27935 27936 27937 27938 27939 27940 27941 27942 27943 27944 27945 27946 27947 27948 27949 27950 27951 27952 27953 27954 27955 27956 27957 27958 27959 27960 27961 27962 27963 27964 27965 27966 27967 27968 27969 27970 27971 27972 27973 27974 27975 27976 27977 27978 27979 27980 27981 27982 27983 27984 27985 27986 27987 27988 27989 27990 27991 27992 27993 27994 27995 27996 27997 27998 27999 28000 28001 28002 28003 28004 28005 28006 28007 28008 28009 28010 28011 28012 28013 28014 28015 28016 28017 28018 28019 28020 28021 28022 28023 28024 28025 28026 28027 28028 28029 28030 28031 28032 28033 28034 28035 28036 28037 28038 28039 28040 28041 28042 28043 28044 28045 28046 28047 28048 28049 28050 28051 28052 28053 28054 28055 28056 28057 28058 28059 28060 28061 28062 28063 28064 28065 28066 28067 28068 28069 28070 28071 28072 28073 28074 28075 28076 28077 28078 28079 28080 28081 28082 28083 28084 28085 28086 28087 28088 28089 28090 28091 28092 28093 28094 28095 28096 28097 28098 28099 28100 28101 28102 28103 28104 28105 28106 28107 28108 28109 28110 28111 28112 28113 28114 28115 28116 28117 28118 28119 28120 28121 28122 28123 28124 28125 28126 28127 28128 28129 28130 28131 28132 28133 28134 28135 28136 28137 28138 28139 28140 28141 28142 28143 28144 28145 28146 28147 28148 28149 28150 28151 28152 28153 28154 28155 28156 28157 28158 28159 28160 28161 28162 28163 28164 28165 28166 28167 28168 28169 28170 28171 28172 28173 28174 28175 28176 28177 28178 28179 28180 28181 28182 28183 28184 28185 28186 28187 28188 28189 28190 28191 28192 28193 28194 28195 28196 28197 28198 28199 28200 28201 28202 28203 28204 28205 28206 28207 28208 28209 28210 28211 28212 28213 28214 28215 28216 28217 28218 28219 28220 28221 28222 28223 28224 28225 28226 28227 28228 28229 28230 28231 28232 28233 28234 28235 28236 28237 28238 28239 28240 28241 28242 28243 28244 28245 28246 28247 28248 28249 28250 28251 28252 28253 28254 28255 28256 28257 28258 28259 28260 28261 28262 28263 28264 28265 28266 28267 28268 28269 28270 28271 28272 28273 28274 28275 28276 28277 28278 28279 28280 28281 28282 28283 28284 28285 28286 28287 28288 28289 28290 28291 28292 28293 28294 28295 28296 28297 28298 28299 28300 28301 28302 28303 28304 28305 28306 28307 28308 28309 28310 28311 28312 28313 28314 28315 28316 28317 28318 28319 28320 28321 28322 28323 28324 28325 28326 28327 28328 28329 28330 28331 28332 28333 28334 28335 28336 28337 28338 28339 28340 28341 28342 28343 28344 28345 28346 28347 28348 28349 28350 28351 28352 28353 28354 28355 28356 28357 28358 28359 28360 28361 28362 28363 28364 28365 28366 28367 28368 28369 28370 28371 28372 28373 28374 28375 28376 28377 28378 28379 28380 28381 28382 28383 28384 28385 28386 28387 28388 28389 28390 28391 28392 28393 28394 28395 28396 28397 28398 28399 28400 28401 28402 28403 28404 28405 28406 28407 28408 28409 28410 28411 28412 28413 28414 28415 28416 28417 28418 28419 28420 28421 28422 28423 28424 28425 28426 28427 28428 28429 28430 28431 28432 28433 28434 28435 28436 28437 28438 28439 28440 28441 28442 28443 28444 28445 28446 28447 28448 28449 28450 28451 28452 28453 28454 28455 28456 28457 28458 28459 28460 28461 28462 28463 28464 28465 28466 28467 28468 28469 28470 28471 28472 28473 28474 28475 28476 28477 28478 28479 28480 28481 28482 28483 28484 28485 28486 28487 28488 28489 28490 28491 28492 28493 28494 28495 28496 28497 28498 28499 28500 28501 28502 28503 28504 28505 28506 28507 28508 28509 28510 28511 28512 28513 28514 28515 28516 28517 28518 28519 28520 28521 28522 28523 28524 28525 28526 28527 28528 28529 28530 28531 28532 28533 28534 28535 28536 28537 28538 28539 28540 28541 28542 28543 28544 28545 28546 28547 28548 28549 28550 28551 28552 28553 28554 28555 28556 28557 28558 28559 28560 28561 28562 28563 28564 28565 28566 28567 28568 28569 28570 28571 28572 28573 28574 28575 28576 28577 28578 28579 28580 28581 28582 28583 28584 28585 28586 28587 28588 28589 28590 28591 28592 28593 28594 28595 28596 28597 28598 28599 28600 28601 28602 28603 28604 28605 28606 28607 28608 28609 28610 28611 28612 28613 28614 28615 28616 28617 28618 28619 28620 28621 28622 28623 28624 28625 28626 28627 28628 28629 28630 28631 28632 28633 28634 28635 28636 28637 28638 28639 28640 28641 28642 28643 28644 28645 28646 28647 28648 28649 28650 28651 28652 28653 28654 28655 28656 28657 28658 28659 28660 28661 28662 28663 28664 28665 28666 28667 28668 28669 28670 28671 28672 28673 28674 28675 28676 28677 28678 28679 28680 28681 28682 28683 28684 28685 28686 28687 28688 28689 28690 28691 28692 28693 28694 28695 28696 28697 28698 28699 28700 28701 28702 28703 28704 28705 28706 28707 28708 28709 28710 28711 28712 28713 28714 28715 28716 28717 28718 28719 28720 28721 28722 28723 28724 28725 28726 28727 28728 28729 28730 28731 28732 28733 28734 28735 28736 28737 28738 28739 28740 28741 28742 28743 28744 28745 28746 28747 28748 28749 28750 28751 28752 28753 28754 28755 28756 28757 28758 28759 28760 28761 28762 28763 28764 28765 28766 28767 28768 28769 28770 28771 28772 28773 28774 28775 28776 28777 28778 28779 28780 28781 28782 28783 28784 28785 28786 28787 28788 28789 28790 28791 28792 28793 28794 28795 28796 28797 28798 28799 28800 28801 28802 28803 28804 28805 28806 28807 28808 28809 28810 28811 28812 28813 28814 28815 28816 28817 28818 28819 28820 28821 28822 28823 28824 28825 28826 28827 28828 28829 28830 28831 28832 28833 28834 28835 28836 28837 28838 28839 28840 28841 28842 28843 28844 28845 28846 28847 28848 28849 28850 28851 28852 28853 28854 28855 28856 28857 28858 28859 28860 28861 28862 28863 28864 28865 28866 28867 28868 28869 28870 28871 28872 28873 28874 28875 28876 28877 28878 28879 28880 28881 28882 28883 28884 28885 28886 28887 28888 28889 28890 28891 28892 28893 28894 28895 28896 28897 28898 28899 28900 28901 28902 28903 28904 28905 28906 28907 28908 28909 28910 28911 28912 28913 28914 28915 28916 28917 28918 28919 28920 28921 28922 28923 28924 28925 28926 28927 28928 28929 28930 28931 28932 28933 28934 28935 28936 28937 28938 28939 28940 28941 28942 28943 28944 28945 28946 28947 28948 28949 28950 28951 28952 28953 28954 28955 28956 28957 28958 28959 28960 28961 28962 28963 28964 28965 28966 28967 28968 28969 28970 28971 28972 28973 28974 28975 28976 28977 28978 28979 28980 28981 28982 28983 28984 28985 28986 28987 28988 28989 28990 28991 28992 28993 28994 28995 28996 28997 28998 28999 29000 29001 29002 29003 29004 29005 29006 29007 29008 29009 29010 29011 29012 29013 29014 29015 29016 29017 29018 29019 29020 29021 29022 29023 29024 29025 29026 29027 29028 29029 29030 29031 29032 29033 29034 29035 29036 29037 29038 29039 29040 29041 29042 29043 29044 29045 29046 29047 29048 29049 29050 29051 29052 29053 29054 29055 29056 29057 29058 29059 29060 29061 29062 29063 29064 29065 29066 29067 29068 29069 29070 29071 29072 29073 29074 29075 29076 29077 29078 29079 29080 29081 29082 29083 29084 29085 29086 29087 29088 29089 29090 29091 29092 29093 29094 29095 29096 29097 29098 29099 29100 29101 29102 29103 29104 29105 29106 29107 29108 29109 29110 29111 29112 29113 29114 29115 29116 29117 29118 29119 29120 29121 29122 29123 29124 29125 29126 29127 29128 29129 29130 29131 29132 29133 29134 29135 29136 29137 29138 29139 29140 29141 29142 29143 29144 29145 29146 29147 29148 29149 29150 29151 29152 29153 29154 29155 29156 29157 29158 29159 29160 29161 29162 29163 29164 29165 29166 29167 29168 29169 29170 29171 29172 29173 29174 29175 29176 29177 29178 29179 29180 29181 29182 29183 29184 29185 29186 29187 29188 29189 29190 29191 29192 29193 29194 29195 29196 29197 29198 29199 29200 29201 29202 29203 29204 29205 29206 29207 29208 29209 29210 29211 29212 29213 29214 29215 29216 29217 29218 29219 29220 29221 29222 29223 29224 29225 29226 29227 29228 29229 29230 29231 29232 29233 29234 29235 29236 29237 29238 29239 29240 29241 29242 29243 29244 29245 29246 29247 29248 29249 29250 29251 29252 29253 29254 29255 29256 29257 29258 29259 29260 29261 29262 29263 29264 29265 29266 29267 29268 29269 29270 29271 29272 29273 29274 29275 29276 29277 29278 29279 29280 29281 29282 29283 29284 29285 29286 29287 29288 29289 29290 29291 29292 29293 29294 29295 29296 29297 29298 29299 29300 29301 29302 29303 29304 29305 29306 29307 29308 29309 29310 29311 29312 29313 29314 29315 29316 29317 29318 29319 29320 29321 29322 29323 29324 29325 29326 29327 29328 29329 29330 29331 29332 29333 29334 29335 29336 29337 29338 29339 29340 29341 29342 29343 29344 29345 29346 29347 29348 29349 29350 29351 29352 29353 29354 29355 29356 29357 29358 29359 29360 29361 29362 29363 29364 29365 29366 29367 29368 29369 29370 29371 29372 29373 29374 29375 29376 29377 29378 29379 29380 29381 29382 29383 29384 29385 29386 29387 29388 29389 29390 29391 29392 29393 29394 29395 29396 29397 29398 29399 29400 29401 29402 29403 29404 29405 29406 29407 29408 29409 29410 29411 29412 29413 29414 29415 29416 29417 29418 29419 29420 29421 29422 29423 29424 29425 29426 29427 29428 29429 29430 29431 29432 29433 29434 29435 29436 29437 29438 29439 29440 29441 29442 29443 29444 29445 29446 29447 29448 29449 29450 29451 29452 29453 29454 29455 29456 29457 29458 29459 29460 29461 29462 29463 29464 29465 29466 29467 29468 29469 29470 29471 29472 29473 29474 29475 29476 29477 29478 29479 29480 29481 29482 29483 29484 29485 29486 29487 29488 29489 29490 29491 29492 29493 29494 29495 29496 29497 29498 29499 29500 29501 29502 29503 29504 29505 29506 29507 29508 29509 29510 29511 29512 29513 29514 29515 29516 29517 29518 29519 29520 29521 29522 29523 29524 29525 29526 29527 29528 29529 29530 29531 29532 29533 29534 29535 29536 29537 29538 29539 29540 29541 29542 29543 29544 29545 29546 29547 29548 29549 29550 29551 29552 29553 29554 29555 29556 29557 29558 29559 29560 29561 29562 29563 29564 29565 29566 29567 29568 29569 29570 29571 29572 29573 29574 29575 29576 29577 29578 29579 29580 29581 29582 29583 29584 29585 29586 29587 29588 29589 29590 29591 29592 29593 29594 29595 29596 29597 29598 29599 29600 29601 29602 29603 29604 29605 29606 29607 29608 29609 29610 29611 29612 29613 29614 29615 29616 29617 29618 29619 29620 29621 29622 29623 29624 29625 29626 29627 29628 29629 29630 29631 29632 29633 29634 29635 29636 29637 29638 29639 29640 29641 29642 29643 29644 29645 29646 29647 29648 29649 29650 29651 29652 29653 29654 29655 29656 29657 29658 29659 29660 29661 29662 29663 29664 29665 29666 29667 29668 29669 29670 29671 29672 29673 29674 29675 29676 29677 29678 29679 29680 29681 29682 29683 29684 29685 29686 29687 29688 29689 29690 29691 29692 29693 29694 29695 29696 29697 29698 29699 29700 29701 29702 29703 29704 29705 29706 29707 29708 29709 29710 29711 29712 29713 29714 29715 29716 29717 29718 29719 29720 29721 29722 29723 29724 29725 29726 29727 29728 29729 29730 29731 29732 29733 29734 29735 29736 29737 29738 29739 29740 29741 29742 29743 29744 29745 29746 29747 29748 29749 29750 29751 29752 29753 29754 29755 29756 29757 29758 29759 29760 29761 29762 29763 29764 29765 29766 29767 29768 29769 29770 29771 29772 29773 29774 29775 29776 29777 29778 29779 29780 29781 29782 29783 29784 29785 29786 29787 29788 29789 29790 29791 29792 29793 29794 29795 29796 29797 29798 29799 29800 29801 29802 29803 29804 29805 29806 29807 29808 29809 29810 29811 29812 29813 29814 29815 29816 29817 29818 29819 29820 29821 29822 29823 29824 29825 29826 29827 29828 29829 29830 29831 29832 29833 29834 29835 29836 29837 29838 29839 29840 29841 29842 29843 29844 29845 29846 29847 29848 29849 29850 29851 29852 29853 29854 29855 29856 29857 29858 29859 29860 29861 29862 29863 29864 29865 29866 29867 29868 29869 29870 29871 29872 29873 29874 29875 29876 29877 29878 29879 29880 29881 29882 29883 29884 29885 29886 29887 29888 29889 29890 29891 29892 29893 29894 29895 29896 29897 29898 29899 29900 29901 29902 29903 29904 29905 29906 29907 29908 29909 29910 29911 29912 29913 29914 29915 29916 29917 29918 29919 29920 29921 29922 29923 29924 29925 29926 29927 29928 29929 29930 29931 29932 29933 29934 29935 29936 29937 29938 29939 29940 29941 29942 29943 29944 29945 29946 29947 29948 29949 29950 29951 29952 29953 29954 29955 29956 29957 29958 29959 29960 29961 29962 29963 29964 29965 29966 29967 29968 29969 29970 29971 29972 29973 29974 29975 29976 29977 29978 29979 29980 29981 29982 29983 29984 29985 29986 29987 29988 29989 29990 29991 29992 29993 29994 29995 29996 29997 29998 29999 30000 30001 30002 30003 30004 30005 30006 30007 30008 30009 30010 30011 30012 30013 30014 30015 30016 30017 30018 30019 30020 30021 30022 30023 30024 30025 30026 30027 30028 30029 30030 30031 30032 30033 30034 30035 30036 30037 30038 30039 30040 30041 30042 30043 30044 30045 30046 30047 30048 30049 30050 30051 30052 30053 30054 30055 30056 30057 30058 30059 30060 30061 30062 30063 30064 30065 30066 30067 30068 30069 30070 30071 30072 30073 30074 30075 30076 30077 30078 30079 30080 30081 30082 30083 30084 30085 30086 30087 30088 30089 30090 30091 30092 30093 30094 30095 30096 30097 30098 30099 30100 30101 30102 30103 30104 30105 30106 30107 30108 30109 30110 30111 30112 30113 30114 30115 30116 30117 30118 30119 30120 30121 30122 30123 30124 30125 30126 30127 30128 30129 30130 30131 30132 30133 30134 30135 30136 30137 30138 30139 30140 30141 30142 30143 30144 30145 30146 30147 30148 30149 30150 30151 30152 30153 30154 30155 30156 30157 30158 30159 30160 30161 30162 30163 30164 30165 30166 30167 30168 30169 30170 30171 30172 30173 30174 30175 30176 30177 30178 30179 30180 30181 30182 30183 30184 30185 30186 30187 30188 30189 30190 30191 30192 30193 30194 30195 30196 30197 30198 30199 30200 30201 30202 30203 30204 30205 30206 30207 30208 30209 30210 30211 30212 30213 30214 30215 30216 30217 30218 30219 30220 30221 30222 30223 30224 30225 30226 30227 30228 30229 30230 30231 30232 30233 30234 30235 30236 30237 30238 30239 30240 30241 30242 30243 30244 30245 30246 30247 30248 30249 30250 30251 30252 30253 30254 30255 30256 30257 30258 30259 30260 30261 30262 30263 30264 30265 30266 30267 30268 30269 30270 30271 30272 30273 30274 30275 30276 30277 30278 30279 30280 30281 30282 30283 30284 30285 30286 30287 30288 30289 30290 30291 30292 30293 30294 30295 30296 30297 30298 30299 30300 30301 30302 30303 30304 30305 30306 30307 30308 30309 30310 30311 30312 30313 30314 30315 30316 30317 30318 30319 30320 30321 30322 30323 30324 30325 30326 30327 30328 30329 30330 30331 30332 30333 30334 30335 30336 30337 30338 30339 30340 30341 30342 30343 30344 30345 30346 30347 30348 30349 30350 30351 30352 30353 30354 30355 30356 30357 30358 30359 30360 30361 30362 30363 30364 30365 30366 30367 30368 30369 30370 30371 30372 30373 30374 30375 30376 30377 30378 30379 30380 30381 30382 30383 30384 30385 30386 30387 30388 30389 30390 30391 30392 30393 30394 30395 30396 30397 30398 30399 30400 30401 30402 30403 30404 30405 30406 30407 30408 30409 30410 30411 30412 30413 30414 30415 30416 30417 30418 30419 30420 30421 30422 30423 30424 30425 30426 30427 30428 30429 30430 30431 30432 30433 30434 30435 30436 30437 30438 30439 30440 30441 30442 30443 30444 30445 30446 30447 30448 30449 30450 30451 30452 30453 30454 30455 30456 30457 30458 30459 30460 30461 30462 30463 30464 30465 30466 30467 30468 30469 30470 30471 30472 30473 30474 30475 30476 30477 30478 30479 30480 30481 30482 30483 30484 30485 30486 30487 30488 30489 30490 30491 30492 30493 30494 30495 30496 30497 30498 30499 30500 30501 30502 30503 30504 30505 30506 30507 30508 30509 30510 30511 30512 30513 30514 30515 30516 30517 30518 30519 30520 30521 30522 30523 30524 30525 30526 30527 30528 30529 30530 30531 30532 30533 30534 30535 30536 30537 30538 30539 30540 30541 30542 30543 30544 30545 30546 30547 30548 30549 30550 30551 30552 30553 30554 30555 30556 30557 30558 30559 30560 30561 30562 30563 30564 30565 30566 30567 30568 30569 30570 30571 30572 30573 30574 30575 30576 30577 30578 30579 30580 30581 30582 30583 30584 30585 30586 30587 30588 30589 30590 30591 30592 30593 30594 30595 30596 30597 30598 30599 30600 30601 30602 30603 30604 30605 30606 30607 30608 30609 30610 30611 30612 30613 30614 30615 30616 30617 30618 30619 30620 30621 30622 30623 30624 30625 30626 30627 30628 30629 30630 30631 30632 30633 30634 30635 30636 30637 30638 30639 30640 30641 30642 30643 30644 30645 30646 30647 30648 30649 30650 30651 30652 30653 30654 30655 30656 30657 30658 30659 30660 30661 30662 30663 30664 30665 30666 30667 30668 30669 30670 30671 30672 30673 30674 30675 30676 30677 30678 30679 30680 30681 30682 30683 30684 30685 30686 30687 30688 30689 30690 30691 30692 30693 30694 30695 30696 30697 30698 30699 30700 30701 30702 30703 30704 30705 30706 30707 30708 30709 30710 30711 30712 30713 30714 30715 30716 30717 30718 30719 30720 30721 30722 30723 30724 30725 30726 30727 30728 30729 30730 30731 30732 30733 30734 30735 30736 30737 30738 30739 30740 30741 30742 30743 30744 30745 30746 30747 30748 30749 30750 30751 30752 30753 30754 30755 30756 30757 30758 30759 30760 30761 30762 30763 30764 30765 30766 30767 30768 30769 30770 30771 30772 30773 30774 30775 30776 30777 30778 30779 30780 30781 30782 30783 30784 30785 30786 30787 30788 30789 30790 30791 30792 30793 30794 30795 30796 30797 30798 30799 30800 30801 30802 30803 30804 30805 30806 30807 30808 30809 30810 30811 30812 30813 30814 30815 30816 30817 30818 30819 30820 30821 30822 30823 30824 30825 30826 30827 30828 30829 30830 30831 30832 30833 30834 30835 30836 30837 30838 30839 30840 30841 30842 30843 30844 30845 30846 30847 30848 30849 30850 30851 30852 30853 30854 30855 30856 30857 30858 30859 30860 30861 30862 30863 30864 30865 30866 30867 30868 30869 30870 30871 30872 30873 30874 30875 30876 30877 30878 30879 30880 30881 30882 30883 30884 30885 30886 30887 30888 30889 30890 30891 30892 30893 30894 30895 30896 30897 30898 30899 30900 30901 30902 30903 30904 30905 30906 30907 30908 30909 30910 30911 30912 30913 30914 30915 30916 30917 30918 30919 30920 30921 30922 30923 30924 30925 30926 30927 30928 30929 30930 30931 30932 30933 30934 30935 30936 30937 30938 30939 30940 30941 30942 30943 30944 30945 30946 30947 30948 30949 30950 30951 30952 30953 30954 30955 30956 30957 30958 30959 30960 30961 30962 30963 30964 30965 30966 30967 30968 30969 30970 30971 30972 30973 30974 30975 30976 30977 30978 30979 30980 30981 30982 30983 30984 30985 30986 30987 30988 30989 30990 30991 30992 30993 30994 30995 30996 30997 30998 30999 31000 31001 31002 31003 31004 31005 31006 31007 31008 31009 31010 31011 31012 31013 31014 31015 31016 31017 31018 31019 31020 31021 31022 31023 31024 31025 31026 31027 31028 31029 31030 31031 31032 31033 31034 31035 31036 31037 31038 31039 31040 31041 31042 31043 31044 31045 31046 31047 31048 31049 31050 31051 31052 31053 31054 31055 31056 31057 31058 31059 31060 31061 31062 31063 31064 31065 31066 31067 31068 31069 31070 31071 31072 31073 31074 31075 31076 31077 31078 31079 31080 31081 31082 31083 31084 31085 31086 31087 31088 31089 31090 31091 31092 31093 31094 31095 31096 31097 31098 31099 31100 31101 31102 31103 31104 31105 31106 31107 31108 31109 31110 31111 31112 31113 31114 31115 31116 31117 31118 31119 31120 31121 31122 31123 31124 31125 31126 31127 31128 31129 31130 31131 31132 31133 31134 31135 31136 31137 31138 31139 31140 31141 31142 31143 31144 31145 31146 31147 31148 31149 31150 31151 31152 31153 31154 31155 31156 31157 31158 31159 31160 31161 31162 31163 31164 31165 31166 31167 31168 31169 31170 31171 31172 31173 31174 31175 31176 31177 31178 31179 31180 31181 31182 31183 31184 31185 31186 31187 31188 31189 31190 31191 31192 31193 31194 31195 31196 31197 31198 31199 31200 31201 31202 31203 31204 31205 31206 31207 31208 31209 31210 31211 31212 31213 31214 31215 31216 31217 31218 31219 31220 31221 31222 31223 31224 31225 31226 31227 31228 31229 31230 31231 31232 31233 31234 31235 31236 31237 31238 31239 31240 31241 31242 31243 31244 31245 31246 31247 31248 31249 31250 31251 31252 31253 31254 31255 31256 31257 31258 31259 31260 31261 31262 31263 31264 31265 31266 31267 31268 31269 31270 31271 31272 31273 31274 31275 31276 31277 31278 31279 31280 31281 31282 31283 31284 31285 31286 31287 31288 31289 31290 31291 31292 31293 31294 31295 31296 31297 31298 31299 31300 31301 31302 31303 31304 31305 31306 31307 31308 31309 31310 31311 31312 31313 31314 31315 31316 31317 31318 31319 31320 31321 31322 31323 31324 31325 31326 31327 31328 31329 31330 31331 31332 31333 31334 31335 31336 31337 31338 31339 31340 31341 31342 31343 31344 31345 31346 31347 31348 31349 31350 31351 31352 31353 31354 31355 31356 31357 31358 31359 31360 31361 31362 31363 
</DataArray>
<DataArray type="UInt32" Name="offsets" format="ascii">
3 6 9 12 15 18 21 23 26 28 31 34 37 40 43 46 49 52 55 57 60 63 66 69 72 75 78 81 84 87 90 92 95 98 100 103 106 108 111 114 117 120 123 126 129 132 135 138 141 143 146 149 152 155 158 161 164 167 170 173 176 179 182 184 187 190 193 196 199 202 205 208 211 214 217 220 223 226 229 231 234 237 240 242 245 248 251 254 257 259 262 265 268 271 274 277 280 283 286 289 292 295 298 301 304 307 310 313 316 319 322 324 327 329 332 335 338 341 344 347 350 353 356 359 362 365 368 370 373 375 378 380 383 386 389 391 394 397 400 403 406 409 412 414 417 420 423 426 429 432 435 438 441 444 447 450 453 456 459 462 465 468 471 474 477 480 483 486 489 492 495 498 501 504 507 510 513 515 518 520 523 525 528 531 533 536 539 542 545 548 551 554 556 559 562 565 568 571 574 577 579 582 585 588 591 594 597 600 603 606 609 612 614 617 620 622 625 628 631 634 637 640 643 646 649 652 655 658 661 664 667 670 673 676 679 682 685 688 691 694 697 700 703 706 709 712 715 718 721 724 727 729 732 735 738 741 744 746 749 752 755 758 761 764 767 770 773 776 779 782 785 788 791 794 796 799 802 805 808 811 814 817 820 822 825 828 831 834 837 839 842 845 848 851 854 857 860 863 866 869 872 875 877 880 883 886 889 891 894 897 900 902 905 908 911 914 917 920 923 926 929 932 935 938 941 944 947 950 953 956 959 962 965 968 971 974 977 980 983 986 989 992 995 998 1001 1004 1007 1009 1012 1014 1017 1020 1023 1026 1029 1032 1035 1038 1041 1044 1047 1050 1053 1056 1059 1062 1065 1068 1070 1073 1076 1079 1082 1085 1088 1091 1094 1097 1100 1103 1106 1109 1112 1115 1118 1121 1124 1127 1129 1131 1134 1137 1139 1142 1145 1148 1151 1154 1157 1159 1162 1165 1168 1171 1174 1177 1179 1182 1185 1187 1190 1192 1195 1198 1201 1204 1207 1210 1212 1215 1218 1220 1223 1226 1229 1232 1235 1238 1241 1244 1247 1250 1253 1256 1259 1262 1265 1268 1271 1274 1277 1280 1283 1286 1288 1291 1294 1297 1300 1303 1305 1308 1311 1314 1317 1320 1323 1326 1329 1332 1335 1338 1341 1344 1347 1350 1353 1356 1359 1362 1365 1368 1371 1373 1376 1379 1382 1384 1387 1390 1393 1396 1399 1402 1405 1408 1411 1413 1416 1418 1421 1424 1426 1429 1432 1435 1437 1440 1442 1445 1448 1451 1454 1457 1459 1462 1465 1468 1471 1473 1476 1478 1480 1483 1486 1489 1492 1495 1498 1501 1504 1507 1509 1512 1515 1517 1520 1523 1526 1529 1532 1534 1537 1540 1543 1546 1548 1551 1554 1557 1559 1562 1564 1567 1569 1572 1575 1578 1581 1584 1587 1590 1593 1596 1599 1602 1605 1607 1610 1613 1616 1618 1621 1624 1627 1630 1633 1636 1639 1642 1645 1648 1651 1654 1656 1659 1662 1665 1668 1671 1673 1676 1679 1681 1684 1687 1689 1692 1695 1698 1701 1704 1707 1710 1713 1716 1719 1722 1725 1728 1731 1734 1737 1740 1742 1745 1747 1750 1752 1755 1757 1760 1763 1766 1769 1771 1774 1777 1780 1783 1785 1788 1791 1794 1797 1799 1802 1805 1808 1811 1814 1816 1819 1822 1824 1827 1829 1831 1833 1836 1839 1842 1845 1848 1851 1854 1857 1860 1863 1866 1869 1872 1875 1878 1881 1884 1887 1889 1892 1895 1898 1901 1904 1907 1910 1913 1916 1918 1921 1924 1927 1930 1933 1935 1938 1941 1944 1947 1950 1953 1956 1958 1961 1964 1966 1968 1971 1974 1977 1980 1983 1985 1988 1990 1993 1996 1999 2002 2005 2008 2011 2013 2016 2019 2021 2024 2027 2030 2033 2036 2039 2041 2044 2046 2049 2052 2054 2057 2060 2063 2066 2069 2072 2075 2078 2081 2084 2087 2090 2093 2096 2099 2102 2105 2108 2111 2114 2117 2120 2122 2125 2128 2131 2134 2137 2140 2143 2145 2148 2151 2154 2156 2159 2161 2164 2167 2170 2172 2175 2178 2181 2183 2186 2189 2192 2195 2198 2201 2204 2207 2210 2212 2215 2218 2221 2224 2227 2230 2233 2236 2238 2241 2243 2245 2247 2250 2253 2255 2258 2260 2263 2266 2269 2272 2275 2278 2281 2284 2287 2290 2293 2296 2299 2302 2305 2308 2311 2314 2317 2320 2323 2326 2329 2332 2335 2337 2339 2341 2344 2347 2350 2353 2356 2359 2362 2365 2368 2371 2374 2377 2380 2383 2386 2389 2392 2395 2398 2401 2404 2407 2410 2413 2416 2419 2422 2425 2428 2430 2433 2436 2439 2442 2445 2447 2450 2453 2456 2458 2461 2464 2466 2468 2471 2473 2476 2479 2482 2485 2488 2491 2493 2496 2499 2502 2505 2508 2510 2513 2515 2518 2521 2524 2526 2529 2531 2534 2536 2539 2542 2545 2548 2551 2553 2556 2559 2562 2564 2567 2570 2573 2576 2579 2582 2585 2588 2590 2593 2596 2599 2602 2605 2608 2610 2613 2616 2619 2622 2625 2628 2631 2634 2636 2639 2642 2644 2647 2650 2653 2656 2659 2662 2664 2667 2669 2672 2674 2677 2680 2683 2686 2689 2692 2695 2698 2701 2704 2707 2709 2711 2713 2716 2719 2721 2724 2727 2730 2733 2736 2738 2740 2743 2746 2748 2750 2752 2755 2758 2761 2764 2767 2770 2773 2776 2779 2782 2785 2788 2791 2794 2797 2800 2803 2806 2809 2812 2815 2818 2821 2824 2827 2830 2833 2836 2839 2842 2845 2848 2851 2853 2856 2859 2862 2865 2868 2871 2874 2876 2879 2882 2885 2888 2891 2894 2896 2899 2902 2905 2908 2911 2914 2917 2920 2923 2926 2929 2932 2935 2938 2941 2944 2947 2950 2953 2956 2959 2962 2965 2968 2971 2974 2977 2980 2983 2986 2989 2992 2995 2998 3001 3004 3007 3010 3013 3016 3019 3022 3025 3028 3031 3034 3037 3040 3043 3046 3049 3052 3055 3058 3060 3063 3066 3069 3071 3074 3077 3079 3082 3085 3088 3091 3094 3097 3099 3102 3105 3108 3111 3114 3117 3120 3123 3126 3129 3131 3134 3137 3140 3143 3145 3148 3151 3154 3157 3160 3163 3166 3169 3172 3175 3178 3181 3184 3187 3190 3193 3196 3199 3202 3205 3208 3211 3214 3217 3219 3222 3225 3228 3231 3233 3236 3239 3242 3245 3248 3251 3254 3257 3260 3263 3266 3269 3272 3275 3278 3281 3284 3287 3290 3293 3296 3299 3302 3305 3308 3311 3314 3317 3320 3323 3326 3329 3332 3335 3338 3341 3344 3347 3349 3352 3355 3358 3361 3364 3366 3369 3372 3375 3377 3379 3382 3385 3388 3391 3394 3397 3400 3403 3406 3408 3411 3414 3417 3419 3422 3425 3428 3431 3434 3437 3439 3442 3445 3448 3451 3454 3457 3460 3463 3466 3469 3471 3473 3476 3479 3482 3485 3488 3491 3494 3497 3500 3502 3505 3508 3510 3513 3516 3519 3521 3523 3526 3529 3531 3534 3537 3539 3541 3544 3547 3550 3552 3555 3558 3561 3564 3567 3569 3572 3575 3578 3581 3584 3587 3590 3593 3596 3598 3601 3604 3607 3610 3613 3616 3619 3622 3625 3628 3631 3634 3637 3640 3643 3645 3648 3651 3654 3657 3660 3663 3665 3668 3671 3674 3677 3680 3683 3686 3689 3692 3695 3698 3701 3704 3707 3710 3713 3715 3717 3720 3723 3726 3729 3732 3735 3738 3741 3744 3747 3750 3753 3756 3759 3762 3765 3768 3771 3774 3777 3780 3783 3786 3789 3792 3795 3798 3801 3804 3807 3810 3813 3816 3819 3822 3825 3828 3831 3834 3837 3840 3843 3846 3849 3851 3854 3856 3859 3862 3865 3867 3870 3873 3876 3879 3882 3885 3888 3891 3894 3896 3899 3902 3904 3907 3910 3913 3916 3919 3921 3924 3927 3930 3933 3936 3939 3942 3944 3947 3950 3952 3955 3958 3961 3964 3967 3970 3972 3975 3978 3981 3984 3987 3990 3993 3996 3999 4002 4005 4008 4010 4013 4016 4019 4022 4025 4028 4031 4034 4037 4040 4043 4046 4049 4052 4055 4058 4061 4064 4067 4070 4073 4076 4079 4082 4085 4088 4091 4094 4097 4100 4103 4106 4109 4112 4115 4118 4121 4124 4127 4130 4133 4136 4139 4142 4145 4148 4151 4154 4157 4160 4163 4166 4169 4172 4175 4178 4181 4184 4187 4190 4193 4196 4199 4202 4205 4208 4211 4214 4217 4220 4223 4226 4229 4232 4235 4238 4241 4244 4247 4250 4253 4256 4259 4262 4265 4268 4271 4274 4277 4279 4282 4285 4288 4291 4294 4297 4300 4303 4306 4309 4312 4314 4317 4320 4323 4325 4328 4331 4334 4337 4340 4343 4346 4349 4352 4355 4358 4361 4364 4367 4370 4373 4376 4379 4382 4385 4388 4391 4394 4397 4400 4403 4406 4409 4412 4415 4418 4421 4424 4427 4430 4433 4436 4439 4442 4445 4448 4451 4454 4457 4460 4463 4466 4469 4472 4475 4478 4481 4484 4487 4490 4493 4496 4499 4502 4505 4508 4511 4514 4517 4520 4523 4526 4529 4532 4535 4538 4541 4544 4547 4550 4553 4556 4559 4562 4565 4568 4571 4574 4577 4580 4583 4586 4589 4592 4595 4598 4601 4604 4607 4610 4613 4616 4619 4622 4625 4628 4631 4634 4637 4640 4643 4646 4649 4652 4655 4658 4661 4663 4666 4669 4672 4675 4678 4681 4684 4687 4690 4693 4695 4698 4701 4704 4707 4709 4712 4715 4718 4720 4722 4725 4728 4731 4734 4737 4740 4743 4746 4749 4752 4755 4758 4761 4764 4767 4770 4773 4776 4779 4781 4783 4786 4789 4791 4794 4797 4800 4803 4806 4809 4811 4814 4817 4820 4823 4826 4828 4831 4834 4837 4840 4843 4846 4848 4851 4854 4857 4860 4863 4866 4868 4871 4873 4876 4879 4882 4885 4888 4891 4894 4897 4900 4903 4906 4909 4912 4915 4918 4921 4924 4926 4929 4932 4935 4938 4941 4944 4947 4949 4952 4955 4958 4961 4964 4966 4969 4972 4975 4978 4981 4984 4987 4989 4992 4995 4998 5000 5003 5006 5008 5011 5014 5017 5020 5023 5026 5029 5032 5035 5038 5041 5044 5047 5050 5052 5055 5058 5061 5064 5067 5070 5073 5076 5078 5081 5084 5087 5090 5093 5096 5098 5101 5104 5107 5110 5113 5115 5118 5121 5124 5127 5130 5133 5136 5139 5142 5145 5148 5151 5154 5157 5160 5163 5166 5169 5172 5174 5177 5180 5183 5185 5188 5190 5193 5196 5199 5202 5205 5208 5211 5214 5217 5220 5223 5226 5229 5232 5235 5238 5241 5244 5247 5250 5253 5256 5259 5262 5265 5267 5270 5273 5275 5278 5281 5284 5287 5290 5293 5296 5299 5301 5304 5307 5310 5313 5316 5319 5322 5325 5328 5331 5334 5336 5339 5342 5345 5348 5351 5354 5357 5360 5363 5366 5369 5372 5375 5378 5381 5384 5387 5389 5392 5395 5398 5401 5404 5407 5410 5413 5416 5419 5421 5424 5427 5430 5433 5436 5439 5442 5445 5447 5450 5453 5456 5459 5462 5465 5467 5470 5473 5476 5479 5482 5485 5488 5491 5494 5497 5500 5503 5506 5509 5512 5515 5518 5521 5524 5527 5530 5533 5536 5539 5542 5545 5548 5551 5554 5556 5559 5561 5564 5567 5570 5573 5576 5579 5582 5584 5587 5589 5592 5595 5598 5601 5604 5607 5610 5613 5616 5619 5622 5625 5628 5631 5633 5636 5638 5641 5644 5647 5650 5653 5656 5658 5661 5664 5667 5670 5673 5676 5679 5682 5685 5687 5690 5692 5695 5698 5701 5704 5707 5710 5713 5716 5718 5721 5724 5726 5729 5732 5735 5738 5741 5743 5746 5749 5752 5755 5757 5759 5762 5764 5766 5769 5772 5775 5778 5780 5783 5786 5789 5792 5795 5798 5801 5804 5807 5810 5813 5816 5819 5822 5825 5828 5831 5834 5837 5840 5843 5845 5847 5850 5853 5856 5859 5862 5864 5867 5870 5873 5875 5878 5881 5884 5887 5890 5893 5896 5898 5901 5904 5907 5910 5913 5915 5918 5921 5924 5926 5929 5932 5935 5938 5941 5944 5947 5950 5953 5955 5958 5961 5964 5967 5970 5973 5975 5977 5980 5983 5986 5989 5992 5995 5997 6000 6003 6006 6009 6012 6015 6018 6021 6024 6027 6030 6033 6036 6038 6041 6044 6047 6050 6053 6055 6058 6061 6063 6066 6069 6072 6075 6078 6081 6084 6086 6089 6092 6095 6098 6100 6103 6106 6109 6112 6115 6118 6121 6124 6127 6130 6133 6136 6139 6142 6145 6148 6151 6154 6157 6160 6163 6166 6169 6172 6175 6178 6181 6184 6187 6190 6193 6195 6198 6201 6204 6206 6209 6212 6214 6217 6220 6223 6226 6229 6232 6234 6236 6239 6242 6245 6248 6250 6253 6256 6259 6262 6265 6268 6271 6273 6276 6279 6282 6285 6288 6291 6294 6296 6299 6302 6305 6308 6311 6314 6317 6320 6323 6326 6329 6332 6335 6338 6341 6343 6346 6349 6351 6354 6357 6360 6363 6366 6369 6372 6375 6378 6380 6383 6385 6388 6391 6393 6396 6399 6402 6405 6408 6411 6414 6417 6420 6423 6426 6429 6432 6435 6438 6441 6443 6446 6449 6452 6455 6458 6460 6463 6466 6469 6472 6475 6478 6481 6484 6487 6490 6493 6495 6498 6501 6504 6507 6510 6513 6516 6518 6521 6524 6527 6530 6532 6535 6538 6541 6544 6547 6549 6552 6555 6557 6560 6563 6566 6569 6572 6575 6577 6580 6582 6584 6587 6589 6592 6595 6597 6599 6602 6604 6607 6609 6612 6615 6618 6621 6624 6627 6630 6632 6635 6638 6641 6644 6647 6650 6653 6656 6659 6662 6665 6668 6671 6674 6677 6680 6683 6686 6689 6692 6695 6698 6701 6703 6706 6709 6712 6715 6718 6721 6724 6727 6730 6733 6736 6739 6742 6745 6747 6750 6752 6755 6758 6761 6764 6767 6770 6773 6776 6779 6782 6785 6788 6791 6794 6797 6800 6803 6806 6809 6812 6815 6818 6821 6824 6827 6830 6833 6836 6839 6842 6845 6848 6851 6854 6857 6860 6863 6866 6869 6871 6874 6877 6880 6883 6886 6889 6892 6895 6898 6901 6904 6906 6909 6912 6915 6918 6921 6924 6927 6930 6933 6936 6939 6942 6945 6948 6951 6954 6957 6960 6963 6966 6969 6972 6975 6978 6981 6984 6987 6989 6992 6995 6998 7001 7004 7007 7010 7013 7016 7018 7021 7024 7027 7030 7032 7035 7038 7041 7044 7047 7050 7053 7056 7059 7062 7065 7068 7071 7074 7076 7079 7082 7085 7088 7090 7093 7096 7099 7102 7105 7108 7111 7114 7117 7120 7123 7126 7128 7131 7134 7137 7140 7143 7146 7148 7151 7154 7157 7160 7163 7166 7169 7172 7175 7178 7180 7183 7186 7189 7192 7195 7198 7201 7204 7207 7210 7213 7216 7219 7222 7225 7228 7231 7234 7237 7240 7243 7246 7249 7252 7255 7258 7261 7264 7267 7270 7273 7276 7279 7282 7284 7287 7290 7293 7296 7298 7300 7303 7306 7308 7311 7314 7317 7320 7322 7325 7328 7331 7334 7337 7340 7343 7346 7349 7352 7355 7358 7361 7364 7367 7370 7372 7375 7378 7381 7383 7386 7389 7392 7395 7398 7400 7403 7406 7408 7411 7414 7417 7420 7423 7426 7429 7432 7435 7438 7441 7444 7447 7450 7453 7456 7459 7461 7464 7467 7470 7473 7476 7479 7482 7485 7488 7491 7494 7496 7499 7502 7505 7507 7510 7513 7516 7519 7521 7523 7526 7529 7532 7535 7538 7541 7544 7547 7550 7553 7556 7559 7562 7565 7568 7570 7573 7576 7579 7582 7585 7588 7591 7594 7597 7600 7603 7605 7608 7611 7614 7617 7620 7622 7625 7628 7631 7634 7637 7640 7643 7646 7649 7651 7654 7657 7660 7663 7666 7669 7672 7675 7678 7681 7684 7687 7690 7693 7696 7699 7702 7705 7708 7711 7714 7717 7720 7723 7726 7728 7731 7734 7737 7740 7743 7746 7748 7751 7754 7757 7760 7763 7766 7769 7772 7775 7778 7781 7784 7787 7790 7793 7796 7799 7802 7805 7808 7811 7814 7817 7820 7823 7826 7829 7832 7835 7838 7841 7844 7847 7850 7853 7856 7859 7862 7865 7868 7871 7874 7877 7880 7883 7886 7889 7892 7895 7898 7901 7904 7907 7910 7913 7916 7919 7922 7925 7927 7930 7933 7936 7939 7942 7945 7948 7950 7953 7956 7959 7961 7964 7966 7969 7972 7975 7978 7981 7983 7985 7988 7991 7994 7997 8000 8003 8006 8009 8011 8014 8017 8020 8023 8026 8029 8032 8034 8037 8039 8042 8045 8047 8049 8052 8055 8058 8060 8063 8066 8069 8072 8075 8078 8081 8084 8086 8089 8092 8095 8098 8100 8103 8106 8109 8112 8115 8118 8121 8124 8127 8130 8133 8136 8139 8142 8145 8147 8150 8153 8156 8159 8161 8163 8166 8169 8172 8175 8177 8180 8183 8186 8189 8192 8194 8197 8200 8203 8206 8209 8212 8215 8218 8221 8224 8227 8230 8232 8235 8238 8241 8244 8247 8250 8253 8256 8258 8261 8263 8266 8269 8272 8275 8278 8281 8284 8287 8290 8293 8296 8299 8302 8305 8308 8311 8313 8316 8319 8322 8325 8328 8331 8334 8336 8339 8341 8344 8347 8350 8352 8355 8358 8361 8364 8367 8370 8373 8376 8379 8382 8385 8388 8391 8394 8397 8400 8403 8406 8409 8412 8415 8418 8421 8424 8427 8430 8433 8436 8439 8442 8445 8447 8450 8453 8456 8459 8462 8465 8468 8470 8473 8476 8479 8481 8484 8487 8490 8493 8496 8498 8501 8504 8507 8510 8513 8515 8518 8521 8524 8527 8529 8532 8535 8538 8540 8543 8546 8548 8551 8554 8557 8560 8562 8565 8568 8570 8573 8576 8579 8581 8584 8587 8590 8593 8596 8598 8601 8604 8607 8610 8613 8616 8619 8621 8624 8627 8630 8633 8636 8639 8642 8645 8648 8651 8654 8657 8659 8662 8665 8668 8670 8673 8676 8678 8681 8684 8686 8689 8692 8695 8697 8700 8703 8705 8707 8710 8713 8716 8719 8721 8724 8727 8730 8733 8736 8739 8742 8745 8747 8750 8753 8756 8759 8762 8764 8766 8769 8772 8775 8778 8780 8783 8786 8789 8792 8795 8798 8801 8803 8806 8809 8812 8815 8818 8821 8824 8827 8830 8832 8835 8838 8840 8843 8846 8849 8852 8854 8856 8859 8861 8864 8867 8870 8873 8876 8878 8881 8884 8886 8889 8892 8894 8897 8899 8902 8905 8908 8911 8914 8917 8919 8922 8925 8928 8931 8934 8937 8940 8943 8946 8949 8952 8955 8958 8961 8963 8966 8969 8972 8975 8978 8981 8984 8987 8989 8992 8995 8998 9001 9004 9007 9010 9013 9016 9019 9022 9025 9028 9030 9033 9036 9039 9042 9045 9048 9051 9054 9057 9060 9062 9065 9068 9071 9073 9076 9078 9081 9084 9087 9090 9092 9095 9098 9101 9104 9107 9109 9112 9115 9118 9121 9124 9127 9130 9133 9136 9139 9142 9145 9148 9151 9154 9157 9160 9163 9166 9169 9172 9174 9177 9180 9183 9186 9189 9192 9195 9198 9201 9204 9207 9210 9213 9216 9218 9221 9223 9226 9229 9231 9234 9237 9239 9242 9244 9247 9250 9253 9256 9259 9261 9264 9266 9269 9272 9274 9277 9279 9282 9285 9288 9291 9293 9295 9298 9301 9304 9307 9310 9313 9316 9319 9321 9324 9327 9330 9333 9335 9338 9340 9343 9346 9349 9352 9355 9358 9361 9364 9367 9370 9372 9375 9378 9380 9382 9385 9388 9391 9394 9396 9399 9402 9405 9408 9411 9414 9417 9420 9423 9426 9429 9432 9435 9437 9440 9442 9445 9448 9451 9453 9456 9459 9462 9464 9467 9470 9473 9476 9479 9482 9484 9487 9490 9493 9496 9499 9502 9505 9507 9510 9513 9516 9518 9521 9524 9527 9530 9533 9536 9539 9542 9545 9548 9551 9554 9557 9560 9563 9566 9569 9572 9575 9577 9580 9583 9585 9588 9591 9594 9597 9600 9603 9606 9609 9612 9615 9618 9621 9624 9627 9630 9633 9636 9639 9642 9645 9648 9651 9654 9657 9659 9662 9664 9666 9669 9672 9675 9677 9680 9682 9685 9688 9690 9693 9696 9699 9702 9705 9707 9710 9713 9716 9719 9722 9724 9727 9729 9732 9735 9738 9741 9744 9746 9749 9752 9755 9758 9761 9764 9767 9770 9773 9775 9778 9781 9783 9786 9789 9791 9794 9797 9799 9802 9804 9807 9810 9813 9816 9819 9822 9824 9826 9829 9832 9835 9837 9839 9841 9843 9846 9849 9852 9854 9857 9860 9863 9866 9869 9872 9875 9877 9880 9883 9886 9889 9892 9895 9898 9901 9904 9906 9909 9912 9915 9917 9920 9923 9926 9929 9932 9935 9938 9941 9944 9946 9949 9952 9954 9957 9960 9962 9965 9968 9971 9974 9977 9980 9983 9986 9989 9992 9995 9998 10001 10004 10007 10010 10013 10016 10019 10022 10025 10028 10031 10034 10037 10040 10043 10046 10049 10052 10055 10058 10061 10064 10067 10070 10073 10076 10079 10082 10085 10087 10090 10092 10095 10098 10101 10104 10107 10110 10113 10115 10117 10120 10123 10126 10129 10132 10135 10137 10140 10143 10146 10149 10152 10155 10158 10161 10164 10167 10170 10173 10176 10179 10182 10185 10188 10191 10193 10196 10198 10200 10203 10206 10209 10212 10215 10217 10220 10223 10226 10229 10231 10234 10237 10240 10243 10246 10249 10252 10255 10258 10261 10263 10266 10269 10271 10274 10276 10279 10282 10284 10286 10289 10292 10294 10297 10300 10303 10306 10309 10312 10315 10318 10320 10323 10326 10328 10331 10333 10336 10338 10341 10344 10347 10349 10352 10355 10357 10360 10362 10365 10368 10371 10374 10377 10380 10383 10386 10389 10392 10395 10398 10400 10402 10405 10407 10410 10413 10416 10419 10422 10425 10428 10431 10434 10437 10440 10443 10446 10449 10452 10455 10458 10461 10464 10467 10470 10472 10475 10478 10481 10484 10487 10490 10493 10496 10499 10501 10504 10507 10510 10513 10515 10518 10521 10524 10527 10530 10533 10536 10539 10542 10545 10548 10551 10554 10557 10560 10563 10566 10569 10572 10575 10578 10581 10584 10587 10590 10593 10596 10599 10602 10605 10608 10610 10613 10616 10619 10621 10624 10626 10629 10632 10635 10638 10640 10643 10645 10648 10651 10653 10655 10657 10659 10662 10665 10668 10670 10672 10675 10678 10681 10684 10687 10690 10693 10695 10698 10701 10704 10707 10710 10713 10716 10719 10722 10725 10727 10730 10733 10736 10739 10742 10745 10748 10751 10754 10757 10760 10763 10766 10769 10772 10775 10778 10781 10784 10787 10790 10793 10796 10798 10801 10803 10806 10809 10812 10815 10818 10821 10823 10826 10829 10832 10835 10838 10841 10844 10846 10849 10851 10853 10856 10859 10862 10864 10867 10869 10871 10874 10876 10879 10882 10885 10888 10891 10894 10897 10900 10903 10906 10909 10912 10915 10918 10921 10924 10927 10930 10933 10936 10939 10942 10945 10948 10951 10954 10957 10960 10963 10966 10969 10972 10975 10978 10981 10984 10987 10989 10992 10994 10997 10999 11002 11005 11008 11011 11013 11016 11019 11022 11024 11027 11029 11031 11033 11036 11039 11041 11044 11047 11050 11053 11055 11058 11061 11063 11066 11068 11070 11073 11076 11079 11082 11085 11088 11091 11094 11097 11100 11103 11106 11109 11112 11115 11117 11120 11123 11126 11129 11131 11134 11137 11140 11142 11145 11148 11150 11153 11155 11158 11160 11162 11165 11167 11170 11172 11175 11178 11181 11184 11186 11188 11191 11193 11195 11198 11201 11204 11207 11210 11212 11215 11218 11221 11224 11226 11229 11232 11234 11237 11239 11242 11245 11247 11250 11253 11256 11258 11261 11263 11265 11267 11270 11272 11275 11278 11280 11283 11286 11289 11292 11295 11298 11301 11304 11307 11309 11312 11315 11318 11321 11324 11327 11330 11333 11336 11339 11342 11344 11347 11350 11353 11355 11358 11361 11364 11366 11368 11371 11373 11376 11378 11381 11383 11386 11389 11391 11394 11396 11399 11402 11404 11407 11410 11413 11415 11418 11420 11423 11426 11429 11432 11435 11438 11441 11444 11447 11450 11452 11454 11456 11458 11461 11464 11466 11469 11472 11475 11478 11481 11484 11487 11490 11493 11496 11499 11502 11505 11507 11510 11513 11516 11519 11522 11524 11527 11530 11533 11536 11539 11542 11545 11548 11551 11553 11555 11558 11561 11564 11567 11570 11572 11575 11578 11581 11584 11586 11589 11591 11594 11597 11600 11602 11604 11607 11610 11613 11616 11619 11622 11625 11628 11631 11634 11637 11640 11643 11646 11649 11652 11655 11658 11661 11664 11667 11670 11673 11676 11679 11682 11685 11688 11691 11693 11695 11698 11701 11704 11707 11710 11713 11716 11719 11722 11725 11727 11730 11733 11735 11738 11741 11743 11746 11749 11751 11754 11757 11760 11763 11765 11767 11770 11773 11776 11779 11782 11784 11787 11790 11793 11796 11799 11802 11805 11808 11811 11814 11816 11819 11822 11825 11827 11830 11833 11836 11839 11842 11845 11847 11849 11852 11855 11858 11861 11864 11867 11870 11873 11876 11879 11882 11885 11888 11891 11894 11897 11900 11903 11906 11909 11912 11915 11918 11921 11924 11927 11930 11933 11936 11939 11942 11945 11948 11951 11954 11956 11959 11962 11965 11968 11971 11974 11977 11980 11983 11986 11989 11992 11995 11998 12001 12004 12007 12010 12013 12016 12019 12022 12025 12027 12030 12033 12036 12039 12042 12045 12048 12051 12053 12056 12059 12062 12065 12068 12071 12074 12076 12078 12081 12083 12086 12089 12092 12094 12097 12100 12103 12105 12108 12111 12114 12117 12120 12123 12126 12128 12131 12134 12137 12140 12143 12146 12149 12152 12155 12158 12161 12164 12167 12170 12173 12176 12179 12182 12185 12188 12191 12194 12197 12200 12203 12206 12209 12212 12215 12218 12220 12223 12226 12229 12232 12234 12237 12240 12243 12245 12248 12251 12254 12257 12260 12263 12266 12268 12271 12273 12276 12279 12282 12285 12288 12291 12294 12297 12300 12302 12305 12308 12311 12314 12317 12320 12323 12326 12329 12332 12335 12338 12341 12344 12347 12350 12353 12355 12358 12361 12364 12367 12370 12372 12375 12378 12380 12383 12385 12388 12391 12394 12396 12399 12402 12405 12407 12410 12413 12416 12419 12421 12424 12427 12430 12432 12435 12438 12441 12444 12446 12449 12452 12455 12458 12461 12464 12467 12470 12472 12475 12477 12480 12483 12486 12489 12492 12495 12498 12501 12504 12507 12510 12513 12516 12519 12522 12525 12528 12531 12534 12537 12540 12543 12546 12549 12552 12555 12558 12561 12564 12567 12570 12573 12576 12579 12582 12585 12588 12591 12593 12596 12599 12601 12604 12607 12610 12612 12614 12617 12620 12623 12626 12629 12632 12635 12637 12640 12643 12646 12649 12651 12654 12657 12660 12663 12666 12669 12672 12675 12678 12681 12684 12687 12690 12693 12696 12699 12702 12705 12708 12711 12714 12717 12720 12723 12726 12729 12732 12735 12738 12741 12744 12747 12750 12753 12756 12759 12761 12764 12767 12769 12772 12775 12778 12781 12784 12787 12790 12793 12796 12799 12802 12805 12808 12810 12813 12816 12819 12822 12825 12828 12831 12833 12836 12838 12841 12844 12847 12850 12853 12856 12859 12862 12865 12868 12871 12874 12877 12880 12883 12886 12889 12892 12895 12898 12901 12904 12907 12910 12913 12916 12919 12922 12925 12928 12931 12934 12937 12940 12943 12946 12949 12952 12955 12958 12961 12964 12967 12970 12973 12976 12979 12982 12985 12988 12991 12994 12997 13000 13003 13006 13009 13012 13015 13018 13021 13024 13027 13030 13033 13036 13039 13042 13045 13048 13051 13054 13057 13060 13063 13066 13069 13072 13075 13077 13079 13082 13085 13088 13091 13094 13097 13100 13103 13106 13109 13112 13115 13118 13121 13124 13126 13129 13131 13134 13137 13139 13142 13145 13148 13151 13154 13156 13159 13162 13165 13168 13171 13174 13177 13180 13183 13186 13189 13192 13195 13198 13201 13204 13207 13210 13213 13216 13219 13222 13225 13228 13231 13234 13237 13240 13243 13246 13249 13252 13255 13258 13261 13264 13267 13270 13273 13276 13279 13282 13285 13288 13291 13294 13297 13300 13302 13305 13308 13311 13314 13316 13318 13321 13324 13327 13330 13333 13336 13339 13342 13344 13347 13350 13353 13356 13359 13362 13364 13367 13370 13373 13376 13379 13382 13385 13388 13391 13394 13397 13400 13403 13406 13409 13412 13415 13418 13421 13424 13427 13430 13433 13435 13438 13441 13444 13447 13450 13453 13456 13459 13462 13465 13468 13471 13474 13476 13478 13481 13484 13487 13490 13493 13496 13498 13501 13503 13506 13509 13512 13515 13518 13521 13524 13527 13530 13533 13536 13539 13542 13545 13548 13551 13554 13557 13560 13563 13566 13569 13572 13575 13578 13581 13584 13587 13589 13592 13594 13597 13600 13603 13606 13609 13612 13615 13618 13621 13624 13627 13630 13632 13635 13638 13641 13644 13647 13650 13653 13656 13659 13662 13665 13668 13671 13674 13677 13680 13683 13686 13689 13692 13695 13698 13701 13704 13707 13710 13713 13716 13719 13722 13725 13728 13731 13734 13737 13740 13743 13746 13749 13752 13755 13758 13761 13764 13767 13770 13773 13776 13779 13782 13785 13788 13791 13794 13797 13800 13803 13805 13808 13810 13813 13816 13819 13822 13825 13828 13831 13834 13837 13840 13842 13845 13848 13851 13854 13857 13860 13863 13866 13869 13872 13875 13878 13881 13884 13887 13890 13893 13896 13899 13902 13905 13908 13911 13914 13917 13920 13923 13926 13929 13932 13935 13938 13941 13944 13947 13950 13953 13956 13959 13962 13965 13967 13970 13973 13976 13978 13981 13984 13987 13990 13993 13996 13999 14002 14005 14008 14011 14014 14017 14020 14023 14026 14029 14032 14035 14038 14041 14044 14047 14050 14053 14056 14059 14062 14065 14068 14071 14074 14077 14080 14083 14086 14089 14092 14095 14097 14100 14103 14106 14109 14112 14114 14116 14119 14122 14125 14128 14131 14134 14137 14140 14143 14146 14149 14152 14154 14157 14160 14163 14165 14168 14171 14174 14177 14180 14183 14186 14189 14192 14195 14198 14201 14204 14207 14210 14213 14216 14219 14222 14225 14228 14231 14234 14237 14240 14243 14246 14249 14252 14255 14258 14261 14264 14267 14270 14273 14276 14279 14282 14285 14288 14291 14294 14297 14300 14303 14306 14309 14312 14315 14318 14321 14324 14327 14330 14333 14336 14339 14342 14345 14348 14351 14354 14357 14360 14363 14366 14369 14372 14375 14378 14381 14384 14387 14390 14392 14395 14398 14401 14404 14407 14409 14412 14415 14418 14421 14424 14427 14430 14433 14436 14439 14442 14445 14448 14451 14453 14456 14459 14461 14464 14467 14469 14471 14474 14477 14479 14481 14484 14487 14490 14493 14496 14499 14502 14505 14507 14510 14513 14516 14519 14522 14525 14528 14531 14534 14537 14540 14543 14546 14549 14552 14555 14558 14561 14564 14567 14570 14573 14576 14579 14582 14585 14588 14591 14594 14597 14600 14603 14606 14609 14612 14615 14618 14621 14624 14627 14630 14633 14636 14639 14642 14645 14648 14651 14654 14656 14659 14662 14665 14667 14670 14673 14676 14679 14682 14685 14688 14690 14693 14696 14698 14701 14704 14707 14709 14712 14715 14718 14721 14724 14727 14730 14732 14735 14737 14740 14742 14745 14748 14751 14754 14757 14760 14763 14766 14769 14772 14775 14777 14780 14783 14786 14788 14791 14793 14796 14799 14802 14804 14807 14810 14813 14816 14819 14822 14825 14828 14831 14833 14836 14839 14842 14845 14848 14851 14853 14856 14859 14862 14865 14867 14870 14873 14876 14879 14882 14885 14888 14891 14893 14896 14899 14902 14905 14908 14911 14914 14917 14920 14923 14926 14929 14931 14934 14937 14940 14943 14946 14949 14952 14955 14958 14961 14964 14967 14970 14973 14976 14979 14982 14985 14988 14991 14994 14997 15000 15002 15005 15008 15011 15014 15017 15020 15023 15026 15029 15032 15035 15038 15041 15044 15047 15050 15053 15056 15059 15062 15065 15068 15071 15074 15077 15080 15083 15086 15089 15092 15095 15098 15101 15104 15107 15110 15113 15116 15119 15122 15125 15128 15131 15134 15137 15140 15143 15146 15149 15152 15155 15158 15161 15164 15167 15169 15172 15175 15178 15181 15184 15187 15190 15192 15195 15198 15201 15204 15207 15210 15213 15216 15218 15220 15223 15226 15228 15231 15234 15236 15239 15242 15245 15247 15250 15252 15255 15257 15260 15263 15265 15268 15271 15274 15277 15280 15283 15286 15289 15292 15295 15298 15301 15304 15307 15310 15313 15315 15318 15321 15324 15327 15330 15333 15336 15338 15341 15344 15347 15350 15353 15356 15359 15362 15364 15367 15369 15372 15375 15377 15379 15382 15384 15387 15390 15393 15396 15399 15402 15405 15408 15411 15413 15415 15418 15421 15424 15427 15430 15433 15436 15439 15442 15445 15448 15451 15454 15456 15459 15461 15464 15467 15470 15472 15475 15478 15481 15484 15486 15489 15491 15494 15496 15499 15502 15505 15508 15510 15513 15516 15519 15522 15525 15528 15530 15533 15536 15539 15542 15545 15547 15550 15553 15556 15558 15561 15564 15567 15570 15573 15576 15579 15582 15585 15588 15591 15593 15596 15599 15602 15605 15608 15611 15613 15616 15619 15622 15625 15628 15631 15634 15637 15640 15642 15644 15647 15650 15653 15655 15657 15660 15663 15666 15669 15672 15675 15678 15681 15684 15687 15690 15693 15696 15699 15702 15705 15708 15711 15714 15717 15720 15723 15726 15729 15732 15735 15738 15741 15744 15747 15750 15753 15756 15759 15762 15765 15768 15771 15774 15777 15780 15783 15785 15788 15791 15794 15797 15799 15802 15805 15808 15811 15814 15817 15820 15823 15826 15828 15831 15834 15836 15839 15841 15844 15847 15850 15853 15856 15859 15862 15865 15868 15871 15874 15877 15880 15883 15886 15889 15892 15894 15897 15900 15903 15906 15909 15912 15915 15918 15921 15924 15927 15929 15932 15934 15936 15939 15942 15944 15947 15950 15952 15955 15958 15960 15963 15966 15969 15972 15975 15978 15981 15984 15987 15990 15993 15996 15999 16002 16004 16007 16010 16013 16016 16019 16022 16025 16028 16031 16033 16036 16039 16041 16044 16047 16050 16053 16056 16059 16062 16065 16068 16070 16072 16075 16078 16081 16084 16087 16089 16092 16095 16098 16101 16104 16106 16108 16111 16114 16117 16120 16123 16126 16129 16132 16135 16138 16141 16144 16147 16150 16153 16156 16159 16162 16165 16168 16171 16174 16177 16180 16183 16186 16189 16192 16195 16197 16200 16203 16205 16208 16211 16213 16216 16218 16221 16224 16226 16229 16231 16234 16237 16240 16243 16246 16249 16252 16255 16258 16261 16264 16267 16270 16273 16276 16279 16282 16285 16288 16291 16294 16297 16300 16303 16306 16309 16312 16315 16318 16321 16323 16326 16329 16332 16335 16338 16341 16344 16347 16350 16353 16356 16359 16362 16365 16367 16370 16373 16375 16378 16381 16384 16387 16390 16393 16396 16399 16402 16405 16408 16411 16414 16417 16420 16423 16426 16429 16432 16435 16438 16441 16444 16447 16450 16452 16455 16457 16460 16463 16466 16469 16472 16475 16478 16480 16483 16486 16488 16491 16494 16497 16499 16502 16505 16508 16511 16514 16517 16520 16523 16526 16529 16532 16535 16538 16541 16544 16546 16549 16552 16555 16558 16561 16564 16567 16570 16572 16575 16578 16580 16583 16586 16589 16592 16594 16597 16600 16602 16605 16608 16611 16614 16616 16619 16622 16625 16627 16630 16633 16635 16638 16640 16643 16646 16649 16652 16655 16658 16661 16664 16667 16670 16673 16676 16679 16682 16685 16688 16691 16694 16696 16699 16702 16705 16708 16711 16714 16717 16720 16723 16725 16728 16731 16733 16736 16739 16742 16745 16748 16750 16753 16756 16758 16761 16764 16767 16770 16773 16776 16779 16782 16784 16787 16790 16792 16795 16797 16800 16803 16805 16808 16811 16814 16817 16820 16823 16826 16828 16831 16834 16836 16839 16842 16844 16846 16848 16851 16854 16857 16859 16862 16865 16867 16870 16873 16876 16878 16881 16883 16886 16889 16891 16893 16895 16898 16900 16903 16905 16908 16911 16914 16917 16920 16923 16926 16929 16931 16933 16936 16939 16942 16945 16948 16951 16954 16956 16959 16962 16964 16967 16970 16972 16975 16978 16981 16984 16986 16989 16992 16995 16998 17001 17004 17007 17010 17013 17016 17019 17022 17025 17028 17031 17033 17036 17039 17041 17044 17047 17049 17052 17055 17058 17060 17063 17066 17068 17071 17073 17076 17079 17082 17085 17088 17091 17094 17097 17100 17103 17106 17108 17111 17114 17117 17120 17123 17125 17128 17131 17134 17136 17139 17142 17145 17147 17150 17153 17155 17158 17160 17163 17166 17169 17172 17175 17178 17181 17184 17187 17190 17192 17195 17198 17201 17203 17206 17208 17211 17214 17216 17218 17221 17223 17226 17229 17232 17234 17237 17240 17243 17245 17248 17251 17253 17256 17259 17262 17264 17267 17269 17272 17275 17278 17281 17284 17287 17290 17293 17296 17298 17301 17304 17306 17309 17312 17314 17317 17320 17323 17326 17329 17331 17334 17337 17340 17343 17346 17349 17351 17354 17357 17360 17363 17366 17369 17372 17375 17377 17380 17383 17385 17388 17391 17394 17397 17400 17403 17406 17409 17411 17414 17416 17418 17421 17424 17427 17429 17432 17435 17438 17441 17444 17447 17450 17453 17456 17459 17462 17465 17468 17470 17473 17476 17478 17481 17484 17486 17489 17492 17495 17497 17499 17502 17505 17508 17511 17513 17515 17518 17521 17524 17527 17530 17533 17535 17538 17540 17543 17546 17549 17552 17555 17558 17561 17564 17566 17569 17572 17575 17578 17581 17584 17587 17590 17593 17596 17599 17602 17605 17608 17611 17614 17617 17620 17623 17626 17629 17632 17635 17638 17641 17644 17647 17650 17653 17656 17659 17662 17665 17668 17671 17674 17677 17680 17683 17686 17688 17690 17693 17696 17699 17702 17704 17707 17710 17713 17716 17719 17722 17725 17728 17731 17734 17736 17739 17742 17745 17748 17751 17754 17757 17760 17762 17765 17768 17771 17774 17777 17780 17783 17786 17789 17792 17795 17798 17801 17804 17807 17809 17812 17815 17818 17821 17824 17827 17830 17833 17836 17839 17841 17844 17847 17850 17853 17855 17858 17861 17864 17866 17869 17872 17874 17877 17880 17882 17885 17887 17889 17892 17894 17897 17900 17903 17906 17908 17910 17913 17916 17919 17922 17925 17928 17931 17934 17937 17940 17943 17946 17949 17952 17955 17958 17961 17964 17967 17970 17973 17976 17979 17982 17985 17988 17991 17994 17997 18000 18003 18006 18008 18011 18014 18017 18020 18023 18026 18029 18032 18035 18038 18041 18044 18047 18050 18053 18056 18059 18062 18065 18068 18071 18074 18076 18078 18081 18084 18087 18090 18093 18096 18099 18102 18104 18107 18110 18113 18116 18119 18122 18125 18127 18130 18133 18136 18139 18142 18144 18147 18150 18153 18156 18159 18162 18165 18168 18171 18174 18177 18180 18183 18186 18189 18192 18195 18198 18201 18204 18207 18210 18213 18216 18219 18222 18225 18228 18231 18234 18237 18239 18242 18245 18248 18251 18254 18257 18259 18262 18265 18267 18270 18273 18276 18279 18282 18285 18288 18291 18294 18297 18299 18302 18305 18308 18311 18314 18317 18319 18322 18325 18328 18330 18333 18336 18339 18342 18345 18348 18351 18353 18356 18359 18362 18364 18366 18369 18372 18375 18378 18381 18384 18386 18389 18392 18395 18398 18401 18403 18406 18409 18412 18414 18417 18420 18423 18426 18428 18431 18434 18437 18439 18442 18445 18448 18451 18454 18457 18460 18463 18466 18469 18472 18475 18478 18481 18484 18486 18489 18491 18494 18497 18500 18503 18506 18509 18512 18515 18517 18520 18523 18526 18528 18530 18533 18536 18539 18542 18545 18548 18550 18552 18555 18558 18561 18564 18567 18570 18573 18576 18578 18581 18584 18587 18590 18593 18596 18599 18602 18605 18608 18610 18613 18616 18618 18621 18624 18626 18628 18631 18634 18637 18640 18643 18646 18649 18651 18654 18657 18660 18662 18664 18666 18669 18672 18675 18678 18681 18684 18687 18690 18693 18695 18698 18701 18704 18707 18710 18712 18715 18718 18721 18724 18727 18730 18733 18735 18738 18741 18744 18746 18749 18752 18755 18758 18761 18764 18767 18770 18773 18776 18779 18782 18785 18788 18790 18793 18796 18799 18802 18805 18808 18811 18814 18816 18819 18822 18824 18827 18830 18832 18835 18838 18841 18844 18847 18850 18852 18855 18858 18860 18863 18866 18869 18872 18875 18878 18881 18884 18887 18890 18893 18896 18898 18901 18904 18906 18909 18912 18915 18918 18921 18923 18925 18928 18931 18934 18936 18939 18942 18945 18948 18950 18953 18956 18958 18961 18964 18967 18970 18973 18976 18979 18982 18985 18988 18991 18994 18996 18999 19002 19005 19008 19011 19014 19016 19019 19022 19024 19027 19029 19031 19034 19037 19040 19043 19046 19049 19052 19055 19058 19061 19064 19067 19070 19073 19076 19078 19081 19083 19086 19089 19092 19095 19098 19100 19103 19106 19109 19112 19114 19117 19119 19122 19125 19128 19131 19134 19137 19140 19143 19146 19149 19152 19155 19158 19161 19164 19167 19169 19172 19175 19177 19180 19183 19186 19189 19192 19195 19198 19201 19204 19207 19210 19213 19215 19218 19221 19224 19227 19230 19233 19235 19238 19241 19244 19247 19249 19252 19255 19258 19261 19264 19266 19269 19272 19274 19277 19280 19283 19286 19289 19292 19295 19298 19300 19303 19306 19308 19311 19314 19317 19320 19323 19326 19329 19332 19335 19338 19341 19344 19347 19350 19353 19356 19358 19361 19364 19367 19370 19373 19376 19379 19382 19385 19387 19390 19392 19395 19398 19401 19404 19407 19410 19413 19415 19418 19420 19423 19426 19429 19431 19433 19436 19439 19442 19445 19448 19451 19453 19456 19459 19462 19464 19466 19469 19472 19475 19478 19481 19484 19487 19490 19493 19496 19499 19502 19505 19508 19511 19513 19516 19519 19522 19525 19527 19530 19533 19535 19538 19541 19544 19547 19550 19553 19556 19559 19561 19564 19567 19570 19573 19576 19578 19581 19584 19586 19589 19592 19595 19598 19601 19603 19606 19609 19612 19615 19618 19621 19624 19627 19630 19633 19636 19639 19642 19644 19647 19650 19653 19656 19658 19661 19664 19666 19668 19671 19674 19677 19680 19683 19685 19688 19691 19693 19696 19699 19701 19704 19707 19709 19712 19715 19718 19721 19724 19727 19730 19733 19736 19739 19742 19745 19748 19751 19754 19756 19759 19762 19765 19768 19771 19774 19776 19779 19782 19785 19788 19791 19793 19796 19799 19802 19805 19808 19811 19814 19816 19819 19821 19824 19827 19830 19832 19835 19838 19841 19844 19846 19849 19852 19855 19858 19861 19864 19867 19870 19872 19875 19878 19881 19884 19886 19889 19892 19895 19898 19901 19904 19907 19909 19912 19915 19918 19921 19924 19927 19930 19933 19936 19939 19942 19945 19948 19951 19953 19956 19959 19962 19965 19968 19971 19973 19976 19979 19982 19985 19988 19991 19994 19996 19999 20002 20005 20008 20011 20014 20016 20019 20022 20025 20027 20030 20033 20035 20038 20041 20044 20047 20049 20052 20055 20058 20061 20063 20066 20069 20072 20075 20078 20081 20084 20086 20088 20091 20094 20097 20100 20103 20105 20108 20111 20114 20117 20120 20123 20126 20129 20131 20134 20137 20140 20143 20146 20149 20152 20155 20157 20160 20163 20166 20169 20172 20175 20178 20181 20184 20187 20190 20193 20196 20199 20202 20205 20208 20211 20214 20217 20220 20223 20226 20228 20231 20233 20236 20239 20242 20245 20247 20249 20252 20255 20258 20261 20264 20267 20270 20273 20276 20279 20281 20284 20287 20289 20292 20294 20297 20299 20302 20305 20307 20310 20313 20315 20318 20320 20323 20325 20327 20330 20332 20334 20337 20339 20342 20345 20348 20351 20353 20356 20359 20361 20364 20367 20369 20372 20374 20377 20380 20383 20385 20388 20391 20394 20396 20399 20402 20405 20408 20411 20414 20417 20420 20423 20426 20429 20432 20435 20438 20441 20444 20447 20450 20453 20456 20459 20462 20465 20468 20471 20474 20477 20480 20483 20486 20489 20492 20495 20498 20501 20504 20507 20510 20513 20516 20519 20522 20524 20527 20530 20533 20536 20538 20541 20544 20547 20550 20553 20556 20559 20562 20565 20567 20570 20573 20576 20579 20582 20585 20588 20591 20594 20597 20600 20603 20606 20609 20612 20615 20618 20621 20624 20627 20630 20633 20636 20639 20642 20645 20648 20651 20654 20657 20660 20663 20666 20669 20672 20675 20678 20681 20684 20687 20690 20693 20696 20699 20702 20705 20708 20711 20714 20717 20720 20723 20725 20728 20731 20734 20737 20740 20743 20746 20749 20752 20755 20758 20760 20763 20766 20769 20772 20775 20777 20779 20782 20785 20788 20790 20793 20795 20798 20801 20803 20806 20809 20812 20815 20818 20821 20824 20827 20830 20833 20836 20838 20841 20843 20846 20849 20852 20855 20858 20861 20863 20866 20869 20872 20875 20878 20881 20884 20887 20890 20893 20896 20899 20901 20904 20907 20910 20913 20915 20918 20921 20924 20927 20930 20933 20936 20939 20942 20944 20947 20950 20952 20955 20958 20961 20963 20966 20969 20972 20975 20978 20980 20983 20986 20989 20992 20995 20998 21001 21004 21007 21010 21013 21016 21018 21021 21024 21027 21030 21033 21036 21039 21042 21045 21048 21051 21054 21056 21059 21062 21065 21068 21071 21074 21077 21080 21083 21086 21089 21092 21095 21098 21101 21104 21107 21110 21112 21115 21118 21121 21123 21126 21129 21132 21135 21138 21141 21144 21147 21150 21153 21156 21158 21161 21164 21166 21169 21172 21175 21178 21181 21184 21187 21190 21193 21196 21199 21202 21205 21208 21211 21214 21217 21220 21223 21226 21229 21232 21235 21238 21241 21244 21247 21250 21253 21256 21259 21262 21265 21268 21271 21273 21276 21279 21282 21285 21288 21290 21293 21295 21298 21301 21304 21307 21310 21313 21316 21318 21320 21323 21326 21329 21332 21335 21338 21340 21343 21345 21348 21351 21354 21357 21360 21363 21366 21369 21372 21375 21378 21381 21384 21387 21390 21392 21395 21398 21400 21403 21406 21409 21411 21414 21417 21420 21423 21425 21427 21430 21433 21436 21439 21442 21445 21447 21450 21453 21456 21459 21461 21464 21467 21470 21473 21476 21479 21482 21485 21488 21491 21494 21497 21500 21503 21506 21509 21512 21515 21518 21521 21524 21527 21530 21533 21536 21539 21542 21544 21547 21550 21553 21556 21558 21561 21563 21566 21569 21572 21575 21578 21581 21584 21587 21590 21593 21596 21599 21602 21604 21607 21610 21612 21615 21618 21621 21624 21627 21630 21633 21636 21639 21642 21645 21648 21651 21653 21656 21659 21662 21664 21667 21669 21672 21675 21678 21681 21684 21687 21689 21692 21694 21697 21700 21703 21706 21709 21712 21715 21717 21720 21723 21726 21729 21732 21734 21737 21740 21743 21746 21749 21752 21755 21758 21761 21763 21766 21769 21772 21774 21777 21779 21782 21785 21788 21791 21793 21796 21799 21802 21805 21807 21809 21812 21815 21818 21821 21823 21826 21829 21831 21834 21837 21840 21843 21846 21849 21852 21854 21857 21860 21863 21865 21868 21871 21874 21877 21880 21883 21886 21889 21892 21894 21897 21900 21902 21905 21908 21910 21913 21916 21919 21921 21924 21926 21928 21931 21934 21936 21938 21941 21944 21947 21949 21952 21955 21958 21960 21963 21965 21967 21969 21972 21975 21978 21981 21984 21987 21990 21992 21995 21998 22001 22003 22006 22009 22012 22015 22017 22020 22023 22026 22029 22031 22034 22037 22040 22042 22044 22047 22050 22053 22056 22058 22061 22064 22067 22070 22073 22076 22079 22082 22085 22088 22091 22094 22097 22099 22102 22105 22108 22111 22113 22116 22119 22121 22124 22127 22130 22133 22136 22139 22142 22144 22147 22149 22152 22155 22158 22161 22164 22167 22170 22172 22175 22178 22180 22183 22186 22189 22192 22194 22196 22198 22201 22204 22207 22210 22213 22216 22219 22222 22225 22228 22231 22233 22236 22239 22242 22245 22247 22250 22253 22256 22259 22262 22265 22268 22271 22274 22277 22280 22283 22286 22289 22292 22295 22298 22301 22304 22307 22310 22313 22316 22319 22322 22325 22328 22331 22334 22337 22340 22343 22346 22349 22352 22355 22358 22360 22362 22365 22367 22370 22373 22376 22379 22382 22385 22388 22391 22393 22395 22398 22401 22404 22407 22410 22413 22416 22419 22422 22425 22428 22430 22432 22434 22437 22439 22442 22445 22448 22450 22452 22455 22458 22460 22462 22465 22468 22471 22474 22476 22479 22482 22485 22488 22490 22493 22496 22499 22502 22505 22507 22510 22513 22516 22518 22521 22523 22526 22529 22532 22535 22537 22540 22543 22546 22549 22552 22554 22557 22559 22562 22565 22568 22571 22574 22576 22579 22581 22584 22587 22590 22593 22596 22599 22602 22604 22607 22609 22612 22615 22618 22621 22624 22627 22630 22633 22636 22639 22642 22645 22648 22651 22654 22657 22660 22663 22666 22669 22672 22675 22678 22681 22683 22686 22689 22692 22695 22698 22700 22702 22705 22708 22711 22714 22717 22719 22722 22725 22728 22731 22734 22737 22739 22742 22745 22748 22751 22754 22757 22760 22763 22766 22769 22772 22775 22778 22781 22784 22787 22790 22793 22796 22799 22802 22805 22808 22810 22813 22816 22819 22821 22824 22826 22829 22832 22835 22838 22840 22842 22845 22847 22850 22852 22855 22858 22861 22864 22867 22870 22873 22876 22879 22882 22885 22888 22891 22894 22897 22900 22903 22906 22909 22912 22915 22918 22920 22923 22926 22929 22932 22934 22937 22940 22943 22946 22949 22952 22955 22958 22961 22963 22966 22969 22972 22975 22978 22981 22984 22987 22990 22993 22996 22999 23002 23005 23008 23011 23014 23017 23020 23023 23026 23029 23031 23034 23037 23040 23043 23046 23048 23051 23054 23057 23060 23062 23065 23068 23071 23073 23076 23079 23081 23084 23087 23090 23093 23096 23098 23101 23103 23105 23108 23111 23114 23117 23120 23123 23125 23128 23131 23133 23136 23138 23141 23144 23146 23149 23152 23155 23157 23160 23163 23166 23169 23172 23174 23177 23180 23182 23185 23188 23190 23193 23196 23199 23202 23205 23207 23210 23213 23216 23219 23222 23225 23228 23231 23234 23237 23240 23242 23244 23247 23249 23252 23255 23257 23260 23263 23266 23268 23271 23273 23276 23279 23281 23284 23287 23290 23292 23295 23298 23301 23304 23306 23308 23311 23314 23317 23320 23323 23326 23329 23331 23334 23337 23340 23343 23346 23349 23351 23354 23357 23360 23363 23366 23369 23372 23375 23378 23381 23384 23387 23390 23393 23396 23399 23402 23405 23408 23411 23414 23417 23420 23423 23426 23429 23432 23435 23438 23441 23444 23446 23448 23451 23454 23457 23460 23463 23466 23469 23472 23475 23478 23481 23484 23487 23490 23493 23496 23499 23502 23505 23508 23511 23514 23517 23520 23523 23526 23529 23532 23535 23538 23541 23544 23547 23550 23553 23556 23559 23562 23565 23568 23571 23574 23577 23580 23583 23585 23588 23591 23594 23597 23600 23603 23606 23609 23612 23615 23618 23621 23624 23627 23630 23632 23635 23638 23641 23644 23647 23650 23652 23654 23657 23660 23663 23666 23669 23672 23674 23676 23678 23681 23684 23687 23689 23692 23694 23697 23700 23703 23706 23709 23712 23715 23718 23721 23724 23727 23730 23733 23736 23738 23741 23744 23747 23750 23753 23755 23758 23760 23763 23765 23768 23771 23774 23777 23780 23783 23786 23789 23792 23795 23798 23801 23804 23807 23809 23812 23815 23817 23820 23823 23826 23829 23832 23835 23838 23841 23844 23847 23850 23852 23855 23858 23860 23863 23866 23868 23871 23874 23877 23880 23883 23886 23889 23892 23895 23898 23901 23904 23907 23910 23913 23916 23919 23922 23925 23928 23931 23934 23936 23939 23942 23944 23946 23949 23951 23954 23956 23959 23962 23965 23967 23969 23972 23975 23977 23980 23982 23985 23988 23990 23992 23995 23998 24001 24004 24007 24010 24012 24015 24018 24021 24024 24027 24030 24032 24035 24038 24040 24043 24045 24048 24051 24054 24057 24060 24063 24066 24069 24071 24074 24077 24080 24082 24085 24088 24091 24094 24096 24099 24102 24105 24108 24111 24114 24117 24120 24123 24126 24128 24131 24134 24137 24140 24142 24145 24148 24150 24153 24156 24158 24161 24164 24166 24169 24172 24175 24178 24181 24184 24187 24190 24192 24195 24198 24200 24203 24206 24209 24212 24215 24218 24221 24224 24227 24230 24232 24235 24237 24240 24243 24246 24249 24251 24254 24257 24260 24263 24266 24269 24272 24275 24278 24281 24284 24287 24290 24293 24296 24299 24302 24305 24308 24311 24313 24316 24318 24321 24324 24327 24330 24333 24336 24339 24342 24345 24348 24351 24353 24356 24358 24360 24363 24366 24369 24372 24375 24378 24381 24384 24387 24390 24393 24395 24398 24401 24404 24407 24410 24413 24415 24418 24420 24423 24425 24428 24431 24434 24436 24438 24441 24443 24446 24448 24451 24454 24456 24459 24462 24465 24467 24470 24473 24476 24479 24481 24484 24487 24490 24493 24495 24497 24500 24503 24506 24509 24512 24514 24517 24520 24523 24526 24529 24532 24535 24538 24541 24544 24547 24550 24552 24555 24558 24561 24564 24567 24570 24573 24576 24579 24582 24585 24587 24590 24593 24596 24599 24602 24604 24607 24610 24613 24616 24619 24621 24624 24627 24630 24633 24636 24638 24641 24644 24646 24649 24652 24655 24657 24660 24662 24665 24667 24670 24673 24676 24678 24681 24684 24686 24688 24691 24694 24697 24700 24703 24706 24708 24711 24714 24717 24720 24722 24725 24728 24731 24734 24737 24740 24743 24746 24749 24752 24755 24758 24761 24764 24767 24770 24772 24775 24778 24780 24783 24786 24789 24792 24795 24797 24800 24803 24806 24809 24811 24814 24816 24819 24822 24825 24828 24831 24834 24837 24840 24843 24846 24848 24850 24852 24855 24857 24860 24863 24866 24869 24872 24875 24878 24881 24884 24887 24890 24893 24896 24898 24901 24904 24907 24910 24913 24916 24919 24922 24925 24928 24931 24934 24936 24938 24941 24944 24947 24949 24952 24954 24957 24960 24963 24966 24969 24972 24975 24978 24981 24984 24987 24990 24993 24995 24998 25000 25003 25006 25009 25012 25015 25018 25021 25023 25026 25029 25032 25035 25038 25041 25044 25046 25049 25052 25055 25058 25061 25064 25067 25070 25073 25076 25079 25082 25085 25088 25091 25094 25097 25100 25103 25106 25109 25112 25115 25118 25121 25123 25125 25128 25131 25134 25137 25140 25143 25146 25149 25152 25155 25158 25161 25164 25167 25169 25172 25175 25177 25180 25183 25186 25189 25192 25195 25198 25201 25204 25207 25210 25213 25216 25219 25222 25225 25228 25231 25234 25237 25240 25243 25246 25248 25251 25253 25256 25259 25262 25265 25268 25270 25273 25276 25279 25282 25285 25288 25291 25294 25297 25300 25303 25306 25309 25312 25315 25318 25321 25324 25327 25330 25333 25336 25339 25341 25344 25347 25350 25353 25356 25359 25361 25364 25367 25370 25373 25376 25379 25382 25384 25387 25390 25393 25395 25398 25401 25404 25407 25410 25413 25415 25418 25421 25424 25427 25430 25432 25435 25438 25441 25444 25447 25450 25453 25456 25459 25461 25464 25467 25470 25472 25475 25478 25481 25484 25487 25490 25492 25495 25498 25501 25503 25506 25509 25512 25515 25518 25521 25524 25527 25530 25533 25536 25538 25541 25543 25546 25549 25552 25554 25557 25560 25562 25564 25567 25570 25573 25576 25579 25582 25585 25587 25590 25593 25596 25598 25601 25604 25606 25608 25611 25613 25616 25619 25622 25624 25627 25630 25633 25636 25639 25642 25645 25648 25650 25652 25655 25658 25661 25664 25666 25669 25672 25675 25678 25681 25684 25687 25690 25693 25696 25699 25702 25705 25708 25711 25714 25717 25720 25723 25726 25729 25732 25735 25738 25741 25744 25747 25750 25753 25756 25759 25762 25764 25767 25770 25773 25776 25779 25782 25784 25787 25790 25793 25796 25799 25802 25805 25808 25811 25813 25816 25819 25822 25825 25828 25831 25834 25837 25840 25843 25846 25849 25852 25855 25858 25861 25864 25867 25870 25873 25876 25879 25882 25885 25888 25890 25893 25896 25899 25902 25905 25908 25911 25914 25917 25920 25923 25926 25928 25931 25934 25937 25939 25942 25945 25948 25951 25954 25957 25960 25963 25966 25969 25972 25975 25978 25981 25984 25987 25990 25993 25996 25999 26002 26005 26007 26010 26013 26015 26018 26020 26023 26026 26029 26032 26035 26038 26040 26043 26046 26049 26052 26055 26058 26061 26064 26067 26070 26073 26076 26079 26082 26085 26088 26091 26094 26097 26100 26102 26105 26108 26111 26113 26116 26119 26122 26125 26128 26130 26133 26136 26139 26142 26144 26147 26150 26152 26155 26158 26161 26164 26167 26170 26173 26176 26179 26182 26185 26188 26191 26194 26197 26200 26203 26205 26207 26210 26213 26216 26219 26222 26225 26228 26231 26234 26237 26240 26243 26246 26248 26251 26253 26256 26259 26262 26265 26268 26271 26274 26277 26280 26283 26286 26289 26292 26295 26298 26301 26304 26307 26310 26313 26316 26319 26322 26325 26328 26331 26334 26336 26339 26342 26345 26348 26351 26354 26356 26359 26362 26365 26368 26371 26374 26377 26380 26383 26385 26388 26391 26394 26397 26399 26402 26405 26408 26411 26414 26417 26420 26423 26426 26429 26432 26435 26438 26441 26444 26447 26450 26453 26456 26459 26462 26465 26468 26471 26473 26476 26479 26481 26483 26486 26489 26492 26495 26498 26501 26504 26507 26510 26512 26515 26518 26521 26524 26526 26529 26532 26535 26538 26541 26543 26546 26549 26552 26554 26557 26560 26562 26564 26566 26569 26572 26575 26578 26580 26583 26586 26588 26590 26593 26595 26598 26601 26604 26606 26609 26612 26614 26616 26619 26622 26625 26628 26631 26634 26637 26640 26643 26646 26649 26652 26655 26657 26660 26663 26666 26669 26672 26675 26678 26680 26683 26686 26689 26692 26695 26698 26701 26704 26706 26709 26712 26715 26718 26721 26724 26727 26730 26733 26736 26739 26742 26745 26748 26751 26754 26757 26760 26763 26766 26769 26772 26775 26778 26781 26784 26786 26789 26792 26795 26798 26801 26804 26807 26810 26813 26816 26819 26822 26824 26827 26830 26833 26836 26839 26842 26845 26848 26851 26854 26857 26860 26862 26865 26868 26871 26874 26877 26880 26883 26886 26889 26892 26895 26898 26901 26904 26907 26910 26913 26916 26919 26922 26925 26928 26931 26934 26937 26940 26943 26946 26949 26952 26955 26958 26961 26964 26967 26970 26972 26975 26978 26981 26984 26987 26989 26992 26994 26997 26999 27001 27004 27007 27010 27013 27016 27019 27022 27024 27027 27030 27033 27036 27039 27042 27045 27048 27051 27054 27057 27060 27063 27066 27069 27072 27075 27078 27081 27084 27086 27089 27092 27095 27098 27100 27103 27105 27108 27111 27114 27117 27120 27123 27126 27129 27132 27134 27137 27140 27143 27146 27149 27152 27154 27157 27160 27162 27165 27168 27171 27174 27177 27180 27182 27185 27188 27191 27194 27197 27200 27203 27206 27209 27212 27215 27218 27221 27224 27227 27230 27233 27236 27239 27242 27245 27248 27251 27254 27257 27260 27263 27266 27269 27272 27275 27278 27281 27284 27287 27290 27292 27295 27298 27301 27304 27306 27309 27312 27315 27318 27321 27323 27326 27328 27331 27334 27337 27340 27343 27346 27349 27352 27355 27358 27361 27364 27367 27370 27373 27376 27379 27382 27385 27388 27391 27394 27397 27400 27403 27406 27409 27412 27414 27416 27419 27422 27425 27428 27431 27434 27437 27440 27443 27446 27449 27452 27454 27457 27460 27463 27466 27469 27472 27475 27478 27481 27484 27487 27490 27493 27496 27498 27501 27504 27506 27509 27512 27515 27518 27521 27524 27526 27529 27532 27535 27538 27541 27543 27546 27549 27552 27555 27557 27560 27562 27565 27568 27571 27574 27577 27580 27583 27586 27589 27592 27594 27597 27599 27601 27604 27607 27610 27613 27615 27618 27621 27623 27626 27629 27632 27634 27637 27640 27643 27646 27649 27652 27655 27658 27661 27663 27666 27668 27671 27674 27677 27680 27683 27686 27688 27691 27693 27696 27699 27702 27704 27707 27710 27713 27716 27719 27722 27725 27728 27730 27733 27736 27739 27742 27745 27747 27749 27752 27755 27758 27761 27763 27765 27767 27770 27773 27775 27778 27781 27784 27787 27790 27793 27796 27799 27802 27804 27807 27810 27813 27816 27818 27820 27822 27825 27828 27831 27834 27837 27840 27842 27845 27848 27850 27853 27856 27859 27862 27865 27868 27871 27874 27877 27879 27882 27884 27887 27889 27892 27895 27898 27901 27904 27907 27909 27912 27915 27918 27920 27922 27925 27928 27931 27934 27937 27940 27943 27946 27949 27952 27955 27958 27961 27964 27967 27970 27973 27976 27979 27982 27984 27987 27990 27993 27996 27999 28002 28005 28008 28010 28013 28015 28018 28020 28023 28026 28029 28031 28034 28037 28040 28043 28046 28049 28051 28054 28057 28060 28062 28065 28068 28071 28074 28077 28079 28082 28085 28088 28091 28093 28096 28099 28102 28104 28107 28110 28112 28115 28118 28120 28123 28126 28129 28132 28135 28137 28140 28142 28145 28148 28151 28154 28157 28160 28163 28166 28169 28172 28175 28178 28181 28184 28186 28189 28192 28194 28196 28199 28202 28205 28208 28211 28214 28217 28220 28223 28226 28229 28232 28235 28238 28241 28243 28246 28249 28252 28255 28258 28261 28264 28267 28270 28273 28276 28279 28282 28285 28288 28291 28294 28297 28300 28303 28306 28309 28312 28315 28318 28321 28324 28327 28330 28332 28335 28338 28341 28344 28347 28350 28353 28355 28358 28361 28364 28367 28370 28372 28375 28378 28381 28384 28387 28389 28392 28395 28398 28401 28404 28407 28410 28413 28416 28419 28421 28424 28426 28429 28432 28435 28438 28441 28444 28447 28450 28453 28456 28459 28462 28465 28467 28470 28473 28476 28479 28482 28485 28487 28490 28493 28496 28499 28502 28505 28508 28511 28514 28517 28520 28523 28526 28529 28532 28535 28538 28541 28544 28547 28550 28553 28556 28559 28561 28563 28566 28569 28571 28574 28577 28579 28582 28585 28588 28591 28594 28597 28599 28602 28605 28608 28611 28614 28617 28620 28622 28624 28627 28630 28633 28636 28639 28642 28645 28648 28651 28654 28657 28660 28663 28666 28669 28672 28675 28678 28681 28684 28687 28690 28693 28696 28699 28702 28705 28708 28711 28714 28717 28720 28723 28726 28729 28732 28735 28738 28741 28744 28747 28750 28753 28756 28758 28761 28764 28767 28770 28773 28776 28779 28782 28785 28788 28791 28793 28796 28799 28802 28805 28808 28811 28814 28817 28820 28823 28826 28829 28832 28835 28838 28841 28844 28847 28850 28853 28856 28859 28862 28865 28868 28871 28874 28877 28880 28883 28886 28889 28892 28895 28898 28900 28903 28905 28908 28911 28914 28917 28920 28923 28926 28928 28931 28933 28936 28939 28942 28945 28947 28950 28953 28956 28959 28962 28965 28968 28971 28974 28977 28980 28983 28986 28989 28992 28995 28998 29001 29004 29007 29010 29013 29016 29019 29021 29024 29027 29030 29033 29036 29039 29042 29045 29048 29051 29054 29057 29060 29063 29066 29069 29072 29075 29078 29081 29084 29087 29090 29093 29096 29099 29102 29105 29108 29111 29114 29117 29120 29123 29126 29129 29132 29135 29138 29141 29144 29147 29150 29153 29156 29159 29162 29165 29168 29171 29174 29177 29180 29182 29185 29188 29191 29194 29197 29200 29203 29206 29209 29212 29215 29217 29219 29222 29225 29228 29231 29234 29237 29240 29243 29246 29249 29252 29255 29258 29261 29264 29267 29270 29273 29276 29279 29281 29284 29287 29290 29292 29295 29297 29299 29302 29305 29308 29311 29314 29317 29320 29323 29326 29329 29331 29334 29337 29340 29343 29346 29349 29352 29355 29358 29361 29364 29367 29370 29373 29376 29379 29382 29385 29388 29391 29394 29397 29400 29403 29406 29409 29412 29415 29418 29421 29424 29427 29430 29433 29436 29439 29442 29445 29448 29451 29454 29457 29460 29462 29465 29468 29471 29474 29477 29479 29482 29485 29487 29490 29493 29496 29499 29502 29505 29508 29511 29514 29517 29520 29523 29526 29528 29531 29534 29537 29540 29543 29546 29549 29552 29555 29558 29561 29564 29566 29569 29572 29575 29578 29581 29584 29587 29590 29593 29595 29598 29600 29603 29606 29609 29611 29614 29617 29619 29622 29625 29628 29631 29634 29637 29640 29643 29646 29649 29652 29655 29658 29661 29664 29667 29670 29673 29676 29679 29682 29685 29688 29691 29694 29697 29700 29703 29706 29709 29712 29715 29718 29721 29724 29727 29729 29732 29734 29737 29740 29743 29746 29748 29751 29753 29756 29759 29762 29765 29767 29770 29773 29776 29779 29781 29784 29787 29790 29792 29795 29798 29801 29804 29806 29809 29812 29815 29818 29821 29824 29826 29829 29832 29834 29837 29839 29841 29844 29847 29849 29852 29855 29857 29860 29863 29865 29868 29870 29873 29876 29879 29882 29885 29887 29889 29891 29894 29897 29900 29902 29905 29908 29911 29914 29916 29918 29921 29924 29927 29930 29933 29936 29939 29942 29945 29948 29951 29954 29957 29960 29963 29965 29968 29970 29973 29975 29978 29980 29982 29985 29987 29990 29993 29996 29999 30001 30004 30007 30010 30013 30015 30017 30020 30023 30026 30029 30032 30035 30038 30041 30044 30047 30050 30053 30056 30059 30062 30065 30068 30071 30074 30077 30080 30083 30085 30087 30090 30093 30096 30099 30102 30104 30107 30110 30113 30116 30119 30121 30124 30127 30130 30133 30136 30139 30142 30145 30148 30151 30154 30157 30160 30163 30165 30168 30171 30174 30176 30179 30181 30183 30185 30188 30191 30194 30197 30199 30201 30204 30207 30210 30213 30215 30217 30219 30222 30225 30228 30231 30233 30236 30239 30242 30245 30248 30251 30254 30257 30260 30263 30266 30269 30272 30274 30277 30280 30282 30285 30287 30290 30293 30295 30298 30301 30304 30307 30310 30313 30315 30318 30321 30324 30327 30330 30333 30336 30339 30342 30345 30348 30351 30353 30356 30359 30362 30365 30368 30371 30374 30377 30380 30382 30385 30388 30391 30393 30396 30399 30402 30404 30407 30410 30413 30415 30417 30420 30423 30425 30428 30430 30433 30436 30438 30441 30444 30447 30450 30453 30456 30459 30462 30464 30467 30470 30473 30476 30479 30482 30484 30487 30490 30493 30496 30499 30501 30504 30507 30510 30513 30516 30519 30522 30525 30528 30531 30534 30537 30540 30543 30546 30548 30551 30554 30556 30559 30562 30565 30567 30570 30573 30576 30578 30581 30584 30587 30590 30593 30596 30599 30601 30604 30606 30609 30612 30615 30618 30621 30624 30627 30630 30633 30636 30639 30642 30645 30648 30651 30654 30657 30660 30663 30666 30668 30671 30674 30677 30680 30683 30686 30689 30692 30695 30698 30700 30703 30705 30708 30711 30714 30717 30720 30722 30725 30727 30730 30733 30736 30739 30742 30745 30747 30750 30753 30756 30759 30762 30765 30767 30770 30773 30776 30779 30782 30785 30788 30791 30794 30796 30798 30801 30804 30807 30810 30813 30816 30819 30821 30824 30827 30829 30832 30835 30838 30841 30844 30847 30850 30852 30855 30858 30861 30864 30867 30870 30873 30876 30878 30881 30883 30886 30889 30892 30895 30898 30901 30904 30907 30910 30913 30916 30919 30922 30925 30928 30931 30934 30937 30940 30943 30946 30949 30952 30955 30958 30961 30964 30967 30970 30973 30976 30979 30982 30985 30988 30991 30994 30997 31000 31003 31006 31009 31012 31015 31018 31021 31024 31027 31030 31033 31036 31039 31042 31045 31048 31051 31053 31056 31059 31062 31065 31068 31071 31074 31077 31079 31082 31085 31088 31091 31094 31097 31100 31103 31105 31108 31111 31114 31117 31120 31122 31125 31127 31130 31133 31136 31139 31142 31144 31147 31150 31153 31156 31158 31161 31164 31167 31170 31173 31176 31179 31182 31184 31187 31190 31193 31195 31197 31200 31203 31205 31208 31211 31214 31217 31220 31223 31225 31228 31230 31233 31236 31239 31242 31245 31248 31251 31254 31257 31260 31263 31266 31269 31272 31275 31278 31281 31284 31287 31290 31293 31296 31299 31302 31305 31308 31311 31314 31317 31320 31323 31326 31329 31332 31335 31338 31341 31344 31347 31349 31352 31355 31358 31361 31364 
</DataArray>
<DataArray type="UInt32" Name="types" format="ascii">
5 5 5 5 5 5 5 3 5 3 5 5 5 5 5 5 5 5 5 3 5 5 5 5 5 5 5 5 5 5 5 3 5 5 3 5 5 3 5 5 5 5 5 5 5 5 5 5 5 3 5 5 5 5 5 5 5 5 5 5 5 5 5 3 5 5 5 5 5 5 5 5 5 5 5 5 5 5 5 3 5 5 5 3 5 5 5 5 5 3 5 5 5 5 5 5 5 5 5 5 5 5 5 5 5 5 5 5 5 5 5 3 5 3 5 5 5 5 5 5 5 5 5 5 5 5 5 3 5 3 5 3 5 5 5 3 5 5 5 5 5 5 5 3 5 5 5 5 5 5 5 5 5 5 5 5 5 5 5 5 5 5 5 5 5 5 5 5 5 5 5 5 5 5 5 5 5 3 5 3 5 3 5 5 3 5 5 5 5 5 5 5 3 5 5 5 5 5 5 5 3 5 5 5 5 5 5 5 5 5 5 5 3 5 5 3 5 5 5 5 5 5 5 5 5 5 5 5 5 5 5 5 5 5 5 5 5 5 5 5 5 5 5 5 5 5 5 5 5 5 5 3 5 5 5 5 5 3 5 5 5 5 5 5 5 5 5 5 5 5 5 5 5 5 3 5 5 5 5 5 5 5 5 3 5 5 5 5 5 3 5 5 5 5 5 5 5 5 5 5 5 5 3 5 5 5 5 3 5 5 5 3 5 5 5 5 5 5 5 5 5 5 5 5 5 5 5 5 5 5 5 5 5 5 5 5 5 5 5 5 5 5 5 5 5 5 5 3 5 3 5 5 5 5 5 5 5 5 5 5 5 5 5 5 5 5 5 5 3 5 5 5 5 5 5 5 5 5 5 5 5 5 5 5 5 5 5 5 3 3 5 5 3 5 5 5 5 5 5 3 5 5 5 5 5 5 3 5 5 3 5 3 5 5 5 5 5 5 3 5 5 3 5 5 5 5 5 5 5 5 5 5 5 5 5 5 5 5 5 5 5 5 5 5 3 5 5 5 5 5 3 5 5 5 5 5 5 5 5 5 5 5 5 5 5 5 5 5 5 5 5 5 5 3 5 5 5 3 5 5 5 5 5 5 5 5 5 3 5 3 5 5 3 5 5 5 3 5 3 5 5 5 5 5 3 5 5 5 5 3 5 3 3 5 5 5 5 5 5 5 5 5 3 5 5 3 5 5 5 5 5 3 5 5 5 5 3 5 5 5 3 5 3 5 3 5 5 5 5 5 5 5 5 5 5 5 5 3 5 5 5 3 5 5 5 5 5 5 5 5 5 5 5 5 3 5 5 5 5 5 3 5 5 3 5 5 3 5 5 5 5 5 5 5 5 5 5 5 5 5 5 5 5 5 3 5 3 5 3 5 3 5 5 5 5 3 5 5 5 5 3 5 5 5 5 3 5 5 5 5 5 3 5 5 3 5 3 3 3 5 5 5 5 5 5 5 5 5 5 5 5 5 5 5 5 5 5 3 5 5 5 5 5 5 5 5 5 3 5 5 5 5 5 3 5 5 5 5 5 5 5 3 5 5 3 3 5 5 5 5 5 3 5 3 5 5 5 5 5 5 5 3 5 5 3 5 5 5 5 5 5 3 5 3 5 5 3 5 5 5 5 5 5 5 5 5 5 5 5 5 5 5 5 5 5 5 5 5 5 3 5 5 5 5 5 5 5 3 5 5 5 3 5 3 5 5 5 3 5 5 5 3 5 5 5 5 5 5 5 5 5 3 5 5 5 5 5 5 5 5 3 5 3 3 3 5 5 3 5 3 5 5 5 5 5 5 5 5 5 5 5 5 5 5 5 5 5 5 5 5 5 5 5 5 5 3 3 3 5 5 5 5 5 5 5 5 5 5 5 5 5 5 5 5 5 5 5 5 5 5 5 5 5 5 5 5 5 3 5 5 5 5 5 3 5 5 5 3 5 5 3 3 5 3 5 5 5 5 5 5 3 5 5 5 5 5 3 5 3 5 5 5 3 5 3 5 3 5 5 5 5 5 3 5 5 5 3 5 5 5 5 5 5 5 5 3 5 5 5 5 5 5 3 5 5 5 5 5 5 5 5 3 5 5 3 5 5 5 5 5 5 3 5 3 5 3 5 5 5 5 5 5 5 5 5 5 5 3 3 3 5 5 3 5 5 5 5 5 3 3 5 5 3 3 3 5 5 5 5 5 5 5 5 5 5 5 5 5 5 5 5 5 5 5 5 5 5 5 5 5 5 5 5 5 5 5 5 5 3 5 5 5 5 5 5 5 3 5 5 5 5 5 5 3 5 5 5 5 5 5 5 5 5 5 5 5 5 5 5 5 5 5 5 5 5 5 5 5 5 5 5 5 5 5 5 5 5 5 5 5 5 5 5 5 5 5 5 5 5 5 5 5 5 5 5 5 5 5 3 5 5 5 3 5 5 3 5 5 5 5 5 5 3 5 5 5 5 5 5 5 5 5 5 3 5 5 5 5 3 5 5 5 5 5 5 5 5 5 5 5 5 5 5 5 5 5 5 5 5 5 5 5 5 3 5 5 5 5 3 5 5 5 5 5 5 5 5 5 5 5 5 5 5 5 5 5 5 5 5 5 5 5 5 5 5 5 5 5 5 5 5 5 5 5 5 5 5 3 5 5 5 5 5 3 5 5 5 3 3 5 5 5 5 5 5 5 5 5 3 5 5 5 3 5 5 5 5 5 5 3 5 5 5 5 5 5 5 5 5 5 3 3 5 5 5 5 5 5 5 5 5 3 5 5 3 5 5 5 3 3 5 5 3 5 5 3 3 5 5 5 3 5 5 5 5 5 3 5 5 5 5 5 5 5 5 5 3 5 5 5 5 5 5 5 5 5 5 5 5 5 5 5 3 5 5 5 5 5 5 3 5 5 5 5 5 5 5 5 5 5 5 5 5 5 5 5 3 3 5 5 5 5 5 5 5 5 5 5 5 5 5 5 5 5 5 5 5 5 5 5 5 5 5 5 5 5 5 5 5 5 5 5 5 5 5 5 5 5 5 5 5 5 3 5 3 5 5 5 3 5 5 5 5 5 5 5 5 5 3 5 5 3 5 5 5 5 5 3 5 5 5 5 5 5 5 3 5 5 3 5 5 5 5 5 5 3 5 5 5 5 5 5 5 5 5 5 5 5 3 5 5 5 5 5 5 5 5 5 5 5 5 5 5 5 5 5 5 5 5 5 5 5 5 5 5 5 5 5 5 5 5 5 5 5 5 5 5 5 5 5 5 5 5 5 5 5 5 5 5 5 5 5 5 5 5 5 5 5 5 5 5 5 5 5 5 5 5 5 5 5 5 5 5 5 5 5 5 5 5 5 5 5 5 5 5 5 5 5 3 5 5 5 5 5 5 5 5 5 5 5 3 5 5 5 3 5 5 5 5 5 5 5 5 5 5 5 5 5 5 5 5 5 5 5 5 5 5 5 5 5 5 5 5 5 5 5 5 5 5 5 5 5 5 5 5 5 5 5 5 5 5 5 5 5 5 5 5 5 5 5 5 5 5 5 5 5 5 5 5 5 5 5 5 5 5 5 5 5 5 5 5 5 5 5 5 5 5 5 5 5 5 5 5 5 5 5 5 5 5 5 5 5 5 5 5 5 5 5 5 5 5 5 5 5 5 5 5 3 5 5 5 5 5 5 5 5 5 5 3 5 5 5 5 3 5 5 5 3 3 5 5 5 5 5 5 5 5 5 5 5 5 5 5 5 5 5 5 5 3 3 5 5 3 5 5 5 5 5 5 3 5 5 5 5 5 3 5 5 5 5 5 5 3 5 5 5 5 5 5 3 5 3 5 5 5 5 5 5 5 5 5 5 5 5 5 5 5 5 5 3 5 5 5 5 5 5 5 3 5 5 5 5 5 3 5 5 5 5 5 5 5 3 5 5 5 3 5 5 3 5 5 5 5 5 5 5 5 5 5 5 5 5 5 3 5 5 5 5 5 5 5 5 3 5 5 5 5 5 5 3 5 5 5 5 5 3 5 5 5 5 5 5 5 5 5 5 5 5 5 5 5 5 5 5 5 3 5 5 5 3 5 3 5 5 5 5 5 5 5 5 5 5 5 5 5 5 5 5 5 5 5 5 5 5 5 5 5 3 5 5 3 5 5 5 5 5 5 5 5 3 5 5 5 5 5 5 5 5 5 5 5 3 5 5 5 5 5 5 5 5 5 5 5 5 5 5 5 5 5 3 5 5 5 5 5 5 5 5 5 5 3 5 5 5 5 5 5 5 5 3 5 5 5 5 5 5 3 5 5 5 5 5 5 5 5 5 5 5 5 5 5 5 5 5 5 5 5 5 5 5 5 5 5 5 5 5 3 5 3 5 5 5 5 5 5 5 3 5 3 5 5 5 5 5 5 5 5 5 5 5 5 5 5 3 5 3 5 5 5 5 5 5 3 5 5 5 5 5 5 5 5 5 3 5 3 5 5 5 5 5 5 5 5 3 5 5 3 5 5 5 5 5 3 5 5 5 5 3 3 5 3 3 5 5 5 5 3 5 5 5 5 5 5 5 5 5 5 5 5 5 5 5 5 5 5 5 5 5 3 3 5 5 5 5 5 3 5 5 5 3 5 5 5 5 5 5 5 3 5 5 5 5 5 3 5 5 5 3 5 5 5 5 5 5 5 5 5 3 5 5 5 5 5 5 3 3 5 5 5 5 5 5 3 5 5 5 5 5 5 5 5 5 5 5 5 5 3 5 5 5 5 5 3 5 5 3 5 5 5 5 5 5 5 3 5 5 5 5 3 5 5 5 5 5 5 5 5 5 5 5 5 5 5 5 5 5 5 5 5 5 5 5 5 5 5 5 5 5 5 5 3 5 5 5 3 5 5 3 5 5 5 5 5 5 3 3 5 5 5 5 3 5 5 5 5 5 5 5 3 5 5 5 5 5 5 5 3 5 5 5 5 5 5 5 5 5 5 5 5 5 5 5 3 5 5 3 5 5 5 5 5 5 5 5 5 3 5 3 5 5 3 5 5 5 5 5 5 5 5 5 5 5 5 5 5 5 5 3 5 5 5 5 5 3 5 5 5 5 5 5 5 5 5 5 5 3 5 5 5 5 5 5 5 3 5 5 5 5 3 5 5 5 5 5 3 5 5 3 5 5 5 5 5 5 3 5 3 3 5 3 5 5 3 3 5 3 5 3 5 5 5 5 5 5 5 3 5 5 5 5 5 5 5 5 5 5 5 5 5 5 5 5 5 5 5 5 5 5 5 3 5 5 5 5 5 5 5 5 5 5 5 5 5 5 3 5 3 5 5 5 5 5 5 5 5 5 5 5 5 5 5 5 5 5 5 5 5 5 5 5 5 5 5 5 5 5 5 5 5 5 5 5 5 5 5 5 3 5 5 5 5 5 5 5 5 5 5 5 3 5 5 5 5 5 5 5 5 5 5 5 5 5 5 5 5 5 5 5 5 5 5 5 5 5 5 5 3 5 5 5 5 5 5 5 5 5 3 5 5 5 5 3 5 5 5 5 5 5 5 5 5 5 5 5 5 5 3 5 5 5 5 3 5 5 5 5 5 5 5 5 5 5 5 5 3 5 5 5 5 5 5 3 5 5 5 5 5 5 5 5 5 5 3 5 5 5 5 5 5 5 5 5 5 5 5 5 5 5 5 5 5 5 5 5 5 5 5 5 5 5 5 5 5 5 5 5 5 3 5 5 5 5 3 3 5 5 3 5 5 5 5 3 5 5 5 5 5 5 5 5 5 5 5 5 5 5 5 5 3 5 5 5 3 5 5 5 5 5 3 5 5 3 5 5 5 5 5 5 5 5 5 5 5 5 5 5 5 5 5 3 5 5 5 5 5 5 5 5 5 5 5 3 5 5 5 3 5 5 5 5 3 3 5 5 5 5 5 5 5 5 5 5 5 5 5 5 5 3 5 5 5 5 5 5 5 5 5 5 5 3 5 5 5 5 5 3 5 5 5 5 5 5 5 5 5 3 5 5 5 5 5 5 5 5 5 5 5 5 5 5 5 5 5 5 5 5 5 5 5 5 5 3 5 5 5 5 5 5 3 5 5 5 5 5 5 5 5 5 5 5 5 5 5 5 5 5 5 5 5 5 5 5 5 5 5 5 5 5 5 5 5 5 5 5 5 5 5 5 5 5 5 5 5 5 5 5 5 5 5 5 5 5 5 5 5 5 5 5 3 5 5 5 5 5 5 5 3 5 5 5 3 5 3 5 5 5 5 5 3 3 5 5 5 5 5 5 5 5 3 5 5 5 5 5 5 5 3 5 3 5 5 3 3 5 5 5 3 5 5 5 5 5 5 5 5 3 5 5 5 5 3 5 5 5 5 5 5 5 5 5 5 5 5 5 5 5 3 5 5 5 5 3 3 5 5 5 5 3 5 5 5 5 5 3 5 5 5 5 5 5 5 5 5 5 5 5 3 5 5 5 5 5 5 5 5 3 5 3 5 5 5 5 5 5 5 5 5 5 5 5 5 5 5 5 3 5 5 5 5 5 5 5 3 5 3 5 5 5 3 5 5 5 5 5 5 5 5 5 5 5 5 5 5 5 5 5 5 5 5 5 5 5 5 5 5 5 5 5 5 5 3 5 5 5 5 5 5 5 3 5 5 5 3 5 5 5 5 5 3 5 5 5 5 5 3 5 5 5 5 3 5 5 5 3 5 5 3 5 5 5 5 3 5 5 3 5 5 5 3 5 5 5 5 5 3 5 5 5 5 5 5 5 3 5 5 5 5 5 5 5 5 5 5 5 5 3 5 5 5 3 5 5 3 5 5 3 5 5 5 3 5 5 3 3 5 5 5 5 3 5 5 5 5 5 5 5 5 3 5 5 5 5 5 3 3 5 5 5 5 3 5 5 5 5 5 5 5 3 5 5 5 5 5 5 5 5 5 3 5 5 3 5 5 5 5 3 3 5 3 5 5 5 5 5 3 5 5 3 5 5 3 5 3 5 5 5 5 5 5 3 5 5 5 5 5 5 5 5 5 5 5 5 5 5 3 5 5 5 5 5 5 5 5 3 5 5 5 5 5 5 5 5 5 5 5 5 5 3 5 5 5 5 5 5 5 5 5 5 3 5 5 5 3 5 3 5 5 5 5 3 5 5 5 5 5 3 5 5 5 5 5 5 5 5 5 5 5 5 5 5 5 5 5 5 5 5 5 3 5 5 5 5 5 5 5 5 5 5 5 5 5 5 3 5 3 5 5 3 5 5 3 5 3 5 5 5 5 5 3 5 3 5 5 3 5 3 5 5 5 5 3 3 5 5 5 5 5 5 5 5 3 5 5 5 5 3 5 3 5 5 5 5 5 5 5 5 5 5 3 5 5 3 3 5 5 5 5 3 5 5 5 5 5 5 5 5 5 5 5 5 5 3 5 3 5 5 5 3 5 5 5 3 5 5 5 5 5 5 3 5 5 5 5 5 5 5 3 5 5 5 3 5 5 5 5 5 5 5 5 5 5 5 5 5 5 5 5 5 5 5 3 5 5 3 5 5 5 5 5 5 5 5 5 5 5 5 5 5 5 5 5 5 5 5 5 5 5 5 3 5 3 3 5 5 5 3 5 3 5 5 3 5 5 5 5 5 3 5 5 5 5 5 3 5 3 5 5 5 5 5 3 5 5 5 5 5 5 5 5 5 3 5 5 3 5 5 3 5 5 3 5 3 5 5 5 5 5 5 3 3 5 5 5 3 3 3 3 5 5 5 3 5 5 5 5 5 5 5 3 5 5 5 5 5 5 5 5 5 3 5 5 5 3 5 5 5 5 5 5 5 5 5 3 5 5 3 5 5 3 5 5 5 5 5 5 5 5 5 5 5 5 5 5 5 5 5 5 5 5 5 5 5 5 5 5 5 5 5 5 5 5 5 5 5 5 5 5 5 5 5 3 5 3 5 5 5 5 5 5 5 3 3 5 5 5 5 5 5 3 5 5 5 5 5 5 5 5 5 5 5 5 5 5 5 5 5 5 3 5 3 3 5 5 5 5 5 3 5 5 5 5 3 5 5 5 5 5 5 5 5 5 5 3 5 5 3 5 3 5 5 3 3 5 5 3 5 5 5 5 5 5 5 5 3 5 5 3 5 3 5 3 5 5 5 3 5 5 3 5 3 5 5 5 5 5 5 5 5 5 5 5 5 3 3 5 3 5 5 5 5 5 5 5 5 5 5 5 5 5 5 5 5 5 5 5 5 5 3 5 5 5 5 5 5 5 5 5 3 5 5 5 5 3 5 5 5 5 5 5 5 5 5 5 5 5 5 5 5 5 5 5 5 5 5 5 5 5 5 5 5 5 5 5 5 3 5 5 5 3 5 3 5 5 5 5 3 5 3 5 5 3 3 3 3 5 5 5 3 3 5 5 5 5 5 5 5 3 5 5 5 5 5 5 5 5 5 5 3 5 5 5 5 5 5 5 5 5 5 5 5 5 5 5 5 5 5 5 5 5 5 5 3 5 3 5 5 5 5 5 5 3 5 5 5 5 5 5 5 3 5 3 3 5 5 5 3 5 3 3 5 3 5 5 5 5 5 5 5 5 5 5 5 5 5 5 5 5 5 5 5 5 5 5 5 5 5 5 5 5 5 5 5 5 5 5 5 5 5 3 5 3 5 3 5 5 5 5 3 5 5 5 3 5 3 3 3 5 5 3 5 5 5 5 3 5 5 3 5 3 3 5 5 5 5 5 5 5 5 5 5 5 5 5 5 5 3 5 5 5 5 3 5 5 5 3 5 5 3 5 3 5 3 3 5 3 5 3 5 5 5 5 3 3 5 3 3 5 5 5 5 5 3 5 5 5 5 3 5 5 3 5 3 5 5 3 5 5 5 3 5 3 3 3 5 3 5 5 3 5 5 5 5 5 5 5 5 5 3 5 5 5 5 5 5 5 5 5 5 5 3 5 5 5 3 5 5 5 3 3 5 3 5 3 5 3 5 5 3 5 3 5 5 3 5 5 5 3 5 3 5 5 5 5 5 5 5 5 5 5 3 3 3 3 5 5 3 5 5 5 5 5 5 5 5 5 5 5 5 5 3 5 5 5 5 5 3 5 5 5 5 5 5 5 5 5 3 3 5 5 5 5 5 3 5 5 5 5 3 5 3 5 5 5 3 3 5 5 5 5 5 5 5 5 5 5 5 5 5 5 5 5 5 5 5 5 5 5 5 5 5 5 5 5 5 3 3 5 5 5 5 5 5 5 5 5 5 3 5 5 3 5 5 3 5 5 3 5 5 5 5 3 3 5 5 5 5 5 3 5 5 5 5 5 5 5 5 5 5 3 5 5 5 3 5 5 5 5 5 5 3 3 5 5 5 5 5 5 5 5 5 5 5 5 5 5 5 5 5 5 5 5 5 5 5 5 5 5 5 5 5 5 5 5 5 5 5 3 5 5 5 5 5 5 5 5 5 5 5 5 5 5 5 5 5 5 5 5 5 5 5 3 5 5 5 5 5 5 5 5 3 5 5 5 5 5 5 5 3 3 5 3 5 5 5 3 5 5 5 3 5 5 5 5 5 5 5 3 5 5 5 5 5 5 5 5 5 5 5 5 5 5 5 5 5 5 5 5 5 5 5 5 5 5 5 5 5 5 3 5 5 5 5 3 5 5 5 3 5 5 5 5 5 5 5 3 5 3 5 5 5 5 5 5 5 5 5 3 5 5 5 5 5 5 5 5 5 5 5 5 5 5 5 5 5 3 5 5 5 5 5 3 5 5 3 5 3 5 5 5 3 5 5 5 3 5 5 5 5 3 5 5 5 3 5 5 5 5 3 5 5 5 5 5 5 5 5 3 5 3 5 5 5 5 5 5 5 5 5 5 5 5 5 5 5 5 5 5 5 5 5 5 5 5 5 5 5 5 5 5 5 5 5 5 5 5 5 5 3 5 5 3 5 5 5 3 3 5 5 5 5 5 5 5 3 5 5 5 5 3 5 5 5 5 5 5 5 5 5 5 5 5 5 5 5 5 5 5 5 5 5 5 5 5 5 5 5 5 5 5 5 5 5 5 5 5 3 5 5 3 5 5 5 5 5 5 5 5 5 5 5 5 5 3 5 5 5 5 5 5 5 3 5 3 5 5 5 5 5 5 5 5 5 5 5 5 5 5 5 5 5 5 5 5 5 5 5 5 5 5 5 5 5 5 5 5 5 5 5 5 5 5 5 5 5 5 5 5 5 5 5 5 5 5 5 5 5 5 5 5 5 5 5 5 5 5 5 5 5 5 5 5 5 5 5 5 5 5 5 5 5 5 5 3 3 5 5 5 5 5 5 5 5 5 5 5 5 5 5 5 3 5 3 5 5 3 5 5 5 5 5 3 5 5 5 5 5 5 5 5 5 5 5 5 5 5 5 5 5 5 5 5 5 5 5 5 5 5 5 5 5 5 5 5 5 5 5 5 5 5 5 5 5 5 5 5 5 5 5 5 3 5 5 5 5 3 3 5 5 5 5 5 5 5 5 3 5 5 5 5 5 5 3 5 5 5 5 5 5 5 5 5 5 5 5 5 5 5 5 5 5 5 5 5 5 5 3 5 5 5 5 5 5 5 5 5 5 5 5 5 3 3 5 5 5 5 5 5 3 5 3 5 5 5 5 5 5 5 5 5 5 5 5 5 5 5 5 5 5 5 5 5 5 5 5 5 5 5 5 3 5 3 5 5 5 5 5 5 5 5 5 5 5 5 3 5 5 5 5 5 5 5 5 5 5 5 5 5 5 5 5 5 5 5 5 5 5 5 5 5 5 5 5 5 5 5 5 5 5 5 5 5 5 5 5 5 5 5 5 5 5 5 5 5 5 5 5 5 5 5 5 5 3 5 3 5 5 5 5 5 5 5 5 5 5 3 5 5 5 5 5 5 5 5 5 5 5 5 5 5 5 5 5 5 5 5 5 5 5 5 5 5 5 5 5 5 5 5 5 5 5 5 5 5 5 5 5 3 5 5 5 3 5 5 5 5 5 5 5 5 5 5 5 5 5 5 5 5 5 5 5 5 5 5 5 5 5 5 5 5 5 5 5 5 5 5 5 5 5 5 5 3 5 5 5 5 5 3 3 5 5 5 5 5 5 5 5 5 5 5 5 3 5 5 5 3 5 5 5 5 5 5 5 5 5 5 5 5 5 5 5 5 5 5 5 5 5 5 5 5 5 5 5 5 5 5 5 5 5 5 5 5 5 5 5 5 5 5 5 5 5 5 5 5 5 5 5 5 5 5 5 5 5 5 5 5 5 5 5 5 5 5 5 5 5 5 5 5 5 5 5 3 5 5 5 5 5 3 5 5 5 5 5 5 5 5 5 5 5 5 5 5 3 5 5 3 5 5 3 3 5 5 3 3 5 5 5 5 5 5 5 5 3 5 5 5 5 5 5 5 5 5 5 5 5 5 5 5 5 5 5 5 5 5 5 5 5 5 5 5 5 5 5 5 5 5 5 5 5 5 5 5 5 5 5 5 5 5 5 5 5 5 3 5 5 5 3 5 5 5 5 5 5 5 3 5 5 3 5 5 5 3 5 5 5 5 5 5 5 3 5 3 5 3 5 5 5 5 5 5 5 5 5 5 5 3 5 5 5 3 5 3 5 5 5 3 5 5 5 5 5 5 5 5 5 3 5 5 5 5 5 5 3 5 5 5 5 3 5 5 5 5 5 5 5 5 3 5 5 5 5 5 5 5 5 5 5 5 5 3 5 5 5 5 5 5 5 5 5 5 5 5 5 5 5 5 5 5 5 5 5 5 5 3 5 5 5 5 5 5 5 5 5 5 5 5 5 5 5 5 5 5 5 5 5 5 5 5 5 5 5 5 5 5 5 5 5 5 5 5 5 5 5 5 5 5 5 5 5 5 5 5 5 5 5 5 5 5 5 3 5 5 5 5 5 5 5 3 5 5 5 5 5 5 5 5 3 3 5 5 3 5 5 3 5 5 5 3 5 3 5 3 5 5 3 5 5 5 5 5 5 5 5 5 5 5 5 5 5 5 5 3 5 5 5 5 5 5 5 3 5 5 5 5 5 5 5 5 3 5 3 5 5 3 3 5 3 5 5 5 5 5 5 5 5 5 3 3 5 5 5 5 5 5 5 5 5 5 5 5 5 3 5 3 5 5 5 3 5 5 5 5 3 5 3 5 3 5 5 5 5 3 5 5 5 5 5 5 3 5 5 5 5 5 3 5 5 5 3 5 5 5 5 5 5 5 5 5 5 5 3 5 5 5 5 5 5 3 5 5 5 5 5 5 5 5 5 3 3 5 5 5 3 3 5 5 5 5 5 5 5 5 5 5 5 5 5 5 5 5 5 5 5 5 5 5 5 5 5 5 5 5 5 5 5 5 5 5 5 5 5 5 5 5 5 5 3 5 5 5 5 3 5 5 5 5 5 5 5 5 5 3 5 5 3 5 3 5 5 5 5 5 5 5 5 5 5 5 5 5 5 5 5 5 3 5 5 5 5 5 5 5 5 5 5 5 3 5 3 3 5 5 3 5 5 3 5 5 3 5 5 5 5 5 5 5 5 5 5 5 5 5 5 3 5 5 5 5 5 5 5 5 5 3 5 5 3 5 5 5 5 5 5 5 5 5 3 3 5 5 5 5 5 3 5 5 5 5 5 3 3 5 5 5 5 5 5 5 5 5 5 5 5 5 5 5 5 5 5 5 5 5 5 5 5 5 5 5 5 5 3 5 5 3 5 5 3 5 3 5 5 3 5 3 5 5 5 5 5 5 5 5 5 5 5 5 5 5 5 5 5 5 5 5 5 5 5 5 5 5 5 5 5 5 3 5 5 5 5 5 5 5 5 5 5 5 5 5 5 3 5 5 3 5 5 5 5 5 5 5 5 5 5 5 5 5 5 5 5 5 5 5 5 5 5 5 5 5 3 5 3 5 5 5 5 5 5 5 3 5 5 3 5 5 5 3 5 5 5 5 5 5 5 5 5 5 5 5 5 5 5 3 5 5 5 5 5 5 5 5 3 5 5 3 5 5 5 5 3 5 5 3 5 5 5 5 3 5 5 5 3 5 5 3 5 3 5 5 5 5 5 5 5 5 5 5 5 5 5 5 5 5 5 5 3 5 5 5 5 5 5 5 5 5 3 5 5 3 5 5 5 5 5 3 5 5 3 5 5 5 5 5 5 5 5 3 5 5 3 5 3 5 5 3 5 5 5 5 5 5 5 3 5 5 3 5 5 3 3 3 5 5 5 3 5 5 3 5 5 5 3 5 3 5 5 3 3 3 5 3 5 3 5 5 5 5 5 5 5 5 3 3 5 5 5 5 5 5 5 3 5 5 3 5 5 3 5 5 5 5 3 5 5 5 5 5 5 5 5 5 5 5 5 5 5 5 3 5 5 3 5 5 3 5 5 5 3 5 5 3 5 3 5 5 5 5 5 5 5 5 5 5 5 3 5 5 5 5 5 3 5 5 5 3 5 5 5 3 5 5 3 5 3 5 5 5 5 5 5 5 5 5 5 3 5 5 5 3 5 3 5 5 3 3 5 3 5 5 5 3 5 5 5 3 5 5 3 5 5 5 3 5 3 5 5 5 5 5 5 5 5 5 3 5 5 3 5 5 3 5 5 5 5 5 3 5 5 5 5 5 5 3 5 5 5 5 5 5 5 5 3 5 5 3 5 5 5 5 5 5 5 5 3 5 3 3 5 5 5 3 5 5 5 5 5 5 5 5 5 5 5 5 5 3 5 5 3 5 5 3 5 5 5 3 3 5 5 5 5 3 3 5 5 5 5 5 5 3 5 3 5 5 5 5 5 5 5 5 3 5 5 5 5 5 5 5 5 5 5 5 5 5 5 5 5 5 5 5 5 5 5 5 5 5 5 5 5 5 5 5 5 5 5 5 5 5 5 5 5 3 3 5 5 5 5 3 5 5 5 5 5 5 5 5 5 5 3 5 5 5 5 5 5 5 5 3 5 5 5 5 5 5 5 5 5 5 5 5 5 5 5 3 5 5 5 5 5 5 5 5 5 5 3 5 5 5 5 3 5 5 5 3 5 5 3 5 5 3 5 3 3 5 3 5 5 5 5 3 3 5 5 5 5 5 5 5 5 5 5 5 5 5 5 5 5 5 5 5 5 5 5 5 5 5 5 5 5 5 5 5 5 3 5 5 5 5 5 5 5 5 5 5 5 5 5 5 5 5 5 5 5 5 5 5 3 3 5 5 5 5 5 5 5 5 3 5 5 5 5 5 5 5 3 5 5 5 5 5 3 5 5 5 5 5 5 5 5 5 5 5 5 5 5 5 5 5 5 5 5 5 5 5 5 5 5 5 5 5 5 5 3 5 5 5 5 5 5 3 5 5 3 5 5 5 5 5 5 5 5 5 5 3 5 5 5 5 5 5 3 5 5 5 3 5 5 5 5 5 5 5 3 5 5 5 3 3 5 5 5 5 5 5 3 5 5 5 5 5 3 5 5 5 3 5 5 5 5 3 5 5 5 3 5 5 5 5 5 5 5 5 5 5 5 5 5 5 5 3 5 3 5 5 5 5 5 5 5 5 3 5 5 5 3 3 5 5 5 5 5 5 3 3 5 5 5 5 5 5 5 5 3 5 5 5 5 5 5 5 5 5 5 3 5 5 3 5 5 3 3 5 5 5 5 5 5 5 3 5 5 5 3 3 3 5 5 5 5 5 5 5 5 5 3 5 5 5 5 5 3 5 5 5 5 5 5 5 3 5 5 5 3 5 5 5 5 5 5 5 5 5 5 5 5 5 5 3 5 5 5 5 5 5 5 5 3 5 5 3 5 5 3 5 5 5 5 5 5 3 5 5 3 5 5 5 5 5 5 5 5 5 5 5 5 3 5 5 3 5 5 5 5 5 3 3 5 5 5 3 5 5 5 5 3 5 5 3 5 5 5 5 5 5 5 5 5 5 5 5 3 5 5 5 5 5 5 3 5 5 3 5 3 3 5 5 5 5 5 5 5 5 5 5 5 5 5 5 5 3 5 3 5 5 5 5 5 3 5 5 5 5 3 5 3 5 5 5 5 5 5 5 5 5 5 5 5 5 5 5 5 3 5 5 3 5 5 5 5 5 5 5 5 5 5 5 5 3 5 5 5 5 5 5 3 5 5 5 5 3 5 5 5 5 5 3 5 5 3 5 5 5 5 5 5 5 5 3 5 5 3 5 5 5 5 5 5 5 5 5 5 5 5 5 5 5 5 3 5 5 5 5 5 5 5 5 5 3 5 3 5 5 5 5 5 5 5 3 5 3 5 5 5 3 3 5 5 5 5 5 5 3 5 5 5 3 3 5 5 5 5 5 5 5 5 5 5 5 5 5 5 5 3 5 5 5 5 3 5 5 3 5 5 5 5 5 5 5 5 3 5 5 5 5 5 3 5 5 3 5 5 5 5 5 3 5 5 5 5 5 5 5 5 5 5 5 5 5 3 5 5 5 5 3 5 5 3 3 5 5 5 5 5 3 5 5 3 5 5 3 5 5 3 5 5 5 5 5 5 5 5 5 5 5 5 5 5 5 3 5 5 5 5 5 5 3 5 5 5 5 5 3 5 5 5 5 5 5 5 3 5 3 5 5 5 3 5 5 5 5 3 5 5 5 5 5 5 5 5 3 5 5 5 5 3 5 5 5 5 5 5 5 3 5 5 5 5 5 5 5 5 5 5 5 5 5 5 3 5 5 5 5 5 5 3 5 5 5 5 5 5 5 3 5 5 5 5 5 5 3 5 5 5 3 5 5 3 5 5 5 5 3 5 5 5 5 3 5 5 5 5 5 5 5 3 3 5 5 5 5 5 3 5 5 5 5 5 5 5 5 3 5 5 5 5 5 5 5 5 3 5 5 5 5 5 5 5 5 5 5 5 5 5 5 5 5 5 5 5 5 5 5 5 3 5 3 5 5 5 5 3 3 5 5 5 5 5 5 5 5 5 5 3 5 5 3 5 3 5 3 5 5 3 5 5 3 5 3 5 3 3 5 3 3 5 3 5 5 5 5 3 5 5 3 5 5 3 5 3 5 5 5 3 5 5 5 3 5 5 5 5 5 5 5 5 5 5 5 5 5 5 5 5 5 5 5 5 5 5 5 5 5 5 5 5 5 5 5 5 5 5 5 5 5 5 5 5 5 5 3 5 5 5 5 3 5 5 5 5 5 5 5 5 5 3 5 5 5 5 5 5 5 5 5 5 5 5 5 5 5 5 5 5 5 5 5 5 5 5 5 5 5 5 5 5 5 5 5 5 5 5 5 5 5 5 5 5 5 5 5 5 5 5 5 5 5 5 3 5 5 5 5 5 5 5 5 5 5 5 3 5 5 5 5 5 3 3 5 5 5 3 5 3 5 5 3 5 5 5 5 5 5 5 5 5 5 5 3 5 3 5 5 5 5 5 5 3 5 5 5 5 5 5 5 5 5 5 5 5 3 5 5 5 5 3 5 5 5 5 5 5 5 5 5 3 5 5 3 5 5 5 3 5 5 5 5 5 3 5 5 5 5 5 5 5 5 5 5 5 5 3 5 5 5 5 5 5 5 5 5 5 5 5 3 5 5 5 5 5 5 5 5 5 5 5 5 5 5 5 5 5 5 3 5 5 5 3 5 5 5 5 5 5 5 5 5 5 5 3 5 5 3 5 5 5 5 5 5 5 5 5 5 5 5 5 5 5 5 5 5 5 5 5 5 5 5 5 5 5 5 5 5 5 5 5 5 5 3 5 5 5 5 5 3 5 3 5 5 5 5 5 5 5 3 3 5 5 5 5 5 5 3 5 3 5 5 5 5 5 5 5 5 5 5 5 5 5 5 5 3 5 5 3 5 5 5 3 5 5 5 5 3 3 5 5 5 5 5 5 3 5 5 5 5 3 5 5 5 5 5 5 5 5 5 5 5 5 5 5 5 5 5 5 5 5 5 5 5 5 5 5 5 3 5 5 5 5 3 5 3 5 5 5 5 5 5 5 5 5 5 5 5 5 3 5 5 3 5 5 5 5 5 5 5 5 5 5 5 5 5 3 5 5 5 3 5 3 5 5 5 5 5 5 3 5 3 5 5 5 5 5 5 5 3 5 5 5 5 5 3 5 5 5 5 5 5 5 5 5 3 5 5 5 3 5 3 5 5 5 5 3 5 5 5 5 3 3 5 5 5 5 3 5 5 3 5 5 5 5 5 5 5 3 5 5 5 3 5 5 5 5 5 5 5 5 5 3 5 5 3 5 5 3 5 5 5 3 5 3 3 5 5 3 3 5 5 5 3 5 5 5 3 5 3 3 3 5 5 5 5 5 5 5 3 5 5 5 3 5 5 5 5 3 5 5 5 5 3 5 5 5 3 3 5 5 5 5 3 5 5 5 5 5 5 5 5 5 5 5 5 5 3 5 5 5 5 3 5 5 3 5 5 5 5 5 5 5 3 5 3 5 5 5 5 5 5 5 3 5 5 3 5 5 5 5 3 3 3 5 5 5 5 5 5 5 5 5 5 5 3 5 5 5 5 3 5 5 5 5 5 5 5 5 5 5 5 5 5 5 5 5 5 5 5 5 5 5 5 5 5 5 5 5 5 5 5 5 5 5 5 5 5 3 3 5 3 5 5 5 5 5 5 5 5 3 3 5 5 5 5 5 5 5 5 5 5 5 3 3 3 5 3 5 5 5 3 3 5 5 3 3 5 5 5 5 3 5 5 5 5 3 5 5 5 5 5 3 5 5 5 3 5 3 5 5 5 5 3 5 5 5 5 5 3 5 3 5 5 5 5 5 3 5 3 5 5 5 5 5 5 5 3 5 3 5 5 5 5 5 5 5 5 5 5 5 5 5 5 5 5 5 5 5 5 5 5 5 5 3 5 5 5 5 5 3 3 5 5 5 5 5 3 5 5 5 5 5 5 3 5 5 5 5 5 5 5 5 5 5 5 5 5 5 5 5 5 5 5 5 5 5 5 3 5 5 5 3 5 3 5 5 5 5 3 3 5 3 5 3 5 5 5 5 5 5 5 5 5 5 5 5 5 5 5 5 5 5 5 5 5 5 3 5 5 5 5 3 5 5 5 5 5 5 5 5 5 3 5 5 5 5 5 5 5 5 5 5 5 5 5 5 5 5 5 5 5 5 5 5 3 5 5 5 5 5 3 5 5 5 5 3 5 5 5 3 5 5 3 5 5 5 5 5 3 5 3 3 5 5 5 5 5 5 3 5 5 3 5 3 5 5 3 5 5 5 3 5 5 5 5 5 3 5 5 3 5 5 3 5 5 5 5 5 3 5 5 5 5 5 5 5 5 5 5 5 3 3 5 3 5 5 3 5 5 5 3 5 3 5 5 3 5 5 5 3 5 5 5 5 3 3 5 5 5 5 5 5 5 3 5 5 5 5 5 5 3 5 5 5 5 5 5 5 5 5 5 5 5 5 5 5 5 5 5 5 5 5 5 5 5 5 5 5 5 5 5 5 3 3 5 5 5 5 5 5 5 5 5 5 5 5 5 5 5 5 5 5 5 5 5 5 5 5 5 5 5 5 5 5 5 5 5 5 5 5 5 5 5 5 5 5 5 5 5 3 5 5 5 5 5 5 5 5 5 5 5 5 5 5 5 3 5 5 5 5 5 5 3 3 5 5 5 5 5 5 3 3 3 5 5 5 3 5 3 5 5 5 5 5 5 5 5 5 5 5 5 5 5 3 5 5 5 5 5 3 5 3 5 3 5 5 5 5 5 5 5 5 5 5 5 5 5 5 3 5 5 3 5 5 5 5 5 5 5 5 5 5 5 3 5 5 3 5 5 3 5 5 5 5 5 5 5 5 5 5 5 5 5 5 5 5 5 5 5 5 5 5 3 5 5 3 3 5 3 5 3 5 5 5 3 3 5 5 3 5 3 5 5 3 3 5 5 5 5 5 5 3 5 5 5 5 5 5 3 5 5 3 5 3 5 5 5 5 5 5 5 5 3 5 5 5 3 5 5 5 5 3 5 5 5 5 5 5 5 5 5 5 3 5 5 5 5 3 5 5 3 5 5 3 5 5 3 5 5 5 5 5 5 5 5 3 5 5 3 5 5 5 5 5 5 5 5 5 5 3 5 3 5 5 5 5 3 5 5 5 5 5 5 5 5 5 5 5 5 5 5 5 5 5 5 5 5 3 5 3 5 5 5 5 5 5 5 5 5 5 5 3 5 3 3 5 5 5 5 5 5 5 5 5 5 5 3 5 5 5 5 5 5 3 5 3 5 3 5 5 5 3 3 5 3 5 3 5 5 3 5 5 5 3 5 5 5 5 3 5 5 5 5 3 3 5 5 5 5 5 3 5 5 5 5 5 5 5 5 5 5 5 5 3 5 5 5 5 5 5 5 5 5 5 5 3 5 5 5 5 5 3 5 5 5 5 5 3 5 5 5 5 5 3 5 5 3 5 5 5 3 5 3 5 3 5 5 5 3 5 5 3 3 5 5 5 5 5 5 3 5 5 5 5 3 5 5 5 5 5 5 5 5 5 5 5 5 5 5 5 5 3 5 5 3 5 5 5 5 5 3 5 5 5 5 3 5 3 5 5 5 5 5 5 5 5 5 5 3 3 3 5 3 5 5 5 5 5 5 5 5 5 5 5 5 5 3 5 5 5 5 5 5 5 5 5 5 5 5 3 3 5 5 5 3 5 3 5 5 5 5 5 5 5 5 5 5 5 5 5 3 5 3 5 5 5 5 5 5 5 3 5 5 5 5 5 5 5 3 5 5 5 5 5 5 5 5 5 5 5 5 5 5 5 5 5 5 5 5 5 5 5 5 5 3 3 5 5 5 5 5 5 5 5 5 5 5 5 5 5 3 5 5 3 5 5 5 5 5 5 5 5 5 5 5 5 5 5 5 5 5 5 5 5 5 5 5 3 5 3 5 5 5 5 5 3 5 5 5 5 5 5 5 5 5 5 5 5 5 5 5 5 5 5 5 5 5 5 5 3 5 5 5 5 5 5 3 5 5 5 5 5 5 5 3 5 5 5 3 5 5 5 5 5 5 3 5 5 5 5 5 3 5 5 5 5 5 5 5 5 5 3 5 5 5 3 5 5 5 5 5 5 3 5 5 5 3 5 5 5 5 5 5 5 5 5 5 5 3 5 3 5 5 5 3 5 5 3 3 5 5 5 5 5 5 5 3 5 5 5 3 5 5 3 3 5 3 5 5 5 3 5 5 5 5 5 5 5 5 3 3 5 5 5 5 3 5 5 5 5 5 5 5 5 5 5 5 5 5 5 5 5 5 5 5 5 5 5 5 5 5 5 5 5 5 5 5 5 3 5 5 5 5 5 5 3 5 5 5 5 5 5 5 5 5 3 5 5 5 5 5 5 5 5 5 5 5 5 5 5 5 5 5 5 5 5 5 5 5 5 5 3 5 5 5 5 5 5 5 5 5 5 5 5 3 5 5 5 3 5 5 5 5 5 5 5 5 5 5 5 5 5 5 5 5 5 5 5 5 5 5 3 5 5 3 5 3 5 5 5 5 5 5 3 5 5 5 5 5 5 5 5 5 5 5 5 5 5 5 5 5 5 5 5 3 5 5 5 3 5 5 5 5 5 3 5 5 5 5 3 5 5 3 5 5 5 5 5 5 5 5 5 5 5 5 5 5 5 5 5 3 3 5 5 5 5 5 5 5 5 5 5 5 5 5 3 5 3 5 5 5 5 5 5 5 5 5 5 5 5 5 5 5 5 5 5 5 5 5 5 5 5 5 5 5 3 5 5 5 5 5 5 3 5 5 5 5 5 5 5 5 5 3 5 5 5 5 3 5 5 5 5 5 5 5 5 5 5 5 5 5 5 5 5 5 5 5 5 5 5 5 5 3 5 5 3 3 5 5 5 5 5 5 5 5 5 3 5 5 5 5 3 5 5 5 5 5 3 5 5 5 3 5 5 3 3 3 5 5 5 5 3 5 5 3 3 5 3 5 5 5 3 5 5 3 3 5 5 5 5 5 5 5 5 5 5 5 5 5 3 5 5 5 5 5 5 5 3 5 5 5 5 5 5 5 5 3 5 5 5 5 5 5 5 5 5 5 5 5 5 5 5 5 5 5 5 5 5 5 5 5 5 5 3 5 5 5 5 5 5 5 5 5 5 5 5 3 5 5 5 5 5 5 5 5 5 5 5 5 3 5 5 5 5 5 5 5 5 5 5 5 5 5 5 5 5 5 5 5 5 5 5 5 5 5 5 5 5 5 5 5 5 5 5 5 5 3 5 5 5 5 5 3 5 3 5 3 3 5 5 5 5 5 5 5 3 5 5 5 5 5 5 5 5 5 5 5 5 5 5 5 5 5 5 5 5 3 5 5 5 5 3 5 3 5 5 5 5 5 5 5 5 5 3 5 5 5 5 5 5 3 5 5 3 5 5 5 5 5 5 3 5 5 5 5 5 5 5 5 5 5 5 5 5 5 5 5 5 5 5 5 5 5 5 5 5 5 5 5 5 5 5 5 5 5 5 5 3 5 5 5 5 3 5 5 5 5 5 3 5 3 5 5 5 5 5 5 5 5 5 5 5 5 5 5 5 5 5 5 5 5 5 5 5 5 5 5 5 5 3 3 5 5 5 5 5 5 5 5 5 5 5 5 3 5 5 5 5 5 5 5 5 5 5 5 5 5 5 3 5 5 3 5 5 5 5 5 5 3 5 5 5 5 5 3 5 5 5 5 3 5 3 5 5 5 5 5 5 5 5 5 5 3 5 3 3 5 5 5 5 3 5 5 3 5 5 5 3 5 5 5 5 5 5 5 5 5 3 5 3 5 5 5 5 5 5 3 5 3 5 5 5 3 5 5 5 5 5 5 5 5 3 5 5 5 5 5 3 3 5 5 5 5 3 3 3 5 5 3 5 5 5 5 5 5 5 5 5 3 5 5 5 5 3 3 3 5 5 5 5 5 5 3 5 5 3 5 5 5 5 5 5 5 5 5 3 5 3 5 3 5 5 5 5 5 5 3 5 5 5 3 3 5 5 5 5 5 5 5 5 5 5 5 5 5 5 5 5 5 5 5 5 3 5 5 5 5 5 5 5 5 3 5 3 5 3 5 5 5 3 5 5 5 5 5 5 3 5 5 5 3 5 5 5 5 5 3 5 5 5 5 3 5 5 5 3 5 5 3 5 5 3 5 5 5 5 5 3 5 3 5 5 5 5 5 5 5 5 5 5 5 5 5 5 3 5 5 3 3 5 5 5 5 5 5 5 5 5 5 5 5 5 5 5 3 5 5 5 5 5 5 5 5 5 5 5 5 5 5 5 5 5 5 5 5 5 5 5 5 5 5 5 5 5 3 5 5 5 5 5 5 5 3 5 5 5 5 5 3 5 5 5 5 5 3 5 5 5 5 5 5 5 5 5 5 3 5 3 5 5 5 5 5 5 5 5 5 5 5 5 5 3 5 5 5 5 5 5 3 5 5 5 5 5 5 5 5 5 5 5 5 5 5 5 5 5 5 5 5 5 5 5 5 3 3 5 5 3 5 5 3 5 5 5 5 5 5 3 5 5 5 5 5 5 5 3 3 5 5 5 5 5 5 5 5 5 5 5 5 5 5 5 5 5 5 5 5 5 5 5 5 5 5 5 5 5 5 5 5 5 5 5 5 5 5 5 5 5 5 5 5 3 5 5 5 5 5 5 5 5 5 5 5 3 5 5 5 5 5 5 5 5 5 5 5 5 5 5 5 5 5 5 5 5 5 5 5 5 5 5 5 5 5 5 5 5 5 5 5 3 5 3 5 5 5 5 5 5 5 3 5 3 5 5 5 5 3 5 5 5 5 5 5 5 5 5 5 5 5 5 5 5 5 5 5 5 5 5 5 5 5 3 5 5 5 5 5 5 5 5 5 5 5 5 5 5 5 5 5 5 5 5 5 5 5 5 5 5 5 5 5 5 5 5 5 5 5 5 5 5 5 5 5 5 5 5 5 5 5 5 5 5 5 5 5 3 5 5 5 5 5 5 5 5 5 5 5 3 3 5 5 5 5 5 5 5 5 5 5 5 5 5 5 5 5 5 5 5 5 3 5 5 5 3 5 3 3 5 5 5 5 5 5 5 5 5 5 3 5 5 5 5 5 5 5 5 5 5 5 5 5 5 5 5 5 5 5 5 5 5 5 5 5 5 5 5 5 5 5 5 5 5 5 5 5 5 5 5 5 5 5 3 5 5 5 5 5 3 5 5 3 5 5 5 5 5 5 5 5 5 5 5 5 5 3 5 5 5 5 5 5 5 5 5 5 5 5 3 5 5 5 5 5 5 5 5 5 3 5 3 5 5 5 3 5 5 3 5 5 5 5 5 5 5 5 5 5 5 5 5 5 5 5 5 5 5 5 5 5 5 5 5 5 5 5 5 5 5 5 5 5 5 5 3 5 3 5 5 5 5 3 5 3 5 5 5 5 3 5 5 5 5 3 5 5 5 3 5 5 5 5 3 5 5 5 5 5 5 3 5 5 3 5 3 3 5 5 3 5 5 3 5 5 3 5 3 5 5 5 5 5 3 3 3 5 5 5 3 5 5 5 5 3 3 5 5 5 5 5 5 5 5 5 5 5 5 5 5 5 3 5 3 5 3 5 3 3 5 3 5 5 5 5 3 5 5 5 5 3 3 5 5 5 5 5 5 5 5 5 5 5 5 5 5 5 5 5 5 5 5 5 5 3 3 5 5 5 5 5 3 5 5 5 5 5 3 5 5 5 5 5 5 5 5 5 5 5 5 5 5 3 5 5 5 3 5 3 3 3 5 5 5 5 3 3 5 5 5 5 3 3 3 5 5 5 5 3 5 5 5 5 5 5 5 5 5 5 5 5 5 3 5 5 3 5 3 5 5 3 5 5 5 5 5 5 3 5 5 5 5 5 5 5 5 5 5 5 5 3 5 5 5 5 5 5 5 5 5 3 5 5 5 3 5 5 5 3 5 5 5 3 3 5 5 3 5 3 5 5 3 5 5 5 5 5 5 5 5 3 5 5 5 5 5 5 3 5 5 5 5 5 3 5 5 5 5 5 5 5 5 5 5 5 5 5 5 5 3 5 5 3 5 5 5 3 5 5 5 3 5 5 5 5 5 5 5 3 5 3 5 5 5 5 5 5 5 5 5 5 5 5 5 5 5 5 5 5 5 5 3 5 5 5 5 5 5 5 5 5 5 3 5 3 5 5 5 5 5 3 5 3 5 5 5 5 5 5 3 5 5 5 5 5 5 3 5 5 5 5 5 5 5 5 5 3 3 5 5 5 5 5 5 5 3 5 5 3 5 5 5 5 5 5 5 3 5 5 5 5 5 5 5 5 3 5 3 5 5 5 5 5 5 5 5 5 5 5 5 5 5 5 5 5 5 5 5 5 5 5 5 5 5 5 5 5 5 5 5 5 5 5 5 5 5 5 5 5 5 5 5 5 5 5 5 5 5 5 5 5 5 5 5 3 5 5 5 5 5 5 5 5 3 5 5 5 5 5 5 5 5 3 5 5 5 5 5 3 5 3 5 5 5 5 5 3 5 5 5 5 3 5 5 5 5 5 5 5 5 3 5 5 5 3 3 5 5 3 5 5 5 5 5 5 3 5 3 5 5 5 5 5 5 5 5 5 5 5 5 5 5 5 5 5 5 5 5 5 5 5 5 5 5 5 5 5 5 5 5 5 5 5 5 5 5 5 3 5 5 5 5 5 
</DataArray>
</Cells>
<PointData Scalars="" Vectors="displacement," Tensors="">
<DataArray type="Float64" Name="displacement" NumberOfComponents="3" format="ascii">
-0.034999486369390376 -0.034998879085055681 0 -0.031863523509782214 -0.03494045659883175 0 -0.028130724184837412 -0.034996928232009318 0 -0.034999486369390376 -0.034998879085055681 0 -0.03457389045813189 -0.03395679770687679 0 -0.031863523509782214 -0.03494045659883175 0 -0.034999486369390376 -0.034998879085055681 0 -0.034953750215644279 -0.03169704630422697 0 -0.034997153309001119 -0.028527030149461532 0 -0.034999486369390376 -0.034998879085055681 0 -0.034953750215644279 -0.03169704630422697 0 -0.03457389045813189 -0.03395679770687679 0 -0.034953750215644279 -0.03169704630422697 0 -0.03457389045813189 -0.03395679770687679 0 -0.036344590789539576 -0.030802714952930479 0 -0.03278221612467707 -0.036413470206338075 0 -0.031632839241469937 -0.035611801051795962 0 -0.031423155661924836 -0.037424390720196016 0 -0.036929016167137278 -0.032540457419611916 0 -0.038352011716691038 -0.031282065703586923 0 -0.036344590789539576 -0.030802714952930479 0 -0.034946541085361452 -0.034425941214764839 0 -0.032793728874127029 -0.032554364042981489 0 -0.036929016167137278 -0.032540457419611916 0 -0.03457389045813189 -0.03395679770687679 0 -0.036344590789539576 -0.030802714952930479 0 -0.034946541085361452 -0.034425941214764839 0 -0.034591879413196559 -0.03414489392992489 0 -0.03278221612467707 -0.036413470206338075 0 -0.03457389045813189 -0.03395679770687679 0 -0.031632839241469937 -0.035611801051795962 0 -0.03457389045813189 -0.03395679770687679 0 -0.031632839241469937 -0.035611801051795962 0 -0.031863523509782214 -0.03494045659883175 0 -0.031863523509782214 -0.03494045659883175 0 -0.02938960294387517 -0.035679865727574277 0 -0.028130724184837412 -0.034996928232009318 0 -0.031632839241469937 -0.035611801051795962 0 -0.031863523509782214 -0.03494045659883175 0 -0.02938960294387517 -0.035679865727574277 0 -0.026923577887577994 -0.035255942260728618 0 -0.028130724184837412 -0.034996928232009318 0 -0.025556720641594453 -0.035279462688391452 0 -0.02938960294387517 -0.035679865727574277 0 -0.028130724184837412 -0.034996928232009318 0 -0.027872629956073515 -0.035244908421557544 0 -0.026923577887577994 -0.035255942260728618 0 -0.028130724184837412 -0.034996928232009318 0 -0.027872629956073515 -0.035244908421557544 0 -0.026923577887577994 -0.035255942260728618 0 -0.027872629956073515 -0.035244908421557544 0 -0.027170833445879752 -0.035178163156232803 0 -0.026817916628430603 -0.03508030139689669 0 -0.027872629956073515 -0.035244908421557544 0 -0.027170833445879752 -0.035178163156232803 0 -0.0280923672929136 -0.035264712450267847 0 -0.027842203372833316 -0.035162257727504198 0 -0.026817916628430603 -0.03508030139689669 0 -0.027170833445879752 -0.035178163156232803 0 -0.026871123918060725 -0.034785795304719126 0 -0.026923577887577994 -0.035255942260728618 0 -0.026823266959064878 -0.035108221049202651 0 -0.026263416528064486 -0.035169010575742725 0 -0.026923577887577994 -0.035255942260728618 0 -0.027170833445879752 -0.035178163156232803 0 -0.026823266959064878 -0.035108221049202651 0 -0.026823266959064878 -0.035108221049202651 0 -0.026635020728847245 -0.03486140415422713 0 -0.026871123918060725 -0.034785795304719126 0 -0.026823266959064878 -0.035108221049202651 0 -0.026635020728847245 -0.03486140415422713 0 -0.026263416528064486 -0.035169010575742725 0 -0.027170833445879752 -0.035178163156232803 0 -0.026823266959064878 -0.035108221049202651 0 -0.026871123918060725 -0.034785795304719126 0 -0.026635020728847245 -0.03486140415422713 0 -0.026871123918060725 -0.034785795304719126 0 -0.026843604612709078 -0.034420169776804621 0 -0.026871123918060725 -0.034785795304719126 0 -0.026843604612709078 -0.034420169776804621 0 -0.026726760912101747 -0.03425080755675293 0 -0.026635020728847245 -0.03486140415422713 0 -0.026843604612709078 -0.034420169776804621 0 -0.026590600133692546 -0.034484081268776515 0 -0.031632839241469937 -0.035611801051795962 0 -0.02938960294387517 -0.035679865727574277 0 -0.030460767479745902 -0.036198340732777744 0 -0.026817916628430603 -0.03508030139689669 0 -0.026871123918060725 -0.034785795304719126 0 -0.026576728145991727 -0.034551260045322461 0 -0.0280923672929136 -0.035264712450267847 0 -0.028276295187204314 -0.035696958579245132 0 -0.026871123918060725 -0.034785795304719126 0 -0.026576728145991727 -0.034551260045322461 0 -0.026726760912101747 -0.03425080755675293 0 -0.031632839241469937 -0.035611801051795962 0 -0.030460767479745902 -0.036198340732777744 0 -0.031423155661924836 -0.037424390720196016 0 -0.028276295187204314 -0.035696958579245132 0 -0.032793728874127029 -0.032554364042981489 0 -0.026576728145991727 -0.034551260045322461 0 -0.026726760912101747 -0.03425080755675293 0 -0.026649636524534993 -0.034019559746500623 0 -0.035154959975399219 -0.027369110454290056 0 -0.033591233938174848 -0.027654171047207805 0 -0.034987390251760606 -0.028039934862406305 0 -0.032793728874127029 -0.032554364042981489 0 -0.029774151518363021 -0.030526337600519236 0 -0.026726760912101747 -0.03425080755675293 0 -0.026631185309370427 -0.033716402576066888 0 -0.026977130748609187 -0.033966340008898713 0 -0.026726760912101747 -0.03425080755675293 0 -0.026649636524534993 -0.034019559746500623 0 -0.026631185309370427 -0.033716402576066888 0 -0.033591233938174848 -0.027654171047207805 0 -0.031527681537941207 -0.031672748485152141 0 -0.033628785443876714 -0.030080169541582272 0 -0.033591233938174848 -0.027654171047207805 0 -0.034571059634415223 -0.028701608261588064 0 -0.033628785443876714 -0.030080169541582272 0 -0.034571059634415223 -0.028701608261588064 0 -0.035337817946577227 -0.028564810179983999 0 -0.03461479692165273 -0.029585287434602887 0 -0.034571059634415223 -0.028701608261588064 0 -0.035337817946577227 -0.028564810179983999 0 -0.034987390251760606 -0.028039934862406305 0 -0.035337817946577227 -0.028564810179983999 0 -0.034987390251760606 -0.028039934862406305 0 -0.035865837001018516 -0.028062819285853989 0 -0.033591233938174848 -0.027654171047207805 0 -0.034571059634415223 -0.028701608261588064 0 -0.034987390251760606 -0.028039934862406305 0 -0.026843604612709078 -0.034420169776804621 0 -0.027054155026741914 -0.033834489923758856 0 -0.026590600133692546 -0.034484081268776515 0 -0.026843604612709078 -0.034420169776804621 0 -0.027054155026741914 -0.033834489923758856 0 -0.026977130748609187 -0.033966340008898713 0 -0.026843604612709078 -0.034420169776804621 0 -0.026726760912101747 -0.03425080755675293 0 -0.026977130748609187 -0.033966340008898713 0 -0.029774151518363021 -0.030526337600519236 0 -0.028228062723857444 -0.032250473537950831 0 -0.026631185309370427 -0.033716402576066888 0 -0.026977130748609187 -0.033966340008898713 0 -0.027335521524493381 -0.033452607770681146 0 -0.027054155026741914 -0.033834489923758856 0 -0.026977130748609187 -0.033966340008898713 0 -0.027335521524493381 -0.033452607770681146 0 -0.033591233938174848 -0.027654171047207805 0 -0.027991919072665971 -0.032322602366992685 0 -0.031527681537941207 -0.031672748485152141 0 -0.026631185309370427 -0.033716402576066888 0 -0.027335521524493381 -0.033452607770681146 0 -0.027991919072665971 -0.032322602366992685 0 -0.027054155026741914 -0.033834489923758856 0 -0.027335521524493381 -0.033452607770681146 0 -0.027349985233661844 -0.033247137099933426 0 -0.027335521524493381 -0.033452607770681146 0 -0.027349985233661844 -0.033247137099933426 0 -0.027991919072665971 -0.032322602366992685 0 -0.027054155026741914 -0.033834489923758856 0 -0.027349985233661844 -0.033247137099933426 0 -0.026770141348147775 -0.033712209682242582 0 -0.027010202374566677 -0.033571263794388698 0 -0.027402996370527781 -0.034291249810706907 0 -0.026458350880701705 -0.034170485674827208 0 -0.027349985233661844 -0.033247137099933426 0 -0.027010202374566677 -0.033571263794388698 0 -0.026770141348147775 -0.033712209682242582 0 -0.027349985233661844 -0.033247137099933426 0 -0.027010202374566677 -0.033571263794388698 0 -0.027991919072665971 -0.032322602366992685 0 -0.027010202374566677 -0.033571263794388698 0 -0.027991919072665971 -0.032322602366992685 0 -0.027402996370527781 -0.034291249810706907 0 -0.031527681537941207 -0.031672748485152141 0 -0.027402996370527781 -0.034291249810706907 0 -0.032796378881195173 -0.033242238474297428 0 -0.027991919072665971 -0.032322602366992685 0 -0.031527681537941207 -0.031672748485152141 0 -0.027402996370527781 -0.034291249810706907 0 -0.031266745718410226 -0.027165034527816292 0 -0.033072625643803061 -0.028296797564203328 0 -0.03479498702496605 -0.020594093734531478 0 -0.034685563835485003 -0.020675847676620434 0 -0.034470434517894201 -0.020474742768745238 0 -0.03479498702496605 -0.020594093734531478 0 -0.034470434517894201 -0.020474742768745238 0 -0.034877820124483552 -0.020452835758420499 0 -0.03479498702496605 -0.020594093734531478 0 -0.034685563835485003 -0.020675847676620434 0 -0.034847768008202634 -0.020776498608022536 0 -0.03451135542855803 -0.020654214941415974 0 -0.03402811772926808 -0.020493451760702209 0 -0.034454053212459021 -0.02074549722816009 0 -0.034470434517894201 -0.020474742768745238 0 -0.03451135542855803 -0.020654214941415974 0 -0.03402811772926808 -0.020493451760702209 0 -0.034685563835485003 -0.020675847676620434 0 -0.034470434517894201 -0.020474742768745238 0 -0.03451135542855803 -0.020654214941415974 0 -0.0349871781106443 -0.029506819113215864 0 -0.035480210180420822 -0.02906771281307088 0 -0.03461479692165273 -0.029585287434602887 0 -0.0349871781106443 -0.029506819113215864 0 -0.03461479692165273 -0.029585287434602887 0 -0.034404877124519194 -0.02998306170359881 0 -0.0349871781106443 -0.029506819113215864 0 -0.035480210180420822 -0.02906771281307088 0 -0.035501053649834975 -0.029087421800801996 0 -0.035337817946577227 -0.028564810179983999 0 -0.035480210180420822 -0.02906771281307088 0 -0.03461479692165273 -0.029585287434602887 0 -0.03461479692165273 -0.029585287434602887 0 -0.033628785443876714 -0.030080169541582272 0 -0.033936950200303261 -0.03027966357800508 0 -0.034571059634415223 -0.028701608261588064 0 -0.03461479692165273 -0.029585287434602887 0 -0.033628785443876714 -0.030080169541582272 0 -0.031527681537941207 -0.031672748485152141 0 -0.033628785443876714 -0.030080169541582272 0 -0.033269143589548349 -0.030804991005521684 0 -0.033628785443876714 -0.030080169541582272 0 -0.033269143589548349 -0.030804991005521684 0 -0.033936950200303261 -0.03027966357800508 0 -0.033767172664150295 -0.030600503856338595 0 -0.033715089570066387 -0.030626313997710864 0 -0.034741523354501931 -0.029747341204476765 0 -0.033042998353386782 -0.030640343438984995 0 -0.033072625643803061 -0.028296797564203328 0 -0.031527681537941207 -0.031672748485152141 0 -0.033269143589548349 -0.030804991005521684 0 -0.033480213170343845 -0.030821907188737476 0 -0.033269143589548349 -0.030804991005521684 0 -0.033767172664150295 -0.030600503856338595 0 -0.033936950200303261 -0.03027966357800508 0 -0.033269143589548349 -0.030804991005521684 0 -0.033767172664150295 -0.030600503856338595 0 -0.033480213170343845 -0.030821907188737476 0 -0.033099298762083784 -0.028357415166888583 0 -0.033072625643803061 -0.028296797564203328 0 -0.033767172664150295 -0.030600503856338595 0 -0.033936950200303261 -0.03027966357800508 0 -0.034404877124519194 -0.02998306170359881 0 -0.033767172664150295 -0.030600503856338595 0 -0.034404877124519194 -0.02998306170359881 0 -0.034741523354501931 -0.029747341204476765 0 -0.03461479692165273 -0.029585287434602887 0 -0.033936950200303261 -0.03027966357800508 0 -0.034404877124519194 -0.02998306170359881 0 -0.0349871781106443 -0.029506819113215864 0 -0.034404877124519194 -0.02998306170359881 0 -0.034741523354501931 -0.029747341204476765 0 -0.033715089570066387 -0.030626313997710864 0 -0.034741523354501931 -0.029747341204476765 0 -0.03580114155464377 -0.028689739992114594 0 -0.033072625643803061 -0.028296797564203328 0 -0.03532058941740835 -0.024321394161008727 0 -0.034877820124483552 -0.020452835758420499 0 -0.034959788889090085 -0.020693402651768993 0 -0.035245201560415773 -0.02079194608307294 0 -0.03479498702496605 -0.020594093734531478 0 -0.034877820124483552 -0.020452835758420499 0 -0.034959788889090085 -0.020693402651768993 0 -0.03479498702496605 -0.020594093734531478 0 -0.034959788889090085 -0.020693402651768993 0 -0.034847768008202634 -0.020776498608022536 0 -0.034741523354501931 -0.029747341204476765 0 -0.035501053649834975 -0.029087421800801996 0 -0.03580114155464377 -0.028689739992114594 0 -0.0349871781106443 -0.029506819113215864 0 -0.034741523354501931 -0.029747341204476765 0 -0.035501053649834975 -0.029087421800801996 0 -0.035501053649834975 -0.029087421800801996 0 -0.035875869941182394 -0.028401365187494195 0 -0.03580114155464377 -0.028689739992114594 0 -0.035501053649834975 -0.029087421800801996 0 -0.035875869941182394 -0.028401365187494195 0 -0.036067946446631041 -0.028527424490343078 0 -0.035840613504167826 -0.027716575847738355 0 -0.034997153309001119 -0.028527030149461532 0 -0.034999282285037271 -0.023869511193392826 0 -0.035875869941182394 -0.028401365187494195 0 -0.036067946446631041 -0.028527424490343078 0 -0.036073950408973897 -0.027676538510419881 0 -0.035480210180420822 -0.02906771281307088 0 -0.036067946446631041 -0.028527424490343078 0 -0.035856574481982532 -0.028683613657191721 0 -0.035480210180420822 -0.02906771281307088 0 -0.035501053649834975 -0.029087421800801996 0 -0.036067946446631041 -0.028527424490343078 0 -0.036067946446631041 -0.028527424490343078 0 -0.035856574481982532 -0.028683613657191721 0 -0.03632233570935503 -0.02864282753130536 0 -0.035337817946577227 -0.028564810179983999 0 -0.035480210180420822 -0.02906771281307088 0 -0.035856574481982532 -0.028683613657191721 0 -0.036067946446631041 -0.028527424490343078 0 -0.03632233570935503 -0.02864282753130536 0 -0.035840613504167826 -0.027716575847738355 0 -0.036067946446631041 -0.028527424490343078 0 -0.036073950408973897 -0.027676538510419881 0 -0.035840613504167826 -0.027716575847738355 0 -0.035840613504167826 -0.027716575847738355 0 -0.03568724660476346 -0.02930218318599075 0 -0.034997153309001119 -0.028527030149461532 0 -0.03632233570935503 -0.02864282753130536 0 -0.035840613504167826 -0.027716575847738355 0 -0.03568724660476346 -0.02930218318599075 0 -0.034953750215644279 -0.03169704630422697 0 -0.03568724660476346 -0.02930218318599075 0 -0.034997153309001119 -0.028527030149461532 0 -0.034953750215644279 -0.03169704630422697 0 -0.03568724660476346 -0.02930218318599075 0 -0.036344590789539576 -0.030802714952930479 0 -0.038352011716691038 -0.031282065703586923 0 -0.036344590789539576 -0.030802714952930479 0 -0.037356521938234057 -0.029868403907942691 0 -0.035154959975399219 -0.027369110454290056 0 -0.034987390251760606 -0.028039934862406305 0 -0.035865837001018516 -0.028062819285853989 0 -0.032793728874127029 -0.032554364042981489 0 -0.036682074723524291 -0.028809794549208029 0 -0.035856574481982532 -0.028683613657191721 0 -0.03632233570935503 -0.02864282753130536 0 -0.035865837001018516 -0.028062819285853989 0 -0.036382379726565259 -0.028717510491598989 0 -0.036682074723524291 -0.028809794549208029 0 -0.035337817946577227 -0.028564810179983999 0 -0.035856574481982532 -0.028683613657191721 0 -0.035865837001018516 -0.028062819285853989 0 -0.03632233570935503 -0.02864282753130536 0 -0.036344590789539576 -0.030802714952930479 0 -0.037356521938234057 -0.029868403907942691 0 -0.03632233570935503 -0.02864282753130536 0 -0.03568724660476346 -0.02930218318599075 0 -0.036344590789539576 -0.030802714952930479 0 -0.017589790908453803 -0.035446412052621709 0 -0.01729727622856083 -0.034921572193621686 0 -0.017156792981779197 -0.035623743177894809 0 -0.017589790908453803 -0.035446412052621709 0 -0.018036995378999231 -0.035564239093696597 0 -0.017349524010408714 -0.035010160337375619 0 -0.018036995378999231 -0.035564239093696597 0 -0.017965927362207722 -0.035661767657442549 0 -0.018981300901200624 -0.035685508767476094 0 -0.017589790908453803 -0.035446412052621709 0 -0.018036995378999231 -0.035564239093696597 0 -0.017965927362207722 -0.035661767657442549 0 -0.017589790908453803 -0.035446412052621709 0 -0.017965927362207722 -0.035661767657442549 0 -0.017156792981779197 -0.035623743177894809 0 -0.017965927362207722 -0.035661767657442549 0 -0.019167556977360209 -0.034999573051549257 0 -0.016695308433769901 -0.035709502137316024 0 -0.017965927362207722 -0.035661767657442549 0 -0.019167556977360209 -0.034999573051549257 0 -0.018981300901200624 -0.035685508767476094 0 -0.019167556977360209 -0.034999573051549257 0 -0.020546289457473346 -0.035522393979981547 0 -0.021564635694712807 -0.034999306023362951 0 -0.019167556977360209 -0.034999573051549257 0 -0.018981300901200624 -0.035685508767476094 0 -0.020546289457473346 -0.035522393979981547 0 -0.021569487865078688 -0.03499988550591069 0 -0.023703818531273319 -0.035426524688072628 0 -0.023378021358042345 -0.035296881544893417 0 -0.021015814337609476 -0.03516810218762749 0 -0.024735671157260289 -0.035594530746037127 0 -0.020546289457473346 -0.035522393979981547 0 -0.021564635694712807 -0.034999306023362951 0 -0.020858732087993576 -0.037139661181852898 0 -0.019602181832019696 -0.035435520682164094 0 -0.024735671157260289 -0.035594530746037127 0 -0.018981300901200624 -0.035685508767476094 0 -0.020546289457473346 -0.035522393979981547 0 -0.018843841981877888 -0.035664163893303714 0 -0.024735671157260289 -0.035594530746037127 0 -0.026215943616388643 -0.033389958241778664 0 -0.034326388918309379 -0.035241363763669195 0 -0.034597930295639914 -0.031748714728897495 0 -0.033622941752617333 -0.032402532966314283 0 -0.018843841981877888 -0.035664163893303714 0 -0.01819969235556429 -0.035539054432872766 0 -0.017350488455920885 -0.035296506749647759 0 -0.018981300901200624 -0.035685508767476094 0 -0.018843841981877888 -0.035664163893303714 0 -0.01819969235556429 -0.035539054432872766 0 -0.024735671157260289 -0.035594530746037127 0 -0.029669653045790237 -0.033869506154461368 0 -0.018036995378999231 -0.035564239093696597 0 -0.018981300901200624 -0.035685508767476094 0 -0.01819969235556429 -0.035539054432872766 0 -0.018036995378999231 -0.035564239093696597 0 -0.01819969235556429 -0.035539054432872766 0 -0.017615709839829689 -0.035291253217654382 0 -0.018036995378999231 -0.035564239093696597 0 -0.017615709839829689 -0.035291253217654382 0 -0.017349524010408714 -0.035010160337375619 0 -0.017615709839829689 -0.035291253217654382 0 -0.017350488455920885 -0.035296506749647759 0 -0.01705572007420153 -0.034958278965220392 0 -0.01819969235556429 -0.035539054432872766 0 -0.017615709839829689 -0.035291253217654382 0 -0.017350488455920885 -0.035296506749647759 0 -0.028130724184837412 -0.034996928232009318 0 -0.022993053509092105 -0.034999210713622518 0 -0.025556720641594453 -0.035279462688391452 0 -0.034597930295639914 -0.031748714728897495 0 -0.033622941752617333 -0.032402532966314283 0 -0.03279225358943897 -0.02941382631569835 0 -0.029669653045790237 -0.033869506154461368 0 -0.029200066725404126 -0.03186172827424083 0 -0.024913621300822426 -0.03519150217355798 0 -0.025413935726371732 -0.034949542932939767 0 -0.024874159889512314 -0.035218068096118958 0 -0.024913621300822426 -0.03519150217355798 0 -0.025413935726371732 -0.034949542932939767 0 -0.025781245147780261 -0.034682785233012492 0 -0.025560569810903332 -0.034935325019251076 0 -0.025413935726371732 -0.034949542932939767 0 -0.024874159889512314 -0.035218068096118958 0 -0.025560569810903332 -0.034935325019251076 0 -0.024874159889512314 -0.035218068096118958 0 -0.025527107325596789 -0.035166327311599299 0 -0.024874159889512314 -0.035218068096118958 0 -0.024368956575716159 -0.035323386615025855 0 -0.025527107325596789 -0.035166327311599299 0 -0.024874159889512314 -0.035218068096118958 0 -0.024138482951825843 -0.035342663370180959 0 -0.024368956575716159 -0.035323386615025855 0 -0.023703818531273319 -0.035426524688072628 0 -0.024913621300822426 -0.03519150217355798 0 -0.024410114301677294 -0.035297719471446956 0 -0.024874159889512314 -0.035218068096118958 0 -0.024410114301677294 -0.035297719471446956 0 -0.024138482951825843 -0.035342663370180959 0 -0.024913621300822426 -0.03519150217355798 0 -0.024874159889512314 -0.035218068096118958 0 -0.024410114301677294 -0.035297719471446956 0 -0.023703818531273319 -0.035426524688072628 0 -0.024410114301677294 -0.035297719471446956 0 -0.024138482951825843 -0.035342663370180959 0 -0.022993053509092105 -0.034999210713622518 0 -0.024368956575716159 -0.035323386615025855 0 -0.025556720641594453 -0.035279462688391452 0 -0.023703818531273319 -0.035426524688072628 0 -0.024138482951825843 -0.035342663370180959 0 -0.023378021358042345 -0.035296881544893417 0 -0.024138482951825843 -0.035342663370180959 0 -0.023378021358042345 -0.035296881544893417 0 -0.024368956575716159 -0.035323386615025855 0 -0.021569487865078688 -0.03499988550591069 0 -0.023378021358042345 -0.035296881544893417 0 -0.022993053509092105 -0.034999210713622518 0 -0.023378021358042345 -0.035296881544893417 0 -0.022993053509092105 -0.034999210713622518 0 -0.024368956575716159 -0.035323386615025855 0 -0.024368956575716159 -0.035323386615025855 0 -0.025556720641594453 -0.035279462688391452 0 -0.025527107325596789 -0.035166327311599299 0 -0.025556720641594453 -0.035279462688391452 0 -0.026263416528064486 -0.035169010575742725 0 -0.025527107325596789 -0.035166327311599299 0 -0.026923577887577994 -0.035255942260728618 0 -0.025556720641594453 -0.035279462688391452 0 -0.026263416528064486 -0.035169010575742725 0 -0.026635020728847245 -0.03486140415422713 0 -0.026263416528064486 -0.035169010575742725 0 -0.026204519511814399 -0.034902515464436352 0 -0.026263416528064486 -0.035169010575742725 0 -0.025527107325596789 -0.035166327311599299 0 -0.026204519511814399 -0.034902515464436352 0 -0.025560569810903332 -0.034935325019251076 0 -0.025527107325596789 -0.035166327311599299 0 -0.02605873964868723 -0.034704650679310042 0 -0.025527107325596789 -0.035166327311599299 0 -0.02605873964868723 -0.034704650679310042 0 -0.026204519511814399 -0.034902515464436352 0 -0.026635020728847245 -0.03486140415422713 0 -0.026590600133692546 -0.034484081268776515 0 -0.026204519511814399 -0.034902515464436352 0 -0.02605873964868723 -0.034704650679310042 0 -0.026590600133692546 -0.034484081268776515 0 -0.026204519511814399 -0.034902515464436352 0 -0.02605873964868723 -0.034704650679310042 0 -0.026590600133692546 -0.034484081268776515 0 -0.026458683495799714 -0.034190098206125369 0 -0.027054155026741914 -0.033834489923758856 0 -0.026590600133692546 -0.034484081268776515 0 -0.026458683495799714 -0.034190098206125369 0 -0.025560569810903332 -0.034935325019251076 0 -0.02605873964868723 -0.034704650679310042 0 -0.025927712387203879 -0.034548951834990106 0 -0.02605873964868723 -0.034704650679310042 0 -0.026458683495799714 -0.034190098206125369 0 -0.025927712387203879 -0.034548951834990106 0 -0.026458683495799714 -0.034190098206125369 0 -0.026282472679963614 -0.034103354656464198 0 -0.025927712387203879 -0.034548951834990106 0 -0.027054155026741914 -0.033834489923758856 0 -0.026458683495799714 -0.034190098206125369 0 -0.026770141348147775 -0.033712209682242582 0 -0.026458683495799714 -0.034190098206125369 0 -0.026770141348147775 -0.033712209682242582 0 -0.026282472679963614 -0.034103354656464198 0 -0.027010202374566677 -0.033571263794388698 0 -0.026770141348147775 -0.033712209682242582 0 -0.026458350880701705 -0.034170485674827208 0 -0.026770141348147775 -0.033712209682242582 0 -0.026458350880701705 -0.034170485674827208 0 -0.026282472679963614 -0.034103354656464198 0 -0.031266745718410226 -0.027165034527816292 0 -0.02981378069356971 -0.027633076361121636 0 -0.03402811772926808 -0.020493451760702209 0 -0.03353161738656376 -0.020565243563186602 0 -0.033939478792712315 -0.020748032292897581 0 -0.02981378069356971 -0.027633076361121636 0 -0.031604423381941957 -0.024789205332786394 0 -0.026458350880701705 -0.034170485674827208 0 -0.026282472679963614 -0.034103354656464198 0 -0.026271287123108392 -0.034170657817662702 0 -0.02888241583915865 -0.030954956077977831 0 -0.031604423381941957 -0.024789205332786394 0 -0.03195352656505554 -0.026314144764998999 0 -0.031038701939451904 -0.023278786493754203 0 -0.033197274792884562 -0.0245935135606168 0 -0.026282472679963614 -0.034103354656464198 0 -0.026158632562984594 -0.034219258997056134 0 -0.026271287123108392 -0.034170657817662702 0 -0.031604423381941957 -0.024789205332786394 0 -0.034275823963410501 -0.022688720832814001 0 -0.031038701939451904 -0.023278786493754203 0 -0.034080854633222919 -0.022977594116568606 0 -0.033197274792884562 -0.0245935135606168 0 -0.034080854633222919 -0.022977594116568606 0 -0.034894001287966478 -0.024066608473522103 0 -0.034587203278345621 -0.021836288845107233 0 -0.033545878056543209 -0.022755133095542762 0 -0.034080854633222919 -0.022977594116568606 0 -0.033978027050124031 -0.022182437362568492 0 -0.034080854633222919 -0.022977594116568606 0 -0.033197274792884562 -0.0245935135606168 0 -0.034894001287966478 -0.024066608473522103 0 -0.033197274792884562 -0.0245935135606168 0 -0.033527701220351258 -0.026482953422181609 0 -0.034894001287966478 -0.024066608473522103 0 -0.033527701220351258 -0.026482953422181609 0 -0.034835042615483661 -0.028027517352776751 0 -0.034894001287966478 -0.024066608473522103 0 -0.03195352656505554 -0.026314144764998999 0 -0.033197274792884562 -0.0245935135606168 0 -0.033527701220351258 -0.026482953422181609 0 -0.02888241583915865 -0.030954956077977831 0 -0.029200066725404126 -0.03186172827424083 0 -0.03195352656505554 -0.026314144764998999 0 -0.033527701220351258 -0.026482953422181609 0 -0.03279225358943897 -0.02941382631569835 0 -0.033527701220351258 -0.026482953422181609 0 -0.03279225358943897 -0.02941382631569835 0 -0.034835042615483661 -0.028027517352776751 0 -0.026282472679963614 -0.034103354656464198 0 -0.026158632562984594 -0.034219258997056134 0 -0.025927712387203879 -0.034548951834990106 0 -0.026158632562984594 -0.034219258997056134 0 -0.025927712387203879 -0.034548951834990106 0 -0.025781245147780261 -0.034682785233012492 0 -0.025560569810903332 -0.034935325019251076 0 -0.025413935726371732 -0.034949542932939767 0 -0.025927712387203879 -0.034548951834990106 0 -0.025413935726371732 -0.034949542932939767 0 -0.025927712387203879 -0.034548951834990106 0 -0.025781245147780261 -0.034682785233012492 0 -0.034597930295639914 -0.031748714728897495 0 -0.03279225358943897 -0.02941382631569835 0 -0.034835042615483661 -0.028027517352776751 0 -0.026215943616388643 -0.033389958241778664 0 -0.02546811254949722 -0.031141634774089592 0 -0.017350488455920885 -0.035296506749647759 0 -0.01705572007420153 -0.034958278965220392 0 -0.016149190871334734 -0.034372480165697446 0 -0.01705572007420153 -0.034958278965220392 0 -0.017043940254235564 -0.034794557411556452 0 -0.016149190871334734 -0.034372480165697446 0 -0.017043940254235564 -0.034794557411556452 0 -0.01692873139392264 -0.03443167067488298 0 -0.017349524010408714 -0.035010160337375619 0 -0.017615709839829689 -0.035291253217654382 0 -0.01705572007420153 -0.034958278965220392 0 -0.017043940254235564 -0.034794557411556452 0 -0.017615709839829689 -0.035291253217654382 0 -0.017043940254235564 -0.034794557411556452 0 -0.017349524010408714 -0.035010160337375619 0 -0.017043940254235564 -0.034794557411556452 0 -0.016592453216865252 -0.034247477341047612 0 -0.01692873139392264 -0.03443167067488298 0 -0.016592453216865252 -0.034247477341047612 0 -0.01692873139392264 -0.03443167067488298 0 -0.016560253136938534 -0.033795310681934726 0 -0.016592453216865252 -0.034247477341047612 0 -0.01613379920380514 -0.033715548931215797 0 -0.016560253136938534 -0.033795310681934726 0 -0.016592453216865252 -0.034247477341047612 0 -0.016149190871334734 -0.034372480165697446 0 -0.01613379920380514 -0.033715548931215797 0 -0.017043940254235564 -0.034794557411556452 0 -0.016592453216865252 -0.034247477341047612 0 -0.016149190871334734 -0.034372480165697446 0 -0.016149190871334734 -0.034372480165697446 0 -0.01613379920380514 -0.033715548931215797 0 -0.015288179247268219 -0.032973884456201086 0 -0.02546811254949722 -0.031141634774089592 0 -0.025092599237721731 -0.028510848371512271 0 -0.01613379920380514 -0.033715548931215797 0 -0.015288179247268219 -0.032973884456201086 0 -0.016016047754596856 -0.033014253428580498 0 -0.015288179247268219 -0.032973884456201086 0 -0.015596488042874633 -0.032173565100874366 0 -0.014857443540161145 -0.031319329768556774 0 -0.025092599237721731 -0.028510848371512271 0 -0.024747080478516811 -0.026596102065698707 0 -0.015288179247268219 -0.032973884456201086 0 -0.015596488042874633 -0.032173565100874366 0 -0.016016047754596856 -0.033014253428580498 0 -0.015596488042874633 -0.032173565100874366 0 -0.016177041303644224 -0.03218300329511696 0 -0.016016047754596856 -0.033014253428580498 0 -0.016177041303644224 -0.03218300329511696 0 -0.016016047754596856 -0.033014253428580498 0 -0.016518492198006728 -0.033095050244027133 0 -0.016016047754596856 -0.033014253428580498 0 -0.016560253136938534 -0.033795310681934726 0 -0.016518492198006728 -0.033095050244027133 0 -0.01613379920380514 -0.033715548931215797 0 -0.016016047754596856 -0.033014253428580498 0 -0.016560253136938534 -0.033795310681934726 0 -0.016518492198006728 -0.033095050244027133 0 -0.016944251238671312 -0.033001310973660353 0 -0.017057073840467517 -0.034187982688691949 0 -0.016560253136938534 -0.033795310681934726 0 -0.016518492198006728 -0.033095050244027133 0 -0.017057073840467517 -0.034187982688691949 0 -0.016177041303644224 -0.03218300329511696 0 -0.016518492198006728 -0.033095050244027133 0 -0.016944251238671312 -0.033001310973660353 0 -0.016177041303644224 -0.03218300329511696 0 -0.016944251238671312 -0.033001310973660353 0 -0.016731249054148269 -0.031657240078521394 0 -0.016944251238671312 -0.033001310973660353 0 -0.016731249054148269 -0.031657240078521394 0 -0.017906754896323127 -0.0323453444743841 0 -0.016944251238671312 -0.033001310973660353 0 -0.017057073840467517 -0.034187982688691949 0 -0.017247783835016378 -0.034020236038921806 0 -0.017057073840467517 -0.034187982688691949 0 -0.01729727622856083 -0.034921572193621686 0 -0.017247783835016378 -0.034020236038921806 0 -0.01692873139392264 -0.03443167067488298 0 -0.017057073840467517 -0.034187982688691949 0 -0.017349524010408714 -0.035010160337375619 0 -0.01692873139392264 -0.03443167067488298 0 -0.016560253136938534 -0.033795310681934726 0 -0.017057073840467517 -0.034187982688691949 0 -0.017057073840467517 -0.034187982688691949 0 -0.017349524010408714 -0.035010160337375619 0 -0.01729727622856083 -0.034921572193621686 0 -0.017589790908453803 -0.035446412052621709 0 -0.017349524010408714 -0.035010160337375619 0 -0.01729727622856083 -0.034921572193621686 0 -0.016359386149942711 -0.029709839732602886 0 -0.016863210883901816 -0.029399601106860723 0 -0.01627031654147669 -0.028759567068798172 0 -0.016863210883901816 -0.029399601106860723 0 -0.01627031654147669 -0.028759567068798172 0 -0.016750543355517733 -0.028465149836352899 0 -0.016359386149942711 -0.029709839732602886 0 -0.015821331089959381 -0.029165665134534675 0 -0.01627031654147669 -0.028759567068798172 0 -0.016359386149942711 -0.029709839732602886 0 -0.016434995546613217 -0.03064011785421028 0 -0.015906594003442187 -0.030094648335016874 0 -0.016359386149942711 -0.029709839732602886 0 -0.015906594003442187 -0.030094648335016874 0 -0.015821331089959381 -0.029165665134534675 0 -0.016359386149942711 -0.029709839732602886 0 -0.016863210883901816 -0.029399601106860723 0 -0.01700567265978728 -0.030584229842355582 0 -0.01700567265978728 -0.030584229842355582 0 -0.016731249054148269 -0.031657240078521394 0 -0.016434995546613217 -0.03064011785421028 0 -0.016359386149942711 -0.029709839732602886 0 -0.01700567265978728 -0.030584229842355582 0 -0.016434995546613217 -0.03064011785421028 0 -0.01700567265978728 -0.030584229842355582 0 -0.016731249054148269 -0.031657240078521394 0 -0.017906754896323127 -0.0323453444743841 0 -0.016177041303644224 -0.03218300329511696 0 -0.016731249054148269 -0.031657240078521394 0 -0.016094390090553266 -0.031174669327598093 0 -0.016731249054148269 -0.031657240078521394 0 -0.016434995546613217 -0.03064011785421028 0 -0.016094390090553266 -0.031174669327598093 0 -0.016434995546613217 -0.03064011785421028 0 -0.016094390090553266 -0.031174669327598093 0 -0.015906594003442187 -0.030094648335016874 0 -0.015467348645959294 -0.030572845714825773 0 -0.016094390090553266 -0.031174669327598093 0 -0.015906594003442187 -0.030094648335016874 0 -0.015467348645959294 -0.030572845714825773 0 -0.016094390090553266 -0.031174669327598093 0 -0.015588221622636874 -0.031397384450320989 0 -0.016177041303644224 -0.03218300329511696 0 -0.016094390090553266 -0.031174669327598093 0 -0.015588221622636874 -0.031397384450320989 0 -0.015596488042874633 -0.032173565100874366 0 -0.016177041303644224 -0.03218300329511696 0 -0.015588221622636874 -0.031397384450320989 0 -0.015596488042874633 -0.032173565100874366 0 -0.015588221622636874 -0.031397384450320989 0 -0.014857443540161145 -0.031319329768556774 0 -0.015467348645959294 -0.030572845714825773 0 -0.014857443540161145 -0.031319329768556774 0 -0.014822975406014755 -0.029799917322486786 0 -0.034587203278345621 -0.021836288845107233 0 -0.034511549002533622 -0.021514418960704027 0 -0.034508261028628154 -0.021261946178181473 0 -0.024747080478516811 -0.026596102065698707 0 -0.024669308125607962 -0.025542863737530879 0 -0.015467348645959294 -0.030572845714825773 0 -0.015588221622636874 -0.031397384450320989 0 -0.014857443540161145 -0.031319329768556774 0 -0.015467348645959294 -0.030572845714825773 0 -0.014822975406014755 -0.029799917322486786 0 -0.015441055629343737 -0.029679610635757806 0 -0.015441055629343737 -0.029679610635757806 0 -0.015906594003442187 -0.030094648335016874 0 -0.015821331089959381 -0.029165665134534675 0 -0.015467348645959294 -0.030572845714825773 0 -0.015441055629343737 -0.029679610635757806 0 -0.015906594003442187 -0.030094648335016874 0 -0.015441055629343737 -0.029679610635757806 0 -0.015821331089959381 -0.029165665134534675 0 -0.014972834905873211 -0.028609910027529412 0 -0.024669308125607962 -0.025542863737530879 0 -0.024707087157691689 -0.025000580605715431 0 -0.014822975406014755 -0.029799917322486786 0 -0.015441055629343737 -0.029679610635757806 0 -0.014972834905873211 -0.028609910027529412 0 -0.034508261028628154 -0.021261946178181473 0 -0.034516979367257283 -0.021256399569372975 0 -0.034430290301522552 -0.021337247648989692 0 -0.034516979367257283 -0.021256399569372975 0 -0.034659475339770401 -0.021247579343293303 0 -0.034430290301522552 -0.021337247648989692 0 -0.034516979367257283 -0.021256399569372975 0 -0.034583807974199292 -0.021220789095705055 0 -0.034528495377607833 -0.02123766635958961 0 -0.034659475339770401 -0.021247579343293303 0 -0.034561913706316699 -0.021162646468657363 0 -0.034942417135312751 -0.021142181292969423 0 -0.034659475339770401 -0.021247579343293303 0 -0.034583807974199292 -0.021220789095705055 0 -0.034561913706316699 -0.021162646468657363 0 -0.034516979367257283 -0.021256399569372975 0 -0.034659475339770401 -0.021247579343293303 0 -0.034583807974199292 -0.021220789095705055 0 -0.034583807974199292 -0.021220789095705055 0 -0.034561913706316699 -0.021162646468657363 0 -0.034528495377607833 -0.02123766635958961 0 -0.033988094261216684 -0.021176736473883587 0 -0.03399442738048139 -0.021173585792810631 0 -0.034594932921050849 -0.021140190937114722 0 -0.03399442738048139 -0.021173585792810631 0 -0.034030895542763097 -0.021370071007979718 0 -0.033848729387583737 -0.021532571913987632 0 -0.03399442738048139 -0.021173585792810631 0 -0.033848729387583737 -0.021532571913987632 0 -0.03383870702470939 -0.021365839617233165 0 -0.033988094261216684 -0.021176736473883587 0 -0.03399442738048139 -0.021173585792810631 0 -0.034030895542763097 -0.021370071007979718 0 -0.033988094261216684 -0.021176736473883587 0 -0.034172064380252352 -0.021471044946092799 0 -0.034030895542763097 -0.021370071007979718 0 -0.034511549002533622 -0.021514418960704027 0 -0.034508261028628154 -0.021261946178181473 0 -0.034528495377607833 -0.02123766635958961 0 -0.034511549002533622 -0.021514418960704027 0 -0.033988094261216684 -0.021176736473883587 0 -0.034172064380252352 -0.021471044946092799 0 -0.034511549002533622 -0.021514418960704027 0 -0.034561913706316699 -0.021162646468657363 0 -0.034528495377607833 -0.02123766635958961 0 -0.034514373000808299 -0.021492019064943101 0 -0.034309518979567147 -0.021183050987153219 0 -0.034508261028628154 -0.021261946178181473 0 -0.034516979367257283 -0.021256399569372975 0 -0.034528495377607833 -0.02123766635958961 0 -0.034511549002533622 -0.021514418960704027 0 -0.034172064380252352 -0.021471044946092799 0 -0.034278685420731932 -0.021710291070668228 0 -0.034172064380252352 -0.021471044946092799 0 -0.034278685420731932 -0.021710291070668228 0 -0.033984913409668339 -0.021706232050003313 0 -0.034278685420731932 -0.021710291070668228 0 -0.033978027050124031 -0.022182437362568492 0 -0.033984913409668339 -0.021706232050003313 0 -0.034587203278345621 -0.021836288845107233 0 -0.034511549002533622 -0.021514418960704027 0 -0.034278685420731932 -0.021710291070668228 0 -0.034080854633222919 -0.022977594116568606 0 -0.034587203278345621 -0.021836288845107233 0 -0.033978027050124031 -0.022182437362568492 0 -0.034587203278345621 -0.021836288845107233 0 -0.034278685420731932 -0.021710291070668228 0 -0.033978027050124031 -0.022182437362568492 0 -0.033978027050124031 -0.022182437362568492 0 -0.033984913409668339 -0.021706232050003313 0 -0.033544051818245844 -0.021958063189750993 0 -0.031604423381941957 -0.024789205332786394 0 -0.033634143798192621 -0.020965252479009676 0 -0.033545878056543209 -0.022755133095542762 0 -0.033978027050124031 -0.022182437362568492 0 -0.033544051818245844 -0.021958063189750993 0 -0.033984913409668339 -0.021706232050003313 0 -0.033848729387583737 -0.021532571913987632 0 -0.033544051818245844 -0.021958063189750993 0 -0.033984913409668339 -0.021706232050003313 0 -0.034030895542763097 -0.021370071007979718 0 -0.033848729387583737 -0.021532571913987632 0 -0.034172064380252352 -0.021471044946092799 0 -0.033984913409668339 -0.021706232050003313 0 -0.034030895542763097 -0.021370071007979718 0 -0.033670846514904214 -0.020934930538440692 0 -0.034056077223537151 -0.020981536872934747 0 -0.033932826469731725 -0.021194508119074137 0 -0.033634143798192621 -0.020965252479009676 0 -0.033827164468512638 -0.021589327977476036 0 -0.033848729387583737 -0.021532571913987632 0 -0.033544051818245844 -0.021958063189750993 0 -0.03383870702470939 -0.021365839617233165 0 -0.033670846514904214 -0.020934930538440692 0 -0.033932826469731725 -0.021194508119074137 0 -0.03383870702470939 -0.021365839617233165 0 -0.033932826469731725 -0.021194508119074137 0 -0.033892693676862193 -0.02147178049949542 0 -0.03383870702470939 -0.021365839617233165 0 -0.03353161738656376 -0.020565243563186602 0 -0.033670846514904214 -0.020934930538440692 0 -0.033939478792712315 -0.020748032292897581 0 -0.033670846514904214 -0.020934930538440692 0 -0.033939478792712315 -0.020748032292897581 0 -0.034056077223537151 -0.020981536872934747 0 -0.033939478792712315 -0.020748032292897581 0 -0.034056077223537151 -0.020981536872934747 0 -0.034454053212459021 -0.02074549722816009 0 -0.03402811772926808 -0.020493451760702209 0 -0.033939478792712315 -0.020748032292897581 0 -0.034454053212459021 -0.02074549722816009 0 -0.034056077223537151 -0.020981536872934747 0 -0.034223879779606059 -0.021171060166092364 0 -0.034454053212459021 -0.02074549722816009 0 -0.034056077223537151 -0.020981536872934747 0 -0.033932826469731725 -0.021194508119074137 0 -0.034223879779606059 -0.021171060166092364 0 -0.033932826469731725 -0.021194508119074137 0 -0.034223879779606059 -0.021171060166092364 0 -0.033892693676862193 -0.02147178049949542 0 -0.034223879779606059 -0.021171060166092364 0 -0.033892693676862193 -0.02147178049949542 0 -0.034892363847692648 -0.021489471200648397 0 -0.035086791991777916 -0.020747407040709393 0 -0.03504214731574043 -0.021127224075016608 0 -0.03552709194106167 -0.021143463595591667 0 -0.034058617006356554 -0.021160156080880923 0 -0.034510916763251971 -0.021121938957575571 0 -0.03399442738048139 -0.021173585792810631 0 -0.035086791991777916 -0.020747407040709393 0 -0.034594932921050849 -0.021140190937114722 0 -0.03399442738048139 -0.021173585792810631 0 -0.033892693676862193 -0.02147178049949542 0 -0.03383870702470939 -0.021365839617233165 0 -0.035086791991777916 -0.020747407040709393 0 -0.034594932921050849 -0.021140190937114722 0 -0.03504214731574043 -0.021127224075016608 0 -0.034594932921050849 -0.021140190937114722 0 -0.034914807740869892 -0.021413448722909813 0 -0.03504214731574043 -0.021127224075016608 0 -0.034309518979567147 -0.021183050987153219 0 -0.034921235228192217 -0.02126323674596407 0 -0.033988094261216684 -0.021176736473883587 0 -0.034594932921050849 -0.021140190937114722 0 -0.034914807740869892 -0.021413448722909813 0 -0.034914807740869892 -0.021413448722909813 0 -0.03504214731574043 -0.021127224075016608 0 -0.03552709194106167 -0.021143463595591667 0 -0.034942417135312751 -0.021142181292969423 0 -0.034939537523177716 -0.021376129832549193 0 -0.035512448242096394 -0.021308720666231396 0 -0.034921235228192217 -0.02126323674596407 0 -0.035455348672018994 -0.021333558054177935 0 -0.034914807740869892 -0.021413448722909813 0 -0.03552709194106167 -0.021143463595591667 0 -0.035512448242096394 -0.021308720666231396 0 -0.034659475339770401 -0.021247579343293303 0 -0.034942417135312751 -0.021142181292969423 0 -0.034939537523177716 -0.021376129832549193 0 -0.034939537523177716 -0.021376129832549193 0 -0.035092961675287873 -0.021513906643317628 0 -0.034819195086887925 -0.021547878717185498 0 -0.034939537523177716 -0.021376129832549193 0 -0.034819195086887925 -0.021547878717185498 0 -0.034647578885133319 -0.021444334335958711 0 -0.035092961675287873 -0.021513906643317628 0 -0.035512448242096394 -0.021308720666231396 0 -0.035354737674613668 -0.021548052062578052 0 -0.034939537523177716 -0.021376129832549193 0 -0.035092961675287873 -0.021513906643317628 0 -0.035512448242096394 -0.021308720666231396 0 -0.035092961675287873 -0.021513906643317628 0 -0.035048012850214715 -0.021662737778229392 0 -0.035354737674613668 -0.021548052062578052 0 -0.035092961675287873 -0.021513906643317628 0 -0.035048012850214715 -0.021662737778229392 0 -0.034908905471595732 -0.021631600035008944 0 -0.035048012850214715 -0.021662737778229392 0 -0.034868346606833509 -0.021727312592838659 0 -0.034908905471595732 -0.021631600035008944 0 -0.035048012850214715 -0.021662737778229392 0 -0.035354737674613668 -0.021548052062578052 0 -0.035194508221211264 -0.021771570501217731 0 -0.035048012850214715 -0.021662737778229392 0 -0.034959144490873457 -0.021760765442416438 0 -0.035194508221211264 -0.021771570501217731 0 -0.035048012850214715 -0.021662737778229392 0 -0.034959144490873457 -0.021760765442416438 0 -0.034868346606833509 -0.021727312592838659 0 -0.034959144490873457 -0.021760765442416438 0 -0.034805055852378079 -0.021777897883828223 0 -0.034893065594860391 -0.02181515939820482 0 -0.034959144490873457 -0.021760765442416438 0 -0.034805055852378079 -0.021777897883828223 0 -0.034868346606833509 -0.021727312592838659 0 -0.034959144490873457 -0.021760765442416438 0 -0.035194508221211264 -0.021771570501217731 0 -0.034893065594860391 -0.02181515939820482 0 -0.034868346606833509 -0.021727312592838659 0 -0.034755056708933973 -0.021687400371255543 0 -0.034724989966886853 -0.021762419017089342 0 -0.034805055852378079 -0.021777897883828223 0 -0.034868346606833509 -0.021727312592838659 0 -0.034724989966886853 -0.021762419017089342 0 -0.034868346606833509 -0.021727312592838659 0 -0.034908905471595732 -0.021631600035008944 0 -0.034755056708933973 -0.021687400371255543 0 -0.035092961675287873 -0.021513906643317628 0 -0.034819195086887925 -0.021547878717185498 0 -0.034908905471595732 -0.021631600035008944 0 -0.034819195086887925 -0.021547878717185498 0 -0.034908905471595732 -0.021631600035008944 0 -0.034755056708933973 -0.021687400371255543 0 -0.034666176132118781 -0.021591503080603647 0 -0.034755056708933973 -0.021687400371255543 0 -0.034676192617450634 -0.021686506414088494 0 -0.034819195086887925 -0.021547878717185498 0 -0.034666176132118781 -0.021591503080603647 0 -0.034755056708933973 -0.021687400371255543 0 -0.034755056708933973 -0.021687400371255543 0 -0.034676192617450634 -0.021686506414088494 0 -0.034722453190602076 -0.021703011727680254 0 -0.034676192617450634 -0.021686506414088494 0 -0.034722453190602076 -0.021703011727680254 0 -0.034749143461450319 -0.021646835554639723 0 -0.034755056708933973 -0.021687400371255543 0 -0.034724989966886853 -0.021762419017089342 0 -0.034722453190602076 -0.021703011727680254 0 -0.034676192617450634 -0.021686506414088494 0 -0.034650663825960326 -0.021698707495873736 0 -0.034749143461450319 -0.021646835554639723 0 -0.034676192617450634 -0.021686506414088494 0 -0.034479763470007481 -0.021594454117320427 0 -0.034650663825960326 -0.021698707495873736 0 -0.034666176132118781 -0.021591503080603647 0 -0.034676192617450634 -0.021686506414088494 0 -0.034479763470007481 -0.021594454117320427 0 -0.034647578885133319 -0.021444334335958711 0 -0.034430290301522552 -0.021337247648989692 0 -0.034479763470007481 -0.021594454117320427 0 -0.034666176132118781 -0.021591503080603647 0 -0.034647578885133319 -0.021444334335958711 0 -0.034479763470007481 -0.021594454117320427 0 -0.034819195086887925 -0.021547878717185498 0 -0.034666176132118781 -0.021591503080603647 0 -0.034647578885133319 -0.021444334335958711 0 -0.034659475339770401 -0.021247579343293303 0 -0.034939537523177716 -0.021376129832549193 0 -0.034647578885133319 -0.021444334335958711 0 -0.034659475339770401 -0.021247579343293303 0 -0.034647578885133319 -0.021444334335958711 0 -0.034430290301522552 -0.021337247648989692 0 -0.015821331089959381 -0.029165665134534675 0 -0.014972834905873211 -0.028609910027529412 0 -0.015680667263385035 -0.028317835758442478 0 -0.015680667263385035 -0.028317835758442478 0 -0.015139423061905537 -0.027731854099348748 0 -0.015884868147198108 -0.027695972449254487 0 -0.024707087157691689 -0.025000580605715431 0 -0.024810348037058425 -0.024610579205320952 0 -0.014972834905873211 -0.028609910027529412 0 -0.015680667263385035 -0.028317835758442478 0 -0.015139423061905537 -0.027731854099348748 0 -0.024810348037058425 -0.024610579205320952 0 -0.024976812509051326 -0.024603665265732301 0 -0.015139423061905537 -0.027731854099348748 0 -0.015271926148805364 -0.02703574148844887 0 -0.01555858779095446 -0.027325101598330116 0 -0.015271926148805364 -0.02703574148844887 0 -0.01555858779095446 -0.027325101598330116 0 -0.015610482686148622 -0.026826026522854172 0 -0.01555858779095446 -0.027325101598330116 0 -0.01595312413613691 -0.027085866546574477 0 -0.015610482686148622 -0.026826026522854172 0 -0.01555858779095446 -0.027325101598330116 0 -0.015884868147198108 -0.027695972449254487 0 -0.01595312413613691 -0.027085866546574477 0 -0.015139423061905537 -0.027731854099348748 0 -0.01555858779095446 -0.027325101598330116 0 -0.015884868147198108 -0.027695972449254487 0 -0.015884868147198108 -0.027695972449254487 0 -0.016359628671863823 -0.027468166028775148 0 -0.016312816813190561 -0.028032930079963179 0 -0.015884868147198108 -0.027695972449254487 0 -0.01595312413613691 -0.027085866546574477 0 -0.016359628671863823 -0.027468166028775148 0 -0.01595312413613691 -0.027085866546574477 0 -0.016360773345684757 -0.02709241700875327 0 -0.016359628671863823 -0.027468166028775148 0 -0.016360773345684757 -0.02709241700875327 0 -0.016359628671863823 -0.027468166028775148 0 -0.016825492770790745 -0.027259357885310261 0 -0.016360773345684757 -0.02709241700875327 0 -0.016482531043652673 -0.026827137551625743 0 -0.016825492770790745 -0.027259357885310261 0 -0.016359628671863823 -0.027468166028775148 0 -0.016312816813190561 -0.028032930079963179 0 -0.016753415565669515 -0.027770299625633765 0 -0.016312816813190561 -0.028032930079963179 0 -0.016750543355517733 -0.028465149836352899 0 -0.016753415565669515 -0.027770299625633765 0 -0.015680667263385035 -0.028317835758442478 0 -0.015884868147198108 -0.027695972449254487 0 -0.016312816813190561 -0.028032930079963179 0 -0.015821331089959381 -0.029165665134534675 0 -0.015680667263385035 -0.028317835758442478 0 -0.01627031654147669 -0.028759567068798172 0 -0.015680667263385035 -0.028317835758442478 0 -0.016312816813190561 -0.028032930079963179 0 -0.01627031654147669 -0.028759567068798172 0 -0.016312816813190561 -0.028032930079963179 0 -0.01627031654147669 -0.028759567068798172 0 -0.016750543355517733 -0.028465149836352899 0 -0.036813519401645386 -0.023523089600615336 0 -0.035921814030074321 -0.024608840016169867 0 -0.037542775178070309 -0.024759687061129208 0 -0.036844294410507225 -0.021317840167103821 0 -0.036723365840905714 -0.021523636843599866 0 -0.036904515655361375 -0.022102843834663842 0 -0.037546517835045146 -0.02256161062255066 0 -0.036983368078726861 -0.022082745227909022 0 -0.036813519401645386 -0.023523089600615336 0 -0.038256226052213904 -0.023761997328235022 0 -0.036904515655361375 -0.022102843834663842 0 -0.036813519401645386 -0.023523089600615336 0 -0.038256226052213904 -0.023761997328235022 0 -0.037542775178070309 -0.024759687061129208 0 -0.036844294410507225 -0.021317840167103821 0 -0.036624774983806251 -0.021235315086865346 0 -0.036673081253496442 -0.020952031774595203 0 -0.036624774983806251 -0.021235315086865346 0 -0.036723365840905714 -0.021523636843599866 0 -0.036485524342344706 -0.021275013028736793 0 -0.036844294410507225 -0.021317840167103821 0 -0.036624774983806251 -0.021235315086865346 0 -0.036723365840905714 -0.021523636843599866 0 -0.036723365840905714 -0.021523636843599866 0 -0.036626004359787474 -0.021262250312050587 0 -0.036793829353855861 -0.021402314246837736 0 -0.036723365840905714 -0.021523636843599866 0 -0.036904515655361375 -0.022102843834663842 0 -0.036793829353855861 -0.021402314246837736 0 -0.036904515655361375 -0.022102843834663842 0 -0.036793829353855861 -0.021402314246837736 0 -0.036229565842309727 -0.021251933834136316 0 -0.035910344632485547 -0.022526292912018318 0 -0.034999282285037271 -0.023869511193392826 0 -0.034999579226169412 -0.020521963849990926 0 -0.036904515655361375 -0.022102843834663842 0 -0.035910344632485547 -0.022526292912018318 0 -0.036229565842309727 -0.021251933834136316 0 -0.035910344632485547 -0.022526292912018318 0 -0.034999282285037271 -0.023869511193392826 0 -0.035921814030074321 -0.024608840016169867 0 -0.036813519401645386 -0.023523089600615336 0 -0.035910344632485547 -0.022526292912018318 0 -0.035921814030074321 -0.024608840016169867 0 -0.036813519401645386 -0.023523089600615336 0 -0.036904515655361375 -0.022102843834663842 0 -0.035910344632485547 -0.022526292912018318 0 -0.035921814030074321 -0.024608840016169867 0 -0.035962287844381005 -0.026285129045656865 0 -0.036193495067774431 -0.026132275144773114 0 -0.034999282285037271 -0.023869511193392826 0 -0.035921814030074321 -0.024608840016169867 0 -0.035962287844381005 -0.026285129045656865 0 -0.035840613504167826 -0.027716575847738355 0 -0.034999282285037271 -0.023869511193392826 0 -0.035962287844381005 -0.026285129045656865 0 -0.036073950408973897 -0.027676538510419881 0 -0.035962287844381005 -0.026285129045656865 0 -0.036139441787651834 -0.027003162375109732 0 -0.036073950408973897 -0.027676538510419881 0 -0.035840613504167826 -0.027716575847738355 0 -0.035962287844381005 -0.026285129045656865 0 -0.035962287844381005 -0.026285129045656865 0 -0.036193495067774431 -0.026132275144773114 0 -0.036139441787651834 -0.027003162375109732 0 -0.03578850217395009 -0.024766250226614401 0 -0.03701522039386429 -0.02550583747684694 0 -0.03701522039386429 -0.02550583747684694 0 -0.036900201250035937 -0.0235199729069792 0 -0.036193495067774431 -0.026132275144773114 0 -0.036328036399994303 -0.027042152421786706 0 -0.036139441787651834 -0.027003162375109732 0 -0.038256226052213904 -0.023761997328235022 0 -0.037542775178070309 -0.024759687061129208 0 -0.039288848646654724 -0.025110756819439025 0 -0.037546517835045146 -0.02256161062255066 0 -0.036900201250035937 -0.0235199729069792 0 -0.036328036399994303 -0.027042152421786706 0 -0.036139441787651834 -0.027003162375109732 0 -0.036054391947803431 -0.027785969955466467 0 -0.035875869941182394 -0.028401365187494195 0 -0.036073950408973897 -0.027676538510419881 0 -0.036054391947803431 -0.027785969955466467 0 -0.036073950408973897 -0.027676538510419881 0 -0.036139441787651834 -0.027003162375109732 0 -0.036054391947803431 -0.027785969955466467 0 -0.035875869941182394 -0.028401365187494195 0 -0.036054391947803431 -0.027785969955466467 0 -0.03580114155464377 -0.028689739992114594 0 -0.035683757431107105 -0.021307619984864423 0 -0.035245201560415773 -0.02079194608307294 0 -0.035149608602005084 -0.02115851010769278 0 -0.036328036399994303 -0.027042152421786706 0 -0.036054391947803431 -0.027785969955466467 0 -0.03580114155464377 -0.028689739992114594 0 -0.036900201250035937 -0.0235199729069792 0 -0.03532058941740835 -0.024321394161008727 0 -0.034959788889090085 -0.020693402651768993 0 -0.035245201560415773 -0.02079194608307294 0 -0.034995893750367366 -0.020892333668822118 0 -0.034995893750367366 -0.020892333668822118 0 -0.035149608602005084 -0.02115851010769278 0 -0.034722205289266013 -0.020957642670945742 0 -0.034959788889090085 -0.020693402651768993 0 -0.034847768008202634 -0.020776498608022536 0 -0.034995893750367366 -0.020892333668822118 0 -0.034847768008202634 -0.020776498608022536 0 -0.034995893750367366 -0.020892333668822118 0 -0.034722205289266013 -0.020957642670945742 0 -0.035245201560415773 -0.02079194608307294 0 -0.034995893750367366 -0.020892333668822118 0 -0.035149608602005084 -0.02115851010769278 0 -0.036247843499677891 -0.020766340142388234 0 -0.035435938651188506 -0.020649999361356388 0 -0.036128193887580123 -0.021155303974027713 0 -0.03548678286441289 -0.020797721597451746 0 -0.035133188125272725 -0.020836518389067374 0 -0.036247843499677891 -0.020766340142388234 0 -0.036433523097196038 -0.021083310743432733 0 -0.036128193887580123 -0.021155303974027713 0 -0.036673081253496442 -0.020952031774595203 0 -0.036247843499677891 -0.020766340142388234 0 -0.036433523097196038 -0.021083310743432733 0 -0.036900201250035937 -0.0235199729069792 0 -0.03548678286441289 -0.020797721597451746 0 -0.036624774983806251 -0.021235315086865346 0 -0.036673081253496442 -0.020952031774595203 0 -0.036433523097196038 -0.021083310743432733 0 -0.034522634018033592 -0.020737948440300125 0 -0.035133188125272725 -0.020836518389067374 0 -0.03451135542855803 -0.020654214941415974 0 -0.034454053212459021 -0.02074549722816009 0 -0.034722205289266013 -0.020957642670945742 0 -0.034685563835485003 -0.020675847676620434 0 -0.03451135542855803 -0.020654214941415974 0 -0.034722205289266013 -0.020957642670945742 0 -0.034685563835485003 -0.020675847676620434 0 -0.034847768008202634 -0.020776498608022536 0 -0.034722205289266013 -0.020957642670945742 0 -0.035435938651188506 -0.020649999361356388 0 -0.034892363847692648 -0.021489471200648397 0 -0.036128193887580123 -0.021155303974027713 0 -0.034223879779606059 -0.021171060166092364 0 -0.034454053212459021 -0.02074549722816009 0 -0.034892363847692648 -0.021489471200648397 0 -0.034454053212459021 -0.02074549722816009 0 -0.035435938651188506 -0.020649999361356388 0 -0.034892363847692648 -0.021489471200648397 0 -0.034510916763251971 -0.021121938957575571 0 -0.035331509284488506 -0.021148219070322691 0 -0.035795333273666116 -0.020815148543785977 0 -0.036063093070998128 -0.021052144793434226 0 -0.03552709194106167 -0.021143463595591667 0 -0.035086791991777916 -0.020747407040709393 0 -0.035795333273666116 -0.020815148543785977 0 -0.03552709194106167 -0.021143463595591667 0 -0.035331509284488506 -0.021148219070322691 0 -0.036046334956222878 -0.021152224914800073 0 -0.035795333273666116 -0.020815148543785977 0 -0.036063093070998128 -0.021052144793434226 0 -0.036128193887580123 -0.021155303974027713 0 -0.036063093070998128 -0.021052144793434226 0 -0.03608112774282108 -0.021155804504882064 0 -0.03552709194106167 -0.021143463595591667 0 -0.03608112774282108 -0.021155804504882064 0 -0.03552709194106167 -0.021143463595591667 0 -0.03597560752172653 -0.021217591600087061 0 -0.036433523097196038 -0.021083310743432733 0 -0.036485524342344706 -0.021275013028736793 0 -0.036128193887580123 -0.021155303974027713 0 -0.036624774983806251 -0.021235315086865346 0 -0.036433523097196038 -0.021083310743432733 0 -0.036485524342344706 -0.021275013028736793 0 -0.036063093070998128 -0.021052144793434226 0 -0.036128193887580123 -0.021155303974027713 0 -0.036310902618259616 -0.021175948098394359 0 -0.036485524342344706 -0.021275013028736793 0 -0.036128193887580123 -0.021155303974027713 0 -0.036310902618259616 -0.021175948098394359 0 -0.036063093070998128 -0.021052144793434226 0 -0.03608112774282108 -0.021155804504882064 0 -0.036310902618259616 -0.021175948098394359 0 -0.03608112774282108 -0.021155804504882064 0 -0.036310902618259616 -0.021175948098394359 0 -0.036371018388923343 -0.021188521439589627 0 -0.036310902618259616 -0.021175948098394359 0 -0.036626004359787474 -0.021262250312050587 0 -0.036371018388923343 -0.021188521439589627 0 -0.036723365840905714 -0.021523636843599866 0 -0.036485524342344706 -0.021275013028736793 0 -0.036626004359787474 -0.021262250312050587 0 -0.036485524342344706 -0.021275013028736793 0 -0.036310902618259616 -0.021175948098394359 0 -0.036626004359787474 -0.021262250312050587 0 -0.036626004359787474 -0.021262250312050587 0 -0.036490953622366394 -0.02110667597985082 0 -0.036831816408006063 -0.021031400492044459 0 -0.036371018388923343 -0.021188521439589627 0 -0.036490953622366394 -0.02110667597985082 0 -0.03597560752172653 -0.021217591600087061 0 -0.036626004359787474 -0.021262250312050587 0 -0.036371018388923343 -0.021188521439589627 0 -0.036490953622366394 -0.02110667597985082 0 -0.036490953622366394 -0.02110667597985082 0 -0.037010454183435411 -0.020797739303227338 0 -0.036831816408006063 -0.021031400492044459 0 -0.03552709194106167 -0.021143463595591667 0 -0.035512448242096394 -0.021308720666231396 0 -0.03597560752172653 -0.021217591600087061 0 -0.03608112774282108 -0.021155804504882064 0 -0.036371018388923343 -0.021188521439589627 0 -0.03597560752172653 -0.021217591600087061 0 -0.036490953622366394 -0.02110667597985082 0 -0.03597560752172653 -0.021217591600087061 0 -0.035882179409881129 -0.021422523086527475 0 -0.035512448242096394 -0.021308720666231396 0 -0.03597560752172653 -0.021217591600087061 0 -0.035882179409881129 -0.021422523086527475 0 -0.035512448242096394 -0.021308720666231396 0 -0.035354737674613668 -0.021548052062578052 0 -0.035882179409881129 -0.021422523086527475 0 -0.035354737674613668 -0.021548052062578052 0 -0.035882179409881129 -0.021422523086527475 0 -0.035422130811482537 -0.021941995545459198 0 -0.03583980242168306 -0.021413226893697301 0 -0.0357379913474506 -0.021887631219867733 0 -0.035882179409881129 -0.021422523086527475 0 -0.036433037171806903 -0.021288919456908501 0 -0.036269654508870132 -0.021722259257147349 0 -0.035882179409881129 -0.021422523086527475 0 -0.036009398070397082 -0.021783615673581232 0 -0.036269654508870132 -0.021722259257147349 0 -0.035882179409881129 -0.021422523086527475 0 -0.036009398070397082 -0.021783615673581232 0 -0.035815388193665282 -0.021734570351062122 0 -0.035354737674613668 -0.021548052062578052 0 -0.035422130811482537 -0.021941995545459198 0 -0.035194508221211264 -0.021771570501217731 0 -0.037010454183435411 -0.020797739303227338 0 -0.037531338101892325 -0.019371397559369403 0 -0.036636257674223169 -0.020157797198558373 0 -0.037032697466829731 -0.020775232437706206 0 -0.037100436831045254 -0.020471432170442942 0 -0.037010454183435411 -0.020797739303227338 0 -0.036433037171806903 -0.021288919456908501 0 -0.036707433644637799 -0.021690378202728813 0 -0.036490953622366394 -0.02110667597985082 0 -0.035882179409881129 -0.021422523086527475 0 -0.036433037171806903 -0.021288919456908501 0 -0.036490953622366394 -0.02110667597985082 0 -0.037010454183435411 -0.020797739303227338 0 -0.036433037171806903 -0.021288919456908501 0 -0.036433037171806903 -0.021288919456908501 0 -0.036269654508870132 -0.021722259257147349 0 -0.036707433644637799 -0.021690378202728813 0 -0.036186192766933356 -0.019256509511911418 0 -0.036636257674223169 -0.020157797198558373 0 -0.036748338204103302 -0.018799375261223533 0 -0.037531338101892325 -0.019371397559369403 0 -0.036636257674223169 -0.020157797198558373 0 -0.036748338204103302 -0.018799375261223533 0 -0.036186192766933356 -0.019256509511911418 0 -0.036636257674223169 -0.020157797198558373 0 -0.035979847783674412 -0.019846154838335392 0 -0.037010454183435411 -0.020797739303227338 0 -0.036636257674223169 -0.020157797198558373 0 -0.036831816408006063 -0.021031400492044459 0 -0.036636257674223169 -0.020157797198558373 0 -0.036831816408006063 -0.021031400492044459 0 -0.036529721676271651 -0.0208123560287145 0 -0.036636257674223169 -0.020157797198558373 0 -0.036529721676271651 -0.0208123560287145 0 -0.035979847783674412 -0.019846154838335392 0 -0.036529721676271651 -0.0208123560287145 0 -0.036793829353855861 -0.021402314246837736 0 -0.036229565842309727 -0.021251933834136316 0 -0.036626004359787474 -0.021262250312050587 0 -0.036831816408006063 -0.021031400492044459 0 -0.036793829353855861 -0.021402314246837736 0 -0.036831816408006063 -0.021031400492044459 0 -0.036529721676271651 -0.0208123560287145 0 -0.036793829353855861 -0.021402314246837736 0 -0.035910344632485547 -0.022526292912018318 0 -0.036229565842309727 -0.021251933834136316 0 -0.034999579226169412 -0.020521963849990926 0 -0.036529721676271651 -0.0208123560287145 0 -0.036229565842309727 -0.021251933834136316 0 -0.035979847783674412 -0.019846154838335392 0 -0.036229565842309727 -0.021251933834136316 0 -0.034999579226169412 -0.020521963849990926 0 -0.035979847783674412 -0.019846154838335392 0 -0.034999579226169412 -0.020521963849990926 0 -0.035979847783674412 -0.019846154838335392 0 -0.034999906578919437 -0.018121366925587516 0 -0.036186192766933356 -0.019256509511911418 0 -0.035979847783674412 -0.019846154838335392 0 -0.035604665373959274 -0.018593255437769712 0 -0.036186192766933356 -0.019256509511911418 0 -0.035604665373959274 -0.018593255437769712 0 -0.035885561604205411 -0.018259387455480652 0 -0.035979847783674412 -0.019846154838335392 0 -0.035604665373959274 -0.018593255437769712 0 -0.034999906578919437 -0.018121366925587516 0 -0.035000003670722417 -0.018117813346692255 0 -0.034999985741401403 -0.016300780760731586 0 -0.035519821663726539 -0.016403665411739914 0 -0.035604665373959274 -0.018593255437769712 0 -0.034999906578919437 -0.018121366925587516 0 -0.035256135748381011 -0.018093490305823915 0 -0.035000088418202527 -0.018117709869842364 0 -0.035360716381894697 -0.017232475240642729 0 -0.035604665373959274 -0.018593255437769712 0 -0.035885561604205411 -0.018259387455480652 0 -0.035256135748381011 -0.018093490305823915 0 -0.035885561604205411 -0.018259387455480652 0 -0.036126006315063915 -0.017445819842129992 0 -0.035420712347038259 -0.017332661713424229 0 -0.035885561604205411 -0.018259387455480652 0 -0.035256135748381011 -0.018093490305823915 0 -0.035420712347038259 -0.017332661713424229 0 -0.035360716381894697 -0.017232475240642729 0 -0.035836675718633387 -0.01608148903124193 0 -0.034999985741401403 -0.016300780760731586 0 -0.035519821663726539 -0.016403665411739914 0 -0.036005920521068151 -0.014691681900938378 0 -0.035885561604205411 -0.018259387455480652 0 -0.036748338204103302 -0.018799375261223533 0 -0.036429830237523587 -0.018126906061380212 0 -0.036186192766933356 -0.019256509511911418 0 -0.035885561604205411 -0.018259387455480652 0 -0.036748338204103302 -0.018799375261223533 0 -0.035885561604205411 -0.018259387455480652 0 -0.036429830237523587 -0.018126906061380212 0 -0.036126006315063915 -0.017445819842129992 0 -0.036748338204103302 -0.018799375261223533 0 -0.036429830237523587 -0.018126906061380212 0 -0.037016647807204393 -0.017831897280295158 0 -0.036429830237523587 -0.018126906061380212 0 -0.037016647807204393 -0.017831897280295158 0 -0.036126006315063915 -0.017445819842129992 0 -0.037016647807204393 -0.017831897280295158 0 -0.036126006315063915 -0.017445819842129992 0 -0.037069050623972248 -0.017081562050292935 0 -0.036126006315063915 -0.017445819842129992 0 -0.036339523731050476 -0.016766334779795476 0 -0.037069050623972248 -0.017081562050292935 0 -0.036126006315063915 -0.017445819842129992 0 -0.036339523731050476 -0.016766334779795476 0 -0.035649488245243457 -0.016456339860804439 0 -0.035112677659442974 -0.01598432137088698 0 -0.034952815395463535 -0.014291535565925018 0 -0.03403273406908304 -0.015034747125780104 0 -0.034957541071406535 -0.01547154580155977 0 -0.034920622755450603 -0.01425524485319051 0 -0.035112677659442974 -0.01598432137088698 0 -0.036229244473448587 -0.016183486005736041 0 -0.034999985741401403 -0.016300780760731586 0 -0.036005920521068151 -0.014691681900938378 0 -0.034999992187182853 -0.014483981514732999 0 -0.036005920521068151 -0.014691681900938378 0 -0.035822115706105107 -0.012811046950165673 0 -0.03646914274218583 -0.01310650271428875 0 -0.035836675718633387 -0.01608148903124193 0 -0.034952815395463535 -0.014291535565925018 0 -0.036126006315063915 -0.017445819842129992 0 -0.035420712347038259 -0.017332661713424229 0 -0.035649488245243457 -0.016456339860804439 0 -0.036005920521068151 -0.014691681900938378 0 -0.034999992187182853 -0.014483981514732999 0 -0.035822115706105107 -0.012811046950165673 0 -0.035000000171751741 -0.014483850759335448 0 -0.034999996847593591 -0.013376067590950873 0 -0.035874602997360477 -0.012660309774113991 0 -0.03500046426466559 -0.01448326290090976 0 -0.035515172634317235 -0.012832366506547207 0 -0.034999996847593591 -0.013376067590950873 0 -0.035874602997360477 -0.012660309774113991 0 -0.034999997992019131 -0.012268281640625335 0 -0.035515172634317235 -0.012832366506547207 0 -0.035000380116953632 -0.01226853778723213 0 -0.035800375510489486 -0.012625516638217378 0 -0.035000623974836283 -0.01226860564418659 0 -0.035502937179387073 -0.011543205818324926 0 -0.035000623974836283 -0.01226860564418659 0 -0.035502937179387073 -0.011543205818324926 0 -0.034998284517480278 -0.010858166488192744 0 -0.035800375510489486 -0.012625516638217378 0 -0.035502937179387073 -0.011543205818324926 0 -0.036362422196696373 -0.011441532347226986 0 -0.035502937179387073 -0.011543205818324926 0 -0.036362422196696373 -0.011441532347226986 0 -0.035760507147278131 -0.010624276816461903 0 -0.035502937179387073 -0.011543205818324926 0 -0.034998284517480278 -0.010858166488192744 0 -0.035760507147278131 -0.010624276816461903 0 -0.034263400046559783 -0.013231014300141175 0 -0.034226249851473468 -0.0095946751529868649 0 -0.034692374814506564 -0.011801339873079776 0 -0.035366498135599299 -0.012062593531627147 0 -0.035393678775525697 -0.010302072625531553 0 -0.034692374814506564 -0.011801339873079776 0 -0.035366498135599299 -0.012062593531627147 0 -0.034732780612584314 -0.012722062563385773 0 -0.035366498135599299 -0.012062593531627147 0 -0.034732780612584314 -0.012722062563385773 0 -0.034880647232961727 -0.01366244277154079 0 -0.033356212342857829 -0.013736411926544595 0 -0.033103130636961305 -0.014604980655183708 0 -0.033884969475047821 -0.014220450160935542 0 -0.035515172634317235 -0.012832366506547207 0 -0.035472221343925921 -0.01177321077017256 0 -0.034004307778202382 -0.013267418072787472 0 -0.034692374814506564 -0.011801339873079776 0 -0.034732780612584314 -0.012722062563385773 0 -0.034263400046559783 -0.013231014300141175 0 -0.034952815395463535 -0.014291535565925018 0 -0.035515172634317235 -0.012832366506547207 0 -0.034952815395463535 -0.014291535565925018 0 -0.034004307778202382 -0.013267418072787472 0 -0.034732780612584314 -0.012722062563385773 0 -0.034880647232961727 -0.01366244277154079 0 -0.03403273406908304 -0.015034747125780104 0 -0.033103130636961305 -0.014604980655183708 0 -0.033884969475047821 -0.014220450160935542 0 -0.033884969475047821 -0.014220450160935542 0 -0.034920622755450603 -0.01425524485319051 0 -0.034111368324202099 -0.013605769240135204 0 -0.03403273406908304 -0.015034747125780104 0 -0.033884969475047821 -0.014220450160935542 0 -0.034920622755450603 -0.01425524485319051 0 -0.034920622755450603 -0.01425524485319051 0 -0.034111368324202099 -0.013605769240135204 0 -0.034968335484834252 -0.013240488981277412 0 -0.034111368324202099 -0.013605769240135204 0 -0.033620848270765433 -0.012852643584467954 0 -0.034968335484834252 -0.013240488981277412 0 -0.033356212342857829 -0.013736411926544595 0 -0.034111368324202099 -0.013605769240135204 0 -0.033620848270765433 -0.012852643584467954 0 -0.033356212342857829 -0.013736411926544595 0 -0.033884969475047821 -0.014220450160935542 0 -0.034111368324202099 -0.013605769240135204 0 -0.034424197009011698 -0.0064954123341497885 0 -0.034456707452658511 -0.0063930636432987598 0 -0.034750757903857878 -0.0062408873422962969 0 -0.034226249851473468 -0.0095946751529868649 0 -0.034604706438246507 -0.0078770238954831654 0 -0.034418456545727415 -0.0065261546242954887 0 -0.034456707452658511 -0.0063930636432987598 0 -0.034273390259170214 -0.0064806906262480828 0 -0.034750757903857878 -0.0062408873422962969 0 -0.035073546004065079 -0.0061855591152710013 0 -0.034979965815136911 -0.0066989560352370666 0 -0.034226249851473468 -0.0095946751529868649 0 -0.035298092275153681 -0.009528584753668138 0 -0.034424197009011698 -0.0064954123341497885 0 -0.034750757903857878 -0.0062408873422962969 0 -0.034979965815136911 -0.0066989560352370666 0 -0.034750757903857878 -0.0062408873422962969 0 -0.035073546004065079 -0.0061855591152710013 0 -0.034972599386016885 -0.0057669028865087431 0 -0.034750757903857878 -0.0062408873422962969 0 -0.034664445128484676 -0.0058410107421868395 0 -0.034972599386016885 -0.0057669028865087431 0 -0.034456707452658511 -0.0063930636432987598 0 -0.034273390259170214 -0.0064806906262480828 0 -0.034664445128484676 -0.0058410107421868395 0 -0.034456707452658511 -0.0063930636432987598 0 -0.034750757903857878 -0.0062408873422962969 0 -0.034664445128484676 -0.0058410107421868395 0 -0.035469125699098901 -0.0089601183893078043 0 -0.035369492254231846 -0.0063484954430031359 0 -0.035631930905484659 -0.0081148425469970108 0 -0.036040881266843537 -0.0091601616132709583 0 -0.03617374051713617 -0.0072145007698888415 0 -0.035631930905484659 -0.0081148425469970108 0 -0.034832893495140578 -0.0081871524377116287 0 -0.035475770032281938 -0.009309636869929229 0 -0.035652665942669158 -0.0092404675384687059 0 -0.034999984691667804 -0.0087649278455443486 0 -0.03500000190746335 -0.010859405423584203 0 -0.034832893495140578 -0.0081871524377116287 0 -0.035475770032281938 -0.009309636869929229 0 -0.034998284517480278 -0.010858166488192744 0 -0.035289616431962177 -0.008689913122756833 0 -0.035000012165745324 -0.010858713200381372 0 -0.035475770032281938 -0.009309636869929229 0 -0.034998284517480278 -0.010858166488192744 0 -0.035760507147278131 -0.010624276816461903 0 -0.036362422196696373 -0.011441532347226986 0 -0.035760507147278131 -0.010624276816461903 0 -0.037168140664464881 -0.0098120041102673344 0 -0.035366498135599299 -0.012062593531627147 0 -0.035857207487109667 -0.010424451689751028 0 -0.035393678775525697 -0.010302072625531553 0 -0.035472221343925921 -0.01177321077017256 0 -0.035469125699098901 -0.0089601183893078043 0 -0.035475770032281938 -0.009309636869929229 0 -0.035760507147278131 -0.010624276816461903 0 -0.037168140664464881 -0.0098120041102673344 0 -0.034226249851473468 -0.0095946751529868649 0 -0.035469125699098901 -0.0089601183893078043 0 -0.035631930905484659 -0.0081148425469970108 0 -0.035475770032281938 -0.009309636869929229 0 -0.036040881266843537 -0.0091601616132709583 0 -0.035955606696132146 -0.009365963394460752 0 -0.035469125699098901 -0.0089601183893078043 0 -0.035668569778485017 -0.0066066690211090988 0 -0.035650408535968597 -0.006336666946686817 0 -0.035598858546764318 -0.0064979429244685066 0 -0.030946723954185955 -0.01559296517928559 0 -0.030720830579281686 -0.016602850823631516 0 -0.031224205390543304 -0.016148169602190621 0 -0.031453928171897086 -0.015219772035002613 0 -0.031442101922942889 -0.015685419042314588 0 -0.031912330624641917 -0.01544226572213281 0 -0.031453928171897086 -0.015219772035002613 0 -0.030946723954185955 -0.01559296517928559 0 -0.031442101922942889 -0.015685419042314588 0 -0.030946723954185955 -0.01559296517928559 0 -0.031442101922942889 -0.015685419042314588 0 -0.031224205390543304 -0.016148169602190621 0 -0.031770553225451741 -0.016093253756423304 0 -0.031442101922942889 -0.015685419042314588 0 -0.031912330624641917 -0.01544226572213281 0 -0.031770553225451741 -0.016093253756423304 0 -0.031442101922942889 -0.015685419042314588 0 -0.031224205390543304 -0.016148169602190621 0 -0.031770553225451741 -0.016093253756423304 0 -0.032609600996836144 -0.016124958467676424 0 -0.031912330624641917 -0.01544226572213281 0 -0.032609600996836144 -0.016124958467676424 0 -0.031912330624641917 -0.01544226572213281 0 -0.032763664072383708 -0.014753155490548028 0 -0.031908531383852259 -0.014668670812683676 0 -0.032763664072383708 -0.014753155490548028 0 -0.032258311208440325 -0.014249412542038367 0 -0.031912330624641917 -0.01544226572213281 0 -0.031908531383852259 -0.014668670812683676 0 -0.032763664072383708 -0.014753155490548028 0 -0.031908531383852259 -0.014668670812683676 0 -0.031223442424532222 -0.014690413266091157 0 -0.031857061389033922 -0.013898137793298581 0 -0.033343222688802916 -0.011027388385757227 0 -0.03386582913994908 -0.0094944079861859453 0 -0.031453928171897086 -0.015219772035002613 0 -0.030946723954185955 -0.01559296517928559 0 -0.031223442424532222 -0.014690413266091157 0 -0.031453928171897086 -0.015219772035002613 0 -0.031912330624641917 -0.01544226572213281 0 -0.031908531383852259 -0.014668670812683676 0 -0.031453928171897086 -0.015219772035002613 0 -0.031908531383852259 -0.014668670812683676 0 -0.031223442424532222 -0.014690413266091157 0 -0.03386582913994908 -0.0094944079861859453 0 -0.036041620015833921 -0.0056471318185346373 0 -0.035327959885776118 -0.0060762689903379897 0 -0.035535508113707363 -0.0061980658992723103 0 -0.035506974052492181 -0.0058065293189038247 0 -0.03576469148935401 -0.0061319366396340672 0 -0.035535508113707363 -0.0061980658992723103 0 -0.035506974052492181 -0.0058065293189038247 0 -0.035327959885776118 -0.0060762689903379897 0 -0.035348731231478074 -0.0063508389900657786 0 -0.035535508113707363 -0.0061980658992723103 0 -0.03576469148935401 -0.0061319366396340672 0 -0.035535508113707363 -0.0061980658992723103 0 -0.035598858546764318 -0.0064979429244685066 0 -0.035348731231478074 -0.0063508389900657786 0 -0.035535508113707363 -0.0061980658992723103 0 -0.035598858546764318 -0.0064979429244685066 0 -0.035073546004065079 -0.0061855591152710013 0 -0.034972599386016885 -0.0057669028865087431 0 -0.035146273182294269 -0.0058015898179225815 0 -0.035327959885776118 -0.0060762689903379897 0 -0.035073546004065079 -0.0061855591152710013 0 -0.035146273182294269 -0.0058015898179225815 0 -0.035327959885776118 -0.0060762689903379897 0 -0.035348731231478074 -0.0063508389900657786 0 -0.035073546004065079 -0.0061855591152710013 0 -0.035214099030965777 -0.0064819458515816622 0 -0.035419506879567318 -0.0066676709480907601 0 -0.034979965815136911 -0.0066989560352370666 0 -0.035073546004065079 -0.0061855591152710013 0 -0.035214099030965777 -0.0064819458515816622 0 -0.034979965815136911 -0.0066989560352370666 0 -0.035348731231478074 -0.0063508389900657786 0 -0.035073546004065079 -0.0061855591152710013 0 -0.035214099030965777 -0.0064819458515816622 0 -0.035668569778485017 -0.0066066690211090988 0 -0.035419506879567318 -0.0066676709480907601 0 -0.035587972168686921 -0.0070710557976422271 0 -0.033343222688802916 -0.011027388385757227 0 -0.033961518221301286 -0.013714876343449227 0 -0.035668569778485017 -0.0066066690211090988 0 -0.035598858546764318 -0.0064979429244685066 0 -0.035419506879567318 -0.0066676709480907601 0 -0.035348731231478074 -0.0063508389900657786 0 -0.035214099030965777 -0.0064819458515816622 0 -0.035419506879567318 -0.0066676709480907601 0 -0.035348731231478074 -0.0063508389900657786 0 -0.035598858546764318 -0.0064979429244685066 0 -0.035419506879567318 -0.0066676709480907601 0 -0.035419506879567318 -0.0066676709480907601 0 -0.035587972168686921 -0.0070710557976422271 0 -0.034979965815136911 -0.0066989560352370666 0 -0.034920622755450603 -0.01425524485319051 0 -0.036301788290480697 -0.013620851816085329 0 -0.034968335484834252 -0.013240488981277412 0 -0.033961518221301286 -0.013714876343449227 0 -0.035298092275153681 -0.009528584753668138 0 -0.034920622755450603 -0.01425524485319051 0 -0.036301788290480697 -0.013620851816085329 0 -0.036095022914791532 -0.014765105530898312 0 -0.030924867590142111 -0.01682308626348723 0 -0.031307268459501818 -0.017543548539761693 0 -0.030685961064618121 -0.018145371861393284 0 -0.033961518221301286 -0.013714876343449227 0 -0.033139141692080203 -0.016632217908251326 0 -0.031307268459501818 -0.017543548539761693 0 -0.031830191426601297 -0.017064153782080579 0 -0.031798879650830086 -0.018165942531840857 0 -0.031307268459501818 -0.017543548539761693 0 -0.031798879650830086 -0.018165942531840857 0 -0.030685961064618121 -0.018145371861393284 0 -0.033961518221301286 -0.013714876343449227 0 -0.03093522388277652 -0.016966529670815141 0 -0.030924867590142111 -0.01682308626348723 0 -0.031307268459501818 -0.017543548539761693 0 -0.031830191426601297 -0.017064153782080579 0 -0.030720830579281686 -0.016602850823631516 0 -0.031830191426601297 -0.017064153782080579 0 -0.031224205390543304 -0.016148169602190621 0 -0.031770553225451741 -0.016093253756423304 0 -0.031830191426601297 -0.017064153782080579 0 -0.031224205390543304 -0.016148169602190621 0 -0.032609600996836144 -0.016124958467676424 0 -0.031830191426601297 -0.017064153782080579 0 -0.033268360729664694 -0.017325243345081912 0 -0.031770553225451741 -0.016093253756423304 0 -0.032609600996836144 -0.016124958467676424 0 -0.031830191426601297 -0.017064153782080579 0 -0.031830191426601297 -0.017064153782080579 0 -0.032509691805511172 -0.018028712583628953 0 -0.033268360729664694 -0.017325243345081912 0 -0.031830191426601297 -0.017064153782080579 0 -0.032509691805511172 -0.018028712583628953 0 -0.031798879650830086 -0.018165942531840857 0 -0.032509691805511172 -0.018028712583628953 0 -0.032338568388350912 -0.018700709877275436 0 -0.033093979485640933 -0.018723720003532299 0 -0.032338568388350912 -0.018700709877275436 0 -0.032430870527207979 -0.019427390126740187 0 -0.033093979485640933 -0.018723720003532299 0 -0.032509691805511172 -0.018028712583628953 0 -0.032338568388350912 -0.018700709877275436 0 -0.031798879650830086 -0.018165942531840857 0 -0.031798879650830086 -0.018165942531840857 0 -0.031585355601065367 -0.019002499569262733 0 -0.030685961064618121 -0.018145371861393284 0 -0.032338568388350912 -0.018700709877275436 0 -0.031798879650830086 -0.018165942531840857 0 -0.031585355601065367 -0.019002499569262733 0 -0.031585355601065367 -0.019002499569262733 0 -0.030476237849516207 -0.019467412920484043 0 -0.031656276131757831 -0.020017377818808774 0 -0.031585355601065367 -0.019002499569262733 0 -0.032430870527207979 -0.019427390126740187 0 -0.031656276131757831 -0.020017377818808774 0 -0.032338568388350912 -0.018700709877275436 0 -0.031585355601065367 -0.019002499569262733 0 -0.032430870527207979 -0.019427390126740187 0 -0.034957541071406535 -0.01547154580155977 0 -0.036095022914791532 -0.014765105530898312 0 -0.035885211721812429 -0.01591576549565718 0 -0.034957541071406535 -0.01547154580155977 0 -0.034920622755450603 -0.01425524485319051 0 -0.036095022914791532 -0.014765105530898312 0 -0.033139141692080203 -0.016632217908251326 0 -0.035186595724594823 -0.018548110494150203 0 -0.031585355601065367 -0.019002499569262733 0 -0.030685961064618121 -0.018145371861393284 0 -0.030476237849516207 -0.019467412920484043 0 -0.035186595724594823 -0.018548110494150203 0 -0.033562221137138609 -0.021283907667499078 0 -0.037016647807204393 -0.017831897280295158 0 -0.037069050623972248 -0.017081562050292935 0 -0.03784148490298786 -0.017421077940247869 0 -0.036229244473448587 -0.016183486005736041 0 -0.035186595724594823 -0.018548110494150203 0 -0.037016647807204393 -0.017831897280295158 0 -0.03784148490298786 -0.017421077940247869 0 -0.037712114321371365 -0.018313252754927373 0 -0.035186595724594823 -0.018548110494150203 0 -0.03724561474829604 -0.020429323090638933 0 -0.036399602565539507 -0.022420640831613325 0 -0.036510421696352463 -0.022078664750287309 0 -0.036190993400436952 -0.02204925359017797 0 -0.036399602565539507 -0.022420640831613325 0 -0.036013591751243898 -0.022275538462730938 0 -0.036190993400436952 -0.02204925359017797 0 -0.036269654508870132 -0.021722259257147349 0 -0.036510421696352463 -0.022078664750287309 0 -0.036190993400436952 -0.02204925359017797 0 -0.036269654508870132 -0.021722259257147349 0 -0.036707433644637799 -0.021690378202728813 0 -0.036510421696352463 -0.022078664750287309 0 -0.037100436831045254 -0.020471432170442942 0 -0.03724561474829604 -0.020429323090638933 0 -0.037531338101892325 -0.019371397559369403 0 -0.036748338204103302 -0.018799375261223533 0 -0.037712114321371365 -0.018313252754927373 0 -0.036748338204103302 -0.018799375261223533 0 -0.037016647807204393 -0.017831897280295158 0 -0.037712114321371365 -0.018313252754927373 0 -0.031656276131757831 -0.020017377818808774 0 -0.032854380340823559 -0.020566931187756182 0 -0.032974631879259426 -0.020270257762197347 0 -0.036013591751243898 -0.022275538462730938 0 -0.0359155917392655 -0.022001113330356831 0 -0.035631537259761238 -0.022113025329615531 0 -0.033562221137138609 -0.021283907667499078 0 -0.034373708688054436 -0.021845320482755604 0 -0.032430870527207979 -0.019427390126740187 0 -0.031656276131757831 -0.020017377818808774 0 -0.032974631879259426 -0.020270257762197347 0 -0.036013591751243898 -0.022275538462730938 0 -0.036190993400436952 -0.02204925359017797 0 -0.0359155917392655 -0.022001113330356831 0 -0.036009398070397082 -0.021783615673581232 0 -0.036269654508870132 -0.021722259257147349 0 -0.036190993400436952 -0.02204925359017797 0 -0.036009398070397082 -0.021783615673581232 0 -0.036190993400436952 -0.02204925359017797 0 -0.0359155917392655 -0.022001113330356831 0 -0.0357379913474506 -0.021887631219867733 0 -0.034373708688054436 -0.021845320482755604 0 -0.036009398070397082 -0.021783615673581232 0 -0.035815388193665282 -0.021734570351062122 0 -0.0359155917392655 -0.022001113330356831 0 -0.035422130811482537 -0.021941995545459198 0 -0.035194508221211264 -0.021771570501217731 0 -0.035110827947104239 -0.022516041867006321 0 -0.035422130811482537 -0.021941995545459198 0 -0.035110827947104239 -0.022516041867006321 0 -0.035153197290750858 -0.02253468697541914 0 -0.035815388193665282 -0.021734570351062122 0 -0.0359155917392655 -0.022001113330356831 0 -0.035631537259761238 -0.022113025329615531 0 -0.035194508221211264 -0.021771570501217731 0 -0.034893065594860391 -0.02181515939820482 0 -0.034878406521276814 -0.021946684751768357 0 -0.035319335453914504 -0.021897296277931185 0 -0.034433171373126688 -0.021919834487281201 0 -0.034805055852378079 -0.021777897883828223 0 -0.034893065594860391 -0.02181515939820482 0 -0.034617172555430863 -0.021802009321490418 0 -0.034893065594860391 -0.02181515939820482 0 -0.034878406521276814 -0.021946684751768357 0 -0.034617172555430863 -0.021802009321490418 0 -0.034433171373126688 -0.021919834487281201 0 -0.034547881681457289 -0.021809373567742495 0 -0.033928034873819894 -0.021651053968471379 0 -0.034304085261033609 -0.021552932347669675 0 -0.033958548196978959 -0.021434931102724247 0 -0.034433171373126688 -0.021919834487281201 0 -0.034373708688054436 -0.021845320482755604 0 -0.034373708688054436 -0.021845320482755604 0 -0.033684044895402339 -0.02167653770809615 0 -0.034433171373126688 -0.021919834487281201 0 -0.033684044895402339 -0.02167653770809615 0 -0.034049867158912908 -0.02176173652701097 0 -0.034055797857997394 -0.021764369869133746 0 -0.034045580146521259 -0.021783643073595132 0 -0.033928034873819894 -0.021651053968471379 0 -0.034304085261033609 -0.021552932347669675 0 -0.034617172555430863 -0.021802009321490418 0 -0.034304085261033609 -0.021552932347669675 0 -0.034223079355140733 -0.021324987908878358 0 -0.033958548196978959 -0.021434931102724247 0 -0.034223079355140733 -0.021324987908878358 0 -0.033958548196978959 -0.021434931102724247 0 -0.034009094976668618 -0.021018287568936422 0 -0.034524205188778891 -0.02148763382364078 0 -0.034617172555430863 -0.021802009321490418 0 -0.034711636085812354 -0.021605980902061898 0 -0.034629277881284941 -0.021293954368744834 0 -0.034524205188778891 -0.02148763382364078 0 -0.034391798718678583 -0.021155313670722171 0 -0.034223079355140733 -0.021324987908878358 0 -0.034524205188778891 -0.02148763382364078 0 -0.034391798718678583 -0.021155313670722171 0 -0.034304085261033609 -0.021552932347669675 0 -0.034223079355140733 -0.021324987908878358 0 -0.034524205188778891 -0.02148763382364078 0 -0.034304085261033609 -0.021552932347669675 0 -0.034524205188778891 -0.02148763382364078 0 -0.034617172555430863 -0.021802009321490418 0 -0.034629277881284941 -0.021293954368744834 0 -0.034524205188778891 -0.02148763382364078 0 -0.034711636085812354 -0.021605980902061898 0 -0.034617172555430863 -0.021802009321490418 0 -0.034724989966886853 -0.021762419017089342 0 -0.034711636085812354 -0.021605980902061898 0 -0.034805055852378079 -0.021777897883828223 0 -0.034617172555430863 -0.021802009321490418 0 -0.034724989966886853 -0.021762419017089342 0 -0.034722453190602076 -0.021703011727680254 0 -0.034749143461450319 -0.021646835554639723 0 -0.034711636085812354 -0.021605980902061898 0 -0.034724989966886853 -0.021762419017089342 0 -0.034722453190602076 -0.021703011727680254 0 -0.034711636085812354 -0.021605980902061898 0 -0.034650663825960326 -0.021698707495873736 0 -0.034749143461450319 -0.021646835554639723 0 -0.034776338970159325 -0.021561945212696915 0 -0.034749143461450319 -0.021646835554639723 0 -0.034836367936461964 -0.021476812213054374 0 -0.034776338970159325 -0.021561945212696915 0 -0.034836367936461964 -0.021476812213054374 0 -0.034789410300957814 -0.021206892492889297 0 -0.034979352903646482 -0.021146373560819873 0 -0.034836367936461964 -0.021476812213054374 0 -0.034979352903646482 -0.021146373560819873 0 -0.035204650747793505 -0.021429499206376747 0 -0.03769506255987895 -0.021561097698208527 0 -0.02491492552322699 -0.022924799692641464 0 -0.034836367936461964 -0.021476812213054374 0 -0.034711636085812354 -0.021605980902061898 0 -0.034789410300957814 -0.021206892492889297 0 -0.034749143461450319 -0.021646835554639723 0 -0.034836367936461964 -0.021476812213054374 0 -0.034711636085812354 -0.021605980902061898 0 -0.034629277881284941 -0.021293954368744834 0 -0.034711636085812354 -0.021605980902061898 0 -0.034789410300957814 -0.021206892492889297 0 -0.034629277881284941 -0.021293954368744834 0 -0.034789410300957814 -0.021206892492889297 0 -0.034664439813536202 -0.020879812051191465 0 -0.034789410300957814 -0.021206892492889297 0 -0.034895043893202617 -0.020854565205896396 0 -0.034979352903646482 -0.021146373560819873 0 -0.034789410300957814 -0.021206892492889297 0 -0.034895043893202617 -0.020854565205896396 0 -0.034664439813536202 -0.020879812051191465 0 -0.034895043893202617 -0.020854565205896396 0 -0.034802312010999696 -0.020615802232608945 0 -0.034664439813536202 -0.020879812051191465 0 -0.034895043893202617 -0.020854565205896396 0 -0.034979352903646482 -0.021146373560819873 0 -0.035182726479149717 -0.020819890605126654 0 -0.034979352903646482 -0.021146373560819873 0 -0.035204650747793505 -0.021429499206376747 0 -0.035182726479149717 -0.020819890605126654 0 -0.026801025622679889 -0.021117517598023574 0 -0.024505764106836084 -0.021954613880483542 0 -0.034895043893202617 -0.020854565205896396 0 -0.034981225848393638 -0.020582449049863859 0 -0.035182726479149717 -0.020819890605126654 0 -0.034981225848393638 -0.020582449049863859 0 -0.035182726479149717 -0.020819890605126654 0 -0.035107740314472509 -0.020389652647026166 0 -0.034802312010999696 -0.020615802232608945 0 -0.03467363588290482 -0.020459641750628831 0 -0.034664439813536202 -0.020879812051191465 0 -0.034895043893202617 -0.020854565205896396 0 -0.034981225848393638 -0.020582449049863859 0 -0.034802312010999696 -0.020615802232608945 0 -0.034981225848393638 -0.020582449049863859 0 -0.034802312010999696 -0.020615802232608945 0 -0.034793195614136199 -0.020461878844208168 0 -0.034718469060518092 -0.020422859153314144 0 -0.035460804100964811 -0.019651884336714123 0 -0.034802312010999696 -0.020615802232608945 0 -0.03467363588290482 -0.020459641750628831 0 -0.034793195614136199 -0.020461878844208168 0 -0.03467363588290482 -0.020459641750628831 0 -0.034627363354652774 -0.018884577646213659 0 -0.035964878429034404 -0.018986565923191104 0 -0.03467363588290482 -0.020459641750628831 0 -0.033910241152998684 -0.020239097821794148 0 -0.03430248822067896 -0.020832566162314593 0 -0.03467363588290482 -0.020459641750628831 0 -0.033910241152998684 -0.020239097821794148 0 -0.034627363354652774 -0.018884577646213659 0 -0.033910241152998684 -0.020239097821794148 0 -0.032927637247962535 -0.020383413042838135 0 -0.033268360729664694 -0.017325243345081912 0 -0.033910241152998684 -0.020239097821794148 0 -0.032927637247962535 -0.020383413042838135 0 -0.033261459344844278 -0.021602248948541316 0 -0.033910241152998684 -0.020239097821794148 0 -0.034009094976668618 -0.021018287568936422 0 -0.03430248822067896 -0.020832566162314593 0 -0.033684044895402339 -0.02167653770809615 0 -0.032906051819469845 -0.019517593296396244 0 -0.032722248833505288 -0.022944758890132463 0 -0.032927637247962535 -0.020383413042838135 0 -0.033261459344844278 -0.021602248948541316 0 -0.032430870527207979 -0.019427390126740187 0 -0.032974631879259426 -0.020270257762197347 0 -0.033093979485640933 -0.018723720003532299 0 -0.033935169619129443 -0.020333483485679753 0 -0.033606286775611234 -0.021345775666479321 0 -0.033684044895402339 -0.02167653770809615 0 -0.033606286775611234 -0.021345775666479321 0 -0.034223079355140733 -0.021324987908878358 0 -0.034009094976668618 -0.021018287568936422 0 -0.034391798718678583 -0.021155313670722171 0 -0.034009094976668618 -0.021018287568936422 0 -0.034391798718678583 -0.021155313670722171 0 -0.03430248822067896 -0.020832566162314593 0 -0.034629277881284941 -0.021293954368744834 0 -0.034391798718678583 -0.021155313670722171 0 -0.034664439813536202 -0.020879812051191465 0 -0.03467363588290482 -0.020459641750628831 0 -0.034664439813536202 -0.020879812051191465 0 -0.03430248822067896 -0.020832566162314593 0 -0.034391798718678583 -0.021155313670722171 0 -0.034664439813536202 -0.020879812051191465 0 -0.03430248822067896 -0.020832566162314593 0 -0.014418619187281295 -0.025455670258166484 0 -0.015544988474602539 -0.023233482220329445 0 -0.015923200302856266 -0.021813490100299513 0 -0.016466091089726267 -0.021610091975689555 0 -0.016151361590252617 -0.021893938430191402 0 -0.014144283812522279 -0.022333002668957439 0 -0.015544988474602539 -0.023233482220329445 0 -0.01285136878812498 -0.022942233535255749 0 -0.012671943792480803 -0.023820719977078374 0 -0.011856722627756711 -0.02298675859659817 0 -0.016360773345684757 -0.02709241700875327 0 -0.016482531043652673 -0.026827137551625743 0 -0.016138439759096606 -0.026818800050828723 0 -0.016482531043652673 -0.026827137551625743 0 -0.016138439759096606 -0.026818800050828723 0 -0.016096774310835095 -0.026433672375241839 0 -0.016138439759096606 -0.026818800050828723 0 -0.016096774310835095 -0.026433672375241839 0 -0.015881423867719666 -0.026686053166164281 0 -0.01595312413613691 -0.027085866546574477 0 -0.016360773345684757 -0.02709241700875327 0 -0.016138439759096606 -0.026818800050828723 0 -0.01595312413613691 -0.027085866546574477 0 -0.016138439759096606 -0.026818800050828723 0 -0.015881423867719666 -0.026686053166164281 0 -0.016466091089726267 -0.021610091975689555 0 -0.016420077404159714 -0.021881832441803202 0 -0.016151361590252617 -0.021893938430191402 0 -0.015544988474602539 -0.023233482220329445 0 -0.016241888419473233 -0.022080526552735479 0 -0.016466091089726267 -0.021610091975689555 0 -0.016750270651897263 -0.021748156822260271 0 -0.016420077404159714 -0.021881832441803202 0 -0.016096774310835095 -0.026433672375241839 0 -0.015696823480401263 -0.026444365393900961 0 -0.015881423867719666 -0.026686053166164281 0 -0.015544988474602539 -0.023233482220329445 0 -0.01503758681690914 -0.024025580296484186 0 -0.016424839600812091 -0.021469471086091402 0 -0.017160247101280612 -0.021432765843579601 0 -0.016750270651897263 -0.021748156822260271 0 -0.017160247101280612 -0.021432765843579601 0 -0.017101223670599651 -0.021775837108554161 0 -0.016750270651897263 -0.021748156822260271 0 -0.017160247101280612 -0.021432765843579601 0 -0.017454753552678354 -0.021774076494216806 0 -0.017101223670599651 -0.021775837108554161 0 -0.015696823480401263 -0.026444365393900961 0 -0.015881423867719666 -0.026686053166164281 0 -0.015610482686148622 -0.026826026522854172 0 -0.01595312413613691 -0.027085866546574477 0 -0.015881423867719666 -0.026686053166164281 0 -0.015610482686148622 -0.026826026522854172 0 -0.015271926148805364 -0.02703574148844887 0 -0.015610482686148622 -0.026826026522854172 0 -0.015349221738839061 -0.026428814331463012 0 -0.024976812509051326 -0.024603665265732301 0 -0.02491492552322699 -0.022924799692641464 0 -0.015696823480401263 -0.026444365393900961 0 -0.015610482686148622 -0.026826026522854172 0 -0.015349221738839061 -0.026428814331463012 0 -0.01503758681690914 -0.024025580296484186 0 -0.02491492552322699 -0.022924799692641464 0 -0.017160247101280612 -0.021432765843579601 0 -0.017866073366153919 -0.02142196557065781 0 -0.017454753552678354 -0.021774076494216806 0 -0.017866073366153919 -0.02142196557065781 0 -0.017836944047214691 -0.02213431121937097 0 -0.017454753552678354 -0.021774076494216806 0 -0.02491492552322699 -0.022924799692641464 0 -0.026801025622679889 -0.021117517598023574 0 -0.017836944047214691 -0.02213431121937097 0 -0.017454753552678354 -0.021774076494216806 0 -0.017302196129374978 -0.022100596684563566 0 -0.017836944047214691 -0.02213431121937097 0 -0.017591736438298086 -0.022359979763273752 0 -0.017302196129374978 -0.022100596684563566 0 -0.017836944047214691 -0.02213431121937097 0 -0.017591736438298086 -0.022359979763273752 0 -0.017855390365390779 -0.022807408189797249 0 -0.017591736438298086 -0.022359979763273752 0 -0.017585055055868735 -0.022628466052966353 0 -0.017855390365390779 -0.022807408189797249 0 -0.017591736438298086 -0.022359979763273752 0 -0.017301013513832807 -0.022420688751650618 0 -0.017585055055868735 -0.022628466052966353 0 -0.017301013513832807 -0.022420688751650618 0 -0.017180824042517764 -0.022727596827553584 0 -0.017585055055868735 -0.022628466052966353 0 -0.017591736438298086 -0.022359979763273752 0 -0.017301013513832807 -0.022420688751650618 0 -0.017302196129374978 -0.022100596684563566 0 -0.016896570922263092 -0.022353857456695367 0 -0.016926939783851156 -0.022013250590535223 0 -0.017302196129374978 -0.022100596684563566 0 -0.017301013513832807 -0.022420688751650618 0 -0.016896570922263092 -0.022353857456695367 0 -0.017302196129374978 -0.022100596684563566 0 -0.017301013513832807 -0.022420688751650618 0 -0.016896570922263092 -0.022353857456695367 0 -0.017180824042517764 -0.022727596827553584 0 -0.016926939783851156 -0.022013250590535223 0 -0.016750270651897263 -0.021748156822260271 0 -0.016605319080280387 -0.022094960722316821 0 -0.016896570922263092 -0.022353857456695367 0 -0.016926939783851156 -0.022013250590535223 0 -0.016605319080280387 -0.022094960722316821 0 -0.016926939783851156 -0.022013250590535223 0 -0.017302196129374978 -0.022100596684563566 0 -0.017101223670599651 -0.021775837108554161 0 -0.017454753552678354 -0.021774076494216806 0 -0.017302196129374978 -0.022100596684563566 0 -0.017101223670599651 -0.021775837108554161 0 -0.016926939783851156 -0.022013250590535223 0 -0.017101223670599651 -0.021775837108554161 0 -0.016750270651897263 -0.021748156822260271 0 -0.016750270651897263 -0.021748156822260271 0 -0.016420077404159714 -0.021881832441803202 0 -0.016605319080280387 -0.022094960722316821 0 -0.016420077404159714 -0.021881832441803202 0 -0.016605319080280387 -0.022094960722316821 0 -0.016161616526120828 -0.022081317493846155 0 -0.016896570922263092 -0.022353857456695367 0 -0.016373728896847128 -0.022361268661571086 0 -0.016773205425131738 -0.022759494994703252 0 -0.016896570922263092 -0.022353857456695367 0 -0.016605319080280387 -0.022094960722316821 0 -0.016373728896847128 -0.022361268661571086 0 -0.016605319080280387 -0.022094960722316821 0 -0.016373728896847128 -0.022361268661571086 0 -0.016161616526120828 -0.022081317493846155 0 -0.016373728896847128 -0.022361268661571086 0 -0.016161616526120828 -0.022081317493846155 0 -0.015699757669135131 -0.022110714273319544 0 -0.016373728896847128 -0.022361268661571086 0 -0.016253802685039342 -0.022727977686099885 0 -0.015699757669135131 -0.022110714273319544 0 -0.01569626156738799 -0.021694254108409576 0 -0.015728758639911848 -0.022086598679151779 0 -0.016161616526120828 -0.022081317493846155 0 -0.015842347133497716 -0.022051107838318925 0 -0.015699757669135131 -0.022110714273319544 0 -0.016420077404159714 -0.021881832441803202 0 -0.016161616526120828 -0.022081317493846155 0 -0.016151361590252617 -0.021893938430191402 0 -0.015923200302856266 -0.021813490100299513 0 -0.016151361590252617 -0.021893938430191402 0 -0.015842347133497716 -0.022051107838318925 0 -0.016161616526120828 -0.022081317493846155 0 -0.016151361590252617 -0.021893938430191402 0 -0.015842347133497716 -0.022051107838318925 0 -0.015414794312491124 -0.018080790848797157 0 -0.014803777866883857 -0.019047318374894581 0 -0.015574858889290392 -0.017691341699125899 0 -0.016700133633766344 -0.014737317142997508 0 -0.016629865766391794 -0.014910607445463311 0 -0.01670765880751102 -0.014637756396236384 0 -0.015414794312491124 -0.018080790848797157 0 -0.014803777866883857 -0.019047318374894581 0 -0.014788340734241298 -0.018838329109211877 0 -0.016080049531670252 -0.016540843744886156 0 -0.015825172333090675 -0.016701378862856445 0 -0.016700133633766344 -0.014737317142997508 0 -0.016629865766391794 -0.014910607445463311 0 -0.016653308171674052 -0.014895104343801053 0 -0.014955330348906254 -0.020653051451778499 0 -0.01565568498679662 -0.020783947599130815 0 -0.015699757669135131 -0.022110714273319544 0 -0.014955330348906254 -0.020653051451778499 0 -0.014803777866883857 -0.019047318374894581 0 -0.01565568498679662 -0.020783947599130815 0 -0.014770369317324207 -0.018956336045673528 0 -0.015459801677165689 -0.019190393116157674 0 -0.016373728896847128 -0.022361268661571086 0 -0.016253802685039342 -0.022727977686099885 0 -0.016773205425131738 -0.022759494994703252 0 -0.01569626156738799 -0.021694254108409576 0 -0.015094242295300942 -0.021347580222135926 0 -0.016253802685039342 -0.022727977686099885 0 -0.016773205425131738 -0.022759494994703252 0 -0.016931485336672304 -0.023197591260392836 0 -0.014955330348906254 -0.020653051451778499 0 -0.014803777866883857 -0.019047318374894581 0 -0.013992921612670751 -0.019003634198599507 0 -0.014803777866883857 -0.019047318374894581 0 -0.014788340734241298 -0.018838329109211877 0 -0.013992921612670751 -0.019003634198599507 0 -0.015825172333090675 -0.016701378862856445 0 -0.015322209284692918 -0.016183860280853658 0 -0.014788340734241298 -0.018838329109211877 0 -0.013992921612670751 -0.019003634198599507 0 -0.01399914446185788 -0.018480147896105237 0 -0.013992921612670751 -0.019003634198599507 0 -0.013398358798753314 -0.018369236647541771 0 -0.01399914446185788 -0.018480147896105237 0 -0.017303649150143336 -0.023232546379297472 0 -0.016931485336672304 -0.023197591260392836 0 -0.017579993257582315 -0.023588833238740243 0 -0.015094242295300942 -0.021347580222135926 0 -0.018175710432450243 -0.018750862368429842 0 -0.017303649150143336 -0.023232546379297472 0 -0.016931485336672304 -0.023197591260392836 0 -0.017115406986454043 -0.022990671619527635 0 -0.017303649150143336 -0.023232546379297472 0 -0.017115406986454043 -0.022990671619527635 0 -0.017392497099776486 -0.023076004323722702 0 -0.016773205425131738 -0.022759494994703252 0 -0.017180824042517764 -0.022727596827553584 0 -0.017115406986454043 -0.022990671619527635 0 -0.016773205425131738 -0.022759494994703252 0 -0.016931485336672304 -0.023197591260392836 0 -0.017115406986454043 -0.022990671619527635 0 -0.016896570922263092 -0.022353857456695367 0 -0.016773205425131738 -0.022759494994703252 0 -0.017180824042517764 -0.022727596827553584 0 -0.017180824042517764 -0.022727596827553584 0 -0.017115406986454043 -0.022990671619527635 0 -0.017392497099776486 -0.023076004323722702 0 -0.017180824042517764 -0.022727596827553584 0 -0.017558459128419329 -0.022912995694832038 0 -0.017392497099776486 -0.023076004323722702 0 -0.017180824042517764 -0.022727596827553584 0 -0.017558459128419329 -0.022912995694832038 0 -0.017585055055868735 -0.022628466052966353 0 -0.017558459128419329 -0.022912995694832038 0 -0.017585055055868735 -0.022628466052966353 0 -0.017800950873403134 -0.022776638578601602 0 -0.018624541519119117 -0.020870755832899622 0 -0.024505764106836084 -0.021954613880483542 0 -0.017558459128419329 -0.022912995694832038 0 -0.017392497099776486 -0.023076004323722702 0 -0.017812427785180121 -0.023347269755235565 0 -0.017558459128419329 -0.022912995694832038 0 -0.017800950873403134 -0.022776638578601602 0 -0.017812427785180121 -0.023347269755235565 0 -0.017303649150143336 -0.023232546379297472 0 -0.017392497099776486 -0.023076004323722702 0 -0.01750155352892737 -0.023310032133706395 0 -0.017303649150143336 -0.023232546379297472 0 -0.01750155352892737 -0.023310032133706395 0 -0.017579993257582315 -0.023588833238740243 0 -0.017392497099776486 -0.023076004323722702 0 -0.01750155352892737 -0.023310032133706395 0 -0.017812427785180121 -0.023347269755235565 0 -0.01750155352892737 -0.023310032133706395 0 -0.017579993257582315 -0.023588833238740243 0 -0.017812427785180121 -0.023347269755235565 0 -0.013398358798753314 -0.018369236647541771 0 -0.013531651924213607 -0.018226074718063756 0 -0.01399914446185788 -0.018480147896105237 0 -0.023252898276571867 -0.017983825976814114 0 -0.023051241950825706 -0.018224399494797195 0 -0.023040235859973401 -0.017804775292155718 0 -0.018175710432450243 -0.018750862368429842 0 -0.025049335660215406 -0.019004086487975403 0 -0.017920705389964518 -0.014353359772113624 0 -0.017506996587879273 -0.014807034258311222 0 -0.020775102209418344 -0.015732521040661061 0 -0.018175710432450243 -0.018750862368429842 0 -0.016684669809386703 -0.016402869389776219 0 -0.016684669809386703 -0.016402869389776219 0 -0.016901212008938765 -0.015071561009563427 0 -0.018175710432450243 -0.018750862368429842 0 -0.024327767134101348 -0.016333008445681214 0 -0.019673386031999484 -0.015391784325679236 0 -0.018722363726738727 -0.016432289841765913 0 -0.021581674257562102 -0.0168632989061171 0 -0.018722363726738727 -0.016432289841765913 0 -0.021581674257562102 -0.0168632989061171 0 -0.021598379580597984 -0.017822016121486199 0 -0.016684669809386703 -0.016402869389776219 0 -0.023379169472292276 -0.015657212251949697 0 -0.017506996587879273 -0.014807034258311222 0 -0.020790385876112847 -0.016709058224476814 0 -0.020775102209418344 -0.015732521040661061 0 -0.016901212008938765 -0.015071561009563427 0 -0.020569134847746088 -0.014313169510440069 0 -0.016865781390930357 -0.013724065099141907 0 -0.017059008411299585 -0.013747104426790268 0 -0.017224142830721621 -0.013645650312621905 0 -0.017059008411299585 -0.013747104426790268 0 -0.017224142830721621 -0.013645650312621905 0 -0.01725058814900814 -0.013625242557284374 0 -0.017059008411299585 -0.013747104426790268 0 -0.01714370445602512 -0.013725349139814082 0 -0.01725058814900814 -0.013625242557284374 0 -0.017059008411299585 -0.013747104426790268 0 -0.01714370445602512 -0.013725349139814082 0 -0.016970753896061584 -0.013827013045568366 0 -0.01714370445602512 -0.013725349139814082 0 -0.016970753896061584 -0.013827013045568366 0 -0.017166495062923285 -0.01376859618973326 0 -0.01714370445602512 -0.013725349139814082 0 -0.017374154268349266 -0.013680093331815428 0 -0.017166495062923285 -0.01376859618973326 0 -0.016970753896061584 -0.013827013045568366 0 -0.016871283661725082 -0.013860109992104516 0 -0.016791673963094108 -0.013937131783106642 0 -0.016970753896061584 -0.013827013045568366 0 -0.016791673963094108 -0.013937131783106642 0 -0.016836986193181396 -0.013923773572460777 0 -0.017059008411299585 -0.013747104426790268 0 -0.016970753896061584 -0.013827013045568366 0 -0.016871283661725082 -0.013860109992104516 0 -0.016865781390930357 -0.013724065099141907 0 -0.017059008411299585 -0.013747104426790268 0 -0.016871283661725082 -0.013860109992104516 0 -0.016865781390930357 -0.013724065099141907 0 -0.016871283661725082 -0.013860109992104516 0 -0.016713693036389532 -0.013960695729495287 0 -0.016713693036389532 -0.013960695729495287 0 -0.016734793605932073 -0.014063525387473646 0 -0.016725343049808297 -0.014174750522627014 0 -0.016713693036389532 -0.013960695729495287 0 -0.016791673963094108 -0.013937131783106642 0 -0.016734793605932073 -0.014063525387473646 0 -0.016871283661725082 -0.013860109992104516 0 -0.016713693036389532 -0.013960695729495287 0 -0.016791673963094108 -0.013937131783106642 0 -0.016791673963094108 -0.013937131783106642 0 -0.016751288587351948 -0.01402123243011158 0 -0.016836986193181396 -0.013923773572460777 0 -0.016791673963094108 -0.013937131783106642 0 -0.016751288587351948 -0.01402123243011158 0 -0.016734793605932073 -0.014063525387473646 0 -0.016751288587351948 -0.01402123243011158 0 -0.016739358050433049 -0.014126241396340219 0 -0.016740867648994115 -0.014101907392776645 0 -0.016751288587351948 -0.01402123243011158 0 -0.016734793605932073 -0.014063525387473646 0 -0.016739358050433049 -0.014126241396340219 0 -0.016734793605932073 -0.014063525387473646 0 -0.016737836892626437 -0.014220759866643937 0 -0.016739358050433049 -0.014126241396340219 0 -0.016734793605932073 -0.014063525387473646 0 -0.016725343049808297 -0.014174750522627014 0 -0.016737836892626437 -0.014220759866643937 0 -0.016725343049808297 -0.014174750522627014 0 -0.016692141335405756 -0.014409404938743228 0 -0.016728126880390864 -0.014335092367540729 0 -0.016725343049808297 -0.014174750522627014 0 -0.016728126880390864 -0.014335092367540729 0 -0.016737836892626437 -0.014220759866643937 0 -0.01658799137335067 -0.014132383732309408 0 -0.016725343049808297 -0.014174750522627014 0 -0.016692141335405756 -0.014409404938743228 0 -0.01658799137335067 -0.014132383732309408 0 -0.016713693036389532 -0.013960695729495287 0 -0.016725343049808297 -0.014174750522627014 0 -0.016736768158247196 -0.016282704921711473 0 -0.016597078721504798 -0.01643597850174526 0 -0.015541888924697416 -0.015708168757184643 0 -0.016901212008938765 -0.015071561009563427 0 -0.015322209284692918 -0.016183860280853658 0 -0.016901212008938765 -0.015071561009563427 0 -0.01706860091850004 -0.014384546788980086 0 -0.016684669809386703 -0.016402869389776219 0 -0.015322209284692918 -0.016183860280853658 0 -0.016692141335405756 -0.014409404938743228 0 -0.016727281950578758 -0.014464931032209324 0 -0.016728126880390864 -0.014335092367540729 0 -0.01670765880751102 -0.014637756396236384 0 -0.016692141335405756 -0.014409404938743228 0 -0.016727281950578758 -0.014464931032209324 0 -0.01670765880751102 -0.014637756396236384 0 -0.016727281950578758 -0.014464931032209324 0 -0.016739471756167069 -0.01454994342775821 0 -0.016739471756167069 -0.01454994342775821 0 -0.016743324508707958 -0.01439201358004601 0 -0.016769763231430281 -0.014393419735647244 0 -0.016727281950578758 -0.014464931032209324 0 -0.016739471756167069 -0.01454994342775821 0 -0.016743324508707958 -0.01439201358004601 0 -0.016727281950578758 -0.014464931032209324 0 -0.016743324508707958 -0.01439201358004601 0 -0.016728126880390864 -0.014335092367540729 0 -0.016743324508707958 -0.01439201358004601 0 -0.016728126880390864 -0.014335092367540729 0 -0.016737836892626437 -0.014220759866643937 0 -0.016743324508707958 -0.01439201358004601 0 -0.016737836892626437 -0.014220759866643937 0 -0.016751801741317952 -0.014233458695679296 0 -0.016737836892626437 -0.014220759866643937 0 -0.016739358050433049 -0.014126241396340219 0 -0.016751801741317952 -0.014233458695679296 0 -0.016739358050433049 -0.014126241396340219 0 -0.016751801741317952 -0.014233458695679296 0 -0.016740867648994115 -0.014101907392776645 0 -0.016751801741317952 -0.014233458695679296 0 -0.01678580088510391 -0.014234649626970613 0 -0.016769763231430281 -0.014393419735647244 0 -0.016751801741317952 -0.014233458695679296 0 -0.01678580088510391 -0.014234649626970613 0 -0.016740867648994115 -0.014101907392776645 0 -0.016743324508707958 -0.01439201358004601 0 -0.016751801741317952 -0.014233458695679296 0 -0.016769763231430281 -0.014393419735647244 0 -0.016769763231430281 -0.014393419735647244 0 -0.016822841423895635 -0.014465098424791212 0 -0.016769522388590533 -0.014545328325024202 0 -0.01678580088510391 -0.014234649626970613 0 -0.016769763231430281 -0.014393419735647244 0 -0.016822841423895635 -0.014465098424791212 0 -0.01678580088510391 -0.014234649626970613 0 -0.016822841423895635 -0.014465098424791212 0 -0.016896205280559188 -0.014300884683296296 0 -0.016822841423895635 -0.014465098424791212 0 -0.016896205280559188 -0.014300884683296296 0 -0.016893749824308166 -0.014578157249463453 0 -0.016822841423895635 -0.014465098424791212 0 -0.016772537060936211 -0.014666015030480666 0 -0.016893749824308166 -0.014578157249463453 0 -0.016772537060936211 -0.014666015030480666 0 -0.016769522388590533 -0.014545328325024202 0 -0.016742421392055982 -0.014629422100747155 0 -0.016822841423895635 -0.014465098424791212 0 -0.016772537060936211 -0.014666015030480666 0 -0.016769522388590533 -0.014545328325024202 0 -0.016739471756167069 -0.01454994342775821 0 -0.016769763231430281 -0.014393419735647244 0 -0.016769522388590533 -0.014545328325024202 0 -0.016739471756167069 -0.01454994342775821 0 -0.016769522388590533 -0.014545328325024202 0 -0.016742421392055982 -0.014629422100747155 0 -0.016700133633766344 -0.014737317142997508 0 -0.016739471756167069 -0.01454994342775821 0 -0.016742421392055982 -0.014629422100747155 0 -0.016700133633766344 -0.014737317142997508 0 -0.01670765880751102 -0.014637756396236384 0 -0.016739471756167069 -0.01454994342775821 0 -0.016700133633766344 -0.014737317142997508 0 -0.016772537060936211 -0.014666015030480666 0 -0.016742421392055982 -0.014629422100747155 0 -0.016700133633766344 -0.014737317142997508 0 -0.016772537060936211 -0.014666015030480666 0 -0.01673003356121764 -0.014796935719346174 0 -0.035179043524827119 -0.017666297271851074 0 -0.033268360729664694 -0.017325243345081912 0 -0.034736953016184187 -0.015999352029970233 0 -0.032609600996836144 -0.016124958467676424 0 -0.033268360729664694 -0.017325243345081912 0 -0.034736953016184187 -0.015999352029970233 0 -0.032509691805511172 -0.018028712583628953 0 -0.033093979485640933 -0.018723720003532299 0 -0.033268360729664694 -0.017325243345081912 0 -0.032906051819469845 -0.019517593296396244 0 -0.033281355332821144 -0.017437534468506617 0 -0.033910241152998684 -0.020239097821794148 0 -0.033268360729664694 -0.017325243345081912 0 -0.034627363354652774 -0.018884577646213659 0 -0.035179043524827119 -0.017666297271851074 0 -0.033268360729664694 -0.017325243345081912 0 -0.034627363354652774 -0.018884577646213659 0 -0.035179043524827119 -0.017666297271851074 0 -0.034627363354652774 -0.018884577646213659 0 -0.035964878429034404 -0.018986565923191104 0 -0.035179043524827119 -0.017666297271851074 0 -0.035964878429034404 -0.018986565923191104 0 -0.037059275680689202 -0.017671289834450873 0 -0.034793195614136199 -0.020461878844208168 0 -0.0349554953821384 -0.020421998867273524 0 -0.034941292397229498 -0.020256747969319113 0 -0.035460804100964811 -0.019651884336714123 0 -0.033917168471029602 -0.018081395622754907 0 -0.034981225848393638 -0.020582449049863859 0 -0.035107740314472509 -0.020389652647026166 0 -0.0349554953821384 -0.020421998867273524 0 -0.034981225848393638 -0.020582449049863859 0 -0.034793195614136199 -0.020461878844208168 0 -0.0349554953821384 -0.020421998867273524 0 -0.035107740314472509 -0.020389652647026166 0 -0.0349554953821384 -0.020421998867273524 0 -0.034941292397229498 -0.020256747969319113 0 -0.024505764106836084 -0.021954613880483542 0 -0.033917168471029602 -0.018081395622754907 0 -0.027265299456192386 -0.019472800733980195 0 -0.027573172284626465 -0.019683696604353349 0 -0.027270519629374892 -0.019988465347557084 0 -0.033137797218521919 -0.014967013697488256 0 -0.033144872017161736 -0.014875457600825136 0 -0.03312329169873434 -0.014824818794004624 0 -0.024505764106836084 -0.021954613880483542 0 -0.025049335660215406 -0.019004086487975403 0 -0.033917168471029602 -0.018081395622754907 0 -0.025049335660215406 -0.019004086487975403 0 -0.033137797218521919 -0.014967013697488256 0 -0.033144872017161736 -0.014875457600825136 0 -0.033167059658183319 -0.014899502747361378 0 -0.033917168471029602 -0.018081395622754907 0 -0.034049304936481006 -0.015162591078244423 0 -0.035179043524827119 -0.017666297271851074 0 -0.037059275680689202 -0.017671289834450873 0 -0.034736953016184187 -0.015999352029970233 0 -0.033137797218521919 -0.014967013697488256 0 -0.03312329169873434 -0.014824818794004624 0 -0.033049095085824029 -0.014849491753139578 0 -0.03312329169873434 -0.014824818794004624 0 -0.033103898385076276 -0.014756999058473998 0 -0.033049095085824029 -0.014849491753139578 0 -0.03312329169873434 -0.014824818794004624 0 -0.033103898385076276 -0.014756999058473998 0 -0.033146067698742773 -0.014766020180965612 0 -0.033167059658183319 -0.014899502747361378 0 -0.033152899835197952 -0.014807030105692983 0 -0.033163672984783656 -0.014797513287370605 0 -0.033144872017161736 -0.014875457600825136 0 -0.033167059658183319 -0.014899502747361378 0 -0.033152899835197952 -0.014807030105692983 0 -0.025049335660215406 -0.019004086487975403 0 -0.024327767134101348 -0.016333008445681214 0 -0.033144872017161736 -0.014875457600825136 0 -0.03312329169873434 -0.014824818794004624 0 -0.033152899835197952 -0.014807030105692983 0 -0.03312329169873434 -0.014824818794004624 0 -0.033152899835197952 -0.014807030105692983 0 -0.033146067698742773 -0.014766020180965612 0 -0.033152899835197952 -0.014807030105692983 0 -0.033152133314371633 -0.014773805363538792 0 -0.033146067698742773 -0.014766020180965612 0 -0.033152899835197952 -0.014807030105692983 0 -0.033156022415938312 -0.014780120252449992 0 -0.033163672984783656 -0.014797513287370605 0 -0.033152899835197952 -0.014807030105692983 0 -0.033156022415938312 -0.014780120252449992 0 -0.033152133314371633 -0.014773805363538792 0 -0.024327767134101348 -0.016333008445681214 0 -0.023379169472292276 -0.015657212251949697 0 -0.033156022415938312 -0.014780120252449992 0 -0.033163672984783656 -0.014797513287370605 0 -0.033154967092156103 -0.014771928412787776 0 -0.028307356127895901 -0.014557407145496193 0 -0.032361490569939429 -0.013778043617056005 0 -0.033154230582665006 -0.0147636518044713 0 -0.033146067698742773 -0.014766020180965612 0 -0.03314170114534374 -0.014637062783778857 0 -0.029450057512282513 -0.012216063898392852 0 -0.029821921117246811 -0.012713993751594859 0 -0.030702787547217419 -0.012765658876185653 0 -0.024607517312672161 -0.01392929542662419 0 -0.02443975443441786 -0.014016536484884295 0 -0.024228313529828131 -0.013679833272121392 0 -0.020569134847746088 -0.014313169510440069 0 -0.020250073103219773 -0.014082651593404704 0 -0.033155503429858561 -0.014775821916973539 0 -0.033154967092156103 -0.014771928412787776 0 -0.033154230582665006 -0.0147636518044713 0 -0.023379169472292276 -0.015657212251949697 0 -0.028307356127895901 -0.014557407145496193 0 -0.033163672984783656 -0.014797513287370605 0 -0.033155503429858561 -0.014775821916973539 0 -0.033154967092156103 -0.014771928412787776 0 -0.020569134847746088 -0.014313169510440069 0 -0.023379169472292276 -0.015657212251949697 0 -0.024607517312672161 -0.01392929542662419 0 -0.024609029747353794 -0.014108408653479506 0 -0.02443975443441786 -0.014016536484884295 0 -0.033154967092156103 -0.014771928412787776 0 -0.033154230582665006 -0.0147636518044713 0 -0.033154146323136367 -0.014770780955806711 0 -0.033156022415938312 -0.014780120252449992 0 -0.033154146323136367 -0.014770780955806711 0 -0.033152133314371633 -0.014773805363538792 0 -0.033156022415938312 -0.014780120252449992 0 -0.033154967092156103 -0.014771928412787776 0 -0.033154146323136367 -0.014770780955806711 0 -0.033154230582665006 -0.0147636518044713 0 -0.033154146323136367 -0.014770780955806711 0 -0.033152133314371633 -0.014773805363538792 0 -0.028307356127895901 -0.014557407145496193 0 -0.024870177620992251 -0.012298091547125469 0 -0.033154230582665006 -0.0147636518044713 0 -0.033152133314371633 -0.014773805363538792 0 -0.033146067698742773 -0.014766020180965612 0 -0.017250621808997026 -0.013549789112574151 0 -0.017586173292922447 -0.013511003268249104 0 -0.01725058814900814 -0.013625242557284374 0 -0.017586173292922447 -0.013511003268249104 0 -0.01725058814900814 -0.013625242557284374 0 -0.017374154268349266 -0.013680093331815428 0 -0.020569134847746088 -0.014313169510440069 0 -0.024870177620992251 -0.012298091547125469 0 -0.01714370445602512 -0.013725349139814082 0 -0.01725058814900814 -0.013625242557284374 0 -0.017374154268349266 -0.013680093331815428 0 -0.033103898385076276 -0.014756999058473998 0 -0.03314170114534374 -0.014637062783778857 0 -0.033025297575243417 -0.014693501178871063 0 -0.033103898385076276 -0.014756999058473998 0 -0.033146067698742773 -0.014766020180965612 0 -0.03314170114534374 -0.014637062783778857 0 -0.033025297575243417 -0.014693501178871063 0 -0.032901706804410784 -0.014558725976076343 0 -0.033054263170679367 -0.014379610449287933 0 -0.03314170114534374 -0.014637062783778857 0 -0.033025297575243417 -0.014693501178871063 0 -0.033054263170679367 -0.014379610449287933 0 -0.033025297575243417 -0.014693501178871063 0 -0.033049095085824029 -0.014849491753139578 0 -0.032763664072383708 -0.014753155490548028 0 -0.033103898385076276 -0.014756999058473998 0 -0.033025297575243417 -0.014693501178871063 0 -0.033049095085824029 -0.014849491753139578 0 -0.032609600996836144 -0.016124958467676424 0 -0.034736953016184187 -0.015999352029970233 0 -0.032763664072383708 -0.014753155490548028 0 -0.034049304936481006 -0.015162591078244423 0 -0.032784514599718269 -0.014849853075105649 0 -0.033025297575243417 -0.014693501178871063 0 -0.032763664072383708 -0.014753155490548028 0 -0.032901706804410784 -0.014558725976076343 0 -0.032763664072383708 -0.014753155490548028 0 -0.032901706804410784 -0.014558725976076343 0 -0.032728053990137423 -0.014370911034334579 0 -0.032763664072383708 -0.014753155490548028 0 -0.032728053990137423 -0.014370911034334579 0 -0.032258311208440325 -0.014249412542038367 0 -0.032728053990137423 -0.014370911034334579 0 -0.0324961209848127 -0.013822382192073749 0 -0.032258311208440325 -0.014249412542038367 0 -0.032728053990137423 -0.014370911034334579 0 -0.0324961209848127 -0.013822382192073749 0 -0.033054263170679367 -0.014379610449287933 0 -0.03212169852974163 -0.013636742600034956 0 -0.0324961209848127 -0.013822382192073749 0 -0.031820442031351398 -0.01330544564296259 0 -0.032499999630260928 -0.013835518322904245 0 -0.0323167832420901 -0.013798414432500523 0 -0.032901706804410784 -0.014558725976076343 0 -0.032728053990137423 -0.014370911034334579 0 -0.033054263170679367 -0.014379610449287933 0 -0.03212169852974163 -0.013636742600034956 0 -0.0324961209848127 -0.013822382192073749 0 -0.032405298788752764 -0.013790736956706354 0 -0.028407321177541786 -0.011415199757883163 0 -0.028482058414635331 -0.011778738289026392 0 -0.027644017999011949 -0.011857427578833717 0 -0.0324961209848127 -0.013822382192073749 0 -0.032436010529889779 -0.013784070583781075 0 -0.032405298788752764 -0.013790736956706354 0 -0.032436010529889779 -0.013784070583781075 0 -0.032409190606951133 -0.013684688267651591 0 -0.032324801021067801 -0.013704315807370944 0 -0.032436010529889779 -0.013784070583781075 0 -0.032447186813475505 -0.01385415729691211 0 -0.032409190606951133 -0.013684688267651591 0 -0.032436010529889779 -0.013784070583781075 0 -0.032447186813475505 -0.01385415729691211 0 -0.032405298788752764 -0.013790736956706354 0 -0.03212169852974163 -0.013636742600034956 0 -0.032447186813475505 -0.01385415729691211 0 -0.032405298788752764 -0.013790736956706354 0 -0.030368068590832163 -0.012208465648855707 0 -0.030942795854191924 -0.0094482140602332385 0 -0.032447186813475505 -0.01385415729691211 0 -0.032409190606951133 -0.013684688267651591 0 -0.032471305408280318 -0.013515203145166519 0 -0.032409190606951133 -0.013684688267651591 0 -0.032471305408280318 -0.013515203145166519 0 -0.032234929419221008 -0.013508072808284081 0 -0.030368068590832163 -0.012208465648855707 0 -0.030040854612134727 -0.012307555007263661 0 -0.028407321177541786 -0.011415199757883163 0 -0.027814912638477698 -0.011359340549878296 0 -0.027644017999011949 -0.011857427578833717 0 -0.028407321177541786 -0.011415199757883163 0 -0.027814912638477698 -0.011359340549878296 0 -0.027498998266238011 -0.010933300900506227 0 -0.027814912638477698 -0.011359340549878296 0 -0.027118416890913839 -0.011160157268092769 0 -0.027644017999011949 -0.011857427578833717 0 -0.03212169852974163 -0.013636742600034956 0 -0.032447186813475505 -0.01385415729691211 0 -0.031352470997346962 -0.013509687510874396 0 -0.030702787547217419 -0.012765658876185653 0 -0.031352470997346962 -0.013509687510874396 0 -0.031820442031351398 -0.01330544564296259 0 -0.03212169852974163 -0.013636742600034956 0 -0.031352470997346962 -0.013509687510874396 0 -0.031820442031351398 -0.01330544564296259 0 -0.032361490569939429 -0.013778043617056005 0 -0.0323167832420901 -0.013798414432500523 0 -0.027814912638477698 -0.011359340549878296 0 -0.027498998266238011 -0.010933300900506227 0 -0.027118416890913839 -0.011160157268092769 0 -0.024870177620992251 -0.012298091547125469 0 -0.022424132746948565 -0.013140823645558722 0 -0.029821921117246811 -0.012713993751594859 0 -0.030702787547217419 -0.012765658876185653 0 -0.031352470997346962 -0.013509687510874396 0 -0.024870177620992251 -0.012298091547125469 0 -0.030040854612134727 -0.012307555007263661 0 -0.026578016376422479 -0.010471342518323525 0 -0.027498998266238011 -0.010933300900506227 0 -0.027118416890913839 -0.011160157268092769 0 -0.017586173292922447 -0.013511003268249104 0 -0.018452590580312071 -0.013793585962424647 0 -0.017670365026793079 -0.01375908589492777 0 -0.017374154268349266 -0.013680093331815428 0 -0.017315750735981777 -0.013854092105252841 0 -0.017166495062923285 -0.01376859618973326 0 -0.017374154268349266 -0.013680093331815428 0 -0.017670365026793079 -0.01375908589492777 0 -0.017315750735981777 -0.013854092105252841 0 -0.017586173292922447 -0.013511003268249104 0 -0.017374154268349266 -0.013680093331815428 0 -0.017670365026793079 -0.01375908589492777 0 -0.018452590580312071 -0.013793585962424647 0 -0.017670365026793079 -0.01375908589492777 0 -0.017704647405646402 -0.014016494776843207 0 -0.017670365026793079 -0.01375908589492777 0 -0.017315750735981777 -0.013854092105252841 0 -0.017704647405646402 -0.014016494776843207 0 -0.018452590580312071 -0.013793585962424647 0 -0.017704647405646402 -0.014016494776843207 0 -0.017863150423090404 -0.014818651491607432 0 -0.017704647405646402 -0.014016494776843207 0 -0.017863150423090404 -0.014818651491607432 0 -0.017160117361431932 -0.014144260689883724 0 -0.017315750735981777 -0.013854092105252841 0 -0.017704647405646402 -0.014016494776843207 0 -0.017160117361431932 -0.014144260689883724 0 -0.018452590580312071 -0.013793585962424647 0 -0.017863150423090404 -0.014818651491607432 0 -0.019516272587354718 -0.014694008308399427 0 -0.022424132746948565 -0.013140823645558722 0 -0.026125493924145676 -0.0074816686151578608 0 -0.021952345615492808 -0.0070300515516318451 0 -0.029182914696337235 -0.0022827753124029411 0 -0.021952345615492808 -0.0070300515516318451 0 -0.026125493924145676 -0.0074816686151578608 0 -0.024747653342699572 0.0028551346723071861 0 -0.028342244837673728 3.3216295198006557e-05 0 -0.029288729810980369 0.0033500097611697459 0 -0.027113414718244178 -0.0051728987272772007 0 -0.027093549316295675 -0.006749330422013252 0 -0.025853004904508727 -0.006376355679377041 0 -0.021952345615492808 -0.0070300515516318451 0 -0.018155715193830784 -0.01409004729149738 0 -0.027113414718244178 -0.0051728987272772007 0 -0.027093549316295675 -0.006749330422013252 0 -0.029124010218451228 -0.0064036100989676714 0 -0.027093549316295675 -0.006749330422013252 0 -0.029124010218451228 -0.0064036100989676714 0 -0.028433908413692557 -0.0070006076399913488 0 -0.028342244837673728 3.3216295198006557e-05 0 -0.03186494892665552 -0.00041964000279424469 0 -0.032063519481250705 -7.5447699621732615e-05 0 -0.028342244837673728 3.3216295198006557e-05 0 -0.032063519481250705 -7.5447699621732615e-05 0 -0.029288729810980369 0.0033500097611697459 0 -0.03186494892665552 -0.00041964000279424469 0 -0.032042167577530249 -0.00017845666820101602 0 -0.032202753765721799 -0.0010537808084441916 0 -0.031540881451900059 -0.0006678158691529061 0 -0.031432498664251747 -0.00083159903443536974 0 -0.031432498664251747 -0.00083159903443536974 0 -0.032707179615970104 -0.0039389180521977249 0 -0.02930886751406089 -0.0049541265476339361 0 -0.029508745770827662 -0.0055519894766692616 0 -0.030540054185753576 -0.0054555353561154176 0 -0.029726350097453058 -0.0041762202104953161 0 -0.02930886751406089 -0.0049541265476339361 0 -0.030540054185753576 -0.0054555353561154176 0 -0.030942795854191924 -0.0094482140602332385 0 -0.026125493924145676 -0.0074816686151578608 0 -0.032707179615970104 -0.0039389180521977249 0 -0.030942795854191924 -0.0094482140602332385 0 -0.031432498664251747 -0.00083159903443536974 0 -0.026125493924145676 -0.0074816686151578608 0 -0.017210406690968429 -0.013496414627286261 0 -0.016763763752375753 -0.013879842851715604 0 -0.016611488326204921 -0.013256849348828205 0 -0.017210406690968429 -0.013496414627286261 0 -0.016998277883275865 -0.013997776636263956 0 -0.016763763752375753 -0.013879842851715604 0 -0.017210406690968429 -0.013496414627286261 0 -0.016998277883275865 -0.013997776636263956 0 -0.017289589171375196 -0.013866006091869261 0 -0.016998277883275865 -0.013997776636263956 0 -0.016896205280559188 -0.014300884683296296 0 -0.017059799741869289 -0.014318267393278841 0 -0.01678580088510391 -0.014234649626970613 0 -0.016896205280559188 -0.014300884683296296 0 -0.016824403737489921 -0.01409962052155807 0 -0.016998277883275865 -0.013997776636263956 0 -0.016824403737489921 -0.01409962052155807 0 -0.016763763752375753 -0.013879842851715604 0 -0.016998277883275865 -0.013997776636263956 0 -0.016896205280559188 -0.014300884683296296 0 -0.016824403737489921 -0.01409962052155807 0 -0.016824403737489921 -0.01409962052155807 0 -0.016743078507897628 -0.014028729776880872 0 -0.016763763752375753 -0.013879842851715604 0 -0.01678580088510391 -0.014234649626970613 0 -0.016824403737489921 -0.01409962052155807 0 -0.016743078507897628 -0.014028729776880872 0 -0.016740867648994115 -0.014101907392776645 0 -0.016743078507897628 -0.014028729776880872 0 -0.016751942768557401 -0.013991014839148046 0 -0.01678580088510391 -0.014234649626970613 0 -0.016740867648994115 -0.014101907392776645 0 -0.016743078507897628 -0.014028729776880872 0 -0.016743078507897628 -0.014028729776880872 0 -0.016763763752375753 -0.013879842851715604 0 -0.016727664945327174 -0.013933689710365783 0 -0.016763763752375753 -0.013879842851715604 0 -0.016696460843561627 -0.01379825512285263 0 -0.016611488326204921 -0.013256849348828205 0 -0.016763763752375753 -0.013879842851715604 0 -0.016696460843561627 -0.01379825512285263 0 -0.016727664945327174 -0.013933689710365783 0 -0.016696460843561627 -0.01379825512285263 0 -0.016857672864478444 -0.013959923299919488 0 -0.016870645831667797 -0.014034315579128423 0 -0.016857672864478444 -0.013959923299919488 0 -0.016727664945327174 -0.013933689710365783 0 -0.016853659932830559 -0.013934175882550267 0 -0.016696460843561627 -0.01379825512285263 0 -0.016857672864478444 -0.013959923299919488 0 -0.016727664945327174 -0.013933689710365783 0 -0.016743078507897628 -0.014028729776880872 0 -0.016727664945327174 -0.013933689710365783 0 -0.016751942768557401 -0.013991014839148046 0 -0.016727664945327174 -0.013933689710365783 0 -0.016751942768557401 -0.013991014839148046 0 -0.016853659932830559 -0.013934175882550267 0 -0.016751288587351948 -0.01402123243011158 0 -0.016740867648994115 -0.014101907392776645 0 -0.016751942768557401 -0.013991014839148046 0 -0.016751288587351948 -0.01402123243011158 0 -0.016751942768557401 -0.013991014839148046 0 -0.016836986193181396 -0.013923773572460777 0 -0.016751942768557401 -0.013991014839148046 0 -0.016836986193181396 -0.013923773572460777 0 -0.016853659932830559 -0.013934175882550267 0 -0.016853659932830559 -0.013934175882550267 0 -0.017006923578156707 -0.013944727833715391 0 -0.017001983858271171 -0.013865911793029201 0 -0.016836986193181396 -0.013923773572460777 0 -0.016853659932830559 -0.013934175882550267 0 -0.017001983858271171 -0.013865911793029201 0 -0.016970753896061584 -0.013827013045568366 0 -0.016836986193181396 -0.013923773572460777 0 -0.017001983858271171 -0.013865911793029201 0 -0.017315750735981777 -0.013854092105252841 0 -0.017001983858271171 -0.013865911793029201 0 -0.017166495062923285 -0.01376859618973326 0 -0.016970753896061584 -0.013827013045568366 0 -0.017001983858271171 -0.013865911793029201 0 -0.017166495062923285 -0.01376859618973326 0 -0.017315750735981777 -0.013854092105252841 0 -0.017006923578156707 -0.013944727833715391 0 -0.017001983858271171 -0.013865911793029201 0 -0.016857672864478444 -0.013959923299919488 0 -0.017160117361431932 -0.014144260689883724 0 -0.016870645831667797 -0.014034315579128423 0 -0.017315750735981777 -0.013854092105252841 0 -0.017006923578156707 -0.013944727833715391 0 -0.017160117361431932 -0.014144260689883724 0 -0.016857672864478444 -0.013959923299919488 0 -0.017006923578156707 -0.013944727833715391 0 -0.017160117361431932 -0.014144260689883724 0 -0.016857672864478444 -0.013959923299919488 0 -0.016853659932830559 -0.013934175882550267 0 -0.017006923578156707 -0.013944727833715391 0 -0.027113414718244178 -0.0051728987272772007 0 -0.025853004904508727 -0.006376355679377041 0 -0.024185940286373525 -0.0060679927988496066 0 -0.021952345615492808 -0.0070300515516318451 0 -0.020630046475172373 -0.010364174106916731 0 -0.017295049736084631 -0.01419141413250637 0 -0.017160117361431932 -0.014144260689883724 0 -0.016870645831667797 -0.014034315579128423 0 -0.025853004904508727 -0.006376355679377041 0 -0.024914917522196007 -0.0075810339043708465 0 -0.024185940286373525 -0.0060679927988496066 0 -0.027093549316295675 -0.006749330422013252 0 -0.025853004904508727 -0.006376355679377041 0 -0.024914917522196007 -0.0075810339043708465 0 -0.024914917522196007 -0.0075810339043708465 0 -0.022919745812358318 -0.0084382723682898259 0 -0.024185940286373525 -0.0060679927988496066 0 -0.024914917522196007 -0.0075810339043708465 0 -0.022919745812358318 -0.0084382723682898259 0 -0.024040670719840351 -0.009087766288659184 0 -0.016696460843561627 -0.01379825512285263 0 -0.016870645831667797 -0.014034315579128423 0 -0.016611488326204921 -0.013256849348828205 0 -0.022919745812358318 -0.0084382723682898259 0 -0.024185940286373525 -0.0060679927988496066 0 -0.021037212070954086 -0.0081832475344644998 0 -0.020630046475172373 -0.010364174106916731 0 -0.019035892711605371 -0.010738555923212323 0 -0.022919745812358318 -0.0084382723682898259 0 -0.021123709256299861 -0.009829331393911454 0 -0.022565716628614941 -0.0096568459067277145 0 -0.022919745812358318 -0.0084382723682898259 0 -0.021037212070954086 -0.0081832475344644998 0 -0.021123709256299861 -0.009829331393911454 0 -0.021037212070954086 -0.0081832475344644998 0 -0.018309554745838258 -0.011839748091378699 0 -0.01906216613716262 -0.011320409845009295 0 -0.021123709256299861 -0.009829331393911454 0 -0.020225330493508723 -0.011021165388530024 0 -0.01906216613716262 -0.011320409845009295 0 -0.021037212070954086 -0.0081832475344644998 0 -0.021123709256299861 -0.009829331393911454 0 -0.01906216613716262 -0.011320409845009295 0 -0.017210406690968429 -0.013496414627286261 0 -0.016611488326204921 -0.013256849348828205 0 -0.018309554745838258 -0.011839748091378699 0 -0.019035892711605371 -0.010738555923212323 0 -0.018552478920228117 -0.011610802826004908 0 -0.02104430795659705 -0.01144531001576826 0 -0.021101250420931233 -0.012185054069218635 0 -0.020401113632788175 -0.01211490029904635 0 -0.02104430795659705 -0.01144531001576826 0 -0.02010756657813742 -0.011681502051854718 0 -0.020401113632788175 -0.01211490029904635 0 -0.02104430795659705 -0.01144531001576826 0 -0.020225330493508723 -0.011021165388530024 0 -0.02139557797103471 -0.010494379293874827 0 -0.02010756657813742 -0.011681502051854718 0 -0.020225330493508723 -0.011021165388530024 0 -0.019545934275540858 -0.011559350092825993 0 -0.02104430795659705 -0.01144531001576826 0 -0.02010756657813742 -0.011681502051854718 0 -0.020225330493508723 -0.011021165388530024 0 -0.020225330493508723 -0.011021165388530024 0 -0.019545934275540858 -0.011559350092825993 0 -0.01906216613716262 -0.011320409845009295 0 -0.021123709256299861 -0.009829331393911454 0 -0.020225330493508723 -0.011021165388530024 0 -0.02139557797103471 -0.010494379293874827 0 -0.021123709256299861 -0.009829331393911454 0 -0.02139557797103471 -0.010494379293874827 0 -0.022565716628614941 -0.0096568459067277145 0 -0.02139557797103471 -0.010494379293874827 0 -0.022607738893435547 -0.010556206073360337 0 -0.022565716628614941 -0.0096568459067277145 0 -0.02104430795659705 -0.01144531001576826 0 -0.02139557797103471 -0.010494379293874827 0 -0.022607738893435547 -0.010556206073360337 0 -0.02104430795659705 -0.01144531001576826 0 -0.022018990068809141 -0.011674932519563187 0 -0.021101250420931233 -0.012185054069218635 0 -0.02104430795659705 -0.01144531001576826 0 -0.022607738893435547 -0.010556206073360337 0 -0.022018990068809141 -0.011674932519563187 0 -0.022607738893435547 -0.010556206073360337 0 -0.023184663658566446 -0.011314633479274481 0 -0.022018990068809141 -0.011674932519563187 0 -0.022607738893435547 -0.010556206073360337 0 -0.023974203975899916 -0.010053485871432384 0 -0.023184663658566446 -0.011314633479274481 0 -0.022607738893435547 -0.010556206073360337 0 -0.024040670719840351 -0.009087766288659184 0 -0.023974203975899916 -0.010053485871432384 0 -0.022919745812358318 -0.0084382723682898259 0 -0.022565716628614941 -0.0096568459067277145 0 -0.024040670719840351 -0.009087766288659184 0 -0.022607738893435547 -0.010556206073360337 0 -0.022565716628614941 -0.0096568459067277145 0 -0.024040670719840351 -0.009087766288659184 0 -0.024914917522196007 -0.0075810339043708465 0 -0.024040670719840351 -0.009087766288659184 0 -0.025944537449927994 -0.0084963394472555437 0 -0.027093549316295675 -0.006749330422013252 0 -0.024914917522196007 -0.0075810339043708465 0 -0.025944537449927994 -0.0084963394472555437 0 -0.024040670719840351 -0.009087766288659184 0 -0.025944537449927994 -0.0084963394472555437 0 -0.023974203975899916 -0.010053485871432384 0 -0.025944537449927994 -0.0084963394472555437 0 -0.023974203975899916 -0.010053485871432384 0 -0.024580350175762038 -0.01052383458878137 0 -0.023974203975899916 -0.010053485871432384 0 -0.024580350175762038 -0.01052383458878137 0 -0.023184663658566446 -0.011314633479274481 0 -0.025944537449927994 -0.0084963394472555437 0 -0.024580350175762038 -0.01052383458878137 0 -0.026005926471245083 -0.010038734679973018 0 -0.024580350175762038 -0.01052383458878137 0 -0.024700731462245929 -0.011806542681055731 0 -0.026005926471245083 -0.010038734679973018 0 -0.024580350175762038 -0.01052383458878137 0 -0.023958675793818506 -0.011468905923580582 0 -0.024700731462245929 -0.011806542681055731 0 -0.024580350175762038 -0.01052383458878137 0 -0.023958675793818506 -0.011468905923580582 0 -0.023184663658566446 -0.011314633479274481 0 -0.023958675793818506 -0.011468905923580582 0 -0.024700731462245929 -0.011806542681055731 0 -0.023467211677502528 -0.012103915303706161 0 -0.024700731462245929 -0.011806542681055731 0 -0.024018998063828179 -0.012506880687956627 0 -0.024937397352641145 -0.012186191665169372 0 -0.024018998063828179 -0.012506880687956627 0 -0.024694970036933252 -0.012671553029009627 0 -0.023688884691372272 -0.012928376104214757 0 -0.024018998063828179 -0.012506880687956627 0 -0.023338736705972522 -0.012520066350320542 0 -0.023429243496737313 -0.012712802092337527 0 -0.023338736705972522 -0.012520066350320542 0 -0.023429243496737313 -0.012712802092337527 0 -0.023006089818256064 -0.012694147520837301 0 -0.024018998063828179 -0.012506880687956627 0 -0.023338736705972522 -0.012520066350320542 0 -0.023467211677502528 -0.012103915303706161 0 -0.024700731462245929 -0.011806542681055731 0 -0.024018998063828179 -0.012506880687956627 0 -0.023467211677502528 -0.012103915303706161 0 -0.023467211677502528 -0.012103915303706161 0 -0.022832416135108818 -0.012456314055160339 0 -0.022486069467686345 -0.012132618208103985 0 -0.023338736705972522 -0.012520066350320542 0 -0.023467211677502528 -0.012103915303706161 0 -0.022832416135108818 -0.012456314055160339 0 -0.022832416135108818 -0.012456314055160339 0 -0.02255249800763541 -0.012695938833015615 0 -0.023006089818256064 -0.012694147520837301 0 -0.023338736705972522 -0.012520066350320542 0 -0.022832416135108818 -0.012456314055160339 0 -0.023006089818256064 -0.012694147520837301 0 -0.022832416135108818 -0.012456314055160339 0 -0.022118911788189376 -0.012572495610107546 0 -0.02255249800763541 -0.012695938833015615 0 -0.022832416135108818 -0.012456314055160339 0 -0.022486069467686345 -0.012132618208103985 0 -0.022118911788189376 -0.012572495610107546 0 -0.023958675793818506 -0.011468905923580582 0 -0.023467211677502528 -0.012103915303706161 0 -0.023184663658566446 -0.011314633479274481 0 -0.023467211677502528 -0.012103915303706161 0 -0.022486069467686345 -0.012132618208103985 0 -0.023184663658566446 -0.011314633479274481 0 -0.022486069467686345 -0.012132618208103985 0 -0.023184663658566446 -0.011314633479274481 0 -0.022018990068809141 -0.011674932519563187 0 -0.022018990068809141 -0.011674932519563187 0 -0.021782318157666899 -0.012276610494537175 0 -0.021101250420931233 -0.012185054069218635 0 -0.022486069467686345 -0.012132618208103985 0 -0.022018990068809141 -0.011674932519563187 0 -0.021782318157666899 -0.012276610494537175 0 -0.022486069467686345 -0.012132618208103985 0 -0.021782318157666899 -0.012276610494537175 0 -0.022118911788189376 -0.012572495610107546 0 -0.021782318157666899 -0.012276610494537175 0 -0.022118911788189376 -0.012572495610107546 0 -0.02144706455406745 -0.012556599562142419 0 -0.022118911788189376 -0.012572495610107546 0 -0.02144706455406745 -0.012556599562142419 0 -0.021714000606553818 -0.012690173346742125 0 -0.02144706455406745 -0.012556599562142419 0 -0.021154482412852112 -0.012743674025918569 0 -0.021714000606553818 -0.012690173346742125 0 -0.02144706455406745 -0.012556599562142419 0 -0.020731691286006881 -0.012553759389297238 0 -0.021154482412852112 -0.012743674025918569 0 -0.02144706455406745 -0.012556599562142419 0 -0.021101250420931233 -0.012185054069218635 0 -0.020731691286006881 -0.012553759389297238 0 -0.021782318157666899 -0.012276610494537175 0 -0.02144706455406745 -0.012556599562142419 0 -0.021101250420931233 -0.012185054069218635 0 -0.021101250420931233 -0.012185054069218635 0 -0.020731691286006881 -0.012553759389297238 0 -0.020401113632788175 -0.01211490029904635 0 -0.029842841890496265 -0.0052123591163672888 0 -0.029707621471402965 -0.005605164546936903 0 -0.029357715997895516 -0.0064546876522656336 0 -0.030168665146655785 -0.0042433577717348112 0 -0.029707621471402965 -0.005605164546936903 0 -0.030543055147326446 -0.0032414081815505835 0 -0.030748763028004122 -0.0038729815638003677 0 -0.032201345622903048 -0.00271514876582445 0 -0.03181764457927086 -0.0019959234611169694 0 -0.033725401761622496 -0.0020641094753642572 0 -0.033073545052121393 -0.0016270035845262145 0 -0.029842841890496265 -0.0052123591163672888 0 -0.030168665146655785 -0.0042433577717348112 0 -0.029707621471402965 -0.005605164546936903 0 -0.03181764457927086 -0.0019959234611169694 0 -0.032202753765721799 -0.0010537808084441916 0 -0.033073545052121393 -0.0016270035845262145 0 -0.031432498664251747 -0.00083159903443536974 0 -0.033140494852896218 -0.0016629671170077006 0 -0.032042167577530249 -0.00017845666820101602 0 -0.032202753765721799 -0.0010537808084441916 0 -0.033073545052121393 -0.0016270035845262145 0 -0.03186494892665552 -0.00041964000279424469 0 -0.03181764457927086 -0.0019959234611169694 0 -0.032202753765721799 -0.0010537808084441916 0 -0.029182914696337235 -0.0022827753124029411 0 -0.030748763028004122 -0.0038729815638003677 0 -0.028342244837673728 3.3216295198006557e-05 0 -0.03186494892665552 -0.00041964000279424469 0 -0.03181764457927086 -0.0019959234611169694 0 -0.029124010218451228 -0.0064036100989676714 0 -0.029707621471402965 -0.005605164546936903 0 -0.029357715997895516 -0.0064546876522656336 0 -0.029124010218451228 -0.0064036100989676714 0 -0.028433908413692557 -0.0070006076399913488 0 -0.029357715997895516 -0.0064546876522656336 0 -0.028433908413692557 -0.0070006076399913488 0 -0.029357715997895516 -0.0064546876522656336 0 -0.028660827738343064 -0.0076837709691296007 0 -0.025944537449927994 -0.0084963394472555437 0 -0.028433908413692557 -0.0070006076399913488 0 -0.028660827738343064 -0.0076837709691296007 0 -0.027093549316295675 -0.006749330422013252 0 -0.025944537449927994 -0.0084963394472555437 0 -0.028433908413692557 -0.0070006076399913488 0 -0.028652035016726675 -0.0076259708649264396 0 -0.028361202098414428 -0.0081165503007679211 0 -0.028660827738343064 -0.0076837709691296007 0 -0.026005926471245083 -0.010038734679973018 0 -0.026512264423913016 -0.011585291581342317 0 -0.025944537449927994 -0.0084963394472555437 0 -0.028660827738343064 -0.0076837709691296007 0 -0.026005926471245083 -0.010038734679973018 0 -0.028660827738343064 -0.0076837709691296007 0 -0.029481643591134834 -0.006120200226689165 0 -0.030308611983045779 -0.0051921198642659525 0 -0.029842841890496265 -0.0052123591163672888 0 -0.029357715997895516 -0.0064546876522656336 0 -0.029481643591134834 -0.006120200226689165 0 -0.029357715997895516 -0.0064546876522656336 0 -0.028660827738343064 -0.0076837709691296007 0 -0.029481643591134834 -0.006120200226689165 0 -0.030078489035353439 -0.0049863809610296694 0 -0.030308611983045779 -0.0051921198642659525 0 -0.030236513910904605 -0.005121094017376507 0 -0.029842841890496265 -0.0052123591163672888 0 -0.029481643591134834 -0.006120200226689165 0 -0.030078489035353439 -0.0049863809610296694 0 -0.029481643591134834 -0.006120200226689165 0 -0.030078489035353439 -0.0049863809610296694 0 -0.030308611983045779 -0.0051921198642659525 0 -0.024700731462245929 -0.011806542681055731 0 -0.026005926471245083 -0.010038734679973018 0 -0.026512264423913016 -0.011585291581342317 0 -0.024700731462245929 -0.011806542681055731 0 -0.026512264423913016 -0.011585291581342317 0 -0.024937397352641145 -0.012186191665169372 0 -0.028361202098414428 -0.0081165503007679211 0 -0.027392520911335483 -0.0094351320964500707 0 -0.026512264423913016 -0.011585291581342317 0 -0.024937397352641145 -0.012186191665169372 0 -0.024694970036933252 -0.012671553029009627 0 -0.030308611983045779 -0.0051921198642659525 0 -0.030236513910904605 -0.005121094017376507 0 -0.030180977631460503 -0.0051425883130827195 0 -0.024018998063828179 -0.012506880687956627 0 -0.024937397352641145 -0.012186191665169372 0 -0.024694970036933252 -0.012671553029009627 0 -0.030078489035353439 -0.0049863809610296694 0 -0.031209357967280825 -0.0028747505079740896 0 -0.03067849102969419 -0.0031374477142006685 0 -0.029988950185246561 -0.0051829440222495513 0 -0.031053660566049874 -0.003410142884642291 0 -0.030078489035353439 -0.0049863809610296694 0 -0.03067849102969419 -0.0031374477142006685 0 -0.03043550790625708 -0.0032788572008843361 0 -0.031209357967280825 -0.0028747505079740896 0 -0.03067849102969419 -0.0031374477142006685 0 -0.030859641587930729 -0.0026829635817569451 0 -0.03067849102969419 -0.0031374477142006685 0 -0.03043550790625708 -0.0032788572008843361 0 -0.030730780954369093 -0.0026001428319247441 0 -0.03043550790625708 -0.0032788572008843361 0 -0.030665689409929708 -0.0028581523588766416 0 -0.03038283640492986 -0.0034863589648084993 0 -0.030665689409929708 -0.0028581523588766416 0 -0.03038283640492986 -0.0034863589648084993 0 -0.030629106162243219 -0.0031476363257378751 0 -0.03043550790625708 -0.0032788572008843361 0 -0.03038283640492986 -0.0034863589648084993 0 -0.030152837407614354 -0.0042547052868820478 0 -0.030078489035353439 -0.0049863809610296694 0 -0.03043550790625708 -0.0032788572008843361 0 -0.030152837407614354 -0.0042547052868820478 0 -0.03038283640492986 -0.0034863589648084993 0 -0.030152837407614354 -0.0042547052868820478 0 -0.030229074985296148 -0.0039839846735871716 0 -0.029842841890496265 -0.0052123591163672888 0 -0.030152837407614354 -0.0042547052868820478 0 -0.030229074985296148 -0.0039839846735871716 0 -0.029842841890496265 -0.0052123591163672888 0 -0.030078489035353439 -0.0049863809610296694 0 -0.030152837407614354 -0.0042547052868820478 0 -0.030168665146655785 -0.0042433577717348112 0 -0.030594157598431225 -0.0033156366151939529 0 -0.030543055147326446 -0.0032414081815505835 0 -0.030168665146655785 -0.0042433577717348112 0 -0.030229074985296148 -0.0039839846735871716 0 -0.030594157598431225 -0.0033156366151939529 0 -0.029842841890496265 -0.0052123591163672888 0 -0.030168665146655785 -0.0042433577717348112 0 -0.030229074985296148 -0.0039839846735871716 0 -0.030229074985296148 -0.0039839846735871716 0 -0.030594157598431225 -0.0033156366151939529 0 -0.030629106162243219 -0.0031476363257378751 0 -0.030594157598431225 -0.0033156366151939529 0 -0.030629106162243219 -0.0031476363257378751 0 -0.031168680088886038 -0.0027741956861307301 0 -0.03038283640492986 -0.0034863589648084993 0 -0.030229074985296148 -0.0039839846735871716 0 -0.030629106162243219 -0.0031476363257378751 0 -0.030665689409929708 -0.0028581523588766416 0 -0.030629106162243219 -0.0031476363257378751 0 -0.031080470400384003 -0.0026628565780706663 0 -0.030629106162243219 -0.0031476363257378751 0 -0.031168680088886038 -0.0027741956861307301 0 -0.031080470400384003 -0.0026628565780706663 0 -0.031168680088886038 -0.0027741956861307301 0 -0.031963121272085129 -0.0023862052884077939 0 -0.031080470400384003 -0.0026628565780706663 0 -0.031417593829893495 -0.0026779992601223368 0 -0.031168680088886038 -0.0027741956861307301 0 -0.031963121272085129 -0.0023862052884077939 0 -0.030594157598431225 -0.0033156366151939529 0 -0.031417593829893495 -0.0026779992601223368 0 -0.031168680088886038 -0.0027741956861307301 0 -0.03326897350845489 -0.0018799623809236492 0 -0.031963121272085129 -0.0023862052884077939 0 -0.033306560206037727 -0.0018234068412768597 0 -0.031417593829893495 -0.0026779992601223368 0 -0.03326897350845489 -0.0018799623809236492 0 -0.031963121272085129 -0.0023862052884077939 0 -0.033890735343597413 -0.0019360003659114342 0 -0.034279527640174473 -0.001919568172629072 0 -0.033957277787022525 -0.0017257490070508796 0 -0.033222840631332975 -0.0021320732983802992 0 -0.032201345622903048 -0.00271514876582445 0 -0.03326897350845489 -0.0018799623809236492 0 -0.033890735343597413 -0.0019360003659114342 0 -0.033957277787022525 -0.0017257490070508796 0 -0.03326897350845489 -0.0018799623809236492 0 -0.033890735343597413 -0.0019360003659114342 0 -0.033725401761622496 -0.0020641094753642572 0 -0.030594157598431225 -0.0033156366151939529 0 -0.031417593829893495 -0.0026779992601223368 0 -0.030543055147326446 -0.0032414081815505835 0 -0.031417593829893495 -0.0026779992601223368 0 -0.03326897350845489 -0.0018799623809236492 0 -0.030543055147326446 -0.0032414081815505835 0 -0.033948196901658879 -0.0021119708497833872 0 -0.034644973686309137 -0.0018351202636025473 0 -0.033890735343597413 -0.0019360003659114342 0 -0.033725401761622496 -0.0020641094753642572 0 -0.033304219098303854 -0.00156975900695354 0 -0.033725401761622496 -0.0020641094753642572 0 -0.033073545052121393 -0.0016270035845262145 0 -0.033304219098303854 -0.00156975900695354 0 -0.033890735343597413 -0.0019360003659114342 0 -0.034585377577454259 -0.0021960878824061713 0 -0.034279527640174473 -0.001919568172629072 0 -0.033890735343597413 -0.0019360003659114342 0 -0.034787244206558807 -0.0022891536030343468 0 -0.035555959299240388 -0.0025531082889107075 0 -0.033890735343597413 -0.0019360003659114342 0 -0.034585377577454259 -0.0021960878824061713 0 -0.034787244206558807 -0.0022891536030343468 0 -0.034585377577454259 -0.0021960878824061713 0 -0.034787244206558807 -0.0022891536030343468 0 -0.035008610162199867 -0.0026237013005872526 0 -0.034787244206558807 -0.0022891536030343468 0 -0.035008610162199867 -0.0026237013005872526 0 -0.035555959299240388 -0.0025531082889107075 0 -0.034585377577454259 -0.0021960878824061713 0 -0.035008610162199867 -0.0026237013005872526 0 -0.034593533186500519 -0.002333734013335604 0 -0.035008610162199867 -0.0026237013005872526 0 -0.034870210075272211 -0.0027887928573704702 0 -0.034593533186500519 -0.002333734013335604 0 -0.035008610162199867 -0.0026237013005872526 0 -0.034870210075272211 -0.0027887928573704702 0 -0.03519480773792813 -0.0031986403854826818 0 -0.035008610162199867 -0.0026237013005872526 0 -0.035459381814031882 -0.0030681074238647311 0 -0.03519480773792813 -0.0031986403854826818 0 -0.035008610162199867 -0.0026237013005872526 0 -0.035555959299240388 -0.0025531082889107075 0 -0.035459381814031882 -0.0030681074238647311 0 -0.032834607927459597 -0.0012908797572075677 0 -0.033073545052121393 -0.0016270035845262145 0 -0.033304219098303854 -0.00156975900695354 0 -0.034352966224176461 -0.0025102227601359645 0 -0.034619405925196946 -0.0026831154785071781 0 -0.034393637578007133 -0.0020559467315500778 0 -0.034619405925196946 -0.0026831154785071781 0 -0.034593533186500519 -0.002333734013335604 0 -0.034393637578007133 -0.0020559467315500778 0 -0.034619405925196946 -0.0026831154785071781 0 -0.034870210075272211 -0.0027887928573704702 0 -0.034593533186500519 -0.002333734013335604 0 -0.034279527640174473 -0.001919568172629072 0 -0.034393637578007133 -0.0020559467315500778 0 -0.034340819592310022 -0.0016162181708755138 0 -0.034593533186500519 -0.002333734013335604 0 -0.034279527640174473 -0.001919568172629072 0 -0.034393637578007133 -0.0020559467315500778 0 -0.034585377577454259 -0.0021960878824061713 0 -0.034593533186500519 -0.002333734013335604 0 -0.034279527640174473 -0.001919568172629072 0 -0.034352966224176461 -0.0025102227601359645 0 -0.034393637578007133 -0.0020559467315500778 0 -0.034463586962784121 -0.0019055760609824747 0 -0.034393637578007133 -0.0020559467315500778 0 -0.034340819592310022 -0.0016162181708755138 0 -0.034463586962784121 -0.0019055760609824747 0 -0.034340819592310022 -0.0016162181708755138 0 -0.033957277787022525 -0.0017257490070508796 0 -0.033956643235924712 -0.0015730055446790331 0 -0.034279527640174473 -0.001919568172629072 0 -0.034340819592310022 -0.0016162181708755138 0 -0.033957277787022525 -0.0017257490070508796 0 -0.03326897350845489 -0.0018799623809236492 0 -0.033956643235924712 -0.0015730055446790331 0 -0.033306560206037727 -0.0018234068412768597 0 -0.03326897350845489 -0.0018799623809236492 0 -0.033957277787022525 -0.0017257490070508796 0 -0.033956643235924712 -0.0015730055446790331 0 -0.034340819592310022 -0.0016162181708755138 0 -0.033956643235924712 -0.0015730055446790331 0 -0.034400580689268594 -0.0012315212067118555 0 -0.034340819592310022 -0.0016162181708755138 0 -0.034761423246780394 -0.0012350921994329224 0 -0.034400580689268594 -0.0012315212067118555 0 -0.034761423246780394 -0.0012350921994329224 0 -0.035189741724663354 -0.0013715791733545383 0 -0.035187732072558806 -0.00028808196203691826 0 -0.034761423246780394 -0.0012350921994329224 0 -0.035189741724663354 -0.0013715791733545383 0 -0.034463586962784121 -0.0019055760609824747 0 -0.035189741724663354 -0.0013715791733545383 0 -0.03509438607918091 -0.0019883939143260708 0 -0.034463586962784121 -0.0019055760609824747 0 -0.034340819592310022 -0.0016162181708755138 0 -0.034761423246780394 -0.0012350921994329224 0 -0.034463586962784121 -0.0019055760609824747 0 -0.034999228929111496 -0.00038782677507412388 0 -0.035189741724663354 -0.0013715791733545383 0 -0.035187732072558806 -0.00028808196203691826 0 -0.035189741724663354 -0.0013715791733545383 0 -0.035279661463602979 -0.0018193186876070573 0 -0.03509438607918091 -0.0019883939143260708 0 -0.034999228929111496 -0.00038782677507412388 0 -0.035189741724663354 -0.0013715791733545383 0 -0.035279661463602979 -0.0018193186876070573 0 -0.034999228929111496 -0.00038782677507412388 0 -0.035279661463602979 -0.0018193186876070573 0 -0.034999552035959967 -0.0024803107358547043 0 -0.035279661463602979 -0.0018193186876070573 0 -0.034999552035959967 -0.0024803107358547043 0 -0.035551691508714289 -0.0024932883242518786 0 -0.035279661463602979 -0.0018193186876070573 0 -0.035551691508714289 -0.0024932883242518786 0 -0.03509438607918091 -0.0019883939143260708 0 -0.035551691508714289 -0.0024932883242518786 0 -0.037775667376186296 -0.0042260194731921514 0 -0.036165770514341923 -0.0046469090103859016 0 -0.035903115781725385 -0.0022863282895069963 0 -0.035329890562413022 -0.0036134490082681365 0 -0.035551691508714289 -0.0024932883242518786 0 -0.03509438607918091 -0.0019883939143260708 0 -0.034878738743144858 -0.0014691292891364823 0 -0.034999552035959967 -0.0024803107358547043 0 -0.035551691508714289 -0.0024932883242518786 0 -0.03499964992056992 -0.0045757000051531976 0 -0.035551691508714289 -0.0024932883242518786 0 -0.03499964992056992 -0.0045757000051531976 0 -0.036165770514341923 -0.0046469090103859016 0 -0.03509438607918091 -0.0019883939143260708 0 -0.034463586962784121 -0.0019055760609824747 0 -0.034878738743144858 -0.0014691292891364823 0 -0.034463586962784121 -0.0019055760609824747 0 -0.034016384622354123 -0.0028073534737733203 0 -0.033548237896839216 -0.0027781827692572331 0 -0.034250337403126503 -0.0014631890556785904 0 -0.035329890562413022 -0.0036134490082681365 0 -0.034352966224176461 -0.0025102227601359645 0 -0.034463586962784121 -0.0019055760609824747 0 -0.034016384622354123 -0.0028073534737733203 0 -0.034016384622354123 -0.0028073534737733203 0 -0.033933024735122108 -0.0035503873062345671 0 -0.034520596840343983 -0.0035096577579708352 0 -0.034016384622354123 -0.0028073534737733203 0 -0.033933024735122108 -0.0035503873062345671 0 -0.033548237896839216 -0.0027781827692572331 0 -0.034537342687705613 -0.004708858035036431 0 -0.035329890562413022 -0.0036134490082681365 0 -0.035329890562413022 -0.0036134490082681365 0 -0.036275042591059431 -0.0061220871493305427 0 -0.035300754597724152 -0.0057266715598076308 0 -0.03536583760202431 -0.0057719698735194634 0 -0.035409827809095358 -0.0057560673635699755 0 -0.035300754597724152 -0.0057266715598076308 0 -0.035409827809095358 -0.0057560673635699755 0 -0.035362389411748359 -0.0056063995771828377 0 -0.035300754597724152 -0.0057266715598076308 0 -0.035362389411748359 -0.0056063995771828377 0 -0.034848594794820074 -0.005011453843112113 0 -0.03499964992056992 -0.0045757000051531976 0 -0.036165770514341923 -0.0046469090103859016 0 -0.035702763465419868 -0.0056048658314234124 0 -0.037775667376186296 -0.0042260194731921514 0 -0.036165770514341923 -0.0046469090103859016 0 -0.03695677394135518 -0.0060215101169769723 0 -0.036165770514341923 -0.0046469090103859016 0 -0.03695677394135518 -0.0060215101169769723 0 -0.035702763465419868 -0.0056048658314234124 0 -0.03695677394135518 -0.0060215101169769723 0 -0.035702763465419868 -0.0056048658314234124 0 -0.036301154168131899 -0.0076306567059340477 0 -0.03499964992056992 -0.0045757000051531976 0 -0.035702763465419868 -0.0056048658314234124 0 -0.035000026604591505 -0.006670519548939555 0 -0.035702763465419868 -0.0056048658314234124 0 -0.035000026604591505 -0.006670519548939555 0 -0.036301154168131899 -0.0076306567059340477 0 -0.036275042591059431 -0.0061220871493305427 0 -0.035694466171740769 -0.0070162417652314376 0 -0.035409827809095358 -0.0057560673635699755 0 -0.035059185489018742 -0.0064546019772047459 0 -0.035515927587199278 -0.0061312527284457111 0 -0.035631930905484659 -0.0081148425469970108 0 -0.034832893495140578 -0.0081871524377116287 0 -0.035059185489018742 -0.0064546019772047459 0 -0.035631930905484659 -0.0081148425469970108 0 -0.035059185489018742 -0.0064546019772047459 0 -0.03617374051713617 -0.0072145007698888415 0 -0.035289616431962177 -0.008689913122756833 0 -0.035694466171740769 -0.0070162417652314376 0 -0.035652665942669158 -0.0092404675384687059 0 -0.034999984691667804 -0.0087649278455443486 0 -0.036301154168131899 -0.0076306567059340477 0 -0.034999984691667804 -0.0087649278455443486 0 -0.035000026604591505 -0.006670519548939555 0 -0.036301154168131899 -0.0076306567059340477 0 -0.035362389411748359 -0.0056063995771828377 0 -0.034972599386016885 -0.0057669028865087431 0 -0.035038173998292566 -0.0055036616981996309 0 -0.035409827809095358 -0.0057560673635699755 0 -0.035362389411748359 -0.0056063995771828377 0 -0.035515927587199278 -0.0061312527284457111 0 -0.035362389411748359 -0.0056063995771828377 0 -0.035515927587199278 -0.0061312527284457111 0 -0.03617374051713617 -0.0072145007698888415 0 -0.035059185489018742 -0.0064546019772047459 0 -0.035515927587199278 -0.0061312527284457111 0 -0.03617374051713617 -0.0072145007698888415 0 -0.035359749967410502 -0.0058536706844512587 0 -0.035369492254231846 -0.0063484954430031359 0 -0.035362389411748359 -0.0056063995771828377 0 -0.034664445128484676 -0.0058410107421868395 0 -0.034972599386016885 -0.0057669028865087431 0 -0.035146273182294269 -0.0058015898179225815 0 -0.035038173998292566 -0.0055036616981996309 0 -0.035183524245246039 -0.0054462670880533947 0 -0.034972599386016885 -0.0057669028865087431 0 -0.035146273182294269 -0.0058015898179225815 0 -0.035038173998292566 -0.0055036616981996309 0 -0.035362389411748359 -0.0056063995771828377 0 -0.035038173998292566 -0.0055036616981996309 0 -0.034848594794820074 -0.005011453843112113 0 -0.035038173998292566 -0.0055036616981996309 0 -0.035183524245246039 -0.0054462670880533947 0 -0.034848594794820074 -0.005011453843112113 0 -0.035381357282844902 -0.0048911767056611039 0 -0.035183524245246039 -0.0054462670880533947 0 -0.034848594794820074 -0.005011453843112113 0 -0.035381357282844902 -0.0048911767056611039 0 -0.035183524245246039 -0.0054462670880533947 0 -0.035484161405793906 -0.0053865806965429164 0 -0.035183524245246039 -0.0054462670880533947 0 -0.035484161405793906 -0.0053865806965429164 0 -0.035506974052492181 -0.0058065293189038247 0 -0.035146273182294269 -0.0058015898179225815 0 -0.035183524245246039 -0.0054462670880533947 0 -0.035506974052492181 -0.0058065293189038247 0 -0.035327959885776118 -0.0060762689903379897 0 -0.035146273182294269 -0.0058015898179225815 0 -0.035506974052492181 -0.0058065293189038247 0 -0.03386582913994908 -0.0094944079861859453 0 -0.032379726143365026 -0.012386907902166141 0 -0.03386582913994908 -0.0094944079861859453 0 -0.03472441887953738 -0.0071101818952367226 0 -0.03338429722339268 -0.0097691658401017258 0 -0.033820341623286676 -0.0089347216732857636 0 -0.03352113802458781 -0.0089599587833868247 0 -0.03576469148935401 -0.0061319366396340672 0 -0.035506974052492181 -0.0058065293189038247 0 -0.035847134276055639 -0.0055810718894147796 0 -0.035484161405793906 -0.0053865806965429164 0 -0.035506974052492181 -0.0058065293189038247 0 -0.035847134276055639 -0.0055810718894147796 0 -0.031908531383852259 -0.014668670812683676 0 -0.031857061389033922 -0.013898137793298581 0 -0.032258311208440325 -0.014249412542038367 0 -0.031857061389033922 -0.013898137793298581 0 -0.032258311208440325 -0.014249412542038367 0 -0.032208763525685531 -0.013855277841203691 0 -0.0324961209848127 -0.013822382192073749 0 -0.032258311208440325 -0.014249412542038367 0 -0.032208763525685531 -0.013855277841203691 0 -0.031857061389033922 -0.013898137793298581 0 -0.032208763525685531 -0.013855277841203691 0 -0.032234929419221008 -0.013508072808284081 0 -0.032208763525685531 -0.013855277841203691 0 -0.032324801021067801 -0.013704315807370944 0 -0.032234929419221008 -0.013508072808284081 0 -0.033820341623286676 -0.0089347216732857636 0 -0.034276066481082987 -0.0080827701286808381 0 -0.033671503740726638 -0.0081361053099464984 0 -0.032379726143365026 -0.012386907902166141 0 -0.033417468692291216 -0.0082961216876561474 0 -0.032436010529889779 -0.013784070583781075 0 -0.032208763525685531 -0.013855277841203691 0 -0.032324801021067801 -0.013704315807370944 0 -0.0324961209848127 -0.013822382192073749 0 -0.032436010529889779 -0.013784070583781075 0 -0.032208763525685531 -0.013855277841203691 0 -0.033417468692291216 -0.0082961216876561474 0 -0.0350285426651969 -0.0057933751709386711 0 -0.032409190606951133 -0.013684688267651591 0 -0.032324801021067801 -0.013704315807370944 0 -0.032234929419221008 -0.013508072808284081 0 -0.035484161405793906 -0.0053865806965429164 0 -0.035847134276055639 -0.0055810718894147796 0 -0.035975448869685761 -0.0048713707859021288 0 -0.033820341623286676 -0.0089347216732857636 0 -0.03352113802458781 -0.0089599587833868247 0 -0.033671503740726638 -0.0081361053099464984 0 -0.03472441887953738 -0.0071101818952367226 0 -0.0350285426651969 -0.0057933751709386711 0 -0.035704999254822276 -0.0049702300843704247 0 -0.0350285426651969 -0.0057933751709386711 0 -0.035381357282844902 -0.0048911767056611039 0 -0.035484161405793906 -0.0053865806965429164 0 -0.035975448869685761 -0.0048713707859021288 0 -0.035381357282844902 -0.0048911767056611039 0 -0.035839892393569807 -0.0046718471091368287 0 -0.035358422657231561 -0.004040070359615352 0 -0.0350285426651969 -0.0057933751709386711 0 -0.035506997576843558 -0.0037049513437192737 0 -0.035839892393569807 -0.0046718471091368287 0 -0.035777512266426378 -0.0038514657605949057 0 -0.035358422657231561 -0.004040070359615352 0 -0.036182029653850721 -0.0039575570328626618 0 -0.03579411392029077 -0.0046870770980642958 0 -0.035216233191720341 -0.0038769246205999411 0 -0.032707179615970104 -0.0039389180521977249 0 -0.033417468692291216 -0.0082961216876561474 0 -0.030942795854191924 -0.0094482140602332385 0 -0.033417468692291216 -0.0082961216876561474 0 -0.032494952519844245 -0.0063010169591315064 0 -0.03299585709642535 -0.0077215089319815538 0 -0.031654523160244863 -0.0078508966484940063 0 -0.03579411392029077 -0.0046870770980642958 0 -0.035029753047354652 -0.0047656277192925246 0 -0.035216233191720341 -0.0038769246205999411 0 -0.036182029653850721 -0.0039575570328626618 0 -0.035555959299240388 -0.0025531082889107075 0 -0.035617192098023061 -0.0033516628517629211 0 -0.032707179615970104 -0.0039389180521977249 0 -0.034644973686309137 -0.0018351202636025473 0 -0.032834607927459597 -0.0012908797572075677 0 -0.033025943867404477 -0.0009631449082913334 0 -0.033304219098303854 -0.00156975900695354 0 -0.035555959299240388 -0.0025531082889107075 0 -0.035459381814031882 -0.0030681074238647311 0 -0.035617192098023061 -0.0033516628517629211 0 -0.036182029653850721 -0.0039575570328626618 0 -0.035216233191720341 -0.0038769246205999411 0 -0.035617192098023061 -0.0033516628517629211 0 -0.035216233191720341 -0.0038769246205999411 0 -0.035459381814031882 -0.0030681074238647311 0 -0.035617192098023061 -0.0033516628517629211 0 -0.035777512266426378 -0.0038514657605949057 0 -0.035358422657231561 -0.004040070359615352 0 -0.03519480773792813 -0.0031986403854826818 0 -0.035506997576843558 -0.0037049513437192737 0 -0.035488333920740064 -0.0032831714618065636 0 -0.035777512266426378 -0.0038514657605949057 0 -0.035459381814031882 -0.0030681074238647311 0 -0.03519480773792813 -0.0031986403854826818 0 -0.034619405925196946 -0.0026831154785071781 0 -0.034870210075272211 -0.0027887928573704702 0 -0.034940823813490493 -0.003376027304737495 0 -0.034870210075272211 -0.0027887928573704702 0 -0.03519480773792813 -0.0031986403854826818 0 -0.034940823813490493 -0.003376027304737495 0 -0.034619405925196946 -0.0026831154785071781 0 -0.034940823813490493 -0.003376027304737495 0 -0.034520596840343983 -0.0035096577579708352 0 -0.035358422657231561 -0.004040070359615352 0 -0.03519480773792813 -0.0031986403854826818 0 -0.034940823813490493 -0.003376027304737495 0 -0.034940823813490493 -0.003376027304737495 0 -0.034520596840343983 -0.0035096577579708352 0 -0.035050760195610854 -0.004177648409587828 0 -0.034352966224176461 -0.0025102227601359645 0 -0.034619405925196946 -0.0026831154785071781 0 -0.034520596840343983 -0.0035096577579708352 0 -0.034352966224176461 -0.0025102227601359645 0 -0.034016384622354123 -0.0028073534737733203 0 -0.034520596840343983 -0.0035096577579708352 0 -0.033933024735122108 -0.0035503873062345671 0 -0.034520596840343983 -0.0035096577579708352 0 -0.034848594794820074 -0.005011453843112113 0 -0.034537342687705613 -0.004708858035036431 0 -0.034912724778953519 -0.0049996797637672039 0 -0.034520596840343983 -0.0035096577579708352 0 -0.034848594794820074 -0.005011453843112113 0 -0.035050760195610854 -0.004177648409587828 0 -0.035381357282844902 -0.0048911767056611039 0 -0.034848594794820074 -0.005011453843112113 0 -0.035050760195610854 -0.004177648409587828 0 -0.035381357282844902 -0.0048911767056611039 0 -0.035358422657231561 -0.004040070359615352 0 -0.035050760195610854 -0.004177648409587828 0 -0.035358422657231561 -0.004040070359615352 0 -0.034940823813490493 -0.003376027304737495 0 -0.035050760195610854 -0.004177648409587828 0 -0.017590966875368232 -0.017163480960794803 0 -0.01719502467274308 -0.016795745451880898 0 -0.016689773563432708 -0.017324902603216417 0 -0.017590966875368232 -0.017163480960794803 0 -0.016689773563432708 -0.017324902603216417 0 -0.017435061088874909 -0.018073138035997201 0 -0.017590966875368232 -0.017163480960794803 0 -0.017435061088874909 -0.018073138035997201 0 -0.018039054262339357 -0.017370659329005184 0 -0.017590966875368232 -0.017163480960794803 0 -0.018039054262339357 -0.017370659329005184 0 -0.017990768012940608 -0.01677923325090435 0 -0.017532147775217041 -0.016426841409402131 0 -0.017990768012940608 -0.01677923325090435 0 -0.017918119536407321 -0.016044886501426225 0 -0.017590966875368232 -0.017163480960794803 0 -0.017532147775217041 -0.016426841409402131 0 -0.01719502467274308 -0.016795745451880898 0 -0.017590966875368232 -0.017163480960794803 0 -0.017532147775217041 -0.016426841409402131 0 -0.017990768012940608 -0.01677923325090435 0 -0.01719502467274308 -0.016795745451880898 0 -0.017039122587605517 -0.016224449370924182 0 -0.016689773563432708 -0.017324902603216417 0 -0.017532147775217041 -0.016426841409402131 0 -0.01719502467274308 -0.016795745451880898 0 -0.017039122587605517 -0.016224449370924182 0 -0.017039122587605517 -0.016224449370924182 0 -0.015932041397425489 -0.016402501648491351 0 -0.017011055959383216 -0.015373812895088521 0 -0.017039122587605517 -0.016224449370924182 0 -0.015932041397425489 -0.016402501648491351 0 -0.016689773563432708 -0.017324902603216417 0 -0.016733444616351959 -0.015474489737416927 0 -0.016706806243287159 -0.016731612953804098 0 -0.017501156796739758 -0.014421425748535594 0 -0.017829651829373804 -0.015510196209123637 0 -0.017245250347556099 -0.014819703274330416 0 -0.015932041397425489 -0.016402501648491351 0 -0.016689773563432708 -0.017324902603216417 0 -0.01565463295745621 -0.017984181307095323 0 -0.01565463295745621 -0.017984181307095323 0 -0.015907710255290485 -0.018599828436631466 0 -0.016308681240482688 -0.018369606742172452 0 -0.016689773563432708 -0.017324902603216417 0 -0.01565463295745621 -0.017984181307095323 0 -0.016308681240482688 -0.018369606742172452 0 -0.01565463295745621 -0.017984181307095323 0 -0.015907710255290485 -0.018599828436631466 0 -0.016389348518082103 -0.018193755617932159 0 -0.017829651829373804 -0.015510196209123637 0 -0.016389348518082103 -0.018193755617932159 0 -0.016793687340595869 -0.01689220979861239 0 -0.016706806243287159 -0.016731612953804098 0 -0.016447787030479024 -0.018015205483936467 0 -0.015907710255290485 -0.018599828436631466 0 -0.016389348518082103 -0.018193755617932159 0 -0.015856933364121802 -0.01919472248790801 0 -0.015907710255290485 -0.018599828436631466 0 -0.016012526133691345 -0.019230455013075378 0 -0.015735497135938172 -0.01955170316778114 0 -0.015907710255290485 -0.018599828436631466 0 -0.016308681240482688 -0.018369606742172452 0 -0.016012526133691345 -0.019230455013075378 0 -0.016308681240482688 -0.018369606742172452 0 -0.016012526133691345 -0.019230455013075378 0 -0.016745531982060413 -0.019043213405286544 0 -0.016308681240482688 -0.018369606742172452 0 -0.016745531982060413 -0.019043213405286544 0 -0.017435061088874909 -0.018073138035997201 0 -0.016689773563432708 -0.017324902603216417 0 -0.016308681240482688 -0.018369606742172452 0 -0.017435061088874909 -0.018073138035997201 0 -0.017435061088874909 -0.018073138035997201 0 -0.018016272453224215 -0.018540197455335625 0 -0.017688247009996622 -0.019455684935409012 0 -0.016745531982060413 -0.019043213405286544 0 -0.017435061088874909 -0.018073138035997201 0 -0.017688247009996622 -0.019455684935409012 0 -0.018016272453224215 -0.018540197455335625 0 -0.018579557330804328 -0.018126574993663581 0 -0.018199689251352121 -0.017879232416137376 0 -0.018016272453224215 -0.018540197455335625 0 -0.018579557330804328 -0.018126574993663581 0 -0.018370277148235723 -0.018700167180854876 0 -0.018579557330804328 -0.018126574993663581 0 -0.018818453988158356 -0.018224032312830006 0 -0.018370277148235723 -0.018700167180854876 0 -0.018579557330804328 -0.018126574993663581 0 -0.018544282564183889 -0.017674413311059303 0 -0.018199689251352121 -0.017879232416137376 0 -0.018544282564183889 -0.017674413311059303 0 -0.018199689251352121 -0.017879232416137376 0 -0.018387769488174738 -0.017182560564620072 0 -0.018579557330804328 -0.018126574993663581 0 -0.018544282564183889 -0.017674413311059303 0 -0.018728440504480078 -0.01777835500159634 0 -0.017435061088874909 -0.018073138035997201 0 -0.018016272453224215 -0.018540197455335625 0 -0.018199689251352121 -0.017879232416137376 0 -0.017435061088874909 -0.018073138035997201 0 -0.018199689251352121 -0.017879232416137376 0 -0.018039054262339357 -0.017370659329005184 0 -0.010583969036932509 -0.023709903151386082 0 -0.013793928158290995 -0.022107051722903635 0 -0.015318523787445327 -0.020485088034685937 0 -0.013793928158290995 -0.022107051722903635 0 -0.010834155150483051 -0.023804915658690994 0 -0.011283374315875883 -0.023970327849676249 0 -0.01107352763011336 -0.023816241331038615 0 -0.018941590271672942 -0.017775925883941546 0 -0.018872049632428507 -0.017870790662178223 0 -0.018818453988158356 -0.018224032312830006 0 -0.011239432709360335 -0.023574286557947976 0 -0.011196211347442206 -0.023358265985874573 0 -0.011852317808263558 -0.023216042474451509 0 -0.010834155150483051 -0.023804915658690994 0 -0.010924063318035672 -0.023750112368579698 0 -0.01107352763011336 -0.023816241331038615 0 -0.018872049632428507 -0.017870790662178223 0 -0.018821328233741341 -0.017976289018225934 0 -0.018818453988158356 -0.018224032312830006 0 -0.018821328233741341 -0.017976289018225934 0 -0.018818453988158356 -0.018224032312830006 0 -0.018757121001751538 -0.018006205148274994 0 -0.018872049632428507 -0.017870790662178223 0 -0.018821328233741341 -0.017976289018225934 0 -0.018824090581639551 -0.017821598307519705 0 -0.018821328233741341 -0.017976289018225934 0 -0.018757121001751538 -0.018006205148274994 0 -0.018824090581639551 -0.017821598307519705 0 -0.018579557330804328 -0.018126574993663581 0 -0.018818453988158356 -0.018224032312830006 0 -0.018757121001751538 -0.018006205148274994 0 -0.018579557330804328 -0.018126574993663581 0 -0.018757121001751538 -0.018006205148274994 0 -0.018728440504480078 -0.01777835500159634 0 -0.018757121001751538 -0.018006205148274994 0 -0.018728440504480078 -0.01777835500159634 0 -0.018824090581639551 -0.017821598307519705 0 -0.018544282564183889 -0.017674413311059303 0 -0.018728440504480078 -0.01777835500159634 0 -0.018719504646385561 -0.017550448275959873 0 -0.018728440504480078 -0.01777835500159634 0 -0.018719504646385561 -0.017550448275959873 0 -0.018835000471351167 -0.017541762788136905 0 -0.018728440504480078 -0.01777835500159634 0 -0.018835000471351167 -0.017541762788136905 0 -0.018824090581639551 -0.017821598307519705 0 -0.018941590271672942 -0.017775925883941546 0 -0.01889414912267131 -0.017670480576885604 0 -0.018883457717291 -0.017530853485568963 0 -0.018941590271672942 -0.017775925883941546 0 -0.018872049632428507 -0.017870790662178223 0 -0.01889414912267131 -0.017670480576885604 0 -0.018872049632428507 -0.017870790662178223 0 -0.018824090581639551 -0.017821598307519705 0 -0.01889414912267131 -0.017670480576885604 0 -0.018835000471351167 -0.017541762788136905 0 -0.018824090581639551 -0.017821598307519705 0 -0.01889414912267131 -0.017670480576885604 0 -0.018835000471351167 -0.017541762788136905 0 -0.01889414912267131 -0.017670480576885604 0 -0.018881436928832943 -0.017484403904749288 0 -0.01889414912267131 -0.017670480576885604 0 -0.018881436928832943 -0.017484403904749288 0 -0.018883457717291 -0.017530853485568963 0 -0.018881436928832943 -0.017484403904749288 0 -0.018869540422374351 -0.017304698663418008 0 -0.018875537375699122 -0.017371559983697674 0 -0.018881436928832943 -0.017484403904749288 0 -0.018883457717291 -0.017530853485568963 0 -0.018875537375699122 -0.017371559983697674 0 -0.018835000471351167 -0.017541762788136905 0 -0.018881436928832943 -0.017484403904749288 0 -0.018869540422374351 -0.017304698663418008 0 -0.018835000471351167 -0.017541762788136905 0 -0.018869540422374351 -0.017304698663418008 0 -0.018808202535667784 -0.017243967918180048 0 -0.018719504646385561 -0.017550448275959873 0 -0.018835000471351167 -0.017541762788136905 0 -0.018808202535667784 -0.017243967918180048 0 -0.018719504646385561 -0.017550448275959873 0 -0.018808202535667784 -0.017243967918180048 0 -0.018659665646704168 -0.017289071401822117 0 -0.018808202535667784 -0.017243967918180048 0 -0.018781709002861559 -0.016839162507373481 0 -0.018659665646704168 -0.017289071401822117 0 -0.018781709002861559 -0.016839162507373481 0 -0.018827496368765222 -0.017089829110558338 0 -0.018784868954788134 -0.016935204565930617 0 -0.018808202535667784 -0.017243967918180048 0 -0.018781709002861559 -0.016839162507373481 0 -0.018827496368765222 -0.017089829110558338 0 -0.018869540422374351 -0.017304698663418008 0 -0.018808202535667784 -0.017243967918180048 0 -0.018827496368765222 -0.017089829110558338 0 -0.018869540422374351 -0.017304698663418008 0 -0.018827496368765222 -0.017089829110558338 0 -0.018889026525051734 -0.017232488847777595 0 -0.018827496368765222 -0.017089829110558338 0 -0.018889026525051734 -0.017232488847777595 0 -0.018784868954788134 -0.016935204565930617 0 -0.018869540422374351 -0.017304698663418008 0 -0.018889026525051734 -0.017232488847777595 0 -0.018875537375699122 -0.017371559983697674 0 -0.018199689251352121 -0.017879232416137376 0 -0.018039054262339357 -0.017370659329005184 0 -0.018387769488174738 -0.017182560564620072 0 -0.018039054262339357 -0.017370659329005184 0 -0.018387769488174738 -0.017182560564620072 0 -0.017990768012940608 -0.01677923325090435 0 -0.018544282564183889 -0.017674413311059303 0 -0.018659665646704168 -0.017289071401822117 0 -0.018387769488174738 -0.017182560564620072 0 -0.018544282564183889 -0.017674413311059303 0 -0.018719504646385561 -0.017550448275959873 0 -0.018659665646704168 -0.017289071401822117 0 -0.018781709002861559 -0.016839162507373481 0 -0.018659665646704168 -0.017289071401822117 0 -0.018387769488174738 -0.017182560564620072 0 -0.018781709002861559 -0.016839162507373481 0 -0.018387769488174738 -0.017182560564620072 0 -0.018365274633691114 -0.016475101072057866 0 -0.018365274633691114 -0.016475101072057866 0 -0.017990768012940608 -0.01677923325090435 0 -0.017918119536407321 -0.016044886501426225 0 -0.018387769488174738 -0.017182560564620072 0 -0.018365274633691114 -0.016475101072057866 0 -0.017990768012940608 -0.01677923325090435 0 -0.018365274633691114 -0.016475101072057866 0 -0.017918119536407321 -0.016044886501426225 0 -0.018354137100105933 -0.015668702025511277 0 -0.017918119536407321 -0.016044886501426225 0 -0.017950388439097836 -0.015407015794149886 0 -0.018354137100105933 -0.015668702025511277 0 -0.018365274633691114 -0.016475101072057866 0 -0.018831375312500627 -0.015935379108637161 0 -0.018354137100105933 -0.015668702025511277 0 -0.018744435495580244 -0.016600288526867072 0 -0.018849151342052384 -0.016834522430156637 0 -0.018781709002861559 -0.016839162507373481 0 -0.018365274633691114 -0.016475101072057866 0 -0.018831375312500627 -0.015935379108637161 0 -0.018849151342052384 -0.016834522430156637 0 -0.015553484094988088 -0.014029530323295443 0 -0.018831375312500627 -0.015935379108637161 0 -0.018688845254039896 -0.015146464212807574 0 -0.018354137100105933 -0.015668702025511277 0 -0.018688845254039896 -0.015146464212807574 0 -0.018417627310225015 -0.015093027919969696 0 -0.018354137100105933 -0.015668702025511277 0 -0.018672529332920469 -0.015116564657667624 0 -0.018417627310225015 -0.015093027919969696 0 -0.018313577454841728 -0.014717595958064529 0 -0.015553484094988088 -0.014029530323295443 0 -0.018013290521447928 -0.014568309109553928 0 -0.018417627310225015 -0.015093027919969696 0 -0.018168687180089054 -0.015247401626063492 0 -0.018051430782327248 -0.014915684549803939 0 -0.017950388439097836 -0.015407015794149886 0 -0.018051430782327248 -0.014915684549803939 0 -0.01766105365744312 -0.014903759214165363 0 -0.018168687180089054 -0.015247401626063492 0 -0.017950388439097836 -0.015407015794149886 0 -0.018051430782327248 -0.014915684549803939 0 -0.018417627310225015 -0.015093027919969696 0 -0.018168687180089054 -0.015247401626063492 0 -0.018354137100105933 -0.015668702025511277 0 -0.018168687180089054 -0.015247401626063492 0 -0.017950388439097836 -0.015407015794149886 0 -0.018354137100105933 -0.015668702025511277 0 -0.018889026525051734 -0.017232488847777595 0 -0.018784868954788134 -0.016935204565930617 0 -0.018977047747646015 -0.016949984545783232 0 -0.018784868954788134 -0.016935204565930617 0 -0.018771633936079536 -0.016762082492441113 0 -0.018977047747646015 -0.016949984545783232 0 -0.018676696235708747 -0.016848300123720975 0 -0.018784868954788134 -0.016935204565930617 0 -0.018771633936079536 -0.016762082492441113 0 -0.018781709002861559 -0.016839162507373481 0 -0.018676696235708747 -0.016848300123720975 0 -0.018784868954788134 -0.016935204565930617 0 -0.015553484094988088 -0.014029530323295443 0 -0.014535137455214694 -0.014098098060531809 0 -0.0098237108979105005 -0.01149105447170817 0 -0.010962911966717739 -0.011605642992681567 0 -0.010780997753372551 -0.01090487411220707 0 -0.018676696235708747 -0.016848300123720975 0 -0.018604489269977372 -0.016717122175996975 0 -0.018771633936079536 -0.016762082492441113 0 -0.014535137455214694 -0.014098098060531809 0 -0.015748355124104493 -0.014909876471670582 0 -0.010780997753372551 -0.01090487411220707 0 -0.01118324637252812 -0.010278785515577865 0 -0.011631109446378834 -0.010965821451195549 0 -0.010962911966717739 -0.011605642992681567 0 -0.010780997753372551 -0.01090487411220707 0 -0.011631109446378834 -0.010965821451195549 0 -0.0098237108979105005 -0.01149105447170817 0 -0.010780997753372551 -0.01090487411220707 0 -0.010268870923373826 -0.010359190815337375 0 -0.010268870923373826 -0.010359190815337375 0 -0.01118324637252812 -0.010278785515577865 0 -0.010523961463872548 -0.0095718096964765315 0 -0.010780997753372551 -0.01090487411220707 0 -0.010268870923373826 -0.010359190815337375 0 -0.01118324637252812 -0.010278785515577865 0 -0.011150249640186311 -0.010294602253438674 0 -0.01193629985974657 -0.009535224899522866 0 -0.018672529332920469 -0.015116564657667624 0 -0.018313577454841728 -0.014717595958064529 0 -0.018356667401227357 -0.013987538470188205 0 -0.018077823346819694 -0.014470903958375424 0 -0.018313577454841728 -0.014717595958064529 0 -0.018356667401227357 -0.013987538470188205 0 -0.018077823346819694 -0.014470903958375424 0 -0.017845451066300314 -0.014106480689436349 0 -0.017822428583161038 -0.014562874737829518 0 -0.018077823346819694 -0.014470903958375424 0 -0.018051430782327248 -0.014915684549803939 0 -0.018313577454841728 -0.014717595958064529 0 -0.018077823346819694 -0.014470903958375424 0 -0.018051430782327248 -0.014915684549803939 0 -0.017822428583161038 -0.014562874737829518 0 -0.018417627310225015 -0.015093027919969696 0 -0.018051430782327248 -0.014915684549803939 0 -0.018313577454841728 -0.014717595958064529 0 -0.0098237108979105005 -0.01149105447170817 0 -0.010268870923373826 -0.010359190815337375 0 -0.0093831183292096658 -0.010240316963726417 0 -0.015553484094988088 -0.014029530323295443 0 -0.01347138037191711 -0.011805729482901201 0 -0.010268870923373826 -0.010359190815337375 0 -0.0093831183292096658 -0.010240316963726417 0 -0.0099139978244183139 -0.0096738527697938208 0 -0.018077823346819694 -0.014470903958375424 0 -0.018356667401227357 -0.013987538470188205 0 -0.017845451066300314 -0.014106480689436349 0 -0.017839824972077638 -0.013952323220364431 0 -0.017722847224555437 -0.013632335150253137 0 -0.018356667401227357 -0.013987538470188205 0 -0.017845451066300314 -0.014106480689436349 0 -0.017849709572528655 -0.013383069427876043 0 -0.017509098106950796 -0.013808421179155917 0 -0.017093001463876389 -0.014163560262200578 0 -0.017495147715240456 -0.014406162081159751 0 -0.017845451066300314 -0.014106480689436349 0 -0.017509098106950796 -0.013808421179155917 0 -0.017942096839108496 -0.01356524706721573 0 -0.017845451066300314 -0.014106480689436349 0 -0.017509098106950796 -0.013808421179155917 0 -0.017495147715240456 -0.014406162081159751 0 -0.017224687083429467 -0.014573819495802125 0 -0.017154746131626399 -0.014858584748262614 0 -0.017091107012453272 -0.014565799382201917 0 -0.017093001463876389 -0.014163560262200578 0 -0.017495147715240456 -0.014406162081159751 0 -0.017154746131626399 -0.014858584748262614 0 -0.017167065376070854 -0.014329335790088901 0 -0.017148036519248362 -0.014826614854329425 0 -0.017495147715240456 -0.014406162081159751 0 -0.01766105365744312 -0.014903759214165363 0 -0.017154746131626399 -0.014858584748262614 0 -0.017845451066300314 -0.014106480689436349 0 -0.017822428583161038 -0.014562874737829518 0 -0.017495147715240456 -0.014406162081159751 0 -0.017822428583161038 -0.014562874737829518 0 -0.017495147715240456 -0.014406162081159751 0 -0.01766105365744312 -0.014903759214165363 0 -0.018051430782327248 -0.014915684549803939 0 -0.017822428583161038 -0.014562874737829518 0 -0.01766105365744312 -0.014903759214165363 0 -0.017950388439097836 -0.015407015794149886 0 -0.01766105365744312 -0.014903759214165363 0 -0.017457689017514464 -0.015546194304491126 0 -0.01766105365744312 -0.014903759214165363 0 -0.017154746131626399 -0.014858584748262614 0 -0.017457689017514464 -0.015546194304491126 0 -0.017154746131626399 -0.014858584748262614 0 -0.017457689017514464 -0.015546194304491126 0 -0.017011055959383216 -0.015373812895088521 0 -0.017532147775217041 -0.016426841409402131 0 -0.017039122587605517 -0.016224449370924182 0 -0.017457689017514464 -0.015546194304491126 0 -0.017039122587605517 -0.016224449370924182 0 -0.017457689017514464 -0.015546194304491126 0 -0.017011055959383216 -0.015373812895088521 0 -0.017532147775217041 -0.016426841409402131 0 -0.017918119536407321 -0.016044886501426225 0 -0.017457689017514464 -0.015546194304491126 0 -0.017918119536407321 -0.016044886501426225 0 -0.017950388439097836 -0.015407015794149886 0 -0.017457689017514464 -0.015546194304491126 0 -0.017501156796739758 -0.014421425748535594 0 -0.016821651976841875 -0.014807863483192438 0 -0.017313315749682624 -0.014352797509988637 0 -0.016733444616351959 -0.015474489737416927 0 -0.016800194726161986 -0.014892513147991998 0 -0.015932041397425489 -0.016402501648491351 0 -0.017011055959383216 -0.015373812895088521 0 -0.016821651976841875 -0.014807863483192438 0 -0.017154746131626399 -0.014858584748262614 0 -0.017011055959383216 -0.015373812895088521 0 -0.016821651976841875 -0.014807863483192438 0 -0.017154746131626399 -0.014858584748262614 0 -0.016821651976841875 -0.014807863483192438 0 -0.017003109661848623 -0.014648505937803027 0 -0.016821651976841875 -0.014807863483192438 0 -0.017313315749682624 -0.014352797509988637 0 -0.017162991996302147 -0.014498333846175821 0 -0.016821651976841875 -0.014807863483192438 0 -0.017003109661848623 -0.014648505937803027 0 -0.017162991996302147 -0.014498333846175821 0 -0.017003109661848623 -0.014648505937803027 0 -0.017157719847044603 -0.014507730365878525 0 -0.017091107012453272 -0.014565799382201917 0 -0.017003109661848623 -0.014648505937803027 0 -0.017157719847044603 -0.014507730365878525 0 -0.017162991996302147 -0.014498333846175821 0 -0.017154746131626399 -0.014858584748262614 0 -0.017003109661848623 -0.014648505937803027 0 -0.017091107012453272 -0.014565799382201917 0 -0.017091107012453272 -0.014565799382201917 0 -0.017196602874516728 -0.01453127423498886 0 -0.017164472181075516 -0.0145189877604352 0 -0.017224687083429467 -0.014573819495802125 0 -0.017091107012453272 -0.014565799382201917 0 -0.017164472181075516 -0.0145189877604352 0 -0.017157719847044603 -0.014507730365878525 0 -0.017091107012453272 -0.014565799382201917 0 -0.017200633531149593 -0.014507177923903814 0 -0.017091107012453272 -0.014565799382201917 0 -0.017200633531149593 -0.014507177923903814 0 -0.017196602874516728 -0.01453127423498886 0 -0.017200633531149593 -0.014507177923903814 0 -0.017311612785007764 -0.014528359346934359 0 -0.017196602874516728 -0.01453127423498886 0 -0.017200633531149593 -0.014507177923903814 0 -0.017311612785007764 -0.014528359346934359 0 -0.017299067823525138 -0.014450087376984435 0 -0.017311612785007764 -0.014528359346934359 0 -0.017422473225177895 -0.014401218159227153 0 -0.017422196239036652 -0.014517060461249233 0 -0.017311612785007764 -0.014528359346934359 0 -0.017299067823525138 -0.014450087376984435 0 -0.017422473225177895 -0.014401218159227153 0 -0.017299067823525138 -0.014450087376984435 0 -0.017325209030981854 -0.01435704313613966 0 -0.017422473225177895 -0.014401218159227153 0 -0.017157719847044603 -0.014507730365878525 0 -0.017200633531149593 -0.014507177923903814 0 -0.017299067823525138 -0.014450087376984435 0 -0.017325209030981854 -0.01435704313613966 0 -0.017162991996302147 -0.014498333846175821 0 -0.017404848438569442 -0.014206007414228772 0 -0.017157719847044603 -0.014507730365878525 0 -0.017299067823525138 -0.014450087376984435 0 -0.017325209030981854 -0.01435704313613966 0 -0.017157719847044603 -0.014507730365878525 0 -0.017325209030981854 -0.01435704313613966 0 -0.017162991996302147 -0.014498333846175821 0 -0.017525988018739089 -0.014181004966857428 0 -0.017618766497757107 -0.013964518334836439 0 -0.017404848438569442 -0.014206007414228772 0 -0.017325209030981854 -0.01435704313613966 0 -0.017525988018739089 -0.014181004966857428 0 -0.017404848438569442 -0.014206007414228772 0 -0.017325209030981854 -0.01435704313613966 0 -0.017525988018739089 -0.014181004966857428 0 -0.017422473225177895 -0.014401218159227153 0 -0.017525988018739089 -0.014181004966857428 0 -0.017422473225177895 -0.014401218159227153 0 -0.017663372834995712 -0.014282547827706348 0 -0.017422473225177895 -0.014401218159227153 0 -0.017595836604995613 -0.014514459506260784 0 -0.017422196239036652 -0.014517060461249233 0 -0.017422473225177895 -0.014401218159227153 0 -0.017663372834995712 -0.014282547827706348 0 -0.017595836604995613 -0.014514459506260784 0 -0.017663372834995712 -0.014282547827706348 0 -0.017967897254302787 -0.014215063768807535 0 -0.017882114666764481 -0.013912124082164253 0 -0.01774771094451873 -0.014408186109649852 0 -0.017663372834995712 -0.014282547827706348 0 -0.017595836604995613 -0.014514459506260784 0 -0.01774771094451873 -0.014408186109649852 0 -0.017967897254302787 -0.014215063768807535 0 -0.017919391592762835 -0.014529124364475985 0 -0.01774771094451873 -0.014408186109649852 0 -0.017663372834995712 -0.014282547827706348 0 -0.017967897254302787 -0.014215063768807535 0 -0.017967897254302787 -0.014215063768807535 0 -0.0184551926677116 -0.013888962229483263 0 -0.017882114666764481 -0.013912124082164253 0 -0.017967897254302787 -0.014215063768807535 0 -0.0184551926677116 -0.013888962229483263 0 -0.018435768040624845 -0.014422868892253785 0 -0.017967897254302787 -0.014215063768807535 0 -0.017919391592762835 -0.014529124364475985 0 -0.018435768040624845 -0.014422868892253785 0 -0.0184551926677116 -0.013888962229483263 0 -0.017882114666764481 -0.013912124082164253 0 -0.018449268751365686 -0.013452183714271215 0 -0.017882114666764481 -0.013912124082164253 0 -0.017950214219476329 -0.013678535706368327 0 -0.018449268751365686 -0.013452183714271215 0 -0.017525988018739089 -0.014181004966857428 0 -0.017663372834995712 -0.014282547827706348 0 -0.017882114666764481 -0.013912124082164253 0 -0.017882114666764481 -0.013912124082164253 0 -0.017618766497757107 -0.013964518334836439 0 -0.017950214219476329 -0.013678535706368327 0 -0.017525988018739089 -0.014181004966857428 0 -0.017882114666764481 -0.013912124082164253 0 -0.017618766497757107 -0.013964518334836439 0 -0.017618766497757107 -0.013964518334836439 0 -0.017702531765288011 -0.013786947668453953 0 -0.017950214219476329 -0.013678535706368327 0 -0.017618766497757107 -0.013964518334836439 0 -0.017702531765288011 -0.013786947668453953 0 -0.017446366423071367 -0.014067462259842916 0 -0.017950214219476329 -0.013678535706368327 0 -0.017997337228388019 -0.013492201291073634 0 -0.018449268751365686 -0.013452183714271215 0 -0.017702531765288011 -0.013786947668453953 0 -0.017950214219476329 -0.013678535706368327 0 -0.017997337228388019 -0.013492201291073634 0 -0.017702531765288011 -0.013786947668453953 0 -0.017997337228388019 -0.013492201291073634 0 -0.017486790716110642 -0.013937958373230013 0 -0.017997337228388019 -0.013492201291073634 0 -0.017764368904144852 -0.01362466015768524 0 -0.017486790716110642 -0.013937958373230013 0 -0.017702531765288011 -0.013786947668453953 0 -0.017446366423071367 -0.014067462259842916 0 -0.017486790716110642 -0.013937958373230013 0 -0.017446366423071367 -0.014067462259842916 0 -0.017313315749682624 -0.014352797509988637 0 -0.017320968236394747 -0.014377269124404461 0 -0.017313315749682624 -0.014352797509988637 0 -0.017162991996302147 -0.014498333846175821 0 -0.017404848438569442 -0.014206007414228772 0 -0.017618766497757107 -0.013964518334836439 0 -0.017446366423071367 -0.014067462259842916 0 -0.017404848438569442 -0.014206007414228772 0 -0.017446366423071367 -0.014067462259842916 0 -0.017313315749682624 -0.014352797509988637 0 -0.017404848438569442 -0.014206007414228772 0 -0.020079360032194848 -0.012528756506557673 0 -0.020731691286006881 -0.012553759389297238 0 -0.020528715754534303 -0.012945333358594369 0 -0.020079360032194848 -0.012528756506557673 0 -0.020731691286006881 -0.012553759389297238 0 -0.020401113632788175 -0.01211490029904635 0 -0.021154482412852112 -0.012743674025918569 0 -0.020528715754534303 -0.012945333358594369 0 -0.021103135320002686 -0.012990355405265705 0 -0.020731691286006881 -0.012553759389297238 0 -0.021154482412852112 -0.012743674025918569 0 -0.020528715754534303 -0.012945333358594369 0 -0.020528715754534303 -0.012945333358594369 0 -0.020810066398632209 -0.013586102018860374 0 -0.021103135320002686 -0.012990355405265705 0 -0.020528715754534303 -0.012945333358594369 0 -0.020003076233013069 -0.013161827196468009 0 -0.020810066398632209 -0.013586102018860374 0 -0.020528715754534303 -0.012945333358594369 0 -0.019860187975648379 -0.012866621526140064 0 -0.020003076233013069 -0.013161827196468009 0 -0.020079360032194848 -0.012528756506557673 0 -0.020528715754534303 -0.012945333358594369 0 -0.019860187975648379 -0.012866621526140064 0 -0.019194890079349256 -0.013066294074636197 0 -0.020003076233013069 -0.013161827196468009 0 -0.019348386319325752 -0.013450396549712107 0 -0.019860187975648379 -0.012866621526140064 0 -0.019194890079349256 -0.013066294074636197 0 -0.020003076233013069 -0.013161827196468009 0 -0.020003076233013069 -0.013161827196468009 0 -0.020810066398632209 -0.013586102018860374 0 -0.019348386319325752 -0.013450396549712107 0 -0.020810066398632209 -0.013586102018860374 0 -0.019348386319325752 -0.013450396549712107 0 -0.019042070304172511 -0.014573517639429776 0 -0.0184551926677116 -0.013888962229483263 0 -0.019348386319325752 -0.013450396549712107 0 -0.019042070304172511 -0.014573517639429776 0 -0.0184551926677116 -0.013888962229483263 0 -0.019042070304172511 -0.014573517639429776 0 -0.018435768040624845 -0.014422868892253785 0 -0.0184551926677116 -0.013888962229483263 0 -0.019348386319325752 -0.013450396549712107 0 -0.018449268751365686 -0.013452183714271215 0 -0.019194890079349256 -0.013066294074636197 0 -0.019348386319325752 -0.013450396549712107 0 -0.018449268751365686 -0.013452183714271215 0 -0.019194890079349256 -0.013066294074636197 0 -0.018449268751365686 -0.013452183714271215 0 -0.018502828679853391 -0.013212940616220702 0 -0.017997337228388019 -0.013492201291073634 0 -0.018449268751365686 -0.013452183714271215 0 -0.018502828679853391 -0.013212940616220702 0 -0.017997337228388019 -0.013492201291073634 0 -0.018502828679853391 -0.013212940616220702 0 -0.018215293410401571 -0.013191314117263573 0 -0.017997337228388019 -0.013492201291073634 0 -0.018215293410401571 -0.013191314117263573 0 -0.017764368904144852 -0.01362466015768524 0 -0.018502828679853391 -0.013212940616220702 0 -0.018215293410401571 -0.013191314117263573 0 -0.018793894182341484 -0.012910539364467954 0 -0.018215293410401571 -0.013191314117263573 0 -0.018793894182341484 -0.012910539364467954 0 -0.018755196330231948 -0.01261046522307782 0 -0.018793894182341484 -0.012910539364467954 0 -0.019354204604264211 -0.012579261645944575 0 -0.018755196330231948 -0.01261046522307782 0 -0.019194890079349256 -0.013066294074636197 0 -0.018502828679853391 -0.013212940616220702 0 -0.018793894182341484 -0.012910539364467954 0 -0.019860187975648379 -0.012866621526140064 0 -0.019194890079349256 -0.013066294074636197 0 -0.019354204604264211 -0.012579261645944575 0 -0.019194890079349256 -0.013066294074636197 0 -0.018793894182341484 -0.012910539364467954 0 -0.019354204604264211 -0.012579261645944575 0 -0.020079360032194848 -0.012528756506557673 0 -0.019860187975648379 -0.012866621526140064 0 -0.019354204604264211 -0.012579261645944575 0 -0.020079360032194848 -0.012528756506557673 0 -0.019354204604264211 -0.012579261645944575 0 -0.019706662546025253 -0.01215185196372677 0 -0.019354204604264211 -0.012579261645944575 0 -0.018755196330231948 -0.01261046522307782 0 -0.019209494137161533 -0.012008539168559283 0 -0.018755196330231948 -0.01261046522307782 0 -0.019209494137161533 -0.012008539168559283 0 -0.018688033816400426 -0.012377824991381839 0 -0.019354204604264211 -0.012579261645944575 0 -0.019209494137161533 -0.012008539168559283 0 -0.019706662546025253 -0.01215185196372677 0 -0.019209494137161533 -0.012008539168559283 0 -0.019545934275540858 -0.011559350092825993 0 -0.019706662546025253 -0.01215185196372677 0 -0.019209494137161533 -0.012008539168559283 0 -0.019545934275540858 -0.011559350092825993 0 -0.01906216613716262 -0.011320409845009295 0 -0.02010756657813742 -0.011681502051854718 0 -0.019545934275540858 -0.011559350092825993 0 -0.019706662546025253 -0.01215185196372677 0 -0.02010756657813742 -0.011681502051854718 0 -0.019706662546025253 -0.01215185196372677 0 -0.020401113632788175 -0.01211490029904635 0 -0.020079360032194848 -0.012528756506557673 0 -0.019706662546025253 -0.01215185196372677 0 -0.020401113632788175 -0.01211490029904635 0 -0.017736166851959084 -0.013216884182014292 0 -0.018309554745838258 -0.011839748091378699 0 -0.017794074050873635 -0.01301850500984918 0 -0.018309554745838258 -0.011839748091378699 0 -0.01906216613716262 -0.011320409845009295 0 -0.017794074050873635 -0.01301850500984918 0 -0.017210406690968429 -0.013496414627286261 0 -0.017736166851959084 -0.013216884182014292 0 -0.018309554745838258 -0.011839748091378699 0 -0.018843849627233428 -0.011571159026980566 0 -0.018032223059634932 -0.012962967346749869 0 -0.01906216613716262 -0.011320409845009295 0 -0.018688033816400426 -0.012377824991381839 0 -0.018203613484069417 -0.013041328701528739 0 -0.019209494137161533 -0.012008539168559283 0 -0.01906216613716262 -0.011320409845009295 0 -0.018688033816400426 -0.012377824991381839 0 -0.018688033816400426 -0.012377824991381839 0 -0.018203613484069417 -0.013041328701528739 0 -0.018125630655563347 -0.013138821760420912 0 -0.018755196330231948 -0.01261046522307782 0 -0.018688033816400426 -0.012377824991381839 0 -0.018125630655563347 -0.013138821760420912 0 -0.018125630655563347 -0.013138821760420912 0 -0.01759017164934951 -0.013776430908064531 0 -0.017187890014291281 -0.014237530834121721 0 -0.018203613484069417 -0.013041328701528739 0 -0.018125630655563347 -0.013138821760420912 0 -0.017187890014291281 -0.014237530834121721 0 -0.018215293410401571 -0.013191314117263573 0 -0.018755196330231948 -0.01261046522307782 0 -0.018125630655563347 -0.013138821760420912 0 -0.018215293410401571 -0.013191314117263573 0 -0.018125630655563347 -0.013138821760420912 0 -0.01759017164934951 -0.013776430908064531 0 -0.018215293410401571 -0.013191314117263573 0 -0.01759017164934951 -0.013776430908064531 0 -0.017764368904144852 -0.01362466015768524 0 -0.017187890014291281 -0.014237530834121721 0 -0.016978362188446859 -0.014644659320841425 0 -0.016694726242860173 -0.015068671879768028 0 -0.01759017164934951 -0.013776430908064531 0 -0.017187890014291281 -0.014237530834121721 0 -0.016978362188446859 -0.014644659320841425 0 -0.017063309058464218 -0.014485267418951167 0 -0.016406557184826771 -0.015581558529677327 0 -0.017187890014291281 -0.014237530834121721 0 -0.016694726242860173 -0.015068671879768028 0 -0.016225449068670718 -0.015756522226156207 0 -0.016968278293190815 -0.014674890471394824 0 -0.016225449068670718 -0.015756522226156207 0 -0.015963408085714191 -0.01555925110466198 0 -0.016968278293190815 -0.014674890471394824 0 -0.016747867044178018 -0.014962324060895166 0 -0.015963408085714191 -0.01555925110466198 0 -0.018032223059634932 -0.012962967346749869 0 -0.017063309058464218 -0.014485267418951167 0 -0.017736166851959084 -0.013216884182014292 0 -0.017794074050873635 -0.01301850500984918 0 -0.017254868435558339 -0.014201851178969443 0 -0.017794074050873635 -0.01301850500984918 0 -0.016968278293190815 -0.014674890471394824 0 -0.017254868435558339 -0.014201851178969443 0 -0.017254868435558339 -0.014201851178969443 0 -0.016747867044178018 -0.014962324060895166 0 -0.016918637918090389 -0.014732165008185404 0 -0.016968278293190815 -0.014674890471394824 0 -0.017254868435558339 -0.014201851178969443 0 -0.016747867044178018 -0.014962324060895166 0 -0.017254868435558339 -0.014201851178969443 0 -0.017059799741869289 -0.014318267393278841 0 -0.016918637918090389 -0.014732165008185404 0 -0.017254868435558339 -0.014201851178969443 0 -0.017059799741869289 -0.014318267393278841 0 -0.017289589171375196 -0.013866006091869261 0 -0.016896205280559188 -0.014300884683296296 0 -0.017059799741869289 -0.014318267393278841 0 -0.016893749824308166 -0.014578157249463453 0 -0.016998277883275865 -0.013997776636263956 0 -0.017059799741869289 -0.014318267393278841 0 -0.017289589171375196 -0.013866006091869261 0 -0.017736166851959084 -0.013216884182014292 0 -0.017254868435558339 -0.014201851178969443 0 -0.017289589171375196 -0.013866006091869261 0 -0.017210406690968429 -0.013496414627286261 0 -0.017736166851959084 -0.013216884182014292 0 -0.017289589171375196 -0.013866006091869261 0 -0.016971235048663602 -0.015103811812479835 0 -0.017245250347556099 -0.014819703274330416 0 -0.017244363750049459 -0.014366707980691585 0 -0.016971235048663602 -0.015103811812479835 0 -0.017245250347556099 -0.014819703274330416 0 -0.016923914876197002 -0.015753406151583257 0 -0.017501156796739758 -0.014421425748535594 0 -0.017313315749682624 -0.014352797509988637 0 -0.017320968236394747 -0.014377269124404461 0 -0.017501156796739758 -0.014421425748535594 0 -0.017245250347556099 -0.014819703274330416 0 -0.017320968236394747 -0.014377269124404461 0 -0.017245250347556099 -0.014819703274330416 0 -0.017320968236394747 -0.014377269124404461 0 -0.017244363750049459 -0.014366707980691585 0 -0.017446366423071367 -0.014067462259842916 0 -0.017320968236394747 -0.014377269124404461 0 -0.017244363750049459 -0.014366707980691585 0 -0.017244363750049459 -0.014366707980691585 0 -0.017486790716110642 -0.013937958373230013 0 -0.017080483025574418 -0.014635525187849037 0 -0.017446366423071367 -0.014067462259842916 0 -0.017244363750049459 -0.014366707980691585 0 -0.017486790716110642 -0.013937958373230013 0 -0.017764368904144852 -0.01362466015768524 0 -0.017486790716110642 -0.013937958373230013 0 -0.017321190818932769 -0.01416138807379662 0 -0.01759017164934951 -0.013776430908064531 0 -0.017764368904144852 -0.01362466015768524 0 -0.017321190818932769 -0.01416138807379662 0 -0.01759017164934951 -0.013776430908064531 0 -0.017321190818932769 -0.01416138807379662 0 -0.016978362188446859 -0.014644659320841425 0 -0.017321190818932769 -0.01416138807379662 0 -0.017080483025574418 -0.014635525187849037 0 -0.016978362188446859 -0.014644659320841425 0 -0.017486790716110642 -0.013937958373230013 0 -0.017321190818932769 -0.01416138807379662 0 -0.017080483025574418 -0.014635525187849037 0 -0.016971235048663602 -0.015103811812479835 0 -0.017244363750049459 -0.014366707980691585 0 -0.017080483025574418 -0.014635525187849037 0 -0.016807683920176404 -0.015340570360151927 0 -0.016978362188446859 -0.014644659320841425 0 -0.016589819553568252 -0.015686071897583986 0 -0.016971235048663602 -0.015103811812479835 0 -0.017080483025574418 -0.014635525187849037 0 -0.016807683920176404 -0.015340570360151927 0 -0.017080483025574418 -0.014635525187849037 0 -0.016807683920176404 -0.015340570360151927 0 -0.016978362188446859 -0.014644659320841425 0 -0.016807683920176404 -0.015340570360151927 0 -0.016652178885487728 -0.01596801428055886 0 -0.016746380705217331 -0.015980484883958045 0 -0.016978362188446859 -0.014644659320841425 0 -0.016694726242860173 -0.015068671879768028 0 -0.016589819553568252 -0.015686071897583986 0 -0.016589819553568252 -0.015686071897583986 0 -0.016225449068670718 -0.015756522226156207 0 -0.01622319213768229 -0.016624886006767942 0 -0.016694726242860173 -0.015068671879768028 0 -0.016589819553568252 -0.015686071897583986 0 -0.016225449068670718 -0.015756522226156207 0 -0.016589819553568252 -0.015686071897583986 0 -0.016492414588313849 -0.016387373849151121 0 -0.01622319213768229 -0.016624886006767942 0 -0.016807683920176404 -0.015340570360151927 0 -0.016652178885487728 -0.01596801428055886 0 -0.016589819553568252 -0.015686071897583986 0 -0.016652178885487728 -0.01596801428055886 0 -0.016589819553568252 -0.015686071897583986 0 -0.016492414588313849 -0.016387373849151121 0 -0.016652178885487728 -0.01596801428055886 0 -0.016492414588313849 -0.016387373849151121 0 -0.016601013309376186 -0.016574199196130481 0 -0.016601013309376186 -0.016574199196130481 0 -0.016609629383021615 -0.017114206303195864 0 -0.016712033602866095 -0.016682024859985937 0 -0.016601013309376186 -0.016574199196130481 0 -0.016712033602866095 -0.016682024859985937 0 -0.016746380705217331 -0.015980484883958045 0 -0.016652178885487728 -0.01596801428055886 0 -0.016601013309376186 -0.016574199196130481 0 -0.016746380705217331 -0.015980484883958045 0 -0.016712033602866095 -0.016682024859985937 0 -0.016746380705217331 -0.015980484883958045 0 -0.016923914876197002 -0.015753406151583257 0 -0.016971235048663602 -0.015103811812479835 0 -0.016746380705217331 -0.015980484883958045 0 -0.016923914876197002 -0.015753406151583257 0 -0.016971235048663602 -0.015103811812479835 0 -0.016807683920176404 -0.015340570360151927 0 -0.016746380705217331 -0.015980484883958045 0 -0.017829651829373804 -0.015510196209123637 0 -0.017245250347556099 -0.014819703274330416 0 -0.016923914876197002 -0.015753406151583257 0 -0.017829651829373804 -0.015510196209123637 0 -0.016923914876197002 -0.015753406151583257 0 -0.016793687340595869 -0.01689220979861239 0 -0.016712033602866095 -0.016682024859985937 0 -0.016923914876197002 -0.015753406151583257 0 -0.016793687340595869 -0.01689220979861239 0 -0.016712033602866095 -0.016682024859985937 0 -0.016793687340595869 -0.01689220979861239 0 -0.016679491943421141 -0.017211182033458509 0 -0.016712033602866095 -0.016682024859985937 0 -0.016679491943421141 -0.017211182033458509 0 -0.016650673701394204 -0.017457351713807148 0 -0.016609629383021615 -0.017114206303195864 0 -0.016712033602866095 -0.016682024859985937 0 -0.016650673701394204 -0.017457351713807148 0 -0.016389348518082103 -0.018193755617932159 0 -0.016793687340595869 -0.01689220979861239 0 -0.016562444228408045 -0.017738568902554073 0 -0.016679491943421141 -0.017211182033458509 0 -0.016650673701394204 -0.017457351713807148 0 -0.016562444228408045 -0.017738568902554073 0 -0.016793687340595869 -0.01689220979861239 0 -0.016679491943421141 -0.017211182033458509 0 -0.016562444228408045 -0.017738568902554073 0 -0.016650673701394204 -0.017457351713807148 0 -0.016562444228408045 -0.017738568902554073 0 -0.016630123350869459 -0.017765514829732369 0 -0.016562444228408045 -0.017738568902554073 0 -0.016630123350869459 -0.017765514829732369 0 -0.016649276765714587 -0.018179937075601695 0 -0.016609629383021615 -0.017114206303195864 0 -0.016650673701394204 -0.017457351713807148 0 -0.01658419588784308 -0.017576774274504412 0 -0.016650673701394204 -0.017457351713807148 0 -0.016630123350869459 -0.017765514829732369 0 -0.01658419588784308 -0.017576774274504412 0 -0.016630123350869459 -0.017765514829732369 0 -0.016566092616553309 -0.017992142154567261 0 -0.016649276765714587 -0.018179937075601695 0 -0.016566092616553309 -0.017992142154567261 0 -0.016649276765714587 -0.018179937075601695 0 -0.016514969204014129 -0.018436452187694713 0 -0.016566092616553309 -0.017992142154567261 0 -0.016459099266529078 -0.017960277052918444 0 -0.01658419588784308 -0.017576774274504412 0 -0.016630123350869459 -0.017765514829732369 0 -0.016566092616553309 -0.017992142154567261 0 -0.01658419588784308 -0.017576774274504412 0 -0.016649276765714587 -0.018179937075601695 0 -0.016626626455133232 -0.018763506551035303 0 -0.016514969204014129 -0.018436452187694713 0 -0.016566092616553309 -0.017992142154567261 0 -0.016514969204014129 -0.018436452187694713 0 -0.016459099266529078 -0.017960277052918444 0 -0.016514969204014129 -0.018436452187694713 0 -0.016453018819418325 -0.019113641444609024 0 -0.016287320963576796 -0.018911489399786461 0 -0.016626626455133232 -0.018763506551035303 0 -0.016453018819418325 -0.019113641444609024 0 -0.016584853857933506 -0.019415473130131165 0 -0.016626626455133232 -0.018763506551035303 0 -0.016514969204014129 -0.018436452187694713 0 -0.016453018819418325 -0.019113641444609024 0 -0.016459099266529078 -0.017960277052918444 0 -0.016283822923575719 -0.01808170265515124 0 -0.016287320963576796 -0.018911489399786461 0 -0.016514969204014129 -0.018436452187694713 0 -0.016459099266529078 -0.017960277052918444 0 -0.016287320963576796 -0.018911489399786461 0 -0.016283822923575719 -0.01808170265515124 0 -0.016287320963576796 -0.018911489399786461 0 -0.016037555698549436 -0.018997841463098585 0 -0.016459099266529078 -0.017960277052918444 0 -0.016283822923575719 -0.01808170265515124 0 -0.016495649558636836 -0.017387365749071973 0 -0.016283822923575719 -0.01808170265515124 0 -0.016495649558636836 -0.017387365749071973 0 -0.016383394358440391 -0.017089667127060771 0 -0.016459099266529078 -0.017960277052918444 0 -0.01658419588784308 -0.017576774274504412 0 -0.016495649558636836 -0.017387365749071973 0 -0.016609629383021615 -0.017114206303195864 0 -0.01658419588784308 -0.017576774274504412 0 -0.016495649558636836 -0.017387365749071973 0 -0.016601013309376186 -0.016574199196130481 0 -0.016495649558636836 -0.017387365749071973 0 -0.016383394358440391 -0.017089667127060771 0 -0.016601013309376186 -0.016574199196130481 0 -0.016609629383021615 -0.017114206303195864 0 -0.016495649558636836 -0.017387365749071973 0 -0.016492414588313849 -0.016387373849151121 0 -0.016601013309376186 -0.016574199196130481 0 -0.016383394358440391 -0.017089667127060771 0 -0.016492414588313849 -0.016387373849151121 0 -0.016383394358440391 -0.017089667127060771 0 -0.01622319213768229 -0.016624886006767942 0 -0.016383394358440391 -0.017089667127060771 0 -0.01622319213768229 -0.016624886006767942 0 -0.016141429602245388 -0.01753122407377224 0 -0.016225449068670718 -0.015756522226156207 0 -0.01622319213768229 -0.016624886006767942 0 -0.015753041955415197 -0.016781911810639986 0 -0.015854088618651296 -0.017558392296333495 0 -0.015873015113652151 -0.018442457290195131 0 -0.015325728503113055 -0.018297197137466071 0 -0.015854088618651296 -0.017558392296333495 0 -0.015325728503113055 -0.018297197137466071 0 -0.015753041955415197 -0.016781911810639986 0 -0.01622319213768229 -0.016624886006767942 0 -0.015854088618651296 -0.017558392296333495 0 -0.015753041955415197 -0.016781911810639986 0 -0.016283822923575719 -0.01808170265515124 0 -0.016383394358440391 -0.017089667127060771 0 -0.016141429602245388 -0.01753122407377224 0 -0.01622319213768229 -0.016624886006767942 0 -0.015854088618651296 -0.017558392296333495 0 -0.016141429602245388 -0.01753122407377224 0 -0.015854088618651296 -0.017558392296333495 0 -0.016141429602245388 -0.01753122407377224 0 -0.015873015113652151 -0.018442457290195131 0 -0.016283822923575719 -0.01808170265515124 0 -0.015873015113652151 -0.018442457290195131 0 -0.016037555698549436 -0.018997841463098585 0 -0.016283822923575719 -0.01808170265515124 0 -0.016141429602245388 -0.01753122407377224 0 -0.015873015113652151 -0.018442457290195131 0 -0.015873015113652151 -0.018442457290195131 0 -0.015731704329682964 -0.019505486572407405 0 -0.016037555698549436 -0.018997841463098585 0 -0.015873015113652151 -0.018442457290195131 0 -0.015731704329682964 -0.019505486572407405 0 -0.015374147150985241 -0.019239029492809919 0 -0.015873015113652151 -0.018442457290195131 0 -0.015325728503113055 -0.018297197137466071 0 -0.015374147150985241 -0.019239029492809919 0 -0.015325728503113055 -0.018297197137466071 0 -0.015374147150985241 -0.019239029492809919 0 -0.014609362276741549 -0.019581192076361671 0 -0.015374147150985241 -0.019239029492809919 0 -0.015182595843099755 -0.020239686713254924 0 -0.014609362276741549 -0.019581192076361671 0 -0.015182595843099755 -0.020239686713254924 0 -0.014609362276741549 -0.019581192076361671 0 -0.014365444672849606 -0.020705463151249097 0 -0.015182595843099755 -0.020239686713254924 0 -0.015715427103635667 -0.02029781000792056 0 -0.01534704662892028 -0.02088121662945077 0 -0.015731704329682964 -0.019505486572407405 0 -0.015182595843099755 -0.020239686713254924 0 -0.015715427103635667 -0.02029781000792056 0 -0.015731704329682964 -0.019505486572407405 0 -0.015374147150985241 -0.019239029492809919 0 -0.015182595843099755 -0.020239686713254924 0 -0.015715427103635667 -0.02029781000792056 0 -0.016048223397904397 -0.019852986876303356 0 -0.015902238515843711 -0.021112684368767589 0 -0.015731704329682964 -0.019505486572407405 0 -0.015715427103635667 -0.02029781000792056 0 -0.016048223397904397 -0.019852986876303356 0 -0.016048223397904397 -0.019852986876303356 0 -0.016317555639132966 -0.020034184999424616 0 -0.015902238515843711 -0.021112684368767589 0 -0.016317555639132966 -0.020034184999424616 0 -0.015902238515843711 -0.021112684368767589 0 -0.016321264303356394 -0.021327818359253466 0 -0.016453018819418325 -0.019113641444609024 0 -0.016317555639132966 -0.020034184999424616 0 -0.016584853857933506 -0.019415473130131165 0 -0.016453018819418325 -0.019113641444609024 0 -0.016317555639132966 -0.020034184999424616 0 -0.016287320963576796 -0.018911489399786461 0 -0.016048223397904397 -0.019852986876303356 0 -0.016317555639132966 -0.020034184999424616 0 -0.016287320963576796 -0.018911489399786461 0 -0.015731704329682964 -0.019505486572407405 0 -0.016048223397904397 -0.019852986876303356 0 -0.016037555698549436 -0.018997841463098585 0 -0.016048223397904397 -0.019852986876303356 0 -0.016287320963576796 -0.018911489399786461 0 -0.016037555698549436 -0.018997841463098585 0 -0.01673003356121764 -0.014796935719346174 0 -0.016793398815100627 -0.014783917635448972 0 -0.016666513659055322 -0.014926901965432173 0 -0.016772537060936211 -0.014666015030480666 0 -0.01673003356121764 -0.014796935719346174 0 -0.016793398815100627 -0.014783917635448972 0 -0.016772537060936211 -0.014666015030480666 0 -0.016793398815100627 -0.014783917635448972 0 -0.016893749824308166 -0.014578157249463453 0 -0.017059799741869289 -0.014318267393278841 0 -0.016893749824308166 -0.014578157249463453 0 -0.016918637918090389 -0.014732165008185404 0 -0.016793398815100627 -0.014783917635448972 0 -0.016893749824308166 -0.014578157249463453 0 -0.016918637918090389 -0.014732165008185404 0 -0.016793398815100627 -0.014783917635448972 0 -0.016918637918090389 -0.014732165008185404 0 -0.016718280339428945 -0.014957859414932965 0 -0.016747867044178018 -0.014962324060895166 0 -0.016918637918090389 -0.014732165008185404 0 -0.016718280339428945 -0.014957859414932965 0 -0.016793398815100627 -0.014783917635448972 0 -0.016718280339428945 -0.014957859414932965 0 -0.016666513659055322 -0.014926901965432173 0 -0.016718280339428945 -0.014957859414932965 0 -0.016669749263269716 -0.014995089907475589 0 -0.016666513659055322 -0.014926901965432173 0 -0.016718280339428945 -0.014957859414932965 0 -0.015963408085714191 -0.01555925110466198 0 -0.0166993754028355 -0.014909497872814745 0 -0.015841009655190169 -0.015728859180488587 0 -0.015489571465286549 -0.016598754702924597 0 -0.016718280339428945 -0.014957859414932965 0 -0.0166993754028355 -0.014909497872814745 0 -0.016669749263269716 -0.014995089907475589 0 -0.016747867044178018 -0.014962324060895166 0 -0.016718280339428945 -0.014957859414932965 0 -0.015963408085714191 -0.01555925110466198 0 -0.016225449068670718 -0.015756522226156207 0 -0.015963408085714191 -0.01555925110466198 0 -0.015753041955415197 -0.016781911810639986 0 -0.015963408085714191 -0.01555925110466198 0 -0.015753041955415197 -0.016781911810639986 0 -0.014173318281820002 -0.017974346762140533 0 -0.015325728503113055 -0.018297197137466071 0 -0.015753041955415197 -0.016781911810639986 0 -0.014173318281820002 -0.017974346762140533 0 -0.015325728503113055 -0.018297197137466071 0 -0.014609362276741549 -0.019581192076361671 0 -0.014173318281820002 -0.017974346762140533 0 -0.014609362276741549 -0.019581192076361671 0 -0.013505163744043664 -0.01990696014830998 0 -0.014173318281820002 -0.017974346762140533 0 -0.014609362276741549 -0.019581192076361671 0 -0.013858864059937257 -0.020487640714049099 0 -0.014365444672849606 -0.020705463151249097 0 -0.014609362276741549 -0.019581192076361671 0 -0.013505163744043664 -0.01990696014830998 0 -0.013858864059937257 -0.020487640714049099 0 -0.016594857218198759 -0.016309001811793938 0 -0.01710521136703725 -0.015872692543452131 0 -0.016607473170188257 -0.015285253253062897 0 -0.015265481963296303 -0.017670491980188465 0 -0.015489571465286549 -0.016598754702924597 0 -0.01710521136703725 -0.015872692543452131 0 -0.0166993754028355 -0.014909497872814745 0 -0.016607473170188257 -0.015285253253062897 0 -0.0166993754028355 -0.014909497872814745 0 -0.016669749263269716 -0.014995089907475589 0 -0.016607473170188257 -0.015285253253062897 0 -0.016666513659055322 -0.014926901965432173 0 -0.016607473170188257 -0.015285253253062897 0 -0.016569285533957395 -0.015078656819742634 0 -0.016669749263269716 -0.014995089907475589 0 -0.016666513659055322 -0.014926901965432173 0 -0.016607473170188257 -0.015285253253062897 0 -0.01663977978280996 -0.016379057776190684 0 -0.016219355007387439 -0.016317587641479486 0 -0.016607473170188257 -0.015285253253062897 0 -0.016447185066595871 -0.015352871446668916 0 -0.016569285533957395 -0.015078656819742634 0 -0.016594857218198759 -0.016309001811793938 0 -0.015749823282902541 -0.01714185622633977 0 -0.015962864390817785 -0.016814519744932407 0 -0.016594857218198759 -0.016309001811793938 0 -0.016607473170188257 -0.015285253253062897 0 -0.016447185066595871 -0.015352871446668916 0 -0.015459801677165689 -0.019190393116157674 0 -0.015952568952856395 -0.019360276843630089 0 -0.016080049531670252 -0.016540843744886156 0 -0.016219355007387439 -0.016317587641479486 0 -0.015414794312491124 -0.018080790848797157 0 -0.015749823282902541 -0.01714185622633977 0 -0.015574858889290392 -0.017691341699125899 0 -0.015749823282902541 -0.01714185622633977 0 -0.015574858889290392 -0.017691341699125899 0 -0.015962864390817785 -0.016814519744932407 0 -0.016629865766391794 -0.014910607445463311 0 -0.016569285533957395 -0.015078656819742634 0 -0.016653308171674052 -0.014895104343801053 0 -0.016629865766391794 -0.014910607445463311 0 -0.016447185066595871 -0.015352871446668916 0 -0.016569285533957395 -0.015078656819742634 0 -0.016666513659055322 -0.014926901965432173 0 -0.016569285533957395 -0.015078656819742634 0 -0.016653308171674052 -0.014895104343801053 0 -0.01673003356121764 -0.014796935719346174 0 -0.016666513659055322 -0.014926901965432173 0 -0.016653308171674052 -0.014895104343801053 0 -0.016700133633766344 -0.014737317142997508 0 -0.01673003356121764 -0.014796935719346174 0 -0.016653308171674052 -0.014895104343801053 0 -0.015842347133497716 -0.022051107838318925 0 -0.015700656756650118 -0.022198811488703514 0 -0.015628505011135847 -0.022138349630667464 0 -0.015842347133497716 -0.022051107838318925 0 -0.015700656756650118 -0.022198811488703514 0 -0.015699757669135131 -0.022110714273319544 0 -0.015700656756650118 -0.022198811488703514 0 -0.015699757669135131 -0.022110714273319544 0 -0.015880744032383959 -0.022052341919912351 0 -0.01565568498679662 -0.020783947599130815 0 -0.015699757669135131 -0.022110714273319544 0 -0.015880744032383959 -0.022052341919912351 0 -0.015880744032383959 -0.022052341919912351 0 -0.015635492890767936 -0.022302637019801431 0 -0.015614341718055062 -0.022341752581319697 0 -0.015635492890767936 -0.022302637019801431 0 -0.01550076095049369 -0.022446962963173597 0 -0.015614341718055062 -0.022341752581319697 0 -0.015700656756650118 -0.022198811488703514 0 -0.015880744032383959 -0.022052341919912351 0 -0.015635492890767936 -0.022302637019801431 0 -0.015700656756650118 -0.022198811488703514 0 -0.015635492890767936 -0.022302637019801431 0 -0.015628505011135847 -0.022138349630667464 0 -0.015635492890767936 -0.022302637019801431 0 -0.01550076095049369 -0.022446962963173597 0 -0.015628505011135847 -0.022138349630667464 0 -0.01550076095049369 -0.022446962963173597 0 -0.015527820934232479 -0.022536614293658649 0 -0.015341225619243568 -0.022711280641815872 0 -0.01550076095049369 -0.022446962963173597 0 -0.015527820934232479 -0.022536614293658649 0 -0.015614341718055062 -0.022341752581319697 0 -0.015527820934232479 -0.022536614293658649 0 -0.015575697228493012 -0.022406911227810012 0 -0.015614341718055062 -0.022341752581319697 0 -0.015591042580791782 -0.022338740207028761 0 -0.015695600802228284 -0.020573536557381158 0 -0.015952568952856395 -0.019360276843630089 0 -0.015695600802228284 -0.020573536557381158 0 -0.016594857218198759 -0.016309001811793938 0 -0.01710521136703725 -0.015872692543452131 0 -0.017091231964408309 -0.017374106971927386 0 -0.016594857218198759 -0.016309001811793938 0 -0.015962864390817785 -0.016814519744932407 0 -0.017091231964408309 -0.017374106971927386 0 -0.015265481963296303 -0.017670491980188465 0 -0.015695600802228284 -0.020573536557381158 0 -0.013505163744043664 -0.01990696014830998 0 -0.01333656671380604 -0.021433409445337902 0 -0.013858864059937257 -0.020487640714049099 0 -0.015880744032383959 -0.022052341919912351 0 -0.015575697228493012 -0.022406911227810012 0 -0.015614341718055062 -0.022341752581319697 0 -0.01333656671380604 -0.021433409445337902 0 -0.013902050648476313 -0.0209814644145285 0 -0.013858864059937257 -0.020487640714049099 0 -0.01333656671380604 -0.021433409445337902 0 -0.013902050648476313 -0.0209814644145285 0 -0.014113091747348599 -0.021353177318473603 0 -0.013902050648476313 -0.0209814644145285 0 -0.013858864059937257 -0.020487640714049099 0 -0.014365444672849606 -0.020705463151249097 0 -0.013902050648476313 -0.0209814644145285 0 -0.014365444672849606 -0.020705463151249097 0 -0.014113091747348599 -0.021353177318473603 0 -0.015695600802228284 -0.020573536557381158 0 -0.014784946123382688 -0.022603030353900336 0 -0.01333656671380604 -0.021433409445337902 0 -0.014113091747348599 -0.021353177318473603 0 -0.014229533610789442 -0.022123042834101554 0 -0.015527820934232479 -0.022536614293658649 0 -0.015674039972581683 -0.022939500281707458 0 -0.015599186597296673 -0.022879181812535079 0 -0.015527820934232479 -0.022536614293658649 0 -0.015535387654161488 -0.022417909407175814 0 -0.015674039972581683 -0.022939500281707458 0 -0.015674039972581683 -0.022939500281707458 0 -0.015599186597296673 -0.022879181812535079 0 -0.015758852111454086 -0.023126424705118862 0 -0.015599186597296673 -0.022879181812535079 0 -0.015758852111454086 -0.023126424705118862 0 -0.015493534256808675 -0.023510553208794721 0 -0.015793921773734416 -0.023257038070329476 0 -0.015846094664990991 -0.024194209269050457 0 -0.015758852111454086 -0.023126424705118862 0 -0.015493534256808675 -0.023510553208794721 0 -0.016901954700786832 -0.025438412178636308 0 -0.015493534256808675 -0.023510553208794721 0 -0.014638369754555118 -0.023538921082823152 0 -0.015192121740093918 -0.024446884893693493 0 -0.015493534256808675 -0.023510553208794721 0 -0.015341225619243568 -0.022711280641815872 0 -0.014638369754555118 -0.023538921082823152 0 -0.015599186597296673 -0.022879181812535079 0 -0.015493534256808675 -0.023510553208794721 0 -0.015341225619243568 -0.022711280641815872 0 -0.015527820934232479 -0.022536614293658649 0 -0.015599186597296673 -0.022879181812535079 0 -0.015341225619243568 -0.022711280641815872 0 -0.015341225619243568 -0.022711280641815872 0 -0.013997899308170905 -0.022821158912768806 0 -0.014638369754555118 -0.023538921082823152 0 -0.01531424730529771 -0.022646011592104019 0 -0.014912971064405806 -0.022501211353268574 0 -0.01550076095049369 -0.022446962963173597 0 -0.015341225619243568 -0.022711280641815872 0 -0.015628505011135847 -0.022138349630667464 0 -0.013997899308170905 -0.022821158912768806 0 -0.014638369754555118 -0.023538921082823152 0 -0.013546115932845076 -0.023634474417354941 0 -0.014638369754555118 -0.023538921082823152 0 -0.013546115932845076 -0.023634474417354941 0 -0.013581629466153064 -0.024851478276589199 0 -0.014638369754555118 -0.023538921082823152 0 -0.013581629466153064 -0.024851478276589199 0 -0.015192121740093918 -0.024446884893693493 0 -0.01285136878812498 -0.022942233535255749 0 -0.012671943792480803 -0.023820719977078374 0 -0.013546115932845076 -0.023634474417354941 0 -0.012671943792480803 -0.023820719977078374 0 -0.013546115932845076 -0.023634474417354941 0 -0.013581629466153064 -0.024851478276589199 0 -0.014418619187281295 -0.025455670258166484 0 -0.015220850639197158 -0.026052212174336408 0 -0.015923200302856266 -0.021813490100299513 0 -0.015842347133497716 -0.022051107838318925 0 -0.015628505011135847 -0.022138349630667464 0 -0.014144283812522279 -0.022333002668957439 0 -0.014912971064405806 -0.022501211353268574 0 -0.01285136878812498 -0.022942233535255749 0 -0.013997899308170905 -0.022821158912768806 0 -0.013546115932845076 -0.023634474417354941 0 -0.015519951748535933 -0.022056623891700797 0 -0.01524645362723623 -0.021765053677128682 0 -0.015141448712967007 -0.0225574063147513 0 -0.015519951748535933 -0.022056623891700797 0 -0.015902238515843711 -0.021112684368767589 0 -0.01524645362723623 -0.021765053677128682 0 -0.015519951748535933 -0.022056623891700797 0 -0.016029998956913032 -0.02169647934036549 0 -0.015902238515843711 -0.021112684368767589 0 -0.015519951748535933 -0.022056623891700797 0 -0.015966178754116465 -0.022134369483091838 0 -0.016029998956913032 -0.02169647934036549 0 -0.016029998956913032 -0.02169647934036549 0 -0.015902238515843711 -0.021112684368767589 0 -0.016321264303356394 -0.021327818359253466 0 -0.015715427103635667 -0.02029781000792056 0 -0.015902238515843711 -0.021112684368767589 0 -0.01534704662892028 -0.02088121662945077 0 -0.015902238515843711 -0.021112684368767589 0 -0.01534704662892028 -0.02088121662945077 0 -0.01524645362723623 -0.021765053677128682 0 -0.015182595843099755 -0.020239686713254924 0 -0.01534704662892028 -0.02088121662945077 0 -0.014774557873315186 -0.02146167092039775 0 -0.01534704662892028 -0.02088121662945077 0 -0.014774557873315186 -0.02146167092039775 0 -0.01524645362723623 -0.021765053677128682 0 -0.015182595843099755 -0.020239686713254924 0 -0.014365444672849606 -0.020705463151249097 0 -0.014774557873315186 -0.02146167092039775 0 -0.014365444672849606 -0.020705463151249097 0 -0.014113091747348599 -0.021353177318473603 0 -0.014774557873315186 -0.02146167092039775 0 -0.014229533610789442 -0.022123042834101554 0 -0.014774557873315186 -0.02146167092039775 0 -0.014995648543209141 -0.02299710076480637 0 -0.014113091747348599 -0.021353177318473603 0 -0.014229533610789442 -0.022123042834101554 0 -0.014774557873315186 -0.02146167092039775 0 -0.014774557873315186 -0.02146167092039775 0 -0.01524645362723623 -0.021765053677128682 0 -0.014995648543209141 -0.02299710076480637 0 -0.01524645362723623 -0.021765053677128682 0 -0.014995648543209141 -0.02299710076480637 0 -0.015141448712967007 -0.0225574063147513 0 -0.014995648543209141 -0.02299710076480637 0 -0.014927632991016879 -0.023294985527844952 0 -0.015141448712967007 -0.0225574063147513 0 -0.014784946123382688 -0.022603030353900336 0 -0.015066947919879921 -0.022910742345996181 0 -0.015674039972581683 -0.022939500281707458 0 -0.015758852111454086 -0.023126424705118862 0 -0.014995648543209141 -0.02299710076480637 0 -0.015758852111454086 -0.023126424705118862 0 -0.014769248992397916 -0.023044668850304994 0 -0.014918451730919855 -0.022893912669735068 0 -0.015758852111454086 -0.023126424705118862 0 -0.014995648543209141 -0.02299710076480637 0 -0.014769248992397916 -0.023044668850304994 0 -0.014995648543209141 -0.02299710076480637 0 -0.014769248992397916 -0.023044668850304994 0 -0.014927632991016879 -0.023294985527844952 0 -0.014769248992397916 -0.023044668850304994 0 -0.014927632991016879 -0.023294985527844952 0 -0.014207864706008606 -0.023121297111472885 0 -0.015519951748535933 -0.022056623891700797 0 -0.014927632991016879 -0.023294985527844952 0 -0.015141448712967007 -0.0225574063147513 0 -0.015519951748535933 -0.022056623891700797 0 -0.015966178754116465 -0.022134369483091838 0 -0.014927632991016879 -0.023294985527844952 0 -0.014718548238702866 -0.02332526209706666 0 -0.013896443380012852 -0.02342409237032873 0 -0.014927632991016879 -0.023294985527844952 0 -0.015896092534433592 -0.02255042598314572 0 -0.016091151199310941 -0.022511218540697611 0 -0.015966178754116465 -0.022134369483091838 0 -0.014927632991016879 -0.023294985527844952 0 -0.015896092534433592 -0.02255042598314572 0 -0.014927632991016879 -0.023294985527844952 0 -0.012069554997635408 -0.023752235728660507 0 -0.011861060806949087 -0.024480189052273615 0 -0.014927632991016879 -0.023294985527844952 0 -0.012069554997635408 -0.023752235728660507 0 -0.014207864706008606 -0.023121297111472885 0 -0.012069554997635408 -0.023752235728660507 0 -0.011861060806949087 -0.024480189052273615 0 -0.010856649170746665 -0.024003311207116209 0 -0.013896443380012852 -0.02342409237032873 0 -0.012625961039539484 -0.023141382541747656 0 -0.016091151199310941 -0.022511218540697611 0 -0.016037769011299881 -0.022463256709333308 0 -0.015456144601368099 -0.02186432354104046 0 -0.011861060806949087 -0.024480189052273615 0 -0.0098167947370328013 -0.024404132451420275 0 -0.010856649170746665 -0.024003311207116209 0 -0.016037769011299881 -0.022463256709333308 0 -0.015456144601368099 -0.02186432354104046 0 -0.015421938705575636 -0.022577614417904131 0 -0.016037769011299881 -0.022463256709333308 0 -0.015421938705575636 -0.022577614417904131 0 -0.016092780918509832 -0.022197295843829686 0 -0.015966178754116465 -0.022134369483091838 0 -0.015896092534433592 -0.02255042598314572 0 -0.016037769011299881 -0.022463256709333308 0 -0.015896092534433592 -0.02255042598314572 0 -0.016091151199310941 -0.022511218540697611 0 -0.016037769011299881 -0.022463256709333308 0 -0.015456144601368099 -0.02186432354104046 0 -0.014260782175713633 -0.023367596164984981 0 -0.013340692797681648 -0.021585189907522225 0 -0.012625961039539484 -0.023141382541747656 0 -0.011095763150274541 -0.022771620294828532 0 -0.015456144601368099 -0.02186432354104046 0 -0.015421938705575636 -0.022577614417904131 0 -0.014260782175713633 -0.023367596164984981 0 -0.015421938705575636 -0.022577614417904131 0 -0.014260782175713633 -0.023367596164984981 0 -0.016092780918509832 -0.022197295843829686 0 -0.01464934657331649 -0.021378093539710818 0 -0.015607249723645796 -0.022044738322759452 0 -0.013061474923616149 -0.022438338859572988 0 -0.014412082549343629 -0.022368984218483424 0 -0.015901881181233184 -0.022238450179582935 0 -0.01464934657331649 -0.021378093539710818 0 -0.015607249723645796 -0.022044738322759452 0 -0.016092780918509832 -0.022197295843829686 0 -0.015607249723645796 -0.022044738322759452 0 -0.015640949358747318 -0.022215416921172706 0 -0.016318902532144103 -0.021573811592670303 0 -0.014482419266076581 -0.022217010721381585 0 -0.013194438005427267 -0.022281063439363136 0 -0.015607249723645796 -0.022044738322759452 0 -0.015640949358747318 -0.022215416921172706 0 -0.013061474923616149 -0.022438338859572988 0 -0.016106546500444852 -0.02198171722441649 0 -0.016092780918509832 -0.022197295843829686 0 -0.016321264303356394 -0.021327818359253466 0 -0.015966178754116465 -0.022134369483091838 0 -0.016037769011299881 -0.022463256709333308 0 -0.016106546500444852 -0.02198171722441649 0 -0.015966178754116465 -0.022134369483091838 0 -0.016029998956913032 -0.02169647934036549 0 -0.016106546500444852 -0.02198171722441649 0 -0.016037769011299881 -0.022463256709333308 0 -0.016106546500444852 -0.02198171722441649 0 -0.016092780918509832 -0.022197295843829686 0 -0.015607249723645796 -0.022044738322759452 0 -0.016092780918509832 -0.022197295843829686 0 -0.016318902532144103 -0.021573811592670303 0 -0.016092780918509832 -0.022197295843829686 0 -0.016321264303356394 -0.021327818359253466 0 -0.016318902532144103 -0.021573811592670303 0 -0.016029998956913032 -0.02169647934036549 0 -0.016106546500444852 -0.02198171722441649 0 -0.016321264303356394 -0.021327818359253466 0 -0.016317555639132966 -0.020034184999424616 0 -0.016321264303356394 -0.021327818359253466 0 -0.016599863749812732 -0.020398596422543731 0 -0.016599863749812732 -0.020398596422543731 0 -0.016584853857933506 -0.019415473130131165 0 -0.017048104978373568 -0.018840945310352034 0 -0.016317555639132966 -0.020034184999424616 0 -0.016599863749812732 -0.020398596422543731 0 -0.016584853857933506 -0.019415473130131165 0 -0.016599863749812732 -0.020398596422543731 0 -0.016866087013163205 -0.020675458314564417 0 -0.017048104978373568 -0.018840945310352034 0 -0.016599863749812732 -0.020398596422543731 0 -0.016318902532144103 -0.021573811592670303 0 -0.016866087013163205 -0.020675458314564417 0 -0.016321264303356394 -0.021327818359253466 0 -0.016599863749812732 -0.020398596422543731 0 -0.016318902532144103 -0.021573811592670303 0 -0.014482419266076581 -0.022217010721381585 0 -0.015638346257777505 -0.021297918903779588 0 -0.015640949358747318 -0.022215416921172706 0 -0.016318902532144103 -0.021573811592670303 0 -0.016866087013163205 -0.020675458314564417 0 -0.013443230734319276 -0.022351032895049184 0 -0.013331185520770429 -0.02246604547765331 0 -0.012321413376244887 -0.02285512972759729 0 -0.013443230734319276 -0.022351032895049184 0 -0.013331185520770429 -0.02246604547765331 0 -0.01447571202889354 -0.021947902906813695 0 -0.013331185520770429 -0.02246604547765331 0 -0.01447571202889354 -0.021947902906813695 0 -0.01432576351735978 -0.022019189003258999 0 -0.01447571202889354 -0.021947902906813695 0 -0.01432576351735978 -0.022019189003258999 0 -0.015651951393439396 -0.020838900332458218 0 -0.01432576351735978 -0.022019189003258999 0 -0.013840703689762814 -0.023178922510190936 0 -0.012820440290551472 -0.023048176403330126 0 -0.013331185520770429 -0.02246604547765331 0 -0.01432576351735978 -0.022019189003258999 0 -0.012820440290551472 -0.023048176403330126 0 -0.016745531982060413 -0.019043213405286544 0 -0.017688247009996622 -0.019455684935409012 0 -0.015651951393439396 -0.020838900332458218 0 -0.015573941787759341 -0.021296204231561915 0 -0.015545160064606905 -0.020965262701241223 0 -0.01432576351735978 -0.022019189003258999 0 -0.013840703689762814 -0.023178922510190936 0 -0.015651951393439396 -0.020838900332458218 0 -0.016012526133691345 -0.019230455013075378 0 -0.015651951393439396 -0.020838900332458218 0 -0.015735497135938172 -0.01955170316778114 0 -0.016012526133691345 -0.019230455013075378 0 -0.016745531982060413 -0.019043213405286544 0 -0.015651951393439396 -0.020838900332458218 0 -0.015651951393439396 -0.020838900332458218 0 -0.015735497135938172 -0.01955170316778114 0 -0.015287235647139207 -0.020678778222203865 0 -0.016389348518082103 -0.018193755617932159 0 -0.016562444228408045 -0.017738568902554073 0 -0.015287235647139207 -0.020678778222203865 0 -0.016389348518082103 -0.018193755617932159 0 -0.015856933364121802 -0.01919472248790801 0 -0.015287235647139207 -0.020678778222203865 0 -0.016483326027465644 -0.018064036047910289 0 -0.016232971916029616 -0.019755741797343584 0 -0.015907710255290485 -0.018599828436631466 0 -0.015735497135938172 -0.01955170316778114 0 -0.015856933364121802 -0.01919472248790801 0 -0.016562444228408045 -0.017738568902554073 0 -0.016649276765714587 -0.018179937075601695 0 -0.017048104978373568 -0.018840945310352034 0 -0.015735497135938172 -0.01955170316778114 0 -0.015856933364121802 -0.01919472248790801 0 -0.015287235647139207 -0.020678778222203865 0 -0.016649276765714587 -0.018179937075601695 0 -0.016626626455133232 -0.018763506551035303 0 -0.017048104978373568 -0.018840945310352034 0 -0.016626626455133232 -0.018763506551035303 0 -0.016584853857933506 -0.019415473130131165 0 -0.017048104978373568 -0.018840945310352034 0 -0.015638346257777505 -0.021297918903779588 0 -0.016232971916029616 -0.019755741797343584 0 -0.01447571202889354 -0.021947902906813695 0 -0.015651951393439396 -0.020838900332458218 0 -0.015287235647139207 -0.020678778222203865 0 -0.011410933199762118 -0.02348277594057302 0 -0.011933446376399145 -0.023131518217427465 0 -0.011080422891774409 -0.02336084449119662 0 -0.011410933199762118 -0.02348277594057302 0 -0.011044249216668601 -0.023532657557997053 0 -0.011238672637337252 -0.023711577620484512 0 -0.011410933199762118 -0.02348277594057302 0 -0.011044249216668601 -0.023532657557997053 0 -0.011080422891774409 -0.02336084449119662 0 -0.010828179329621641 -0.023470344671701185 0 -0.011044249216668601 -0.023532657557997053 0 -0.011080422891774409 -0.02336084449119662 0 -0.010828179329621641 -0.023470344671701185 0 -0.010834201618900871 -0.023556565335876335 0 -0.011044249216668601 -0.023532657557997053 0 -0.011044249216668601 -0.023532657557997053 0 -0.01097496331043123 -0.023682513199713227 0 -0.011238672637337252 -0.023711577620484512 0 -0.010834201618900871 -0.023556565335876335 0 -0.011044249216668601 -0.023532657557997053 0 -0.01097496331043123 -0.023682513199713227 0 -0.010834201618900871 -0.023556565335876335 0 -0.01097496331043123 -0.023682513199713227 0 -0.01082739882800675 -0.023690906809428845 0 -0.01097496331043123 -0.023682513199713227 0 -0.01082739882800675 -0.023690906809428845 0 -0.010924063318035672 -0.023750112368579698 0 -0.010834155150483051 -0.023804915658690994 0 -0.01082739882800675 -0.023690906809428845 0 -0.010924063318035672 -0.023750112368579698 0 -0.01097496331043123 -0.023682513199713227 0 -0.01107352763011336 -0.023816241331038615 0 -0.011238672637337252 -0.023711577620484512 0 -0.01097496331043123 -0.023682513199713227 0 -0.010924063318035672 -0.023750112368579698 0 -0.01107352763011336 -0.023816241331038615 0 -0.011283374315875883 -0.023970327849676249 0 -0.011238672637337252 -0.023711577620484512 0 -0.011517194555712176 -0.023921859792920448 0 -0.011283374315875883 -0.023970327849676249 0 -0.01107352763011336 -0.023816241331038615 0 -0.011238672637337252 -0.023711577620484512 0 -0.011514887365508906 -0.023640827971787709 0 -0.011517194555712176 -0.023921859792920448 0 -0.011895288230263843 -0.023523526424890764 0 -0.011410933199762118 -0.02348277594057302 0 -0.011238672637337252 -0.023711577620484512 0 -0.011514887365508906 -0.023640827971787709 0 -0.011410933199762118 -0.02348277594057302 0 -0.011514887365508906 -0.023640827971787709 0 -0.011895288230263843 -0.023523526424890764 0 -0.011238672637337252 -0.023711577620484512 0 -0.011514887365508906 -0.023640827971787709 0 -0.011517194555712176 -0.023921859792920448 0 -0.013793928158290995 -0.022107051722903635 0 -0.011522151199272088 -0.02376319907417895 0 -0.012367743958111625 -0.023930575943273327 0 -0.011895288230263843 -0.023523526424890764 0 -0.012820440290551472 -0.023048176403330126 0 -0.011221910327560102 -0.024111476265009264 0 -0.011517194555712176 -0.023921859792920448 0 -0.012367743958111625 -0.023930575943273327 0 -0.011517194555712176 -0.023921859792920448 0 -0.012367743958111625 -0.023930575943273327 0 -0.011895288230263843 -0.023523526424890764 0 -0.013793928158290995 -0.022107051722903635 0 -0.015626978747008562 -0.021183303086235533 0 -0.013840703689762814 -0.023178922510190936 0 -0.012367743958111625 -0.023930575943273327 0 -0.012820440290551472 -0.023048176403330126 0 -0.015573941787759341 -0.021296204231561915 0 -0.015626978747008562 -0.021183303086235533 0 -0.018016272453224215 -0.018540197455335625 0 -0.017688247009996622 -0.019455684935409012 0 -0.018370277148235723 -0.018700167180854876 0 -0.013331185520770429 -0.02246604547765331 0 -0.012820440290551472 -0.023048176403330126 0 -0.011933446376399145 -0.023131518217427465 0 -0.011410933199762118 -0.02348277594057302 0 -0.011895288230263843 -0.023523526424890764 0 -0.011933446376399145 -0.023131518217427465 0 -0.011895288230263843 -0.023523526424890764 0 -0.012820440290551472 -0.023048176403330126 0 -0.011933446376399145 -0.023131518217427465 0 -0.011933446376399145 -0.023131518217427465 0 -0.012321413376244887 -0.02285512972759729 0 -0.011446421690378105 -0.023191769945096006 0 -0.013331185520770429 -0.02246604547765331 0 -0.011933446376399145 -0.023131518217427465 0 -0.012321413376244887 -0.02285512972759729 0 -0.012321413376244887 -0.02285512972759729 0 -0.011446421690378105 -0.023191769945096006 0 -0.011195470531966364 -0.023292000127528311 0 -0.011446421690378105 -0.023191769945096006 0 -0.010688482455525623 -0.023432278130211801 0 -0.011195470531966364 -0.023292000127528311 0 -0.011933446376399145 -0.023131518217427465 0 -0.011446421690378105 -0.023191769945096006 0 -0.011080422891774409 -0.02336084449119662 0 -0.011446421690378105 -0.023191769945096006 0 -0.011080422891774409 -0.02336084449119662 0 -0.010688482455525623 -0.023432278130211801 0 -0.010828179329621641 -0.023470344671701185 0 -0.011080422891774409 -0.02336084449119662 0 -0.010619931945977996 -0.023430615962858961 0 -0.011080422891774409 -0.02336084449119662 0 -0.010619931945977996 -0.023430615962858961 0 -0.010688482455525623 -0.023432278130211801 0 -0.010619931945977996 -0.023430615962858961 0 -0.010688482455525623 -0.023432278130211801 0 -0.010228320653265469 -0.023594037835811172 0 -0.010688482455525623 -0.023432278130211801 0 -0.010199832947304732 -0.023750158763810189 0 -0.010228320653265469 -0.023594037835811172 0 -0.010199832947304732 -0.023750158763810189 0 -0.010228320653265469 -0.023594037835811172 0 -0.0092035564033154105 -0.024672441073908532 0 -0.010688482455525623 -0.023432278130211801 0 -0.010199832947304732 -0.023750158763810189 0 -0.011195470531966364 -0.023292000127528311 0 -0.010199832947304732 -0.023750158763810189 0 -0.011195470531966364 -0.023292000127528311 0 -0.010506306972141043 -0.023305828645862087 0 -0.010199832947304732 -0.023750158763810189 0 -0.010506306972141043 -0.023305828645862087 0 -0.0092035564033154105 -0.024672441073908532 0 -0.013443230734319276 -0.022351032895049184 0 -0.012321413376244887 -0.02285512972759729 0 -0.012097613033936401 -0.022933097853340224 0 -0.013443230734319276 -0.022351032895049184 0 -0.012097613033936401 -0.022933097853340224 0 -0.013061474923616149 -0.022438338859572988 0 -0.012321413376244887 -0.02285512972759729 0 -0.011195470531966364 -0.023292000127528311 0 -0.012097613033936401 -0.022933097853340224 0 -0.011195470531966364 -0.023292000127528311 0 -0.012097613033936401 -0.022933097853340224 0 -0.011739337077870378 -0.022759737300900473 0 -0.011195470531966364 -0.023292000127528311 0 -0.010506306972141043 -0.023305828645862087 0 -0.011739337077870378 -0.022759737300900473 0 -0.011739337077870378 -0.022759737300900473 0 -0.013061474923616149 -0.022438338859572988 0 -0.011901504983055242 -0.021810239012986454 0 -0.012097613033936401 -0.022933097853340224 0 -0.011739337077870378 -0.022759737300900473 0 -0.013061474923616149 -0.022438338859572988 0 -0.014412082549343629 -0.022368984218483424 0 -0.011811134152725566 -0.022630843420270996 0 -0.01464934657331649 -0.021378093539710818 0 -0.013061474923616149 -0.022438338859572988 0 -0.011901504983055242 -0.021810239012986454 0 -0.010506306972141043 -0.023305828645862087 0 -0.011739337077870378 -0.022759737300900473 0 -0.011901504983055242 -0.021810239012986454 0 -0.011811134152725566 -0.022630843420270996 0 -0.0097619077530278382 -0.022918627356734726 0 -0.011648495515038496 -0.023368405214821582 0 -0.0095573121727657185 -0.023035103037492961 0 -0.010836828081101573 -0.021694211296770995 0 -0.014260782175713633 -0.023367596164984981 0 -0.011648495515038496 -0.023368405214821582 0 -0.013340692797681648 -0.021585189907522225 0 -0.011648495515038496 -0.023368405214821582 0 -0.010836828081101573 -0.021694211296770995 0 -0.013340692797681648 -0.021585189907522225 0 -0.0095573121727657185 -0.023035103037492961 0 -0.0092035564033154105 -0.024672441073908532 0 -0.0073721454361817939 -0.023492459344922292 0 -0.010506306972141043 -0.023305828645862087 0 -0.0095573121727657185 -0.023035103037492961 0 -0.0092035564033154105 -0.024672441073908532 0 -0.010506306972141043 -0.023305828645862087 0 -0.011901504983055242 -0.021810239012986454 0 -0.0095573121727657185 -0.023035103037492961 0 -0.0083615792572249385 -0.022508365632057291 0 -0.0080829139450620101 -0.022783664769783267 0 -0.0072698012417594937 -0.022524892267711403 0 -0.0095573121727657185 -0.023035103037492961 0 -0.0083615792572249385 -0.022508365632057291 0 -0.0073721454361817939 -0.023492459344922292 0 -0.0085312942138938818 -0.022493760814854519 0 -0.0095732818044912613 -0.022523747885801752 0 -0.0095573121727657185 -0.023035103037492961 0 -0.0083615792572249385 -0.022508365632057291 0 -0.010836828081101573 -0.021694211296770995 0 -0.0083615792572249385 -0.022508365632057291 0 -0.0080829139450620101 -0.022783664769783267 0 -0.0081677028171711769 -0.023268385477815328 0 -0.0080829139450620101 -0.022783664769783267 0 -0.0078747803694618843 -0.022566121888096018 0 -0.0072698012417594937 -0.022524892267711403 0 -0.0080829139450620101 -0.022783664769783267 0 -0.0078747803694618843 -0.022566121888096018 0 -0.0081448665744293259 -0.02287741510295874 0 -0.0078747803694618843 -0.022566121888096018 0 -0.0072698012417594937 -0.022524892267711403 0 -0.007522977248648921 -0.0223141384152034 0 -0.0081448665744293259 -0.02287741510295874 0 -0.0086545784707311463 -0.022859454604245065 0 -0.0079458866917131287 -0.022679784432559261 0 -0.0081448665744293259 -0.02287741510295874 0 -0.0078383413653456586 -0.022700998673165836 0 -0.0079458866917131287 -0.022679784432559261 0 -0.0078747803694618843 -0.022566121888096018 0 -0.0081448665744293259 -0.02287741510295874 0 -0.0078383413653456586 -0.022700998673165836 0 -0.0081448665744293259 -0.02287741510295874 0 -0.0087368200116155776 -0.023350294642237757 0 -0.0086545784707311463 -0.022859454604245065 0 -0.0080829139450620101 -0.022783664769783267 0 -0.0081448665744293259 -0.02287741510295874 0 -0.0081677028171711769 -0.023268385477815328 0 -0.0081448665744293259 -0.02287741510295874 0 -0.0081677028171711769 -0.023268385477815328 0 -0.0087368200116155776 -0.023350294642237757 0 -0.0095732818044912613 -0.022523747885801752 0 -0.011095763150274541 -0.022771620294828532 0 -0.0081677028171711769 -0.023268385477815328 0 -0.0087731539123758803 -0.023929707669891789 0 -0.0087368200116155776 -0.023350294642237757 0 -0.0087731539123758803 -0.023929707669891789 0 -0.0093401490739681327 -0.023717513964323509 0 -0.0087368200116155776 -0.023350294642237757 0 -0.0098167947370328013 -0.024404132451420275 0 -0.0093401490739681327 -0.023717513964323509 0 -0.010126210293493632 -0.023746140005677409 0 -0.0098167947370328013 -0.024404132451420275 0 -0.0087731539123758803 -0.023929707669891789 0 -0.0093401490739681327 -0.023717513964323509 0 -0.0093401490739681327 -0.023717513964323509 0 -0.010126210293493632 -0.023746140005677409 0 -0.0092688020624786416 -0.023641181996390589 0 -0.0093401490739681327 -0.023717513964323509 0 -0.0087368200116155776 -0.023350294642237757 0 -0.0092688020624786416 -0.023641181996390589 0 -0.012069554997635408 -0.023752235728660507 0 -0.010848530356425638 -0.023731574050485274 0 -0.010682433492822595 -0.023850652621257244 0 -0.012069554997635408 -0.023752235728660507 0 -0.010848530356425638 -0.023731574050485274 0 -0.010856649170746665 -0.024003311207116209 0 -0.0098167947370328013 -0.024404132451420275 0 -0.010856649170746665 -0.024003311207116209 0 -0.010126210293493632 -0.023746140005677409 0 -0.010848530356425638 -0.023731574050485274 0 -0.010856649170746665 -0.024003311207116209 0 -0.010126210293493632 -0.023746140005677409 0 -0.010126210293493632 -0.023746140005677409 0 -0.010198384447200502 -0.023787933078505442 0 -0.0092688020624786416 -0.023641181996390589 0 -0.010848530356425638 -0.023731574050485274 0 -0.010198384447200502 -0.023787933078505442 0 -0.010682433492822595 -0.023850652621257244 0 -0.010848530356425638 -0.023731574050485274 0 -0.010126210293493632 -0.023746140005677409 0 -0.010198384447200502 -0.023787933078505442 0 -0.010198384447200502 -0.023787933078505442 0 -0.0098268370035350106 -0.023626816389591788 0 -0.0092688020624786416 -0.023641181996390589 0 -0.0098268370035350106 -0.023626816389591788 0 -0.0092688020624786416 -0.023641181996390589 0 -0.0083845534013614904 -0.023508886884198575 0 -0.010198384447200502 -0.023787933078505442 0 -0.0098268370035350106 -0.023626816389591788 0 -0.01108863887578917 -0.023958146768290309 0 -0.0087368200116155776 -0.023350294642237757 0 -0.0092688020624786416 -0.023641181996390589 0 -0.0086545784707311463 -0.022859454604245065 0 -0.0091053385628153162 -0.023615148016943865 0 -0.0080881509802363423 -0.023197194898927246 0 -0.0092688020624786416 -0.023641181996390589 0 -0.0083845534013614904 -0.023508886884198575 0 -0.0074904898058700342 -0.023591959908798428 0 -0.0074904898058700342 -0.023591959908798428 0 -0.0069463149521197401 -0.023427721823116227 0 -0.007024541531798459 -0.02347383725658711 0 -0.0074904898058700342 -0.023591959908798428 0 -0.0073183999235471664 -0.022933171685956835 0 -0.0069463149521197401 -0.023427721823116227 0 -0.0083845534013614904 -0.023508886884198575 0 -0.0074904898058700342 -0.023591959908798428 0 -0.0073183999235471664 -0.022933171685956835 0 -0.0073183999235471664 -0.022933171685956835 0 -0.0069463149521197401 -0.023427721823116227 0 -0.0062019486514892459 -0.024271693536063971 0 -0.0073183999235471664 -0.022933171685956835 0 -0.0046240892506077963 -0.024508352656622115 0 -0.0062019486514892459 -0.024271693536063971 0 -0.0098268370035350106 -0.023626816389591788 0 -0.0093927132555622819 -0.022694671302198606 0 -0.010503857834935551 -0.02321635380837607 0 -0.0093927132555622819 -0.022694671302198606 0 -0.010503857834935551 -0.02321635380837607 0 -0.010551071128072614 -0.022226700587861043 0 -0.0083845534013614904 -0.023508886884198575 0 -0.0073183999235471664 -0.022933171685956835 0 -0.0093927132555622819 -0.022694671302198606 0 -0.0098268370035350106 -0.023626816389591788 0 -0.0083845534013614904 -0.023508886884198575 0 -0.0093927132555622819 -0.022694671302198606 0 -0.00714419329174766 -0.022902691728129816 0 -0.0066027150539969938 -0.02308590951669006 0 -0.0073183999235471664 -0.022933171685956835 0 -0.0090633480638640396 -0.021551044497661626 0 -0.0086240697454164888 -0.020903176500165495 0 -0.0073183999235471664 -0.022933171685956835 0 -0.0090633480638640396 -0.021551044497661626 0 -0.0093927132555622819 -0.022694671302198606 0 -0.0093927132555622819 -0.022694671302198606 0 -0.0099769379726171534 -0.021319517140466669 0 -0.010551071128072614 -0.022226700587861043 0 -0.0090633480638640396 -0.021551044497661626 0 -0.0093927132555622819 -0.022694671302198606 0 -0.0099769379726171534 -0.021319517140466669 0 -0.0099769379726171534 -0.021319517140466669 0 -0.010551071128072614 -0.022226700587861043 0 -0.010914644523842955 -0.021249807706588662 0 -0.0099769379726171534 -0.021319517140466669 0 -0.0099865559661871384 -0.020134602215679465 0 -0.010777064793627869 -0.020488555806450284 0 -0.0090633480638640396 -0.021551044497661626 0 -0.0099769379726171534 -0.021319517140466669 0 -0.0087340032900094181 -0.020987115129596522 0 -0.0099769379726171534 -0.021319517140466669 0 -0.0087340032900094181 -0.020987115129596522 0 -0.0099865559661871384 -0.020134602215679465 0 -0.0086928856090735564 -0.02100067527769614 0 -0.0093632373810896442 -0.020758311208592374 0 -0.0087340032900094181 -0.020987115129596522 0 -0.0086240697454164888 -0.020903176500165495 0 -0.0086228518849099014 -0.021476168500717936 0 -0.0090633480638640396 -0.021551044497661626 0 -0.0087340032900094181 -0.020987115129596522 0 -0.0086240697454164888 -0.020903176500165495 0 -0.0046240892506077963 -0.024508352656622115 0 -0.0046467195627523427 -0.025868527033946036 0 -0.0052594409149712661 -0.025100449816744773 0 -0.0086240697454164888 -0.020903176500165495 0 -0.0088341020968449764 -0.022041861238123905 0 -0.0086228518849099014 -0.021476168500717936 0 -0.0046240892506077963 -0.024508352656622115 0 -0.0046467195627523427 -0.025868527033946036 0 -0.002879073419005521 -0.026772107245060944 0 -0.0046467195627523427 -0.025868527033946036 0 -0.002879073419005521 -0.026772107245060944 0 -0.0050985305685938955 -0.0274924102892889 0 -0.0066027150539969938 -0.02308590951669006 0 -0.0058078432488696844 -0.023488669424251766 0 -0.0087340032900094181 -0.020987115129596522 0 -0.0086228518849099014 -0.021476168500717936 0 -0.0080157617577983932 -0.021393059311089469 0 -0.0086228518849099014 -0.021476168500717936 0 -0.0080334201755004695 -0.022209654813395142 0 -0.0080157617577983932 -0.021393059311089469 0 -0.0088341020968449764 -0.022041861238123905 0 -0.0086228518849099014 -0.021476168500717936 0 -0.0080334201755004695 -0.022209654813395142 0 -0.0080334201755004695 -0.022209654813395142 0 -0.0080157617577983932 -0.021393059311089469 0 -0.0069851535798687546 -0.021935044997109913 0 -0.0069463149521197401 -0.023427721823116227 0 -0.0064815467091521185 -0.025049714600328461 0 -0.0062019486514892459 -0.024271693536063971 0 -0.0064815467091521185 -0.025049714600328461 0 -0.0062019486514892459 -0.024271693536063971 0 -0.0056529506114243828 -0.025703052391435194 0 -0.0046240892506077963 -0.024508352656622115 0 -0.0062019486514892459 -0.024271693536063971 0 -0.0052594409149712661 -0.025100449816744773 0 -0.0062019486514892459 -0.024271693536063971 0 -0.0052594409149712661 -0.025100449816744773 0 -0.0056529506114243828 -0.025703052391435194 0 -0.0046467195627523427 -0.025868527033946036 0 -0.0056529506114243828 -0.025703052391435194 0 -0.0050985305685938955 -0.0274924102892889 0 -0.0056529506114243828 -0.025703052391435194 0 -0.0058619340602191388 -0.026787306087308119 0 -0.0050985305685938955 -0.0274924102892889 0 -0.0046467195627523427 -0.025868527033946036 0 -0.0052594409149712661 -0.025100449816744773 0 -0.0056529506114243828 -0.025703052391435194 0 -0.0064815467091521185 -0.025049714600328461 0 -0.0064029583328495728 -0.026904737412516751 0 -0.0058619340602191388 -0.026787306087308119 0 -0.0064815467091521185 -0.025049714600328461 0 -0.0056529506114243828 -0.025703052391435194 0 -0.0058619340602191388 -0.026787306087308119 0 -0.0064815467091521185 -0.025049714600328461 0 -0.007123662514615171 -0.025576774806583592 0 -0.0064029583328495728 -0.026904737412516751 0 -0.0064815467091521185 -0.025049714600328461 0 -0.007123662514615171 -0.025576774806583592 0 -0.0070024519305955145 -0.024012653764638656 0 -0.0069463149521197401 -0.023427721823116227 0 -0.0064815467091521185 -0.025049714600328461 0 -0.0070024519305955145 -0.024012653764638656 0 -0.007123662514615171 -0.025576774806583592 0 -0.0070024519305955145 -0.024012653764638656 0 -0.0075659747691609073 -0.023621324314843959 0 -0.007123662514615171 -0.025576774806583592 0 -0.0081358155761239673 -0.02509581482395765 0 -0.0077399634884553438 -0.026712080945540111 0 -0.0081358155761239673 -0.02509581482395765 0 -0.008796190566878451 -0.027350241418664368 0 -0.0092565332714729005 -0.025636986324550699 0 -0.0081358155761239673 -0.02509581482395765 0 -0.0082681874803227466 -0.023425060591442774 0 -0.0092565332714729005 -0.025636986324550699 0 -0.007123662514615171 -0.025576774806583592 0 -0.0081358155761239673 -0.02509581482395765 0 -0.0075659747691609073 -0.023621324314843959 0 -0.0081358155761239673 -0.02509581482395765 0 -0.0082681874803227466 -0.023425060591442774 0 -0.0075659747691609073 -0.023621324314843959 0 -0.0082681874803227466 -0.023425060591442774 0 -0.0078986865183287708 -0.022597209701705635 0 -0.0075659747691609073 -0.023621324314843959 0 -0.0078986865183287708 -0.022597209701705635 0 -0.0078383413653456586 -0.022700998673165836 0 -0.0075659747691609073 -0.023621324314843959 0 -0.0082681874803227466 -0.023425060591442774 0 -0.0078986865183287708 -0.022597209701705635 0 -0.0075970291217827427 -0.021991175157417518 0 -0.0078986865183287708 -0.022597209701705635 0 -0.007522977248648921 -0.0223141384152034 0 -0.0075970291217827427 -0.021991175157417518 0 -0.0078747803694618843 -0.022566121888096018 0 -0.0078986865183287708 -0.022597209701705635 0 -0.007522977248648921 -0.0223141384152034 0 -0.0078747803694618843 -0.022566121888096018 0 -0.0078986865183287708 -0.022597209701705635 0 -0.0078383413653456586 -0.022700998673165836 0 -0.0078383413653456586 -0.022700998673165836 0 -0.0079458866917131287 -0.022679784432559261 0 -0.0075659747691609073 -0.023621324314843959 0 -0.0080881509802363423 -0.023197194898927246 0 -0.0075186736282745401 -0.023129967831431685 0 -0.0069463149521197401 -0.023427721823116227 0 -0.007024541531798459 -0.02347383725658711 0 -0.0070024519305955145 -0.024012653764638656 0 -0.0075186736282745401 -0.023129967831431685 0 -0.0076312855519152503 -0.02359806903576267 0 -0.007024541531798459 -0.02347383725658711 0 -0.0070024519305955145 -0.024012653764638656 0 -0.0075659747691609073 -0.023621324314843959 0 -0.016750543355517733 -0.028465149836352899 0 -0.016963861274505158 -0.027963852946695796 0 -0.017101863852987488 -0.029012962942936562 0 -0.016963861274505158 -0.027963852946695796 0 -0.016997851050005033 -0.027571446814050715 0 -0.016997267983508885 -0.027743528713492688 0 -0.016963861274505158 -0.027963852946695796 0 -0.016753415565669515 -0.027770299625633765 0 -0.016997851050005033 -0.027571446814050715 0 -0.016750543355517733 -0.028465149836352899 0 -0.016963861274505158 -0.027963852946695796 0 -0.016753415565669515 -0.027770299625633765 0 -0.016359628671863823 -0.027468166028775148 0 -0.016753415565669515 -0.027770299625633765 0 -0.016825492770790745 -0.027259357885310261 0 -0.013581629466153064 -0.024851478276589199 0 -0.014700705281937822 -0.026066095158860728 0 -0.015192121740093918 -0.024446884893693493 0 -0.015220850639197158 -0.026052212174336408 0 -0.015873011839082272 -0.026788932557401939 0 -0.016753415565669515 -0.027770299625633765 0 -0.016825492770790745 -0.027259357885310261 0 -0.016997851050005033 -0.027571446814050715 0 -0.015873011839082272 -0.026788932557401939 0 -0.016547779005276295 -0.027252308462836567 0 -0.014700705281937822 -0.026066095158860728 0 -0.015819701050785888 -0.025714356029931662 0 -0.01664613662405548 -0.027275186581439365 0 -0.014700705281937822 -0.026066095158860728 0 -0.015819701050785888 -0.025714356029931662 0 -0.015192121740093918 -0.024446884893693493 0 -0.015493534256808675 -0.023510553208794721 0 -0.015192121740093918 -0.024446884893693493 0 -0.016901954700786832 -0.025438412178636308 0 -0.015819701050785888 -0.025714356029931662 0 -0.015192121740093918 -0.024446884893693493 0 -0.016901954700786832 -0.025438412178636308 0 -0.015819701050785888 -0.025714356029931662 0 -0.016548602327922188 -0.02640443962568537 0 -0.016901954700786832 -0.025438412178636308 0 -0.015819701050785888 -0.025714356029931662 0 -0.016548602327922188 -0.02640443962568537 0 -0.01664613662405548 -0.027275186581439365 0 -0.016548602327922188 -0.02640443962568537 0 -0.016783732416139563 -0.026803479880752722 0 -0.016063312265060463 -0.026828290599703632 0 -0.016783732416139563 -0.026803479880752722 0 -0.01664613662405548 -0.027275186581439365 0 -0.017177040247679347 -0.027730932791820345 0 -0.016548602327922188 -0.02640443962568537 0 -0.016783732416139563 -0.026803479880752722 0 -0.01664613662405548 -0.027275186581439365 0 -0.016997851050005033 -0.027571446814050715 0 -0.01664613662405548 -0.027275186581439365 0 -0.016997267983508885 -0.027743528713492688 0 -0.01664613662405548 -0.027275186581439365 0 -0.016997267983508885 -0.027743528713492688 0 -0.017177040247679347 -0.027730932791820345 0 -0.016963861274505158 -0.027963852946695796 0 -0.016997267983508885 -0.027743528713492688 0 -0.017225290050509046 -0.028402126469965188 0 -0.016997267983508885 -0.027743528713492688 0 -0.017177040247679347 -0.027730932791820345 0 -0.017225290050509046 -0.028402126469965188 0 -0.016783732416139563 -0.026803479880752722 0 -0.01550711579390982 -0.025209846869617476 0 -0.01499103817667909 -0.023554605396037185 0 -0.016753601635292999 -0.026903714092967799 0 -0.016562273379313295 -0.026287864248393328 0 -0.016783732416139563 -0.026803479880752722 0 -0.017177040247679347 -0.027730932791820345 0 -0.018205839485747496 -0.028658662625929157 0 -0.015180021004271361 -0.02481891427044489 0 -0.014414502109117211 -0.02371298039507545 0 -0.01550711579390982 -0.025209846869617476 0 -0.016063312265060463 -0.026828290599703632 0 -0.014311944344806201 -0.023686771050866313 0 -0.014261793957934641 -0.023221621423738972 0 -0.014306140068348896 -0.023022454340335442 0 -0.014311944344806201 -0.023686771050866313 0 -0.014261793957934641 -0.023221621423738972 0 -0.014141449686696728 -0.023405908215461766 0 -0.014311944344806201 -0.023686771050866313 0 -0.014261793957934641 -0.023221621423738972 0 -0.014387785899959014 -0.022939006010451561 0 -0.014199373145025358 -0.022936524782118783 0 -0.014261793957934641 -0.023221621423738972 0 -0.014306140068348896 -0.023022454340335442 0 -0.014387785899959014 -0.022939006010451561 0 -0.016783732416139563 -0.026803479880752722 0 -0.01550711579390982 -0.025209846869617476 0 -0.016063312265060463 -0.026828290599703632 0 -0.015180021004271361 -0.02481891427044489 0 -0.015846094664990991 -0.024194209269050457 0 -0.014306140068348896 -0.023022454340335442 0 -0.014918451730919855 -0.022893912669735068 0 -0.014387785899959014 -0.022939006010451561 0 -0.016548602327922188 -0.02640443962568537 0 -0.016063312265060463 -0.026828290599703632 0 -0.016901954700786832 -0.025438412178636308 0 -0.014769248992397916 -0.023044668850304994 0 -0.014918451730919855 -0.022893912669735068 0 -0.014407005496180214 -0.022905852964936753 0 -0.014918451730919855 -0.022893912669735068 0 -0.014407005496180214 -0.022905852964936753 0 -0.014387785899959014 -0.022939006010451561 0 -0.014407005496180214 -0.022905852964936753 0 -0.014387785899959014 -0.022939006010451561 0 -0.014199373145025358 -0.022936524782118783 0 -0.014407005496180214 -0.022905852964936753 0 -0.013817753303405738 -0.022610727914435504 0 -0.014199373145025358 -0.022936524782118783 0 -0.014769248992397916 -0.023044668850304994 0 -0.014407005496180214 -0.022905852964936753 0 -0.014207864706008606 -0.023121297111472885 0 -0.014407005496180214 -0.022905852964936753 0 -0.014207864706008606 -0.023121297111472885 0 -0.013817753303405738 -0.022610727914435504 0 -0.012069554997635408 -0.023752235728660507 0 -0.014207864706008606 -0.023121297111472885 0 -0.013817753303405738 -0.022610727914435504 0 -0.012031691346456024 -0.023837856310326765 0 -0.012254085745870325 -0.023344472620606987 0 -0.010198384447200502 -0.023787933078505442 0 -0.010682433492822595 -0.023850652621257244 0 -0.01108863887578917 -0.023958146768290309 0 -0.012254085745870325 -0.023344472620606987 0 -0.012646551859113536 -0.023496344024644063 0 -0.014261793957934641 -0.023221621423738972 0 -0.014199373145025358 -0.022936524782118783 0 -0.014157951121947314 -0.023251028759749982 0 -0.013817753303405738 -0.022610727914435504 0 -0.014199373145025358 -0.022936524782118783 0 -0.014157951121947314 -0.023251028759749982 0 -0.014261793957934641 -0.023221621423738972 0 -0.014157951121947314 -0.023251028759749982 0 -0.014141449686696728 -0.023405908215461766 0 -0.0098268370035350106 -0.023626816389591788 0 -0.01108863887578917 -0.023958146768290309 0 -0.010503857834935551 -0.02321635380837607 0 -0.01108863887578917 -0.023958146768290309 0 -0.011430822098717279 -0.023001105125637591 0 -0.010503857834935551 -0.02321635380837607 0 -0.011430822098717279 -0.023001105125637591 0 -0.010503857834935551 -0.02321635380837607 0 -0.010551071128072614 -0.022226700587861043 0 -0.014157951121947314 -0.023251028759749982 0 -0.013173656026045323 -0.022929280481841889 0 -0.014141449686696728 -0.023405908215461766 0 -0.01108863887578917 -0.023958146768290309 0 -0.011430822098717279 -0.023001105125637591 0 -0.013173656026045323 -0.022929280481841889 0 -0.012646551859113536 -0.023496344024644063 0 -0.013157021261221799 -0.022832582673406536 0 -0.013173656026045323 -0.022929280481841889 0 -0.014502086608462165 -0.023190802020573231 0 -0.014141449686696728 -0.023405908215461766 0 -0.013173656026045323 -0.022929280481841889 0 -0.013377264865724492 -0.021195943556222511 0 -0.014502086608462165 -0.023190802020573231 0 -0.014741586038917731 -0.02288597521279204 0 -0.014581231472902443 -0.023069351480716489 0 -0.013173656026045323 -0.022929280481841889 0 -0.013377264865724492 -0.021195943556222511 0 -0.011518625845887169 -0.02201779792003148 0 -0.011430822098717279 -0.023001105125637591 0 -0.013173656026045323 -0.022929280481841889 0 -0.011518625845887169 -0.02201779792003148 0 -0.011430822098717279 -0.023001105125637591 0 -0.011518625845887169 -0.02201779792003148 0 -0.010551071128072614 -0.022226700587861043 0 -0.011518625845887169 -0.02201779792003148 0 -0.010551071128072614 -0.022226700587861043 0 -0.010914644523842955 -0.021249807706588662 0 -0.0099769379726171534 -0.021319517140466669 0 -0.010914644523842955 -0.021249807706588662 0 -0.010777064793627869 -0.020488555806450284 0 -0.011493368187235802 -0.020976901704995159 0 -0.012961667624867411 -0.022435417201514127 0 -0.011518625845887169 -0.02201779792003148 0 -0.010914644523842955 -0.021249807706588662 0 -0.011694309496582482 -0.020486251472543966 0 -0.010914644523842955 -0.021249807706588662 0 -0.010777064793627869 -0.020488555806450284 0 -0.011694309496582482 -0.020486251472543966 0 -0.0099865559661871384 -0.020134602215679465 0 -0.010777064793627869 -0.020488555806450284 0 -0.011054298381535042 -0.019554340125313673 0 -0.013540512794430208 -0.026922806936127381 0 -0.011788800040821024 -0.024298227362433616 0 -0.010922643445693731 -0.02849543895618855 0 -0.0093632373810896442 -0.020758311208592374 0 -0.0098443479185853933 -0.026401640858410243 0 -0.0098443479185853933 -0.026401640858410243 0 -0.012961667624867411 -0.022435417201514127 0 -0.010777064793627869 -0.020488555806450284 0 -0.011054298381535042 -0.019554340125313673 0 -0.011694309496582482 -0.020486251472543966 0 -0.0098443479185853933 -0.026401640858410243 0 -0.012657866314156826 -0.030807294409119116 0 -0.012961667624867411 -0.022435417201514127 0 -0.012657866314156826 -0.030807294409119116 0 -0.016135982030134693 -0.026268662890133149 0 -0.017012577550163048 -0.025490274072586732 0 -0.016736023338783913 -0.027388558724247551 0 -0.016135982030134693 -0.026268662890133149 0 -0.017012577550163048 -0.025490274072586732 0 -0.015566152316169642 -0.025114728826466922 0 -0.013377264865724492 -0.021195943556222511 0 -0.011518625845887169 -0.02201779792003148 0 -0.012135511547518622 -0.01938241084999652 0 -0.015960814771288689 -0.024202006051940433 0 -0.017012577550163048 -0.025490274072586732 0 -0.015566152316169642 -0.025114728826466922 0 -0.014741586038917731 -0.02288597521279204 0 -0.012961667624867411 -0.022435417201514127 0 -0.015960814771288689 -0.024202006051940433 0 -0.015566152316169642 -0.025114728826466922 0 -0.014855019003914418 -0.024111787903425476 0 -0.014455658219528156 -0.02477131696511773 0 -0.015566152316169642 -0.025114728826466922 0 -0.014855019003914418 -0.024111787903425476 0 -0.014455658219528156 -0.02477131696511773 0 -0.015566152316169642 -0.025114728826466922 0 -0.015034363134520641 -0.026142341739572854 0 -0.016135982030134693 -0.026268662890133149 0 -0.015566152316169642 -0.025114728826466922 0 -0.015034363134520641 -0.026142341739572854 0 -0.016135982030134693 -0.026268662890133149 0 -0.015034363134520641 -0.026142341739572854 0 -0.015613797574278747 -0.028200861969000422 0 -0.015034363134520641 -0.026142341739572854 0 -0.013770054566594737 -0.025908103081551326 0 -0.014293699990222149 -0.027338928069183237 0 -0.014455658219528156 -0.02477131696511773 0 -0.015034363134520641 -0.026142341739572854 0 -0.013770054566594737 -0.025908103081551326 0 -0.013770054566594737 -0.025908103081551326 0 -0.012094237804701442 -0.027665214103966638 0 -0.014293699990222149 -0.027338928069183237 0 -0.014455658219528156 -0.02477131696511773 0 -0.014351954540777015 -0.023643682117005856 0 -0.013093163237805036 -0.024627800738250025 0 -0.014455658219528156 -0.02477131696511773 0 -0.013770054566594737 -0.025908103081551326 0 -0.013093163237805036 -0.024627800738250025 0 -0.014455658219528156 -0.02477131696511773 0 -0.014351954540777015 -0.023643682117005856 0 -0.014855019003914418 -0.024111787903425476 0 -0.015960814771288689 -0.024202006051940433 0 -0.014855019003914418 -0.024111787903425476 0 -0.014502086608462165 -0.023190802020573231 0 -0.014351954540777015 -0.023643682117005856 0 -0.014855019003914418 -0.024111787903425476 0 -0.014502086608462165 -0.023190802020573231 0 -0.014502086608462165 -0.023190802020573231 0 -0.014141449686696728 -0.023405908215461766 0 -0.014311944344806201 -0.023686771050866313 0 -0.014351954540777015 -0.023643682117005856 0 -0.014502086608462165 -0.023190802020573231 0 -0.014311944344806201 -0.023686771050866313 0 -0.014351954540777015 -0.023643682117005856 0 -0.014311944344806201 -0.023686771050866313 0 -0.01499103817667909 -0.023554605396037185 0 -0.01550711579390982 -0.025209846869617476 0 -0.014311944344806201 -0.023686771050866313 0 -0.01499103817667909 -0.023554605396037185 0 -0.017177040247679347 -0.027730932791820345 0 -0.018205839485747496 -0.028658662625929157 0 -0.017225290050509046 -0.028402126469965188 0 -0.018205839485747496 -0.028658662625929157 0 -0.017225290050509046 -0.028402126469965188 0 -0.017578605925588436 -0.029735462279390262 0 -0.018205839485747496 -0.028658662625929157 0 -0.017578605925588436 -0.029735462279390262 0 -0.018736246324236594 -0.030560595265845526 0 -0.014351954540777015 -0.023643682117005856 0 -0.01499103817667909 -0.023554605396037185 0 -0.013093163237805036 -0.024627800738250025 0 -0.016562273379313295 -0.026287864248393328 0 -0.015928608565403693 -0.027676579666451283 0 -0.015928608565403693 -0.027676579666451283 0 -0.015403763948964344 -0.030157383733837161 0 -0.018736246324236594 -0.030560595265845526 0 -0.017585086435203227 -0.031724052916620435 0 -0.018696197893647765 -0.032640962994928469 0 -0.013770054566594737 -0.025908103081551326 0 -0.013093163237805036 -0.024627800738250025 0 -0.012094237804701442 -0.027665214103966638 0 -0.017578605925588436 -0.029735462279390262 0 -0.018736246324236594 -0.030560595265845526 0 -0.017585086435203227 -0.031724052916620435 0 -0.017578605925588436 -0.029735462279390262 0 -0.017585086435203227 -0.031724052916620435 0 -0.016528027207632058 -0.030704804915916695 0 -0.017585086435203227 -0.031724052916620435 0 -0.016528027207632058 -0.030704804915916695 0 -0.016572401231311679 -0.032644458159720093 0 -0.017176635890112164 -0.030641448071882387 0 -0.01724180639944849 -0.032472212458683744 0 -0.01700567265978728 -0.030584229842355582 0 -0.017845868353667117 -0.030540884442349991 0 -0.017906754896323127 -0.0323453444743841 0 -0.016863210883901816 -0.029399601106860723 0 -0.01700567265978728 -0.030584229842355582 0 -0.017845868353667117 -0.030540884442349991 0 -0.016863210883901816 -0.029399601106860723 0 -0.017845868353667117 -0.030540884442349991 0 -0.017101863852987488 -0.029012962942936562 0 -0.017176635890112164 -0.030641448071882387 0 -0.017139110937217015 -0.029170920916972577 0 -0.017578605925588436 -0.029735462279390262 0 -0.016528027207632058 -0.030704804915916695 0 -0.017101863852987488 -0.029012962942936562 0 -0.016963861274505158 -0.027963852946695796 0 -0.017225290050509046 -0.028402126469965188 0 -0.017101863852987488 -0.029012962942936562 0 -0.017225290050509046 -0.028402126469965188 0 -0.017578605925588436 -0.029735462279390262 0 -0.017101863852987488 -0.029012962942936562 0 -0.016863210883901816 -0.029399601106860723 0 -0.016750543355517733 -0.028465149836352899 0 -0.017101863852987488 -0.029012962942936562 0 -0.017269151156458593 -0.034950046297560856 0 -0.017247783835016378 -0.034020236038921806 0 -0.017514913250841126 -0.033572222302139854 0 -0.01729727622856083 -0.034921572193621686 0 -0.017269151156458593 -0.034950046297560856 0 -0.017247783835016378 -0.034020236038921806 0 -0.017247783835016378 -0.034020236038921806 0 -0.016572401231311679 -0.032644458159720093 0 -0.017514913250841126 -0.033572222302139854 0 -0.017226703860599532 -0.033870448996124382 0 -0.01724180639944849 -0.032472212458683744 0 -0.016944251238671312 -0.033001310973660353 0 -0.017247783835016378 -0.034020236038921806 0 -0.017906754896323127 -0.0323453444743841 0 -0.017585086435203227 -0.031724052916620435 0 -0.016572401231311679 -0.032644458159720093 0 -0.017514913250841126 -0.033572222302139854 0 -0.017514913250841126 -0.033572222302139854 0 -0.018696197893647765 -0.032640962994928469 0 -0.01822692892197789 -0.034256581121623934 0 -0.017585086435203227 -0.031724052916620435 0 -0.017514913250841126 -0.033572222302139854 0 -0.018696197893647765 -0.032640962994928469 0 -0.012094237804701442 -0.027665214103966638 0 -0.011870034608287273 -0.030847451185598718 0 -0.014243953185266812 -0.029260958294298957 0 -0.015403763948964344 -0.030157383733837161 0 -0.01505258931320432 -0.03251616029928027 0 -0.017269151156458593 -0.034950046297560856 0 -0.017514913250841126 -0.033572222302139854 0 -0.01822692892197789 -0.034256581121623934 0 -0.017269151156458593 -0.034950046297560856 0 -0.01822692892197789 -0.034256581121623934 0 -0.017486930977635172 -0.035292379904243797 0 -0.011870034608287273 -0.030847451185598718 0 -0.013763478591621248 -0.031492994493557094 0 -0.012022699990074458 -0.033585050197680079 0 -0.01505258931320432 -0.03251616029928027 0 -0.01474726381281867 -0.034371592629036073 0 -0.013763478591621248 -0.031492994493557094 0 -0.013745739609523572 -0.033391396352898839 0 -0.012022699990074458 -0.033585050197680079 0 -0.013763478591621248 -0.031492994493557094 0 -0.015410973923018096 -0.032366798655820331 0 -0.013745739609523572 -0.033391396352898839 0 -0.014804144169039458 -0.030528804542526943 0 -0.013763478591621248 -0.031492994493557094 0 -0.014243953185266812 -0.029260958294298957 0 -0.014804144169039458 -0.030528804542526943 0 -0.013763478591621248 -0.031492994493557094 0 -0.015410973923018096 -0.032366798655820331 0 -0.014804144169039458 -0.030528804542526943 0 -0.016014106895053448 -0.030135914308357575 0 -0.015410973923018096 -0.032366798655820331 0 -0.011870034608287273 -0.030847451185598718 0 -0.013763478591621248 -0.031492994493557094 0 -0.014243953185266812 -0.029260958294298957 0 -0.012094237804701442 -0.027665214103966638 0 -0.014243953185266812 -0.029260958294298957 0 -0.014293699990222149 -0.027338928069183237 0 -0.014243953185266812 -0.029260958294298957 0 -0.014293699990222149 -0.027338928069183237 0 -0.015613797574278747 -0.028200861969000422 0 -0.015034363134520641 -0.026142341739572854 0 -0.014293699990222149 -0.027338928069183237 0 -0.015613797574278747 -0.028200861969000422 0 -0.01417602139145881 -0.029275927004610749 0 -0.016097395716195843 -0.028112679591161635 0 -0.014804144169039458 -0.030528804542526943 0 -0.015306501131945646 -0.028734738554722163 0 -0.016014106895053448 -0.030135914308357575 0 -0.014804144169039458 -0.030528804542526943 0 -0.014243953185266812 -0.029260958294298957 0 -0.015306501131945646 -0.028734738554722163 0 -0.0087797665066832748 -0.037704532058079887 0 -0.0084572255970268954 -0.03778301103591953 0 -0.0086082600765471778 -0.037575319887958168 0 -0.0087797665066832748 -0.037704532058079887 0 -0.0085914139197338923 -0.037851066559484323 0 -0.0084572255970268954 -0.03778301103591953 0 -0.016135982030134693 -0.026268662890133149 0 -0.015613797574278747 -0.028200861969000422 0 -0.016736023338783913 -0.027388558724247551 0 -0.015306501131945646 -0.028734738554722163 0 -0.016014106895053448 -0.030135914308357575 0 -0.016383894196225796 -0.028116202889774781 0 -0.012334513990656987 -0.034373019883038862 0 -0.012657866314156826 -0.030807294409119116 0 -0.016097395716195843 -0.028112679591161635 0 -0.012657866314156826 -0.030807294409119116 0 -0.0085914139197338923 -0.037851066559484323 0 -0.0084406101283845368 -0.03781830619844978 0 -0.0084572255970268954 -0.03778301103591953 0 -0.00848179706747469 -0.037878444659695837 0 -0.0084406101283845368 -0.03781830619844978 0 -0.0081924145357418349 -0.037751861031393906 0 -0.00848179706747469 -0.037878444659695837 0 -0.0085914139197338923 -0.037851066559484323 0 -0.0084406101283845368 -0.03781830619844978 0 -0.0084406101283845368 -0.03781830619844978 0 -0.0084572255970268954 -0.03778301103591953 0 -0.0081924145357418349 -0.037751861031393906 0 -0.0084572255970268954 -0.03778301103591953 0 -0.0086082600765471778 -0.037575319887958168 0 -0.0080803784388120397 -0.03766673126108399 0 -0.0086082600765471778 -0.037575319887958168 0 -0.0085403786121440554 -0.037224900433318359 0 -0.0080803784388120397 -0.03766673126108399 0 -0.012334513990656987 -0.034373019883038862 0 -0.012340191737351206 -0.03467444526062663 0 -0.0087797665066832748 -0.037704532058079887 0 -0.0086082600765471778 -0.037575319887958168 0 -0.0092376100259198065 -0.037272408112432008 0 -0.0092376100259198065 -0.037272408112432008 0 -0.0085403786121440554 -0.037224900433318359 0 -0.0089790567302092585 -0.036779535060006453 0 -0.0086082600765471778 -0.037575319887958168 0 -0.0092376100259198065 -0.037272408112432008 0 -0.0085403786121440554 -0.037224900433318359 0 -0.0085403786121440554 -0.037224900433318359 0 -0.0076904588753688875 -0.037005214864152272 0 -0.0080868487685824293 -0.036555149469854789 0 -0.0085403786121440554 -0.037224900433318359 0 -0.0089790567302092585 -0.036779535060006453 0 -0.0080868487685824293 -0.036555149469854789 0 -0.0092376100259198065 -0.037272408112432008 0 -0.0089790567302092585 -0.036779535060006453 0 -0.0098722359982246696 -0.036663514892132265 0 -0.0091347632550548667 -0.035973835152926903 0 -0.010714399202835507 -0.035944799878644761 0 -0.0098722359982246696 -0.036663514892132265 0 -0.0089790567302092585 -0.036779535060006453 0 -0.0091347632550548667 -0.035973835152926903 0 -0.0098722359982246696 -0.036663514892132265 0 -0.0091347632550548667 -0.035973835152926903 0 -0.0080868487685824293 -0.036555149469854789 0 -0.0077091235180056271 -0.036140062511489511 0 -0.0089790567302092585 -0.036779535060006453 0 -0.0091347632550548667 -0.035973835152926903 0 -0.0080868487685824293 -0.036555149469854789 0 -0.0091347632550548667 -0.035973835152926903 0 -0.010025611440820609 -0.034999651708317606 0 -0.0081068898243364228 -0.034999416437040444 0 -0.0091347632550548667 -0.035973835152926903 0 -0.010025611440820609 -0.034999651708317606 0 -0.010675556311852128 -0.035408535990892012 0 -0.0091347632550548667 -0.035973835152926903 0 -0.010714399202835507 -0.035944799878644761 0 -0.010675556311852128 -0.035408535990892012 0 -0.012052929661252066 -0.035504788449303562 0 -0.011944746830602792 -0.034999766914266456 0 -0.010025611440820609 -0.034999651708317606 0 -0.01194320080279916 -0.034999748150086725 0 -0.010675556311852128 -0.035408535990892012 0 -0.010714399202835507 -0.035944799878644761 0 -0.01194320080279916 -0.034999748150086725 0 -0.010675556311852128 -0.035408535990892012 0 -0.011946734790485169 -0.035000632251828048 0 -0.013077762227857719 -0.034999188609311609 0 -0.012996835091238263 -0.035448904863844825 0 -0.013345988675752318 -0.035379086010738379 0 -0.011946734790485169 -0.035000632251828048 0 -0.012996835091238263 -0.035448904863844825 0 -0.013345988675752318 -0.035379086010738379 0 -0.012996835091238263 -0.035448904863844825 0 -0.013209203313759224 -0.034818147707293377 0 -0.012052929661252066 -0.035504788449303562 0 -0.0121811205461503 -0.035438975228278595 0 -0.013345988675752318 -0.035379086010738379 0 -0.013209203313759224 -0.034818147707293377 0 -0.014487734883408926 -0.034300611404405761 0 -0.015410973923018096 -0.032366798655820331 0 -0.014487734883408926 -0.034300611404405761 0 -0.013745739609523572 -0.033391396352898839 0 -0.012340191737351206 -0.03467444526062663 0 -0.0121811205461503 -0.035438975228278595 0 -0.013209203313759224 -0.034818147707293377 0 -0.014487734883408926 -0.034300611404405761 0 -0.013745739609523572 -0.033391396352898839 0 -0.013209203313759224 -0.034818147707293377 0 -0.013745739609523572 -0.033391396352898839 0 -0.012022699990074458 -0.033585050197680079 0 -0.019167556977360209 -0.034999573051549257 0 -0.014216696787139558 -0.03499877443697906 0 -0.016695308433769901 -0.035709502137316024 0 -0.016870672400993676 -0.035590361317124994 0 -0.016004528888248368 -0.035654967883203041 0 -0.016695308433769901 -0.035709502137316024 0 -0.017269151156458593 -0.034950046297560856 0 -0.017486930977635172 -0.035292379904243797 0 -0.016870672400993676 -0.035590361317124994 0 -0.017486930977635172 -0.035292379904243797 0 -0.016870672400993676 -0.035590361317124994 0 -0.016004528888248368 -0.035654967883203041 0 -0.013209203313759224 -0.034818147707293377 0 -0.012022699990074458 -0.033585050197680079 0 -0.012748410833524524 -0.035320291969418341 0 -0.01474726381281867 -0.034371592629036073 0 -0.014397695435008193 -0.035305789779840967 0 -0.016004528888248368 -0.035654967883203041 0 -0.014216696787139558 -0.03499877443697906 0 -0.016695308433769901 -0.035709502137316024 0 -0.012996835091238263 -0.035448904863844825 0 -0.013209203313759224 -0.034818147707293377 0 -0.012748410833524524 -0.035320291969418341 0 -0.012996835091238263 -0.035448904863844825 0 -0.012748410833524524 -0.035320291969418341 0 -0.014209022619244914 -0.035000613391800037 0 -0.013077762227857719 -0.034999188609311609 0 -0.012996835091238263 -0.035448904863844825 0 -0.014209022619244914 -0.035000613391800037 0 -0.014397695435008193 -0.035305789779840967 0 -0.014210956998250843 -0.03499959907270888 0 -0.017965927362207722 -0.035661767657442549 0 -0.016695308433769901 -0.035709502137316024 0 -0.017156792981779197 -0.035623743177894809 0 -0.016870672400993676 -0.035590361317124994 0 -0.016695308433769901 -0.035709502137316024 0 -0.017156792981779197 -0.035623743177894809 0 -0.017269151156458593 -0.034950046297560856 0 -0.016870672400993676 -0.035590361317124994 0 -0.017156792981779197 -0.035623743177894809 0 -0.01729727622856083 -0.034921572193621686 0 -0.017269151156458593 -0.034950046297560856 0 -0.017156792981779197 -0.035623743177894809 0 -0.0061796439061646618 -0.030137365029700776 0 -0.0070605713622125471 -0.031957072125411747 0 -0.0078050738390282124 -0.030131188209363686 0 -0.0061796439061646618 -0.030137365029700776 0 -0.0051569321441667509 -0.029939537956994878 0 -0.0049843859611098836 -0.031529634390345875 0 -0.0061796439061646618 -0.030137365029700776 0 -0.0049843859611098836 -0.031529634390345875 0 -0.005253853281416412 -0.032903106108550746 0 -0.0061796439061646618 -0.030137365029700776 0 -0.0070605713622125471 -0.031957072125411747 0 -0.005253853281416412 -0.032903106108550746 0 -0.0070605713622125471 -0.031957072125411747 0 -0.0092117769996583228 -0.032220585293355336 0 -0.0089234226530432916 -0.030697929256129589 0 -0.0092117769996583228 -0.032220585293355336 0 -0.0089234226530432916 -0.030697929256129589 0 -0.010059052503706761 -0.030200947817308709 0 -0.0089234226530432916 -0.030697929256129589 0 -0.0093781498137467494 -0.029939529112018481 0 -0.010059052503706761 -0.030200947817308709 0 -0.0089234226530432916 -0.030697929256129589 0 -0.0078050738390282124 -0.030131188209363686 0 -0.0089462661996953675 -0.029212184630310358 0 -0.0093781498137467494 -0.029939529112018481 0 -0.0089462661996953675 -0.029212184630310358 0 -0.0097886104769779429 -0.029433103617485534 0 -0.0089234226530432916 -0.030697929256129589 0 -0.0093781498137467494 -0.029939529112018481 0 -0.0089462661996953675 -0.029212184630310358 0 -0.0070605713622125471 -0.031957072125411747 0 -0.0089234226530432916 -0.030697929256129589 0 -0.0078050738390282124 -0.030131188209363686 0 -0.0061796439061646618 -0.030137365029700776 0 -0.0078050738390282124 -0.030131188209363686 0 -0.0077030809186349296 -0.028534842463753981 0 -0.0078050738390282124 -0.030131188209363686 0 -0.0077030809186349296 -0.028534842463753981 0 -0.0089462661996953675 -0.029212184630310358 0 -0.0089462661996953675 -0.029212184630310358 0 -0.008796190566878451 -0.027350241418664368 0 -0.010049971742687718 -0.028401906022593834 0 -0.0077030809186349296 -0.028534842463753981 0 -0.0089462661996953675 -0.029212184630310358 0 -0.008796190566878451 -0.027350241418664368 0 -0.008796190566878451 -0.027350241418664368 0 -0.0097495906477806094 -0.027039679072912607 0 -0.0092565332714729005 -0.025636986324550699 0 -0.0077030809186349296 -0.028534842463753981 0 -0.008796190566878451 -0.027350241418664368 0 -0.0077399634884553438 -0.026712080945540111 0 -0.0077030809186349296 -0.028534842463753981 0 -0.0077399634884553438 -0.026712080945540111 0 -0.0069178344045382175 -0.027827199688299675 0 -0.0081358155761239673 -0.02509581482395765 0 -0.008796190566878451 -0.027350241418664368 0 -0.0077399634884553438 -0.026712080945540111 0 -0.007123662514615171 -0.025576774806583592 0 -0.0077399634884553438 -0.026712080945540111 0 -0.0069178344045382175 -0.027827199688299675 0 -0.007123662514615171 -0.025576774806583592 0 -0.0069178344045382175 -0.027827199688299675 0 -0.0064029583328495728 -0.026904737412516751 0 -0.0061796439061646618 -0.030137365029700776 0 -0.0077030809186349296 -0.028534842463753981 0 -0.0069178344045382175 -0.027827199688299675 0 -0.0061796439061646618 -0.030137365029700776 0 -0.0069178344045382175 -0.027827199688299675 0 -0.0056015740442344249 -0.028374514430401235 0 -0.0061796439061646618 -0.030137365029700776 0 -0.0056015740442344249 -0.028374514430401235 0 -0.0051569321441667509 -0.029939537956994878 0 -0.0069178344045382175 -0.027827199688299675 0 -0.0064029583328495728 -0.026904737412516751 0 -0.0056015740442344249 -0.028374514430401235 0 -0.0064029583328495728 -0.026904737412516751 0 -0.0058619340602191388 -0.026787306087308119 0 -0.0056015740442344249 -0.028374514430401235 0 -0.0058619340602191388 -0.026787306087308119 0 -0.0050985305685938955 -0.0274924102892889 0 -0.0056015740442344249 -0.028374514430401235 0 -0.0051247144156003066 -0.027842874188579156 0 -0.0052243326209467054 -0.031851299939202743 0 -0.0050985305685938955 -0.0274924102892889 0 -0.0038553085072667074 -0.030393958125457234 0 -0.006678467910572492 -0.033798781469330311 0 -0.0050985305685938955 -0.0274924102892889 0 -0.0056015740442344249 -0.028374514430401235 0 -0.0038209688087457259 -0.029891440019514069 0 -0.0056015740442344249 -0.028374514430401235 0 -0.0051569321441667509 -0.029939537956994878 0 -0.0038209688087457259 -0.029891440019514069 0 -0.0058078432488696844 -0.023488669424251766 0 -0.0068217094744723681 -0.032723706567913576 0 -0.0080334201755004695 -0.022209654813395142 0 -0.0069851535798687546 -0.021935044997109913 0 -0.0082236379939968716 -0.023941342245653589 0 -0.0088341020968449764 -0.022041861238123905 0 -0.0080334201755004695 -0.022209654813395142 0 -0.0082236379939968716 -0.023941342245653589 0 -0.0098443479185853933 -0.026401640858410243 0 -0.0068217094744723681 -0.032723706567913576 0 -0.002879073419005521 -0.026772107245060944 0 -0.0050985305685938955 -0.0274924102892889 0 -0.0038553085072667074 -0.030393958125457234 0 -0.002879073419005521 -0.026772107245060944 0 -0.0038553085072667074 -0.030393958125457234 0 -0.0011409263010347184 -0.030723531083448573 0 -0.0038553085072667074 -0.030393958125457234 0 -0.0011409263010347184 -0.030723531083448573 0 -0.0032900507443010224 -0.033859435147020424 0 -0.0038553085072667074 -0.030393958125457234 0 -0.0032900507443010224 -0.033859435147020424 0 -0.006678467910572492 -0.033798781469330311 0 -0.0076438914736506247 -0.038720194854350937 0 -0.0080803784388120397 -0.03766673126108399 0 -0.0069408255360259279 -0.037799608364227071 0 -0.0084572255970268954 -0.03778301103591953 0 -0.0081924145357418349 -0.037751861031393906 0 -0.0080803784388120397 -0.03766673126108399 0 -0.0068217094744723681 -0.032723706567913576 0 -0.007486273630323937 -0.039163529271814573 0 -0.0068217094744723681 -0.032723706567913576 0 -0.0051529719272911346 -0.035831399606889774 0 -0.0080803784388120397 -0.03766673126108399 0 -0.0069408255360259279 -0.037799608364227071 0 -0.0070589143333172361 -0.036993725467784816 0 -0.0080803784388120397 -0.03766673126108399 0 -0.0070589143333172361 -0.036993725467784816 0 -0.0076904588753688875 -0.037005214864152272 0 -0.0032900507443010224 -0.033859435147020424 0 -0.0060677618947746785 -0.036342524863596092 0 -0.006678467910572492 -0.033798781469330311 0 -0.0069408255360259279 -0.037799608364227071 0 -0.0060677618947746785 -0.036342524863596092 0 -0.0070589143333172361 -0.036993725467784816 0 -0.0051529719272911346 -0.035831399606889774 0 -0.0058362587671757183 -0.03628030799222811 0 -0.0060677618947746785 -0.036342524863596092 0 -0.006521235658395675 -0.037290832861552561 0 -0.0068562174937793182 -0.036787750739571856 0 -0.0060677618947746785 -0.036342524863596092 0 -0.0070589143333172361 -0.036993725467784816 0 -0.0068562174937793182 -0.036787750739571856 0 -0.0085403786121440554 -0.037224900433318359 0 -0.0080803784388120397 -0.03766673126108399 0 -0.0076904588753688875 -0.037005214864152272 0 -0.0070589143333172361 -0.036993725467784816 0 -0.0076904588753688875 -0.037005214864152272 0 -0.0068562174937793182 -0.036787750739571856 0 -0.0051569321441667509 -0.029939537956994878 0 -0.0038209688087457259 -0.029891440019514069 0 -0.0049843859611098836 -0.031529634390345875 0 -0.0060677618947746785 -0.036342524863596092 0 -0.006678467910572492 -0.033798781469330311 0 -0.006521235658395675 -0.037290832861552561 0 -0.0038209688087457259 -0.029891440019514069 0 -0.0049843859611098836 -0.031529634390345875 0 -0.0038676190236948127 -0.032862389980423713 0 -0.0052243326209467054 -0.031851299939202743 0 -0.0052506367234548814 -0.034955341453264129 0 -0.0049843859611098836 -0.031529634390345875 0 -0.0051441101788584414 -0.033157462439803581 0 -0.0038676190236948127 -0.032862389980423713 0 -0.0049843859611098836 -0.031529634390345875 0 -0.0051441101788584414 -0.033157462439803581 0 -0.005253853281416412 -0.032903106108550746 0 -0.0051441101788584414 -0.033157462439803581 0 -0.005660560310667165 -0.034329742806411018 0 -0.005253853281416412 -0.032903106108550746 0 -0.0051433870541387179 -0.034009054309365232 0 -0.0051441101788584414 -0.033157462439803581 0 -0.005660560310667165 -0.034329742806411018 0 -0.0051433870541387179 -0.034009054309365232 0 -0.0038676190236948127 -0.032862389980423713 0 -0.0056745732081646041 -0.035426891470476028 0 -0.0051433870541387179 -0.034009054309365232 0 -0.0051441101788584414 -0.033157462439803581 0 -0.0038676190236948127 -0.032862389980423713 0 -0.006521235658395675 -0.037290832861552561 0 -0.0056745732081646041 -0.035426891470476028 0 -0.0069808030925958466 -0.036460923909002241 0 -0.0052506367234548814 -0.034955341453264129 0 -0.0055867420737637291 -0.035306589117072677 0 -0.0051433870541387179 -0.034009054309365232 0 -0.0056745732081646041 -0.035426891470476028 0 -0.005660560310667165 -0.034329742806411018 0 -0.0080868487685824293 -0.036555149469854789 0 -0.0068562174937793182 -0.036787750739571856 0 -0.0069808030925958466 -0.036460923909002241 0 -0.0076904588753688875 -0.037005214864152272 0 -0.0080868487685824293 -0.036555149469854789 0 -0.0068562174937793182 -0.036787750739571856 0 -0.006521235658395675 -0.037290832861552561 0 -0.0068562174937793182 -0.036787750739571856 0 -0.0069808030925958466 -0.036460923909002241 0 -0.0056745732081646041 -0.035426891470476028 0 -0.0069808030925958466 -0.036460923909002241 0 -0.0069153071596868435 -0.035753008645740575 0 -0.0069808030925958466 -0.036460923909002241 0 -0.0077091235180056271 -0.036140062511489511 0 -0.0069153071596868435 -0.035753008645740575 0 -0.0080868487685824293 -0.036555149469854789 0 -0.0069808030925958466 -0.036460923909002241 0 -0.0077091235180056271 -0.036140062511489511 0 -0.0091347632550548667 -0.035973835152926903 0 -0.0076273468845142476 -0.035643428260496546 0 -0.0081068898243364228 -0.034999416437040444 0 -0.0091347632550548667 -0.035973835152926903 0 -0.0077091235180056271 -0.036140062511489511 0 -0.0076273468845142476 -0.035643428260496546 0 -0.0077091235180056271 -0.036140062511489511 0 -0.0076273468845142476 -0.035643428260496546 0 -0.0069153071596868435 -0.035753008645740575 0 -0.0076273468845142476 -0.035643428260496546 0 -0.0069153071596868435 -0.035753008645740575 0 -0.0064846587406976498 -0.035374247945606251 0 -0.0056745732081646041 -0.035426891470476028 0 -0.0069153071596868435 -0.035753008645740575 0 -0.0064846587406976498 -0.035374247945606251 0 -0.0064846587406976498 -0.035374247945606251 0 -0.0081068898243364228 -0.034999416437040444 0 -0.0061896486008719935 -0.034999327540389251 0 -0.0076273468845142476 -0.035643428260496546 0 -0.0064846587406976498 -0.035374247945606251 0 -0.0081068898243364228 -0.034999416437040444 0 -0.0056745732081646041 -0.035426891470476028 0 -0.005660560310667165 -0.034329742806411018 0 -0.0057708275328078058 -0.035378259390973436 0 -0.0048928060233923215 -0.034766224239921983 0 -0.005298489227683641 -0.035517942451626539 0 -0.0040667852217332904 -0.035277743863993592 0 -0.0048109525804089451 -0.035807633299531523 0 -0.0040821106184646353 -0.035756524227079575 0 -0.0056745732081646041 -0.035426891470476028 0 -0.0064846587406976498 -0.035374247945606251 0 -0.0057708275328078058 -0.035378259390973436 0 -0.005298489227683641 -0.035517942451626539 0 -0.0061887505981209163 -0.035000027493100987 0 -0.0064846587406976498 -0.035374247945606251 0 -0.0057708275328078058 -0.035378259390973436 0 -0.0061896486008719935 -0.034999327540389251 0 -0.0048109525804089451 -0.035807633299531523 0 -0.0061879696211290707 -0.034999749770036427 0 -0.0042848153396310307 -0.034999798719848089 0 -0.0048109525804089451 -0.035807633299531523 0 -0.0042848153396310307 -0.034999798719848089 0 -0.0040821106184646353 -0.035756524227079575 0 -0.0042848153396310307 -0.034999798719848089 0 -0.0023822892288245731 -0.034999708360840619 0 -0.0040821106184646353 -0.035756524227079575 0 -0.0023822892288245731 -0.034999708360840619 0 -0.0040821106184646353 -0.035756524227079575 0 -0.0042211627221930862 -0.035989617241058806 0 -0.0040667852217332904 -0.035277743863993592 0 -0.0040821106184646353 -0.035756524227079575 0 -0.0042211627221930862 -0.035989617241058806 0 -0.0040667852217332904 -0.035277743863993592 0 -0.0042211627221930862 -0.035989617241058806 0 -0.0053338977516378203 -0.034070662566405049 0 -0.0070605713622125471 -0.031957072125411747 0 -0.0053338977516378203 -0.034070662566405049 0 -0.005253853281416412 -0.032903106108550746 0 -0.0040667852217332904 -0.035277743863993592 0 -0.0053338977516378203 -0.034070662566405049 0 -0.005253853281416412 -0.032903106108550746 0 -0.0048928060233923215 -0.034766224239921983 0 -0.0052647884893460978 -0.033142062217645804 0 -0.0014196628931655603 -0.037306960627098387 0 -0.0022132667375029638 -0.037371454189791056 0 -0.0012437415377585862 -0.037105187745331739 0 -0.0052556772674026801 -0.034996336475799833 0 -0.0048900042167386555 -0.035587966042214134 0 -0.0070605713622125471 -0.031957072125411747 0 -0.0053338977516378203 -0.034070662566405049 0 -0.0075316059883060102 -0.034108763902429541 0 -0.0070605713622125471 -0.031957072125411747 0 -0.0092117769996583228 -0.032220585293355336 0 -0.0075316059883060102 -0.034108763902429541 0 -0.0043740160302327509 -0.035947339377726269 0 -0.0048900042167386555 -0.035587966042214134 0 -0.0042211627221930862 -0.035989617241058806 0 -0.0053338977516378203 -0.034070662566405049 0 -0.0075316059883060102 -0.034108763902429541 0 -0.0042211627221930862 -0.035989617241058806 0 -0.0022132667375029638 -0.037371454189791056 0 -0.0013485171977355532 -0.036464998045835736 0 -0.0022132667375029638 -0.037371454189791056 0 -0.0013485171977355532 -0.036464998045835736 0 -0.0012437415377585862 -0.037105187745331739 0 -0.0023822892288245731 -0.034999708360840619 0 -0.0042211627221930862 -0.035989617241058806 0 -0.0018520014430396029 -0.035571814957220386 0 -0.0013485171977355532 -0.036464998045835736 0 -0.0018520014430396029 -0.035571814957220386 0 -0.00019745611424192082 -0.035695682573023475 0 -0.0042211627221930862 -0.035989617241058806 0 -0.0013485171977355532 -0.036464998045835736 0 -0.0018520014430396029 -0.035571814957220386 0 -0.0023822892288245731 -0.034999708360840619 0 -0.0018520014430396029 -0.035571814957220386 0 -0.00047789274759316635 -0.034999556843710602 0 -0.0018520014430396029 -0.035571814957220386 0 -0.00047789274759316635 -0.034999556843710602 0 -0.00019745611424192082 -0.035695682573023475 0 -0.00019745611424192082 -0.035695682573023475 0 0.0014270942421575629 -0.034999875562510253 0 0.00124088290222627 -0.036168127953976149 0 -0.00047789274759316635 -0.034999556843710602 0 -0.00019745611424192082 -0.035695682573023475 0 0.0014270942421575629 -0.034999875562510253 0 0.0014270942421575629 -0.034999875562510253 0 0.0018844554966371857 -0.035757269080027437 0 0.0026506351584826343 -0.035114122749183144 0 0.0014270942421575629 -0.034999875562510253 0 0.0018844554966371857 -0.035757269080027437 0 0.00124088290222627 -0.036168127953976149 0 0.00124088290222627 -0.036168127953976149 0 0.0022360999592003668 -0.036763634337777525 0 0.0014476216562599419 -0.037469614054755344 0 0.00124088290222627 -0.036168127953976149 0 0.00056830167216608257 -0.037297293464448177 0 0.0014476216562599419 -0.037469614054755344 0 0.0018844554966371857 -0.035757269080027437 0 0.00124088290222627 -0.036168127953976149 0 0.0022360999592003668 -0.036763634337777525 0 -0.0013485171977355532 -0.036464998045835736 0 -0.00019745611424192082 -0.035695682573023475 0 -0.00072269631281722795 -0.036551919491781951 0 -0.00025207833726568796 -0.035780935133497477 0 -9.6108997358461249e-05 -0.036799581421789823 0 -0.00019745611424192082 -0.035695682573023475 0 0.00124088290222627 -0.036168127953976149 0 0.00056830167216608257 -0.037297293464448177 0 0.0033319320235890679 -0.034999836903102106 0 0.0041206772911012374 -0.035485790715417277 0 0.0034700088487908801 -0.035818137483145891 0 0.0033319320235890679 -0.034999836903102106 0 0.0041206772911012374 -0.035485790715417277 0 0.0052351740454619072 -0.034999816260412868 0 0.0041206772911012374 -0.035485790715417277 0 0.0034700088487908801 -0.035818137483145891 0 0.0045215561630462054 -0.036048269723385575 0 0.0033319320235890679 -0.034999836903102106 0 0.0026506351584826343 -0.035114122749183144 0 0.0034700088487908801 -0.035818137483145891 0 0.0026906044641422859 -0.035206495887380222 0 0.0026370952191486809 -0.036342101874565158 0 0.0026506351584826343 -0.035114122749183144 0 0.0034700088487908801 -0.035818137483145891 0 0.0030706443413029603 -0.036205850500832755 0 0.0014270942421575629 -0.034999875562510253 0 0.0033319320235890679 -0.034999836903102106 0 0.0026506351584826343 -0.035114122749183144 0 0.0018844554966371857 -0.035757269080027437 0 0.0026506351584826343 -0.035114122749183144 0 0.0022360999592003668 -0.036763634337777525 0 0.0034700088487908801 -0.035818137483145891 0 0.0030706443413029603 -0.036205850500832755 0 0.0035178535458424546 -0.036630285730313572 0 0.0034700088487908801 -0.035818137483145891 0 0.0041314993357530116 -0.036520119112458498 0 0.0035178535458424546 -0.036630285730313572 0 0.0034700088487908801 -0.035818137483145891 0 0.0041314993357530116 -0.036520119112458498 0 0.0045215561630462054 -0.036048269723385575 0 0.0041314993357530116 -0.036520119112458498 0 0.0039430640044480882 -0.036986143006732357 0 0.0047611579406349148 -0.036782960882830965 0 0.0041314993357530116 -0.036520119112458498 0 0.0047611579406349148 -0.036782960882830965 0 0.0045215561630462054 -0.036048269723385575 0 0.0041314993357530116 -0.036520119112458498 0 0.0035178535458424546 -0.036630285730313572 0 0.0039430640044480882 -0.036986143006732357 0 0.0035178535458424546 -0.036630285730313572 0 0.003491147963788604 -0.0372356200722136 0 0.0039430640044480882 -0.036986143006732357 0 0.0030706443413029603 -0.036205850500832755 0 0.0035178535458424546 -0.036630285730313572 0 0.0030644864310548966 -0.037104961594949276 0 0.0026370952191486809 -0.036342101874565158 0 0.0025223952820542838 -0.038137538418819061 0 0.0035178535458424546 -0.036630285730313572 0 0.003491147963788604 -0.0372356200722136 0 0.0030644864310548966 -0.037104961594949276 0 0.003491147963788604 -0.0372356200722136 0 0.0032911878255260005 -0.037681964186197743 0 0.0041168191966332816 -0.03778811187687553 0 0.003491147963788604 -0.0372356200722136 0 0.0030644864310548966 -0.037104961594949276 0 0.0032911878255260005 -0.037681964186197743 0 0.0039430640044480882 -0.036986143006732357 0 0.0041168191966332816 -0.03778811187687553 0 0.0047611579406349148 -0.036782960882830965 0 0.003491147963788604 -0.0372356200722136 0 0.0039430640044480882 -0.036986143006732357 0 0.0041168191966332816 -0.03778811187687553 0 -0.00072269631281722795 -0.036551919491781951 0 -0.0010492712393740022 -0.037155585480881298 0 -0.0012437415377585862 -0.037105187745331739 0 -0.0013485171977355532 -0.036464998045835736 0 -0.00072269631281722795 -0.036551919491781951 0 -0.0012437415377585862 -0.037105187745331739 0 -9.6108997358461249e-05 -0.036799581421789823 0 3.5801279790756961e-05 -0.038072050562996493 0 0.00056830167216608257 -0.037297293464448177 0 0.0014476216562599419 -0.037469614054755344 0 0.0011609286856593575 -0.03855167366167065 0 0.0014476216562599419 -0.037469614054755344 0 0.0011609286856593575 -0.03855167366167065 0 0.0018570817387516053 -0.038339093983809462 0 0.0022360999592003668 -0.036763634337777525 0 0.0014476216562599419 -0.037469614054755344 0 0.0018570817387516053 -0.038339093983809462 0 0.0011609286856593575 -0.03855167366167065 0 0.0018570817387516053 -0.038339093983809462 0 0.0015876239666255281 -0.039633303308886168 0 0.0025223952820542838 -0.038137538418819061 0 0.0012357197382560424 -0.036781787869000111 0 0.0030644864310548966 -0.037104961594949276 0 0.0028924243743035463 -0.038075357915927414 0 0.0032911878255260005 -0.037681964186197743 0 -0.0010492712393740022 -0.037155585480881298 0 -0.0012353487641492454 -0.037202075839813893 0 -0.0012437415377585862 -0.037105187745331739 0 -0.0014196628931655603 -0.037306960627098387 0 -0.0012353487641492454 -0.037202075839813893 0 -0.0012437415377585862 -0.037105187745331739 0 -0.0014196628931655603 -0.037306960627098387 0 -0.0012353487641492454 -0.037202075839813893 0 -0.0012819584460364271 -0.037174333845118729 0 -0.0010492712393740022 -0.037155585480881298 0 -0.0012353487641492454 -0.037202075839813893 0 -0.0012819584460364271 -0.037174333845118729 0 -0.0052556772674026801 -0.034996336475799833 0 -0.005886289682668893 -0.032258902204975452 0 -0.0014196628931655603 -0.037306960627098387 0 -0.0012819584460364271 -0.037174333845118729 0 -0.0013414247080200841 -0.037084785499807565 0 -0.0092117769996583228 -0.032220585293355336 0 -0.010059052503706761 -0.030200947817308709 0 -0.010544822136034167 -0.030476594100017729 0 -0.0084863256979420161 -0.03222967190959844 0 -0.005886289682668893 -0.032258902204975452 0 -0.010059052503706761 -0.030200947817308709 0 -0.01057478180065527 -0.030402185294784827 0 -0.010556137284655815 -0.029440390004782376 0 -0.01057478180065527 -0.030402185294784827 0 -0.010556137284655815 -0.029440390004782376 0 -0.011552495774305442 -0.02918729641367844 0 -0.010059052503706761 -0.030200947817308709 0 -0.010556137284655815 -0.029440390004782376 0 -0.0097886104769779429 -0.029433103617485534 0 -0.0093781498137467494 -0.029939529112018481 0 -0.010059052503706761 -0.030200947817308709 0 -0.0097886104769779429 -0.029433103617485534 0 -0.0031894552545127654 -0.031231011375964068 0 -0.0044320839940068177 -0.031757051104000865 0 -0.0041725032312468682 -0.030096766385768733 0 -0.0043083048141646218 -0.029302358002174619 0 -0.0058225276925521728 -0.02512603638296397 0 -0.0035936190133563973 -0.026381230609290096 0 -0.0004618933678484822 -0.033397306527972716 0 -0.0057076413659374299 -0.027505735310060023 0 -0.0043083048141646218 -0.029302358002174619 0 -0.0039905033549089072 -0.029169753906052451 0 -0.0035936190133563973 -0.026381230609290096 0 -0.005886289682668893 -0.032258902204975452 0 -0.0057076413659374299 -0.027505735310060023 0 -0.005886289682668893 -0.032258902204975452 0 -0.0004618933678484822 -0.033397306527972716 0 -0.0012819584460364271 -0.037174333845118729 0 -0.0013414247080200841 -0.037084785499807565 0 -0.0012767178010577595 -0.037161131595438372 0 3.5801279790756961e-05 -0.038072050562996493 0 0.0012357197382560424 -0.036781787869000111 0 -0.0010492712393740022 -0.037155585480881298 0 -0.0012819584460364271 -0.037174333845118729 0 -0.00126210364598882 -0.037167936440509537 0 0.0029425605629913344 -0.038215312468582625 0 0.0028924243743035463 -0.038075357915927414 0 0.0032911878255260005 -0.037681964186197743 0 -0.0004618933678484822 -0.033397306527972716 0 0.0012357197382560424 -0.036781787869000111 0 0.0023721352126520978 -0.033036699844724834 0 -0.0004618933678484822 -0.033397306527972716 0 -0.00019438022649291464 -0.032892355388155048 0 0.0011326845238433202 -0.032340527210550973 0 0.00065906053324292252 -0.035164141207754435 0 0.0023721352126520978 -0.033036699844724834 0 0.0012357197382560424 -0.036781787869000111 0 -0.0012819584460364271 -0.037174333845118729 0 -0.0012767178010577595 -0.037161131595438372 0 -0.00126210364598882 -0.037167936440509537 0 0.0023721352126520978 -0.033036699844724834 0 0.0072756578165631943 -0.036801819605160768 0 0.0029425605629913344 -0.038215312468582625 0 0.0032911878255260005 -0.037681964186197743 0 0.0041168191966332816 -0.03778811187687553 0 0.011775263185570975 -0.033721965479502333 0 0.0084229816904676028 -0.035240865725462138 0 0.0092451136236007484 -0.033264107907551778 0 0.0084229816904676028 -0.035240865725462138 0 0.0076165783488151831 -0.033438690344179525 0 0.006390502816755312 -0.034982341567154684 0 0.0084229816904676028 -0.035240865725462138 0 0.0076165783488151831 -0.033438690344179525 0 0.0092451136236007484 -0.033264107907551778 0 0.0076165783488151831 -0.033438690344179525 0 0.0084251603721090598 -0.031958821391095162 0 0.0092451136236007484 -0.033264107907551778 0 0.0084251603721090598 -0.031958821391095162 0 0.0092451136236007484 -0.033264107907551778 0 0.0093289755230409228 -0.032095137821396037 0 0.0076165783488151831 -0.033438690344179525 0 0.0084251603721090598 -0.031958821391095162 0 0.0070090904957872107 -0.031503501938602255 0 0.0023721352126520978 -0.033036699844724834 0 0.0026518658124829297 -0.027638056199975839 0 0.011775263185570975 -0.033721965479502333 0 0.0092451136236007484 -0.033264107907551778 0 0.010151491494187651 -0.032130572141252943 0 0.011775263185570975 -0.033721965479502333 0 0.010151491494187651 -0.032130572141252943 0 0.010382806108165615 -0.029940164654369168 0 0.0092451136236007484 -0.033264107907551778 0 0.0093289755230409228 -0.032095137821396037 0 0.010151491494187651 -0.032130572141252943 0 0.0093289755230409228 -0.032095137821396037 0 0.010151491494187651 -0.032130572141252943 0 0.0095056855364693965 -0.031012744224835669 0 0.0084251603721090598 -0.031958821391095162 0 0.0093289755230409228 -0.032095137821396037 0 0.0095056855364693965 -0.031012744224835669 0 0.010151491494187651 -0.032130572141252943 0 0.0095056855364693965 -0.031012744224835669 0 0.010382806108165615 -0.029940164654369168 0 0.0095056855364693965 -0.031012744224835669 0 0.0089829559749470718 -0.029247854525504918 0 0.010382806108165615 -0.029940164654369168 0 0.0095056855364693965 -0.031012744224835669 0 0.0089829559749470718 -0.029247854525504918 0 0.008787197066277206 -0.030370331478534459 0 -0.0058225276925521728 -0.02512603638296397 0 -0.0051704375662116548 -0.023325048573490947 0 -0.0050981358843163321 -0.024230508111520457 0 -0.0058225276925521728 -0.02512603638296397 0 -0.0050981358843163321 -0.024230508111520457 0 -0.0046607127142442297 -0.025145919031202738 0 0.0077338098330449398 -0.030529911490195166 0 0.0068243958940595135 -0.029770359106909644 0 0.0070090904957872107 -0.031503501938602255 0 0.0084251603721090598 -0.031958821391095162 0 0.0077338098330449398 -0.030529911490195166 0 0.0070090904957872107 -0.031503501938602255 0 0.0084251603721090598 -0.031958821391095162 0 0.0095056855364693965 -0.031012744224835669 0 0.008787197066277206 -0.030370331478534459 0 0.0084251603721090598 -0.031958821391095162 0 0.0077338098330449398 -0.030529911490195166 0 0.008787197066277206 -0.030370331478534459 0 0.0077338098330449398 -0.030529911490195166 0 0.008787197066277206 -0.030370331478534459 0 0.0079573351185632732 -0.029367166868993554 0 0.0089829559749470718 -0.029247854525504918 0 0.008787197066277206 -0.030370331478534459 0 0.0079573351185632732 -0.029367166868993554 0 0.0077338098330449398 -0.030529911490195166 0 0.0079573351185632732 -0.029367166868993554 0 0.0068243958940595135 -0.029770359106909644 0 0.0089829559749470718 -0.029247854525504918 0 0.0083503118246090451 -0.028245822755502314 0 0.0086835723351823789 -0.026484544204043198 0 0.0079573351185632732 -0.029367166868993554 0 0.0071389651293457335 -0.028101317684210734 0 0.0068243958940595135 -0.029770359106909644 0 0.0079573351185632732 -0.029367166868993554 0 0.0083503118246090451 -0.028245822755502314 0 0.0071389651293457335 -0.028101317684210734 0 0.0089829559749470718 -0.029247854525504918 0 0.0079573351185632732 -0.029367166868993554 0 0.0083503118246090451 -0.028245822755502314 0 0.0083503118246090451 -0.028245822755502314 0 0.0071389651293457335 -0.028101317684210734 0 0.0086835723351823789 -0.026484544204043198 0 -0.0058225276925521728 -0.02512603638296397 0 -0.0051704375662116548 -0.023325048573490947 0 -0.006671414536814968 -0.021791216427346924 0 0.0026518658124829297 -0.027638056199975839 0 -0.00024507745154676039 -0.022652788935343126 0 0.0089829559749470718 -0.029247854525504918 0 0.010382806108165615 -0.029940164654369168 0 0.0086835723351823789 -0.026484544204043198 0 -0.0051704375662116548 -0.023325048573490947 0 -0.0052887095365118705 -0.021499213123828884 0 -0.006671414536814968 -0.021791216427346924 0 -0.0051704375662116548 -0.023325048573490947 0 -0.0047608998660518299 -0.022092718247616255 0 -0.0052887095365118705 -0.021499213123828884 0 -0.0051704375662116548 -0.023325048573490947 0 -0.0047608998660518299 -0.022092718247616255 0 -0.0037783582385132468 -0.022502127393904038 0 -0.0037783582385132468 -0.022502127393904038 0 -0.0050981358843163321 -0.024230508111520457 0 -0.0046607127142442297 -0.025145919031202738 0 -0.0051704375662116548 -0.023325048573490947 0 -0.0037783582385132468 -0.022502127393904038 0 -0.0050981358843163321 -0.024230508111520457 0 -0.010982358422036875 -0.026729886212740715 0 -0.0097495906477806094 -0.027039679072912607 0 -0.010049971742687718 -0.028401906022593834 0 -0.010982358422036875 -0.026729886212740715 0 -0.0097495906477806094 -0.027039679072912607 0 -0.0092565332714729005 -0.025636986324550699 0 -0.008796190566878451 -0.027350241418664368 0 -0.0097495906477806094 -0.027039679072912607 0 -0.010049971742687718 -0.028401906022593834 0 -0.010982358422036875 -0.026729886212740715 0 -0.010049971742687718 -0.028401906022593834 0 -0.011552495774305442 -0.02918729641367844 0 -0.0089462661996953675 -0.029212184630310358 0 -0.0097886104769779429 -0.029433103617485534 0 -0.010049971742687718 -0.028401906022593834 0 -0.010556137284655815 -0.029440390004782376 0 -0.0097886104769779429 -0.029433103617485534 0 -0.010049971742687718 -0.028401906022593834 0 -0.010556137284655815 -0.029440390004782376 0 -0.010049971742687718 -0.028401906022593834 0 -0.011552495774305442 -0.02918729641367844 0 -0.0037783582385132468 -0.022502127393904038 0 -0.0037029315915583019 -0.026218397175446956 0 -0.0046607127142442297 -0.025145919031202738 0 -0.0076503068889877549 -0.024791327639534486 0 -0.0057076413659374299 -0.027505735310060023 0 -0.0058225276925521728 -0.02512603638296397 0 -0.0035936190133563973 -0.026381230609290096 0 -0.0046607127142442297 -0.025145919031202738 0 -0.0057076413659374299 -0.027505735310060023 0 -0.0050677457481608104 -0.026111683234393702 0 0.0019440314251021667 -0.030924323647433593 0 0.0018774206955075455 -0.029455066213084836 0 0.0029145397529690212 -0.029673128180485092 0 0.0019440314251021667 -0.030924323647433593 0 0.0029145397529690212 -0.029673128180485092 0 0.0036521505122074382 -0.030742474504220144 0 0.0019440314251021667 -0.030924323647433593 0 0.0036521505122074382 -0.030742474504220144 0 0.0028992445275317327 -0.032121047903266697 0 0.0019440314251021667 -0.030924323647433593 0 0.00045928057436698914 -0.031559391323451189 0 0.00056163837277967447 -0.029872623429007934 0 0.00045928057436698914 -0.031559391323451189 0 0.00056163837277967447 -0.029872623429007934 0 -0.00076496327947321108 -0.030645669649813183 0 0.0019440314251021667 -0.030924323647433593 0 0.00056163837277967447 -0.029872623429007934 0 0.0018774206955075455 -0.029455066213084836 0 0.00056163837277967447 -0.029872623429007934 0 -2.9740404413037106e-05 -0.028313986230627312 0 -0.00076496327947321108 -0.030645669649813183 0 0.00056163837277967447 -0.029872623429007934 0 0.0014661576940930314 -0.028586940461089051 0 0.0018774206955075455 -0.029455066213084836 0 -2.9740404413037106e-05 -0.028313986230627312 0 0.0014661576940930314 -0.028586940461089051 0 0.0019981241699360071 -0.026982316563712569 0 0.00056163837277967447 -0.029872623429007934 0 -2.9740404413037106e-05 -0.028313986230627312 0 0.0014661576940930314 -0.028586940461089051 0 0.0014661576940930314 -0.028586940461089051 0 0.0029033982269572093 -0.028340694063139809 0 0.0019981241699360071 -0.026982316563712569 0 0.0014661576940930314 -0.028586940461089051 0 0.0018774206955075455 -0.029455066213084836 0 0.0029033982269572093 -0.028340694063139809 0 0.0029145397529690212 -0.029673128180485092 0 0.0029033982269572093 -0.028340694063139809 0 0.0041839097775029513 -0.028945653332665602 0 0.0018774206955075455 -0.029455066213084836 0 0.0029145397529690212 -0.029673128180485092 0 0.0029033982269572093 -0.028340694063139809 0 0.0041839097775029513 -0.028945653332665602 0 0.005707855655315665 -0.028895503732369283 0 0.0052806614941512493 -0.026949528677684062 0 0.0029033982269572093 -0.028340694063139809 0 0.0041839097775029513 -0.028945653332665602 0 0.0052806614941512493 -0.026949528677684062 0 0.0041839097775029513 -0.028945653332665602 0 0.005707855655315665 -0.028895503732369283 0 0.0054372400105272903 -0.030721711091112641 0 0.0071389651293457335 -0.028101317684210734 0 0.005707855655315665 -0.028895503732369283 0 0.0052806614941512493 -0.026949528677684062 0 0.0071389651293457335 -0.028101317684210734 0 0.005707855655315665 -0.028895503732369283 0 0.0068243958940595135 -0.029770359106909644 0 0.005707855655315665 -0.028895503732369283 0 0.0068243958940595135 -0.029770359106909644 0 0.0054372400105272903 -0.030721711091112641 0 0.0068243958940595135 -0.029770359106909644 0 0.0054372400105272903 -0.030721711091112641 0 0.0070090904957872107 -0.031503501938602255 0 0.0029145397529690212 -0.029673128180485092 0 0.0041839097775029513 -0.028945653332665602 0 0.0036521505122074382 -0.030742474504220144 0 0.0041839097775029513 -0.028945653332665602 0 0.0054372400105272903 -0.030721711091112641 0 0.0036521505122074382 -0.030742474504220144 0 0.0054372400105272903 -0.030721711091112641 0 0.0036521505122074382 -0.030742474504220144 0 0.0043481034585192094 -0.03235715171029728 0 0.0036521505122074382 -0.030742474504220144 0 0.0043481034585192094 -0.03235715171029728 0 0.0028992445275317327 -0.032121047903266697 0 0.0054372400105272903 -0.030721711091112641 0 0.0043481034585192094 -0.03235715171029728 0 0.0061714315088063406 -0.032862234317582215 0 0.0043481034585192094 -0.03235715171029728 0 0.0061714315088063406 -0.032862234317582215 0 0.0049846686203181296 -0.034032753425354695 0 0.0043481034585192094 -0.03235715171029728 0 0.0049846686203181296 -0.034032753425354695 0 0.0031855909151600505 -0.033653879301546112 0 0.0076165783488151831 -0.033438690344179525 0 0.0070090904957872107 -0.031503501938602255 0 0.0061714315088063406 -0.032862234317582215 0 0.0054372400105272903 -0.030721711091112641 0 0.0070090904957872107 -0.031503501938602255 0 0.0061714315088063406 -0.032862234317582215 0 0.0076165783488151831 -0.033438690344179525 0 0.0061714315088063406 -0.032862234317582215 0 0.006390502816755312 -0.034982341567154684 0 0.0084229816904676028 -0.035240865725462138 0 0.006390502816755312 -0.034982341567154684 0 0.0055043571652366435 -0.036972103707212302 0 0.0061714315088063406 -0.032862234317582215 0 0.006390502816755312 -0.034982341567154684 0 0.0049846686203181296 -0.034032753425354695 0 0.0049846686203181296 -0.034032753425354695 0 0.0032501015142343366 -0.034602536191234337 0 0.0031855909151600505 -0.033653879301546112 0 0.0049846686203181296 -0.034032753425354695 0 0.0051303081563354742 -0.036352359780370748 0 0.0032501015142343366 -0.034602536191234337 0 0.006390502816755312 -0.034982341567154684 0 0.0051303081563354742 -0.036352359780370748 0 0.0055043571652366435 -0.036972103707212302 0 0.006390502816755312 -0.034982341567154684 0 0.0049846686203181296 -0.034032753425354695 0 0.0051303081563354742 -0.036352359780370748 0 0.0051303081563354742 -0.036352359780370748 0 0.0068600402929543027 -0.037604459578527552 0 0.0059612126792586602 -0.036762387445606892 0 0.0021617710146990374 -0.033997733363923373 0 0.0032501015142343366 -0.034602536191234337 0 0.00086789959201082588 -0.034779977130470686 0 0.0056180024361731145 -0.036358673288325219 0 0.0028160820544404939 -0.036357231886712423 0 0.0051303081563354742 -0.036352359780370748 0 0.0032501015142343366 -0.034602536191234337 0 0.00086789959201082588 -0.034779977130470686 0 0.0021617710146990374 -0.033997733363923373 0 0.0032501015142343366 -0.034602536191234337 0 0.0031855909151600505 -0.033653879301546112 0 0.0019440314251021667 -0.030924323647433593 0 0.0028992445275317327 -0.032121047903266697 0 0.0013704130867348021 -0.032993947400930083 0 0.0031855909151600505 -0.033653879301546112 0 0.0028992445275317327 -0.032121047903266697 0 0.0013704130867348021 -0.032993947400930083 0 0.0021617710146990374 -0.033997733363923373 0 0.0031855909151600505 -0.033653879301546112 0 0.0013704130867348021 -0.032993947400930083 0 0.0043481034585192094 -0.03235715171029728 0 0.0031855909151600505 -0.033653879301546112 0 0.0028992445275317327 -0.032121047903266697 0 0.00045928057436698914 -0.031559391323451189 0 0.0013704130867348021 -0.032993947400930083 0 -0.0004434715038556804 -0.032588104576366177 0 0.0019440314251021667 -0.030924323647433593 0 0.00045928057436698914 -0.031559391323451189 0 0.0013704130867348021 -0.032993947400930083 0 0.0013704130867348021 -0.032993947400930083 0 0.00086789959201082588 -0.034779977130470686 0 -0.0004434715038556804 -0.032588104576366177 0 0.0068600402929543027 -0.037604459578527552 0 0.0073819617493848357 -0.037233270545017579 0 0.0065120951067689729 -0.036964266592632029 0 0.0021617710146990374 -0.033997733363923373 0 0.0013704130867348021 -0.032993947400930083 0 0.00086789959201082588 -0.034779977130470686 0 0.0062122245659267782 -0.037329013779089731 0 0.0089388201683963942 -0.035559630959157415 0 0.0073819617493848357 -0.037233270545017579 0 0.0072468754502033744 -0.036771351967143005 0 0.0065120951067689729 -0.036964266592632029 0 0.0072468754502033744 -0.036771351967143005 0 0.0065120951067689729 -0.036964266592632029 0 0.0073265755909715357 -0.036005920246689388 0 0.0065120951067689729 -0.036964266592632029 0 0.0068311425795112681 -0.036712916226105424 0 0.0074348965563148899 -0.036747253623934883 0 0.0068600402929543027 -0.037604459578527552 0 0.0065120951067689729 -0.036964266592632029 0 0.0059612126792586602 -0.036762387445606892 0 0.0065120951067689729 -0.036964266592632029 0 0.0059612126792586602 -0.036762387445606892 0 0.0063607732639877805 -0.036732267962300946 0 0.0059612126792586602 -0.036762387445606892 0 0.0063607732639877805 -0.036732267962300946 0 0.0060302674352570636 -0.036656778058925851 0 0.0065120951067689729 -0.036964266592632029 0 0.0063607732639877805 -0.036732267962300946 0 0.0068311425795112681 -0.036712916226105424 0 0.0068311425795112681 -0.036712916226105424 0 0.0065674082218380126 -0.036546235125339374 0 0.0071457687978550505 -0.036600712030879487 0 0.0063607732639877805 -0.036732267962300946 0 0.0068311425795112681 -0.036712916226105424 0 0.0065674082218380126 -0.036546235125339374 0 0.0065674082218380126 -0.036546235125339374 0 0.0060302674352570636 -0.036656778058925851 0 0.0061142726432627239 -0.036421207184113465 0 0.0063607732639877805 -0.036732267962300946 0 0.0065674082218380126 -0.036546235125339374 0 0.0060302674352570636 -0.036656778058925851 0 0.0065674082218380126 -0.036546235125339374 0 0.0061142726432627239 -0.036421207184113465 0 0.006533423319904621 -0.036216701976071089 0 0.0065674082218380126 -0.036546235125339374 0 0.0069476066550319569 -0.036332618779228901 0 0.0071457687978550505 -0.036600712030879487 0 0.0065674082218380126 -0.036546235125339374 0 0.0069476066550319569 -0.036332618779228901 0 0.006533423319904621 -0.036216701976071089 0 0.0074269196492173202 -0.036337649528429543 0 0.0075411338165547294 -0.036568655524555266 0 0.0071457687978550505 -0.036600712030879487 0 0.0069476066550319569 -0.036332618779228901 0 0.0074269196492173202 -0.036337649528429543 0 0.0071457687978550505 -0.036600712030879487 0 0.0065120951067689729 -0.036964266592632029 0 0.0078652725539126687 -0.036763738075130739 0 0.0074348965563148899 -0.036747253623934883 0 0.0079864021276555373 -0.036409681261057238 0 0.0078652725539126687 -0.036763738075130739 0 0.0083917880278588045 -0.036179446994505718 0 0.0074269196492173202 -0.036337649528429543 0 0.0075411338165547294 -0.036568655524555266 0 0.0079864021276555373 -0.036409681261057238 0 0.0075411338165547294 -0.036568655524555266 0 0.0079864021276555373 -0.036409681261057238 0 0.0077422949537662095 -0.036604808088260277 0 0.0079864021276555373 -0.036409681261057238 0 0.0077422949537662095 -0.036604808088260277 0 0.0078652725539126687 -0.036763738075130739 0 0.0077422949537662095 -0.036604808088260277 0 0.0076363450029996753 -0.03667116670883265 0 0.0078652725539126687 -0.036763738075130739 0 0.0075411338165547294 -0.036568655524555266 0 0.0077422949537662095 -0.036604808088260277 0 0.0076363450029996753 -0.03667116670883265 0 0.0075411338165547294 -0.036568655524555266 0 0.0076363450029996753 -0.03667116670883265 0 0.0074348965563148899 -0.036747253623934883 0 0.0076363450029996753 -0.03667116670883265 0 0.0078652725539126687 -0.036763738075130739 0 0.0074348965563148899 -0.036747253623934883 0 0.0068311425795112681 -0.036712916226105424 0 0.0071457687978550505 -0.036600712030879487 0 0.0074348965563148899 -0.036747253623934883 0 0.0075411338165547294 -0.036568655524555266 0 0.0071457687978550505 -0.036600712030879487 0 0.0074348965563148899 -0.036747253623934883 0 0.0072756578165631943 -0.036801819605160768 0 0.0050956584920417479 -0.036930497177498765 0 0.0041168191966332816 -0.03778811187687553 0 0.0055043571652366435 -0.036972103707212302 0 0.0047611579406349148 -0.036782960882830965 0 0.0055043571652366435 -0.036972103707212302 0 0.0056203040634836953 -0.036775077890871373 0 0.005631859646960417 -0.036582305265252073 0 0.0051303081563354742 -0.036352359780370748 0 0.0055043571652366435 -0.036972103707212302 0 0.0056203040634836953 -0.036775077890871373 0 0.0051303081563354742 -0.036352359780370748 0 0.0059612126792586602 -0.036762387445606892 0 0.0056203040634836953 -0.036775077890871373 0 0.0060302674352570636 -0.036656778058925851 0 0.0056203040634836953 -0.036775077890871373 0 0.005631859646960417 -0.036582305265252073 0 0.0059612126792586602 -0.036762387445606892 0 0.0060302674352570636 -0.036656778058925851 0 0.0056203040634836953 -0.036775077890871373 0 0.0061142726432627239 -0.036421207184113465 0 0.005631859646960417 -0.036582305265252073 0 0.0058617250833188726 -0.035806331831761955 0 0.0060302674352570636 -0.036656778058925851 0 0.0061142726432627239 -0.036421207184113465 0 0.005631859646960417 -0.036582305265252073 0 0.005631859646960417 -0.036582305265252073 0 0.0047611579406349148 -0.036782960882830965 0 0.0058617250833188726 -0.035806331831761955 0 0.0048331077603671734 -0.036761412816792696 0 0.0057646638320634422 -0.03600633467474882 0 0.0055043571652366435 -0.036972103707212302 0 0.005631859646960417 -0.036582305265252073 0 0.0047611579406349148 -0.036782960882830965 0 0.0047611579406349148 -0.036782960882830965 0 0.0045215561630462054 -0.036048269723385575 0 0.0056632639919467626 -0.036191171299049599 0 0.0061142726432627239 -0.036421207184113465 0 0.0058617250833188726 -0.035806331831761955 0 0.006533423319904621 -0.036216701976071089 0 0.0056632639919467626 -0.036191171299049599 0 0.0052351740454619072 -0.034999816260412868 0 0.0071391433783024203 -0.034999977045783136 0 0.0057646638320634422 -0.03600633467474882 0 0.0071391323022418187 -0.035000133935152208 0 0.0041206772911012374 -0.035485790715417277 0 0.0045215561630462054 -0.036048269723385575 0 0.0052351740454619072 -0.034999816260412868 0 0.0045215561630462054 -0.036048269723385575 0 0.0056632639919467626 -0.036191171299049599 0 0.0052351740454619072 -0.034999816260412868 0 0.0078075493438889429 -0.036068147022241648 0 0.0070871058626003833 -0.035917041931173212 0 0.0080685085801847061 -0.035649978003220902 0 0.0078075493438889429 -0.036068147022241648 0 0.0080685085801847061 -0.035649978003220902 0 0.0083917880278588045 -0.036179446994505718 0 0.0074269196492173202 -0.036337649528429543 0 0.0079864021276555373 -0.036409681261057238 0 0.0078075493438889429 -0.036068147022241648 0 0.0079864021276555373 -0.036409681261057238 0 0.0078075493438889429 -0.036068147022241648 0 0.0083917880278588045 -0.036179446994505718 0 0.0074269196492173202 -0.036337649528429543 0 0.0078075493438889429 -0.036068147022241648 0 0.0070871058626003833 -0.035917041931173212 0 0.0069476066550319569 -0.036332618779228901 0 0.0074269196492173202 -0.036337649528429543 0 0.0070871058626003833 -0.035917041931173212 0 0.0058617250833188726 -0.035806331831761955 0 0.006533423319904621 -0.036216701976071089 0 0.0070871058626003833 -0.035917041931173212 0 0.0069476066550319569 -0.036332618779228901 0 0.006533423319904621 -0.036216701976071089 0 0.0070871058626003833 -0.035917041931173212 0 0.0058617250833188726 -0.035806331831761955 0 0.0070871058626003833 -0.035917041931173212 0 0.0071392599885905655 -0.034999538329910346 0 0.0070871058626003833 -0.035917041931173212 0 0.0071392599885905655 -0.034999538329910346 0 0.0080685085801847061 -0.035649978003220902 0 0.0071392599885905655 -0.034999538329910346 0 0.0080685085801847061 -0.035649978003220902 0 0.0090169548096959845 -0.034999656910897299 0 0.0080685085801847061 -0.035649978003220902 0 0.0090169548096959845 -0.034999656910897299 0 0.0094379464831669327 -0.036043771798903161 0 0.0089388201683963942 -0.035559630959157415 0 0.011221954194333836 -0.035274433598433179 0 0.0078652725539126687 -0.036763738075130739 0 0.0094379464831669327 -0.036043771798903161 0 0.0083917880278588045 -0.036179446994505718 0 0.0080685085801847061 -0.035649978003220902 0 0.0094379464831669327 -0.036043771798903161 0 0.0083917880278588045 -0.036179446994505718 0 0.012528948061610617 -0.034824063199789819 0 0.012422316382720483 -0.034959779874403692 0 0.01283748457820345 -0.034536056798640434 0 0.0090169548096959845 -0.034999656910897299 0 0.0094379464831669327 -0.036043771798903161 0 0.010895524983716973 -0.035000028687363655 0 0.011221954194333836 -0.035274433598433179 0 0.010895746987561232 -0.035000110895319111 0 0.012528948061610617 -0.034824063199789819 0 0.010901011495049762 -0.03499986251835107 0 0.012422316382720483 -0.034959779874403692 0 0.010901011495049762 -0.03499986251835107 0 0.012453891653424507 -0.034999216230063149 0 0.012422316382720483 -0.034959779874403692 0 0.012453891653424507 -0.034999216230063149 0 0.013190275073371449 -0.034987041574029827 0 0.012422316382720483 -0.034959779874403692 0 0.013190275073371449 -0.034987041574029827 0 0.012422316382720483 -0.034959779874403692 0 0.013365473603368153 -0.034586062561543521 0 0.012422316382720483 -0.034959779874403692 0 0.01283748457820345 -0.034536056798640434 0 0.013365473603368153 -0.034586062561543521 0 0.01283748457820345 -0.034536056798640434 0 0.013365473603368153 -0.034586062561543521 0 0.013240296960059307 -0.034231201685585737 0 0.013365473603368153 -0.034586062561543521 0 0.013240296960059307 -0.034231201685585737 0 0.013528619630094977 -0.033855030917491133 0 0.01283748457820345 -0.034536056798640434 0 0.013240296960059307 -0.034231201685585737 0 0.013098225500518181 -0.034240267640436632 0 0.013098225500518181 -0.034240267640436632 0 0.013037378463941103 -0.03429632222350474 0 0.012897354380897466 -0.034469779185805911 0 0.01283748457820345 -0.034536056798640434 0 0.013098225500518181 -0.034240267640436632 0 0.012897354380897466 -0.034469779185805911 0 0.013076085611130283 -0.034526822100625611 0 0.013037378463941103 -0.03429632222350474 0 0.012897354380897466 -0.034469779185805911 0 0.0072468754502033744 -0.036771351967143005 0 0.0073265755909715357 -0.036005920246689388 0 0.0078628392688551603 -0.03694279395224806 0 0.0089388201683963942 -0.035559630959157415 0 0.010928172317524033 -0.036111048810391337 0 0.0073819617493848357 -0.037233270545017579 0 0.0072468754502033744 -0.036771351967143005 0 0.0078628392688551603 -0.03694279395224806 0 0.013076085611130283 -0.034526822100625611 0 0.012528948061610617 -0.034824063199789819 0 0.012897354380897466 -0.034469779185805911 0 0.012528948061610617 -0.034824063199789819 0 0.01283748457820345 -0.034536056798640434 0 0.012897354380897466 -0.034469779185805911 0 0.015597090448079646 -0.035009974078285745 0 0.017669791441557336 -0.035001789871753883 0 0.015273198403031731 -0.034570079690032889 0 0.015578881101301435 -0.034997848031787841 0 0.015597090448079646 -0.035009974078285745 0 0.017669791441557336 -0.035001789871753883 0 0.01556919432431127 -0.034999610085415835 0 0.014210443506317076 -0.034705113027416037 0 0.014055655911934611 -0.034945074811208558 0 0.015572636467094217 -0.034999764052802002 0 0.014899873565459298 -0.034801235795082985 0 0.014210443506317076 -0.034705113027416037 0 0.014055655911934611 -0.034945074811208558 0 0.013981306316768721 -0.03439024832018215 0 0.01556919432431127 -0.034999610085415835 0 0.014055655911934611 -0.034945074811208558 0 0.014014712578631051 -0.034999281479354327 0 0.012453891653424507 -0.034999216230063149 0 0.013190275073371449 -0.034987041574029827 0 0.014014712578631051 -0.034999281479354327 0 0.013190275073371449 -0.034987041574029827 0 0.014055655911934611 -0.034945074811208558 0 0.014014712578631051 -0.034999281479354327 0 0.013190275073371449 -0.034987041574029827 0 0.013365473603368153 -0.034586062561543521 0 0.014055655911934611 -0.034945074811208558 0 0.013365473603368153 -0.034586062561543521 0 0.013703649338749598 -0.033963337046556796 0 0.013981306316768721 -0.03439024832018215 0 0.013365473603368153 -0.034586062561543521 0 0.014055655911934611 -0.034945074811208558 0 0.013981306316768721 -0.03439024832018215 0 0.013365473603368153 -0.034586062561543521 0 0.013703649338749598 -0.033963337046556796 0 0.013528619630094977 -0.033855030917491133 0 0.013703649338749598 -0.033963337046556796 0 0.013981306316768721 -0.03439024832018215 0 0.01424522681700236 -0.03395919375209426 0 0.014210443506317076 -0.034705113027416037 0 0.013981306316768721 -0.03439024832018215 0 0.01424522681700236 -0.03395919375209426 0 0.014899873565459298 -0.034801235795082985 0 0.014363315640582302 -0.034106420823338666 0 0.013703649338749598 -0.033963337046556796 0 0.01424522681700236 -0.03395919375209426 0 0.013578096644939209 -0.033181275198279736 0 0.01424522681700236 -0.03395919375209426 0 0.014084460653821733 -0.033842837075413169 0 0.013713770420154687 -0.033384080007547445 0 0.01424522681700236 -0.03395919375209426 0 0.013506182520365296 -0.032961488595691882 0 0.013713770420154687 -0.033384080007547445 0 0.01424522681700236 -0.03395919375209426 0 0.015273198403031731 -0.034570079690032889 0 0.014084460653821733 -0.033842837075413169 0 0.015597090448079646 -0.035009974078285745 0 0.01424522681700236 -0.03395919375209426 0 0.015273198403031731 -0.034570079690032889 0 0.013506182520365296 -0.032961488595691882 0 0.013033336161923889 -0.032104122265368261 0 0.013248974054134225 -0.032728799066886652 0 0.013506182520365296 -0.032961488595691882 0 0.013257971958572741 -0.032194575048343284 0 0.013033336161923889 -0.032104122265368261 0 0.013506182520365296 -0.032961488595691882 0 0.013713770420154687 -0.033384080007547445 0 0.013248974054134225 -0.032728799066886652 0 0.01424522681700236 -0.03395919375209426 0 0.013506182520365296 -0.032961488595691882 0 0.013578096644939209 -0.033181275198279736 0 0.013578096644939209 -0.033181275198279736 0 0.013397688738398734 -0.032439820440793556 0 0.013257971958572741 -0.032194575048343284 0 0.013506182520365296 -0.032961488595691882 0 0.013578096644939209 -0.033181275198279736 0 0.013257971958572741 -0.032194575048343284 0 0.013578096644939209 -0.033181275198279736 0 0.013397688738398734 -0.032439820440793556 0 0.013549007094190513 -0.033326827276087607 0 0.013703649338749598 -0.033963337046556796 0 0.013578096644939209 -0.033181275198279736 0 0.013549007094190513 -0.033326827276087607 0 0.013549007094190513 -0.033326827276087607 0 0.013528619630094977 -0.033855030917491133 0 0.013538368417890237 -0.032795615028539754 0 0.013703649338749598 -0.033963337046556796 0 0.013549007094190513 -0.033326827276087607 0 0.013528619630094977 -0.033855030917491133 0 0.013397688738398734 -0.032439820440793556 0 0.013549007094190513 -0.033326827276087607 0 0.013538368417890237 -0.032795615028539754 0 0.013397688738398734 -0.032439820440793556 0 0.013538368417890237 -0.032795615028539754 0 0.013316701182904055 -0.031251827332084904 0 0.013538368417890237 -0.032795615028539754 0 0.013316701182904055 -0.031251827332084904 0 0.013549676856258694 -0.031459986420782744 0 0.013316701182904055 -0.031251827332084904 0 0.013307235647126135 -0.030925661507953353 0 0.013159444020765347 -0.030638067820976972 0 0.013316701182904055 -0.031251827332084904 0 0.013261135894247867 -0.03061039387080583 0 0.013159444020765347 -0.030638067820976972 0 0.013316701182904055 -0.031251827332084904 0 0.013307235647126135 -0.030925661507953353 0 0.013278908275805192 -0.031571803583861927 0 0.013307235647126135 -0.030925661507953353 0 0.013278908275805192 -0.031571803583861927 0 0.013088141648167358 -0.031264770594296991 0 0.013397688738398734 -0.032439820440793556 0 0.013278908275805192 -0.031571803583861927 0 0.013257971958572741 -0.032194575048343284 0 0.013397688738398734 -0.032439820440793556 0 0.013316701182904055 -0.031251827332084904 0 0.013278908275805192 -0.031571803583861927 0 0.013278908275805192 -0.031571803583861927 0 0.013257971958572741 -0.032194575048343284 0 0.013088141648167358 -0.031264770594296991 0 0.013257971958572741 -0.032194575048343284 0 0.013088141648167358 -0.031264770594296991 0 0.012845981424996138 -0.031389562449040342 0 0.013307235647126135 -0.030925661507953353 0 0.013088141648167358 -0.031264770594296991 0 0.013122494372897024 -0.030539890212955136 0 0.013088141648167358 -0.031264770594296991 0 0.012777751152731985 -0.030751965391787574 0 0.013122494372897024 -0.030539890212955136 0 0.013088141648167358 -0.031264770594296991 0 0.012845981424996138 -0.031389562449040342 0 0.012777751152731985 -0.030751965391787574 0 0.012845981424996138 -0.031389562449040342 0 0.012777751152731985 -0.030751965391787574 0 0.012399684490650606 -0.030798393312714469 0 0.013257971958572741 -0.032194575048343284 0 0.012845981424996138 -0.031389562449040342 0 0.013033336161923889 -0.032104122265368261 0 0.012845981424996138 -0.031389562449040342 0 0.013033336161923889 -0.032104122265368261 0 0.012609923729246167 -0.03145960659583396 0 0.014908056955842207 -0.032765765573814151 0 0.014407393769618162 -0.032157928813950791 0 0.014615465844646717 -0.031776832710255359 0 -0.0020449863272863121 -0.031746311368351113 0 -0.0022900313279308466 -0.033813028429126028 0 -0.0038732269516979943 -0.030954246259910459 0 0.0078063061819177559 -0.034068777482778236 0 0.0077365257443346635 -0.030815312521690497 0 -0.0020449863272863121 -0.031746311368351113 0 -0.0004434715038556804 -0.032588104576366177 0 -0.0022900313279308466 -0.033813028429126028 0 0.0068600402929543027 -0.037604459578527552 0 0.0073819617493848357 -0.037233270545017579 0 0.0083928000191910226 -0.037809923383452668 0 0.00086789959201082588 -0.034779977130470686 0 -0.0004434715038556804 -0.032588104576366177 0 -0.0022900313279308466 -0.033813028429126028 0 0.0073819617493848357 -0.037233270545017579 0 0.0078628392688551603 -0.03694279395224806 0 0.0083928000191910226 -0.037809923383452668 0 0.010928172317524033 -0.036111048810391337 0 0.0078063061819177559 -0.034068777482778236 0 0.0028160820544404939 -0.036357231886712423 0 0.0078063061819177559 -0.034068777482778236 0 0.013098225500518181 -0.034240267640436632 0 0.013037378463941103 -0.03429632222350474 0 0.013126488226946289 -0.034178273006410749 0 0.013098225500518181 -0.034240267640436632 0 0.013126488226946289 -0.034178273006410749 0 0.013462686843789814 -0.033865906701906694 0 0.0078063061819177559 -0.034068777482778236 0 0.015114285745453749 -0.03326652235701922 0 0.013240296960059307 -0.034231201685585737 0 0.013098225500518181 -0.034240267640436632 0 0.013462686843789814 -0.033865906701906694 0 0.013528619630094977 -0.033855030917491133 0 0.013538368417890237 -0.032795615028539754 0 0.013462686843789814 -0.033865906701906694 0 0.013240296960059307 -0.034231201685585737 0 0.013528619630094977 -0.033855030917491133 0 0.013462686843789814 -0.033865906701906694 0 0.013538368417890237 -0.032795615028539754 0 0.014148070865467686 -0.032559134491691302 0 0.013955735815388726 -0.032097577091687965 0 0.01291295408504157 -0.032781327853184827 0 0.015114285745453749 -0.03326652235701922 0 0.014908056955842207 -0.032765765573814151 0 0.014148070865467686 -0.032559134491691302 0 0.014407393769618162 -0.032157928813950791 0 0.014148070865467686 -0.032559134491691302 0 0.014407393769618162 -0.032157928813950791 0 0.013955735815388726 -0.032097577091687965 0 0.014407393769618162 -0.032157928813950791 0 0.014615465844646717 -0.031776832710255359 0 0.014206218734297404 -0.031902079944549779 0 0.014615465844646717 -0.031776832710255359 0 0.014206218734297404 -0.031902079944549779 0 0.013882846685126992 -0.031448668869416559 0 0.014206218734297404 -0.031902079944549779 0 0.013882846685126992 -0.031448668869416559 0 0.013955735815388726 -0.032097577091687965 0 0.014407393769618162 -0.032157928813950791 0 0.014206218734297404 -0.031902079944549779 0 0.013955735815388726 -0.032097577091687965 0 0.013538368417890237 -0.032795615028539754 0 0.013955735815388726 -0.032097577091687965 0 0.013549676856258694 -0.031459986420782744 0 0.013882846685126992 -0.031448668869416559 0 0.013955735815388726 -0.032097577091687965 0 0.013549676856258694 -0.031459986420782744 0 0.013882846685126992 -0.031448668869416559 0 0.013549676856258694 -0.031459986420782744 0 0.013392708699071571 -0.030870955264413 0 0.013316701182904055 -0.031251827332084904 0 0.013549676856258694 -0.031459986420782744 0 0.013261135894247867 -0.03061039387080583 0 0.013549676856258694 -0.031459986420782744 0 0.013392708699071571 -0.030870955264413 0 0.013261135894247867 -0.03061039387080583 0 0.013882846685126992 -0.031448668869416559 0 0.013392708699071571 -0.030870955264413 0 0.013036579138861281 -0.030040554056494785 0 0.013036579138861281 -0.030040554056494785 0 0.013261135894247867 -0.03061039387080583 0 0.013090140035161422 -0.03029739677771208 0 0.013392708699071571 -0.030870955264413 0 0.013036579138861281 -0.030040554056494785 0 0.013261135894247867 -0.03061039387080583 0 0.014615465844646717 -0.031776832710255359 0 0.013882846685126992 -0.031448668869416559 0 0.013036579138861281 -0.030040554056494785 0 0.011207511791905336 -0.026846617038683868 0 0.013036579138861281 -0.030040554056494785 0 0.010915097174451627 -0.029064402134872037 0 0.0077365257443346635 -0.030815312521690497 0 0.014522005379618126 -0.029827315888622148 0 0.0092805573101085396 -0.0281543170973215 0 0.0087156435495068796 -0.029466558359589622 0 0.0099689931592518363 -0.029713342855081076 0 0.0092805573101085396 -0.0281543170973215 0 0.010915097174451627 -0.029064402134872037 0 0.0099689931592518363 -0.029713342855081076 0 0.011207511791905336 -0.026846617038683868 0 0.0092805573101085396 -0.0281543170973215 0 0.010915097174451627 -0.029064402134872037 0 0.0077365257443346635 -0.030815312521690497 0 0.0031541421946952564 -0.028957908109791097 0 -0.0020449863272863121 -0.031746311368351113 0 -0.0038732269516979943 -0.030954246259910459 0 -0.0019963677034743575 -0.029690081449847729 0 0.00045928057436698914 -0.031559391323451189 0 -0.0004434715038556804 -0.032588104576366177 0 -0.00076496327947321108 -0.030645669649813183 0 -0.0020449863272863121 -0.031746311368351113 0 -0.0004434715038556804 -0.032588104576366177 0 -0.00076496327947321108 -0.030645669649813183 0 -0.0020449863272863121 -0.031746311368351113 0 -0.0019963677034743575 -0.029690081449847729 0 -0.00076496327947321108 -0.030645669649813183 0 0.0076674160567084607 -0.029103660239274378 0 0.0092805573101085396 -0.0281543170973215 0 0.0087156435495068796 -0.029466558359589622 0 0.0038688347779547712 -0.028862274826781442 0 0.0031541421946952564 -0.028957908109791097 0 -2.9740404413037106e-05 -0.028313986230627312 0 -0.0019963677034743575 -0.029690081449847729 0 -0.00076496327947321108 -0.030645669649813183 0 0.0090668813936634306 -0.03022072650969829 0 0.0082219148637583308 -0.031088367765279065 0 0.0075627157685792925 -0.029908783330733105 0 0.0086861668298753424 -0.030166004639338728 0 0.0080673024568705121 -0.029992279529314905 0 0.0087156435495068796 -0.029466558359589622 0 0.0090668813936634306 -0.03022072650969829 0 0.0075289024421187328 -0.030200502655043961 0 0.0076674160567084607 -0.029103660239274378 0 0.0087156435495068796 -0.029466558359589622 0 0.0075289024421187328 -0.030200502655043961 0 0.0087156435495068796 -0.029466558359589622 0 0.0090668813936634306 -0.03022072650969829 0 0.0099689931592518363 -0.029713342855081076 0 0.0082219148637583308 -0.031088367765279065 0 0.0088203460280206602 -0.032353921204108682 0 0.0069607721215097481 -0.031510418298852413 0 0.0090668813936634306 -0.03022072650969829 0 0.0082219148637583308 -0.031088367765279065 0 0.0098633326331839331 -0.031087504925602246 0 0.0082219148637583308 -0.031088367765279065 0 0.0098633326331839331 -0.031087504925602246 0 0.0088203460280206602 -0.032353921204108682 0 0.0098633326331839331 -0.031087504925602246 0 0.01127350996641787 -0.031394315707507017 0 0.0104446441932751 -0.032026684525199328 0 0.0098633326331839331 -0.031087504925602246 0 0.0088203460280206602 -0.032353921204108682 0 0.0104446441932751 -0.032026684525199328 0 0.0098633326331839331 -0.031087504925602246 0 0.0099689931592518363 -0.029713342855081076 0 0.011237726979688932 -0.030471271642110182 0 0.0090668813936634306 -0.03022072650969829 0 0.0098633326331839331 -0.031087504925602246 0 0.0099689931592518363 -0.029713342855081076 0 0.010915097174451627 -0.029064402134872037 0 0.0099689931592518363 -0.029713342855081076 0 0.011237726979688932 -0.030471271642110182 0 0.013036579138861281 -0.030040554056494785 0 0.010915097174451627 -0.029064402134872037 0 0.011237726979688932 -0.030471271642110182 0 0.013036579138861281 -0.030040554056494785 0 0.011237726979688932 -0.030471271642110182 0 0.012402308665476123 -0.030806469765248399 0 0.013339777377823801 -0.030305574379203292 0 0.012402308665476123 -0.030806469765248399 0 0.012292250668785329 -0.031421004303999273 0 0.013261135894247867 -0.03061039387080583 0 0.013339777377823801 -0.030305574379203292 0 0.013090140035161422 -0.03029739677771208 0 0.013036579138861281 -0.030040554056494785 0 0.013090140035161422 -0.03029739677771208 0 0.012402308665476123 -0.030806469765248399 0 0.013339777377823801 -0.030305574379203292 0 0.013090140035161422 -0.03029739677771208 0 0.012402308665476123 -0.030806469765248399 0 0.013170588852334568 -0.029937606554733358 0 0.012857466225110224 -0.030567584978755911 0 0.013339777377823801 -0.030305574379203292 0 0.012292250668785329 -0.031421004303999273 0 0.01271151098017779 -0.03203327177254555 0 0.0098633326331839331 -0.031087504925602246 0 0.011237726979688932 -0.030471271642110182 0 0.01127350996641787 -0.031394315707507017 0 0.012402308665476123 -0.030806469765248399 0 0.012292250668785329 -0.031421004303999273 0 0.01127350996641787 -0.031394315707507017 0 0.011237726979688932 -0.030471271642110182 0 0.012402308665476123 -0.030806469765248399 0 0.01127350996641787 -0.031394315707507017 0 0.012292250668785329 -0.031421004303999273 0 0.01127350996641787 -0.031394315707507017 0 0.011581488794857219 -0.032147817778808846 0 0.01127350996641787 -0.031394315707507017 0 0.011581488794857219 -0.032147817778808846 0 0.0104446441932751 -0.032026684525199328 0 0.011581488794857219 -0.032147817778808846 0 0.01209181111622766 -0.032918429142056345 0 0.01060937488852577 -0.033086846303881902 0 0.011581488794857219 -0.032147817778808846 0 0.01060937488852577 -0.033086846303881902 0 0.0104446441932751 -0.032026684525199328 0 0.012292250668785329 -0.031421004303999273 0 0.011581488794857219 -0.032147817778808846 0 0.01271151098017779 -0.03203327177254555 0 0.011581488794857219 -0.032147817778808846 0 0.01271151098017779 -0.03203327177254555 0 0.01209181111622766 -0.032918429142056345 0 0.01255417230074766 -0.027382303657750833 0 0.011405326530704351 -0.025885793365964041 0 0.011472053409686357 -0.026243758252316722 0 0.012857466225110224 -0.030567584978755911 0 0.0097995943170996035 -0.02648445702051009 0 0.01271151098017779 -0.03203327177254555 0 0.01209181111622766 -0.032918429142056345 0 0.012209887552799576 -0.033826998536864709 0 0.01209181111622766 -0.032918429142056345 0 0.012209887552799576 -0.033826998536864709 0 0.01060937488852577 -0.033086846303881902 0 0.011405326530704351 -0.025885793365964041 0 0.011472053409686357 -0.026243758252316722 0 0.011205830143591847 -0.025939447558979596 0 0.0097995943170996035 -0.02648445702051009 0 0.0083362633322946467 -0.027106898656151898 0 0.0074852589821403038 -0.021513569343744206 0 0.0059376590112427555 -0.020788337984087149 0 0.0061422566160125227 -0.021732325631040328 0 0.0059376590112427555 -0.020788337984087149 0 0.0044821518379964892 -0.02155576257680825 0 0.0061422566160125227 -0.021732325631040328 0 0.0059376590112427555 -0.020788337984087149 0 0.0040801414434830765 -0.020069185042173438 0 0.0044821518379964892 -0.02155576257680825 0 0.0040801414434830765 -0.020069185042173438 0 0.0044821518379964892 -0.02155576257680825 0 0.0016946709581244057 -0.021456337000383081 0 0.0063939714252152823 -0.026161096733299204 0 0.0047809864630416615 -0.025578203502211794 0 0.0083362633322946467 -0.027106898656151898 0 0.0063939714252152823 -0.026161096733299204 0 0.01060937488852577 -0.033086846303881902 0 0.0088203460280206602 -0.032353921204108682 0 0.0104446441932751 -0.032026684525199328 0 0.012184660119071366 -0.029445999825290142 0 0.012759881855146581 -0.030091905025595143 0 0.012742713017300372 -0.029285745845026249 0 0.012184660119071366 -0.029445999825290142 0 0.012742713017300372 -0.029285745845026249 0 0.012384161917695423 -0.028583384388904901 0 0.012184660119071366 -0.029445999825290142 0 0.01240758473250996 -0.030206765780195571 0 0.012759881855146581 -0.030091905025595143 0 0.01240758473250996 -0.030206765780195571 0 0.012777751152731985 -0.030751965391787574 0 0.012399684490650606 -0.030798393312714469 0 0.01240758473250996 -0.030206765780195571 0 0.012777751152731985 -0.030751965391787574 0 0.012759881855146581 -0.030091905025595143 0 0.012777751152731985 -0.030751965391787574 0 0.012759881855146581 -0.030091905025595143 0 0.013122494372897024 -0.030539890212955136 0 0.012759881855146581 -0.030091905025595143 0 0.013122494372897024 -0.030539890212955136 0 0.013178520389365588 -0.029802594961816774 0 0.013178520389365588 -0.029802594961816774 0 0.012742713017300372 -0.029285745845026249 0 0.013063255762198207 -0.028573245401925781 0 0.012759881855146581 -0.030091905025595143 0 0.013178520389365588 -0.029802594961816774 0 0.012742713017300372 -0.029285745845026249 0 0.013178520389365588 -0.029802594961816774 0 0.014019003168240856 -0.029453753827222259 0 0.013063255762198207 -0.028573245401925781 0 0.013178520389365588 -0.029802594961816774 0 0.014019003168240856 -0.029453753827222259 0 0.013429165008059607 -0.030331076611788736 0 0.013307235647126135 -0.030925661507953353 0 0.013429165008059607 -0.030331076611788736 0 0.013159444020765347 -0.030638067820976972 0 0.013122494372897024 -0.030539890212955136 0 0.013178520389365588 -0.029802594961816774 0 0.013429165008059607 -0.030331076611788736 0 0.013307235647126135 -0.030925661507953353 0 0.013122494372897024 -0.030539890212955136 0 0.013429165008059607 -0.030331076611788736 0 0.012559492015935102 -0.028660487826030007 0 0.013098242450776933 -0.030433769260697303 0 0.014019003168240856 -0.029453753827222259 0 0.013429165008059607 -0.030331076611788736 0 0.013159444020765347 -0.030638067820976972 0 0.013339777377823801 -0.030305574379203292 0 0.011094814075649306 -0.027970583948145483 0 0.013159444020765347 -0.030638067820976972 0 0.013261135894247867 -0.03061039387080583 0 0.013339777377823801 -0.030305574379203292 0 0.013159444020765347 -0.030638067820976972 0 0.013339777377823801 -0.030305574379203292 0 0.01255417230074766 -0.027382303657750833 0 0.011094814075649306 -0.027970583948145483 0 0.01255417230074766 -0.027382303657750833 0 0.011094814075649306 -0.027970583948145483 0 0.011279333988269573 -0.026380803007762313 0 0.01255417230074766 -0.027382303657750833 0 0.011472053409686357 -0.026243758252316722 0 0.011279333988269573 -0.026380803007762313 0 0.011472053409686357 -0.026243758252316722 0 0.011279333988269573 -0.026380803007762313 0 0.011106559101910551 -0.025935337002024914 0 0.011472053409686357 -0.026243758252316722 0 0.011106559101910551 -0.025935337002024914 0 0.011205830143591847 -0.025939447558979596 0 0.011279333988269573 -0.026380803007762313 0 0.010965489147251225 -0.025895011581414999 0 0.011106559101910551 -0.025935337002024914 0 0.011279333988269573 -0.026380803007762313 0 0.010777674448593105 -0.026010744221540909 0 0.010965489147251225 -0.025895011581414999 0 0.011094814075649306 -0.027970583948145483 0 0.011279333988269573 -0.026380803007762313 0 0.010777674448593105 -0.026010744221540909 0 0.012559492015935102 -0.028660487826030007 0 0.012100189015063743 -0.026618445577060595 0 0.014019003168240856 -0.029453753827222259 0 0.013418330872476023 -0.027016665158430778 0 0.013063255762198207 -0.028573245401925781 0 0.012742713017300372 -0.029285745845026249 0 0.013063255762198207 -0.028573245401925781 0 0.012384161917695423 -0.028583384388904901 0 0.013063255762198207 -0.028573245401925781 0 0.012501372183271794 -0.026874182993096969 0 0.012384161917695423 -0.028583384388904901 0 0.013418330872476023 -0.027016665158430778 0 0.012501372183271794 -0.026874182993096969 0 0.011935898063673962 -0.026149835951867418 0 0.013418330872476023 -0.027016665158430778 0 0.013063255762198207 -0.028573245401925781 0 0.012501372183271794 -0.026874182993096969 0 0.012602195731443932 -0.026827188254203636 0 0.012776422406134434 -0.026731723501597915 0 0.012501372183271794 -0.026874182993096969 0 0.013142322660153099 -0.025082475003899291 0 0.012799029826448685 -0.026519512842654868 0 0.012501372183271794 -0.026874182993096969 0 0.011899722179898323 -0.02864065337750166 0 0.012384161917695423 -0.028583384388904901 0 0.012184660119071366 -0.029445999825290142 0 0.011899722179898323 -0.02864065337750166 0 0.012384161917695423 -0.028583384388904901 0 0.012888331459837206 -0.026837859102020894 0 0.011935898063673962 -0.026149835951867418 0 0.012442126534060618 -0.026863269537826424 0 0.012888331459837206 -0.026837859102020894 0 0.012799029826448685 -0.026519512842654868 0 0.011935898063673962 -0.026149835951867418 0 0.012501372183271794 -0.026874182993096969 0 0.012799029826448685 -0.026519512842654868 0 0.011935898063673962 -0.026149835951867418 0 0.011935898063673962 -0.026149835951867418 0 0.010956265524368996 -0.026149166945048964 0 0.010893849396063155 -0.025894447778889978 0 0.010777674448593105 -0.026010744221540909 0 0.011935898063673962 -0.026149835951867418 0 0.010965489147251225 -0.025895011581414999 0 0.011935898063673962 -0.026149835951867418 0 0.010965489147251225 -0.025895011581414999 0 0.010893849396063155 -0.025894447778889978 0 0.012100189015063743 -0.026618445577060595 0 0.011987560136623963 -0.026248014861305298 0 0.010893849396063155 -0.025894447778889978 0 0.011106559101910551 -0.025935337002024914 0 0.010851489493801197 -0.025836512578070611 0 0.010965489147251225 -0.025895011581414999 0 0.010893849396063155 -0.025894447778889978 0 0.011106559101910551 -0.025935337002024914 0 0.011106559101910551 -0.025935337002024914 0 0.011205830143591847 -0.025939447558979596 0 0.010851489493801197 -0.025836512578070611 0 0.01052568209220855 -0.025924151482007895 0 0.010161540483827244 -0.026130812813818714 0 0.0099951336034487213 -0.025814347435510074 0 0.010851489493801197 -0.025836512578070611 0 0.01052568209220855 -0.025924151482007895 0 0.0099951336034487213 -0.025814347435510074 0 0.010893849396063155 -0.025894447778889978 0 0.010851489493801197 -0.025836512578070611 0 0.01052568209220855 -0.025924151482007895 0 0.010956265524368996 -0.026149166945048964 0 0.010893849396063155 -0.025894447778889978 0 0.01052568209220855 -0.025924151482007895 0 0.010956265524368996 -0.026149166945048964 0 0.01052568209220855 -0.025924151482007895 0 0.010161540483827244 -0.026130812813818714 0 0.010161540483827244 -0.026130812813818714 0 0.0099883220047365176 -0.027097329071264293 0 0.0079595479184974803 -0.026073710227759624 0 0.010161540483827244 -0.026130812813818714 0 0.0099883220047365176 -0.027097329071264293 0 0.011561942192321928 -0.026885484232773305 0 0.0099883220047365176 -0.027097329071264293 0 0.011561942192321928 -0.026885484232773305 0 0.011169437639319872 -0.027879731330472411 0 0.010956265524368996 -0.026149166945048964 0 0.010161540483827244 -0.026130812813818714 0 0.011561942192321928 -0.026885484232773305 0 0.011935898063673962 -0.026149835951867418 0 0.010956265524368996 -0.026149166945048964 0 0.011561942192321928 -0.026885484232773305 0 0.011935898063673962 -0.026149835951867418 0 0.011561942192321928 -0.026885484232773305 0 0.012442126534060618 -0.026863269537826424 0 0.011561942192321928 -0.026885484232773305 0 0.012474881776498895 -0.027350886266211839 0 0.012044656394706284 -0.028013329317735446 0 0.012474881776498895 -0.027350886266211839 0 0.012442126534060618 -0.026863269537826424 0 0.013037844254146131 -0.027095320190047199 0 0.011561942192321928 -0.026885484232773305 0 0.012474881776498895 -0.027350886266211839 0 0.012442126534060618 -0.026863269537826424 0 0.012888331459837206 -0.026837859102020894 0 0.012442126534060618 -0.026863269537826424 0 0.013037844254146131 -0.027095320190047199 0 0.0030458855070017387 -0.022978415413309687 0 0.0044821518379964892 -0.02155576257680825 0 0.0016946709581244057 -0.021456337000383081 0 0.0030458855070017387 -0.022978415413309687 0 0.0056173790637093109 -0.022517622449968314 0 0.0044990122217384411 -0.024179576910429341 0 0.0030458855070017387 -0.022978415413309687 0 0.0044821518379964892 -0.02155576257680825 0 0.0056173790637093109 -0.022517622449968314 0 0.0044821518379964892 -0.02155576257680825 0 0.0056173790637093109 -0.022517622449968314 0 0.0061422566160125227 -0.021732325631040328 0 0.0056173790637093109 -0.022517622449968314 0 0.0075974845828779376 -0.023372890015820408 0 0.0044990122217384411 -0.024179576910429341 0 0.0056173790637093109 -0.022517622449968314 0 0.0061422566160125227 -0.021732325631040328 0 0.0070209449857481995 -0.022362759132024502 0 0.011405326530704351 -0.025885793365964041 0 0.010851489493801197 -0.025836512578070611 0 0.0099951336034487213 -0.025814347435510074 0 0.0097995943170996035 -0.02648445702051009 0 0.0087315806712173153 -0.024072186393627137 0 0.0074852589821403038 -0.021513569343744206 0 0.0070209449857481995 -0.022362759132024502 0 0.0075974845828779376 -0.023372890015820408 0 0.0074852589821403038 -0.021513569343744206 0 0.0061422566160125227 -0.021732325631040328 0 0.0070209449857481995 -0.022362759132024502 0 0.011405326530704351 -0.025885793365964041 0 0.011205830143591847 -0.025939447558979596 0 0.010851489493801197 -0.025836512578070611 0 0.0056173790637093109 -0.022517622449968314 0 0.0070209449857481995 -0.022362759132024502 0 0.0075974845828779376 -0.023372890015820408 0 0.0075974845828779376 -0.023372890015820408 0 0.0056938186927501288 -0.025577737223276591 0 0.0044990122217384411 -0.024179576910429341 0 0.0075974845828779376 -0.023372890015820408 0 0.0079595479184974803 -0.026073710227759624 0 0.0056938186927501288 -0.025577737223276591 0 0.0087315806712173153 -0.024072186393627137 0 0.0080808824505396969 -0.026399387263074021 0 0.010161540483827244 -0.026130812813818714 0 0.0099951336034487213 -0.025814347435510074 0 0.0079595479184974803 -0.026073710227759624 0 0.0056938186927501288 -0.025577737223276591 0 0.0044990122217384411 -0.024179576910429341 0 0.0032256852532390034 -0.025931149213529896 0 0.0044990122217384411 -0.024179576910429341 0 0.0016482994187498377 -0.024918120837755686 0 0.0032256852532390034 -0.025931149213529896 0 0.0030458855070017387 -0.022978415413309687 0 0.0044990122217384411 -0.024179576910429341 0 0.0016482994187498377 -0.024918120837755686 0 0.0030458855070017387 -0.022978415413309687 0 0.0016482994187498377 -0.024918120837755686 0 0.00094245591830854122 -0.023153812023525337 0 0.0016482994187498377 -0.024918120837755686 0 -0.00091042710151098365 -0.023945209681279958 0 0.00014576963619698005 -0.025514372758980698 0 0.0016482994187498377 -0.024918120837755686 0 0.00094245591830854122 -0.023153812023525337 0 -0.00091042710151098365 -0.023945209681279958 0 0.0030458855070017387 -0.022978415413309687 0 0.00094245591830854122 -0.023153812023525337 0 0.0016946709581244057 -0.021456337000383081 0 0.00094245591830854122 -0.023153812023525337 0 -0.00057276818144065859 -0.022274163440343372 0 -0.00091042710151098365 -0.023945209681279958 0 -0.00057276818144065859 -0.022274163440343372 0 0.0016946709581244057 -0.021456337000383081 0 -0.0013226124168475453 -0.020277892610050488 0 0.00094245591830854122 -0.023153812023525337 0 -0.00057276818144065859 -0.022274163440343372 0 0.0016946709581244057 -0.021456337000383081 0 -0.0024940936061093721 -0.021619197693454544 0 -0.0022250876867610991 -0.022672507840718011 0 -0.0037724772202159594 -0.022086788316374961 0 -0.0024940936061093721 -0.021619197693454544 0 -0.00057276818144065859 -0.022274163440343372 0 -0.0022250876867610991 -0.022672507840718011 0 -0.0024940936061093721 -0.021619197693454544 0 -0.00057276818144065859 -0.022274163440343372 0 -0.0013226124168475453 -0.020277892610050488 0 -0.00057276818144065859 -0.022274163440343372 0 -0.0022250876867610991 -0.022672507840718011 0 -0.00091042710151098365 -0.023945209681279958 0 -0.0024857001409700403 -0.023441486455908035 0 -0.00091042710151098365 -0.023945209681279958 0 -0.0028726371580269786 -0.024066344882946428 0 -0.0022250876867610991 -0.022672507840718011 0 -0.0024857001409700403 -0.023441486455908035 0 -0.00091042710151098365 -0.023945209681279958 0 -0.0022250876867610991 -0.022672507840718011 0 -0.0024857001409700403 -0.023441486455908035 0 -0.0039062031750183306 -0.023042024666044651 0 -0.00091042710151098365 -0.023945209681279958 0 -0.0016415752147812489 -0.025133686165746964 0 0.00014576963619698005 -0.025514372758980698 0 -0.00091042710151098365 -0.023945209681279958 0 -0.0028726371580269786 -0.024066344882946428 0 -0.0016415752147812489 -0.025133686165746964 0 -0.0028726371580269786 -0.024066344882946428 0 -0.0049154591189413052 -0.023766628871243312 0 -0.0039062031750183306 -0.023042024666044651 0 -0.0049154591189413052 -0.023766628871243312 0 -0.0055862928555634895 -0.022837395005349485 0 -0.0039062031750183306 -0.023042024666044651 0 -0.0049154591189413052 -0.023766628871243312 0 -0.0055862928555634895 -0.022837395005349485 0 -0.0063044924105300363 -0.023141109845018146 0 -0.0024857001409700403 -0.023441486455908035 0 -0.0028726371580269786 -0.024066344882946428 0 -0.0039062031750183306 -0.023042024666044651 0 -0.0083615792572249385 -0.022508365632057291 0 -0.0072853242447979763 -0.022797059266958221 0 -0.0073721454361817939 -0.023492459344922292 0 -0.0063044924105300363 -0.023141109845018146 0 -0.0072853242447979763 -0.022797059266958221 0 -0.0073721454361817939 -0.023492459344922292 0 -0.0049154591189413052 -0.023766628871243312 0 -0.0063044924105300363 -0.023141109845018146 0 -0.0073721454361817939 -0.023492459344922292 0 -0.0055862928555634895 -0.022837395005349485 0 -0.0072853242447979763 -0.022797059266958221 0 -0.0072698012417594937 -0.022524892267711403 0 -0.0055862928555634895 -0.022837395005349485 0 -0.0063044924105300363 -0.023141109845018146 0 -0.0072853242447979763 -0.022797059266958221 0 -0.0083615792572249385 -0.022508365632057291 0 -0.0072853242447979763 -0.022797059266958221 0 -0.0072698012417594937 -0.022524892267711403 0 -0.0055862928555634895 -0.022837395005349485 0 -0.0072698012417594937 -0.022524892267711403 0 -0.0052409844038607137 -0.022264731690724161 0 -0.0072698012417594937 -0.022524892267711403 0 -0.0052409844038607137 -0.022264731690724161 0 -0.0063024045285307142 -0.02198003746436623 0 -0.0072698012417594937 -0.022524892267711403 0 -0.007522977248648921 -0.0223141384152034 0 -0.0063024045285307142 -0.02198003746436623 0 -0.0022250876867610991 -0.022672507840718011 0 -0.0039062031750183306 -0.023042024666044651 0 -0.0037724772202159594 -0.022086788316374961 0 -0.0039062031750183306 -0.023042024666044651 0 -0.0052409844038607137 -0.022264731690724161 0 -0.0037724772202159594 -0.022086788316374961 0 -0.0055862928555634895 -0.022837395005349485 0 -0.0039062031750183306 -0.023042024666044651 0 -0.0052409844038607137 -0.022264731690724161 0 -0.0052409844038607137 -0.022264731690724161 0 -0.0048016915200069822 -0.021641887515659895 0 -0.0063024045285307142 -0.02198003746436623 0 -0.0052409844038607137 -0.022264731690724161 0 -0.0037724772202159594 -0.022086788316374961 0 -0.0048016915200069822 -0.021641887515659895 0 -0.0037724772202159594 -0.022086788316374961 0 -0.0036876998999038446 -0.021310501696817464 0 -0.0048016915200069822 -0.021641887515659895 0 -0.0024940936061093721 -0.021619197693454544 0 -0.0037724772202159594 -0.022086788316374961 0 -0.0036876998999038446 -0.021310501696817464 0 -0.0036876998999038446 -0.021310501696817464 0 -0.0037486974742380473 -0.020797834873907774 0 -0.0044064871272442305 -0.020956012341667558 0 -0.0036876998999038446 -0.021310501696817464 0 -0.0037486974742380473 -0.020797834873907774 0 -0.0029284735742672089 -0.02072464152606061 0 -0.0036876998999038446 -0.021310501696817464 0 -0.0044064871272442305 -0.020956012341667558 0 -0.0048016915200069822 -0.021641887515659895 0 -0.0048016915200069822 -0.021641887515659895 0 -0.0052842130788709933 -0.021335736751920995 0 -0.0063024045285307142 -0.02198003746436623 0 -0.0044064871272442305 -0.020956012341667558 0 -0.0048016915200069822 -0.021641887515659895 0 -0.0052842130788709933 -0.021335736751920995 0 -0.0044064871272442305 -0.020956012341667558 0 -0.0052842130788709933 -0.021335736751920995 0 -0.0049526679832992762 -0.020856713547781468 0 -0.0049526679832992762 -0.020856713547781468 0 -0.003935903402840662 -0.020201155616998527 0 -0.0053321054012509129 -0.020768987112538061 0 -0.0052842130788709933 -0.021335736751920995 0 -0.0049526679832992762 -0.020856713547781468 0 -0.0058192285620949817 -0.021206798885811347 0 -0.0049526679832992762 -0.020856713547781468 0 -0.0058192285620949817 -0.021206798885811347 0 -0.0053321054012509129 -0.020768987112538061 0 -0.0044064871272442305 -0.020956012341667558 0 -0.0049526679832992762 -0.020856713547781468 0 -0.003935903402840662 -0.020201155616998527 0 -0.0032363027687061967 -0.021074034279186211 0 -0.00352489228623023 -0.020594686669507055 0 -0.0020585122832775891 -0.020273105006094184 0 -0.0037486974742380473 -0.020797834873907774 0 -0.003935903402840662 -0.020201155616998527 0 -0.0029284735742672089 -0.02072464152606061 0 -0.0037486974742380473 -0.020797834873907774 0 -0.0044064871272442305 -0.020956012341667558 0 -0.003935903402840662 -0.020201155616998527 0 -0.007522977248648921 -0.0223141384152034 0 -0.0063024045285307142 -0.02198003746436623 0 -0.0075970291217827427 -0.021991175157417518 0 -0.0063024045285307142 -0.02198003746436623 0 -0.0058192285620949817 -0.021206798885811347 0 -0.0075970291217827427 -0.021991175157417518 0 -0.0052842130788709933 -0.021335736751920995 0 -0.0063024045285307142 -0.02198003746436623 0 -0.0058192285620949817 -0.021206798885811347 0 -0.0058192285620949817 -0.021206798885811347 0 -0.0075970291217827427 -0.021991175157417518 0 -0.0054065094926947057 -0.02058575426570922 0 -0.0082681874803227466 -0.023425060591442774 0 -0.0075970291217827427 -0.021991175157417518 0 -0.0099430322795042003 -0.024286907064203951 0 -0.0082681874803227466 -0.023425060591442774 0 -0.0099430322795042003 -0.024286907064203951 0 -0.0092565332714729005 -0.025636986324550699 0 -0.0076534504494903677 -0.022210161006897308 0 -0.007616041253683984 -0.02263365130352445 0 -0.0058192285620949817 -0.021206798885811347 0 -0.0054065094926947057 -0.02058575426570922 0 -0.0053321054012509129 -0.020768987112538061 0 -0.0054065094926947057 -0.02058575426570922 0 -0.0053321054012509129 -0.020768987112538061 0 -0.0050486309318289553 -0.021140448518452579 0 -0.0053321054012509129 -0.020768987112538061 0 -0.0050486309318289553 -0.021140448518452579 0 -0.0051215470205490006 -0.020934839716293327 0 -0.0037783582385132468 -0.022502127393904038 0 -0.0054065094926947057 -0.02058575426570922 0 -0.0050486309318289553 -0.021140448518452579 0 -0.0047608998660518299 -0.022092718247616255 0 -0.0037783582385132468 -0.022502127393904038 0 -0.0050486309318289553 -0.021140448518452579 0 -0.0047608998660518299 -0.022092718247616255 0 -0.0050486309318289553 -0.021140448518452579 0 -0.0052887095365118705 -0.021499213123828884 0 -0.010982358422036875 -0.026729886212740715 0 -0.0099430322795042003 -0.024286907064203951 0 -0.0092565332714729005 -0.025636986324550699 0 -0.0076503068889877549 -0.024791327639534486 0 -0.007616041253683984 -0.02263365130352445 0 -0.00352489228623023 -0.020594686669507055 0 -0.0047623368024905417 -0.020748340339345382 0 -0.0050959725462548112 -0.020851521676624483 0 -0.0028168884919907815 -0.019679166160033752 0 -0.00352489228623023 -0.020594686669507055 0 -0.0036697488835130891 -0.018353339460790936 0 -0.0032363027687061967 -0.021074034279186211 0 -0.0053321054012509129 -0.020768987112538061 0 -0.00352489228623023 -0.020594686669507055 0 -0.0048485008916054591 -0.019222178896807537 0 -0.00024507745154676039 -0.022652788935343126 0 -0.0028168884919907815 -0.019679166160033752 0 -0.00352489228623023 -0.020594686669507055 0 -0.0020585122832775891 -0.020273105006094184 0 -0.0035708498219317571 -0.020650767318504553 0 -0.0052051481542342492 -0.020691716387463231 0 -0.0053321054012509129 -0.020768987112538061 0 -0.00352489228623023 -0.020594686669507055 0 -0.0047623368024905417 -0.020748340339345382 0 -0.0053321054012509129 -0.020768987112538061 0 -0.0047623368024905417 -0.020748340339345382 0 -0.0051215470205490006 -0.020934839716293327 0 -0.0047623368024905417 -0.020748340339345382 0 -0.0051215470205490006 -0.020934839716293327 0 -0.0050959725462548112 -0.020851521676624483 0 -0.0050486309318289553 -0.021140448518452579 0 -0.0051215470205490006 -0.020934839716293327 0 -0.0052887095365118705 -0.021499213123828884 0 -0.0051215470205490006 -0.020934839716293327 0 -0.0052887095365118705 -0.021499213123828884 0 -0.0050959725462548112 -0.020851521676624483 0 -0.0062897025885998818 -0.021649847224667562 0 -0.00024507745154676039 -0.022652788935343126 0 -0.00024507745154676039 -0.022652788935343126 0 0.0021765685721381531 -0.022301411260920272 0 -0.0028168884919907815 -0.019679166160033752 0 -0.0036697488835130891 -0.018353339460790936 0 -0.0024962976567720545 -0.019084781049406727 0 0.0071389651293457335 -0.028101317684210734 0 0.0086835723351823789 -0.026484544204043198 0 0.0052806614941512493 -0.026949528677684062 0 -0.0036697488835130891 -0.018353339460790936 0 -0.0013938063661010423 -0.018595783815617221 0 -0.0024962976567720545 -0.019084781049406727 0 -0.0013938063661010423 -0.018595783815617221 0 -0.0020605167170525498 -0.019606961764828155 0 -0.0012268785739754915 -0.019632540909432925 0 -0.0013938063661010423 -0.018595783815617221 0 -0.0024962976567720545 -0.019084781049406727 0 -0.0020605167170525498 -0.019606961764828155 0 -0.0028168884919907815 -0.019679166160033752 0 -0.0024962976567720545 -0.019084781049406727 0 -0.0020605167170525498 -0.019606961764828155 0 -0.0028168884919907815 -0.019679166160033752 0 -0.0020605167170525498 -0.019606961764828155 0 -0.0020585122832775891 -0.020273105006094184 0 -0.0020605167170525498 -0.019606961764828155 0 -0.0020585122832775891 -0.020273105006094184 0 -0.0012268785739754915 -0.019632540909432925 0 -0.002282290720613281 -0.018849382805963114 0 0.0018711145382016511 -0.023492186694346655 0 -0.0020585122832775891 -0.020273105006094184 0 -0.00018007957375653261 -0.019625871627176467 0 -8.2512683729823856e-05 -0.02021883108119946 0 -0.0020585122832775891 -0.020273105006094184 0 -0.00018007957375653261 -0.019625871627176467 0 0.00037993402925535374 -0.018425515257397555 0 -0.0020585122832775891 -0.020273105006094184 0 -0.0012268785739754915 -0.019632540909432925 0 -7.3097028466959145e-05 -0.019360428463910749 0 -0.00018007957375653261 -0.019625871627176467 0 0.00094602224367697045 -0.019598029751286578 0 -8.2512683729823856e-05 -0.02021883108119946 0 0.0029033982269572093 -0.028340694063139809 0 0.0052806614941512493 -0.026949528677684062 0 0.0019981241699360071 -0.026982316563712569 0 -0.0013938063661010423 -0.018595783815617221 0 -0.0012268785739754915 -0.019632540909432925 0 -7.3097028466959145e-05 -0.019360428463910749 0 -0.0013938063661010423 -0.018595783815617221 0 0.00085275610649905163 -0.018871734867479895 0 -7.3097028466959145e-05 -0.019360428463910749 0 0.0021765685721381531 -0.022301411260920272 0 0.0031450705222590123 -0.025922677563064631 0 0.0060313396971622708 -0.02971022016763376 0 0.0048557239579720456 -0.030384397612542094 0 0.006760500810075021 -0.030515918931190687 0 0.0031450705222590123 -0.025922677563064631 0 0.0018711145382016511 -0.023492186694346655 0 0.0060313396971622708 -0.02971022016763376 0 0.0075627157685792925 -0.029908783330733105 0 0.006760500810075021 -0.030515918931190687 0 0.0082219148637583308 -0.031088367765279065 0 0.0075627157685792925 -0.029908783330733105 0 0.006760500810075021 -0.030515918931190687 0 0.0038688347779547712 -0.028862274826781442 0 0.0031450705222590123 -0.025922677563064631 0 0.0031450705222590123 -0.025922677563064631 0 0.0080673024568705121 -0.029992279529314905 0 0.0076674160567084607 -0.029103660239274378 0 0.0059429098359175016 -0.030069458486619804 0 0.0075289024421187328 -0.030200502655043961 0 0.0082219148637583308 -0.031088367765279065 0 0.0069607721215097481 -0.031510418298852413 0 0.006760500810075021 -0.030515918931190687 0 0.00037993402925535374 -0.018425515257397555 0 0.0022068580228128652 -0.019363329669185865 0 0.00094602224367697045 -0.019598029751286578 0 0.0018711145382016511 -0.023492186694346655 0 0.0047809864630416615 -0.025578203502211794 0 0.0048557239579720456 -0.030384397612542094 0 0.0069607721215097481 -0.031510418298852413 0 0.006760500810075021 -0.030515918931190687 0 -0.00018007957375653261 -0.019625871627176467 0 0.00037993402925535374 -0.018425515257397555 0 0.00094602224367697045 -0.019598029751286578 0 0.00094602224367697045 -0.019598029751286578 0 0.00054227085461996363 -0.020462507025297151 0 -8.2512683729823856e-05 -0.02021883108119946 0 0.0022068580228128652 -0.019363329669185865 0 0.00094602224367697045 -0.019598029751286578 0 0.001600398705056675 -0.020581177100728015 0 0.00054227085461996363 -0.020462507025297151 0 0.001600398705056675 -0.020581177100728015 0 -0.00029904653316580038 -0.02141861899163636 0 0.00094602224367697045 -0.019598029751286578 0 0.00054227085461996363 -0.020462507025297151 0 0.001600398705056675 -0.020581177100728015 0 0.0040801414434830765 -0.020069185042173438 0 0.0022068580228128652 -0.019363329669185865 0 0.001600398705056675 -0.020581177100728015 0 0.0040801414434830765 -0.020069185042173438 0 0.001600398705056675 -0.020581177100728015 0 0.0016946709581244057 -0.021456337000383081 0 0.0015382010589314087 -0.021454806119625698 0 -0.00081132641276017718 -0.020874484233347347 0 0.001600398705056675 -0.020581177100728015 0 0.0016946709581244057 -0.021456337000383081 0 -0.00029904653316580038 -0.02141861899163636 0 -0.0024940936061093721 -0.021619197693454544 0 -0.0013226124168475453 -0.020277892610050488 0 -0.0029284735742672089 -0.02072464152606061 0 -0.0024940936061093721 -0.021619197693454544 0 -0.0036876998999038446 -0.021310501696817464 0 -0.0029284735742672089 -0.02072464152606061 0 -0.003935903402840662 -0.020201155616998527 0 -0.0013226124168475453 -0.020277892610050488 0 -0.0029284735742672089 -0.02072464152606061 0 -0.0035708498219317571 -0.020650767318504553 0 -0.00081132641276017718 -0.020874484233347347 0 -0.0032363027687061967 -0.021074034279186211 0 -0.0020585122832775891 -0.020273105006094184 0 -0.00029904653316580038 -0.02141861899163636 0 -0.0020585122832775891 -0.020273105006094184 0 -0.00029904653316580038 -0.02141861899163636 0 -8.2512683729823856e-05 -0.02021883108119946 0 0.00054227085461996363 -0.020462507025297151 0 -0.00029904653316580038 -0.02141861899163636 0 -8.2512683729823856e-05 -0.02021883108119946 0 0.036082682945591103 -0.0278009929119577 0 0.035222628949169409 -0.02983578871103389 0 0.03500047961307054 -0.02474166889649751 0 0.035222628949169409 -0.02983578871103389 0 0.034997958914019404 -0.030427304564823929 0 0.03500047961307054 -0.02474166889649751 0 0.036082682945591103 -0.0278009929119577 0 0.036678816801132497 -0.026398209388171189 0 0.03500047961307054 -0.02474166889649751 0 0.036082682945591103 -0.0278009929119577 0 0.03595489732532034 -0.028980121343414444 0 0.036354577731253758 -0.028727516260869473 0 0.036082682945591103 -0.0278009929119577 0 0.037506652082576211 -0.028070471412510119 0 0.036354577731253758 -0.028727516260869473 0 0.036082682945591103 -0.0278009929119577 0 0.036678816801132497 -0.026398209388171189 0 0.037506652082576211 -0.028070471412510119 0 0.037577639212300819 -0.026486847652089519 0 0.038255043824873845 -0.026836034589985763 0 0.037506652082576211 -0.028070471412510119 0 0.036678816801132497 -0.026398209388171189 0 0.037577639212300819 -0.026486847652089519 0 0.037506652082576211 -0.028070471412510119 0 0.037577639212300819 -0.026486847652089519 0 0.038255043824873845 -0.026836034589985763 0 0.038195097376167809 -0.025987671613273276 0 0.036426910150746228 -0.029148432927885111 0 0.036501421115481984 -0.029175264734164014 0 0.036536057706714836 -0.029077474540525311 0 0.036426910150746228 -0.029148432927885111 0 0.036501421115481984 -0.029175264734164014 0 0.036468379875038578 -0.029270733194787513 0 0.036501421115481984 -0.029175264734164014 0 0.036468379875038578 -0.029270733194787513 0 0.036589330019964714 -0.029184635361947344 0 0.036309802335408294 -0.02992658602141815 0 0.034608704107219397 -0.029049489745410793 0 0.036500918982161845 -0.029377206356657075 0 0.036468379875038578 -0.029270733194787513 0 0.036589330019964714 -0.029184635361947344 0 0.036500918982161845 -0.029377206356657075 0 0.036468379875038578 -0.029270733194787513 0 0.03639675253182318 -0.029371108319462113 0 0.036426910150746228 -0.029148432927885111 0 0.036468379875038578 -0.029270733194787513 0 0.03639675253182318 -0.029371108319462113 0 0.036500918982161845 -0.029377206356657075 0 0.03639675253182318 -0.029371108319462113 0 0.036427577000776527 -0.029411601526090996 0 0.037345477108955756 -0.028214998325288124 0 0.036958345070059302 -0.028677348422586773 0 0.036958345070059302 -0.028677348422586773 0 0.036582476159025566 -0.029285059921549207 0 0.03639675253182318 -0.029371108319462113 0 0.036427577000776527 -0.029411601526090996 0 0.036538626569122767 -0.029338427583058019 0 0.036427577000776527 -0.029411601526090996 0 0.03638010248428114 -0.029516528635912968 0 0.036475993303860074 -0.029475323460801801 0 0.036427577000776527 -0.029411601526090996 0 0.036475993303860074 -0.029475323460801801 0 0.036538626569122767 -0.029338427583058019 0 0.035936700806271593 -0.03029878628807698 0 0.03596832906965209 -0.02965271882804426 0 0.03638010248428114 -0.029516528635912968 0 0.036309802335408294 -0.02992658602141815 0 0.036363369333655908 -0.029515283397994019 0 0.036500918982161845 -0.029377206356657075 0 0.036427577000776527 -0.029411601526090996 0 0.03638010248428114 -0.029516528635912968 0 0.035936700806271593 -0.03029878628807698 0 0.03596832906965209 -0.02965271882804426 0 0.035617251723940632 -0.02967793264836633 0 0.03596832906965209 -0.02965271882804426 0 0.035923491282168152 -0.029316813723445714 0 0.035617251723940632 -0.02967793264836633 0 0.03596832906965209 -0.02965271882804426 0 0.03638010248428114 -0.029516528635912968 0 0.035923491282168152 -0.029316813723445714 0 0.03638010248428114 -0.029516528635912968 0 0.035923491282168152 -0.029316813723445714 0 0.036380480991799601 -0.029254641375120755 0 0.034837851714867897 -0.031785926208789152 0 0.035084149437813482 -0.031027113359986917 0 0.036475993303860074 -0.029475323460801801 0 0.036380480991799601 -0.029254641375120755 0 0.036431316397272789 -0.029681101372360602 0 0.03638010248428114 -0.029516528635912968 0 0.036475993303860074 -0.029475323460801801 0 0.036380480991799601 -0.029254641375120755 0 0.036431316397272789 -0.029681101372360602 0 0.036124610437998063 -0.029444698919797261 0 0.035222628949169409 -0.02983578871103389 0 0.036431316397272789 -0.029681101372360602 0 0.036538626569122767 -0.029338427583058019 0 0.036124610437998063 -0.029444698919797261 0 0.036475993303860074 -0.029475323460801801 0 0.036431316397272789 -0.029681101372360602 0 0.036538626569122767 -0.029338427583058019 0 0.036538626569122767 -0.029338427583058019 0 0.036124610437998063 -0.029444698919797261 0 0.036354577731253758 -0.028727516260869473 0 0.037506652082576211 -0.028070471412510119 0 0.036538626569122767 -0.029338427583058019 0 0.036354577731253758 -0.028727516260869473 0 0.036124610437998063 -0.029444698919797261 0 0.03595489732532034 -0.028980121343414444 0 0.036354577731253758 -0.028727516260869473 0 0.036082682945591103 -0.0278009929119577 0 0.03595489732532034 -0.028980121343414444 0 0.035222628949169409 -0.02983578871103389 0 0.036124610437998063 -0.029444698919797261 0 0.03595489732532034 -0.028980121343414444 0 0.035222628949169409 -0.02983578871103389 0 0.034252040342884635 -0.032622278456783803 0 0.035222628949169409 -0.02983578871103389 0 0.034640040582866335 -0.031880654248829847 0 0.035222628949169409 -0.02983578871103389 0 0.034997958914019404 -0.030427304564823929 0 0.034640040582866335 -0.031880654248829847 0 0.035084149437813482 -0.031027113359986917 0 0.035013728316550648 -0.030087044558860219 0 0.034997958914019404 -0.030427304564823929 0 0.034640040582866335 -0.031880654248829847 0 0.035276877003763654 -0.033364108455695825 0 0.034997958914019404 -0.030427304564823929 0 0.035276877003763654 -0.033364108455695825 0 0.034997231522638068 -0.034999225823906938 0 0.034252040342884635 -0.032622278456783803 0 0.034640040582866335 -0.031880654248829847 0 0.033915953073491711 -0.032998356297392173 0 0.034252040342884635 -0.032622278456783803 0 0.033915953073491711 -0.032998356297392173 0 0.033505159779636674 -0.033689055251359297 0 0.033915953073491711 -0.032998356297392173 0 0.033434492846160097 -0.033840494958789241 0 0.033505159779636674 -0.033689055251359297 0 0.033915953073491711 -0.032998356297392173 0 0.032908492824823263 -0.034555034835794932 0 0.033434492846160097 -0.033840494958789241 0 0.032908492824823263 -0.034555034835794932 0 0.032975539069746998 -0.034567947482408212 0 0.033434492846160097 -0.033840494958789241 0 0.034640040582866335 -0.031880654248829847 0 0.033915953073491711 -0.032998356297392173 0 0.032908492824823263 -0.034555034835794932 0 0.034541032374704912 -0.032175620045505976 0 0.034119353496030909 -0.033872511890688281 0 0.032908492824823263 -0.034555034835794932 0 0.032975539069746998 -0.034567947482408212 0 0.032836489429360474 -0.034945919799894455 0 0.034119353496030909 -0.033872511890688281 0 0.033667820639997355 -0.034999331724038907 0 0.032908492824823263 -0.034555034835794932 0 0.033665278889252206 -0.034999425737053426 0 0.032836489429360474 -0.034945919799894455 0 0.035276877003763654 -0.033364108455695825 0 0.033672977379498516 -0.034998865988149837 0 0.034997231522638068 -0.034999225823906938 0 0.031698178664428506 -0.034998972081687688 0 0.032001775587019957 -0.034932474166451365 0 0.030595286300639325 -0.03506772515933524 0 0.033665278889252206 -0.034999425737053426 0 0.031698178664428506 -0.034998972081687688 0 0.032836489429360474 -0.034945919799894455 0 0.031698178664428506 -0.034998972081687688 0 0.032836489429360474 -0.034945919799894455 0 0.032001775587019957 -0.034932474166451365 0 0.032975539069746998 -0.034567947482408212 0 0.032836489429360474 -0.034945919799894455 0 0.032001775587019957 -0.034932474166451365 0 0.032001775587019957 -0.034932474166451365 0 0.030946958534882964 -0.035165390247037631 0 0.030595286300639325 -0.03506772515933524 0 0.032001775587019957 -0.034932474166451365 0 0.031735352644865641 -0.035051945982635176 0 0.030946958534882964 -0.035165390247037631 0 0.032001775587019957 -0.034932474166451365 0 0.031735352644865641 -0.035051945982635176 0 0.032732060984468514 -0.034500692618549954 0 0.031735352644865641 -0.035051945982635176 0 0.032732060984468514 -0.034500692618549954 0 0.032098220442767868 -0.035026882777028132 0 0.031735352644865641 -0.035051945982635176 0 0.032098220442767868 -0.035026882777028132 0 0.031554138848060555 -0.035304698429608747 0 0.032975539069746998 -0.034567947482408212 0 0.032001775587019957 -0.034932474166451365 0 0.032732060984468514 -0.034500692618549954 0 0.032975539069746998 -0.034567947482408212 0 0.032732060984468514 -0.034500692618549954 0 0.033434492846160097 -0.033840494958789241 0 0.032896476661017776 -0.034553841029422973 0 0.032732060984468514 -0.034500692618549954 0 0.033505159779636674 -0.033689055251359297 0 0.032896476661017776 -0.034553841029422973 0 0.034252040342884635 -0.032622278456783803 0 0.033505159779636674 -0.033689055251359297 0 0.032732060984468514 -0.034500692618549954 0 0.033434492846160097 -0.033840494958789241 0 0.033505159779636674 -0.033689055251359297 0 0.034837851714867897 -0.031785926208789152 0 0.031644396578786246 -0.033802983137529739 0 0.032896476661017776 -0.034553841029422973 0 0.032732060984468514 -0.034500692618549954 0 0.03233603846629108 -0.034971564989270301 0 0.032896476661017776 -0.034553841029422973 0 0.03233603846629108 -0.034971564989270301 0 0.031644649895637124 -0.03565033701746137 0 0.035923491282168152 -0.029316813723445714 0 0.036380480991799601 -0.029254641375120755 0 0.035572882946095452 -0.028912425273624011 0 0.031868339108632911 -0.03544049944910397 0 0.032098220442767868 -0.035026882777028132 0 0.03233603846629108 -0.034971564989270301 0 0.031868339108632911 -0.03544049944910397 0 0.032098220442767868 -0.035026882777028132 0 0.031554138848060555 -0.035304698429608747 0 0.032732060984468514 -0.034500692618549954 0 0.032098220442767868 -0.035026882777028132 0 0.03233603846629108 -0.034971564989270301 0 0.031868339108632911 -0.03544049944910397 0 0.03233603846629108 -0.034971564989270301 0 0.031644649895637124 -0.03565033701746137 0 0.031644396578786246 -0.033802983137529739 0 0.027240806449730474 -0.035958968785680966 0 0.031216499781614566 -0.036222467007736979 0 0.030351842238842817 -0.03588262586220755 0 0.029231158047593915 -0.03648207571156778 0 0.031273544615411417 -0.034693614061953315 0 0.031644396578786246 -0.033802983137529739 0 0.031216499781614566 -0.036222467007736979 0 0.030351842238842817 -0.03588262586220755 0 0.031035706963621446 -0.035648526307429609 0 0.031868339108632911 -0.03544049944910397 0 0.031216499781614566 -0.036222467007736979 0 0.031035706963621446 -0.035648526307429609 0 0.031868339108632911 -0.03544049944910397 0 0.031035706963621446 -0.035648526307429609 0 0.031554138848060555 -0.035304698429608747 0 0.026529446955844072 -0.036190887957517487 0 0.029144765228187781 -0.031520084910993756 0 0.026354306920136291 -0.035456269529653452 0 0.026676819246890457 -0.035436162386825863 0 0.026402312887917199 -0.034900878769226332 0 0.025953746687462313 -0.035262911797902745 0 0.026354306920136291 -0.035456269529653452 0 0.026402312887917199 -0.034900878769226332 0 0.02952801367962446 -0.035716807354891293 0 0.029933069301208811 -0.035299214320213872 0 0.028503922289829824 -0.0354086418577923 0 0.029231158047593915 -0.03648207571156778 0 0.02952801367962446 -0.035716807354891293 0 0.028430479274176749 -0.035744072544389008 0 0.030351842238842817 -0.03588262586220755 0 0.029231158047593915 -0.03648207571156778 0 0.02952801367962446 -0.035716807354891293 0 0.02952801367962446 -0.035716807354891293 0 0.030723807867268693 -0.03544692893806408 0 0.029933069301208811 -0.035299214320213872 0 0.02952801367962446 -0.035716807354891293 0 0.028503922289829824 -0.0354086418577923 0 0.028430479274176749 -0.035744072544389008 0 0.031735352644865641 -0.035051945982635176 0 0.031554138848060555 -0.035304698429608747 0 0.030723807867268693 -0.03544692893806408 0 0.031035706963621446 -0.035648526307429609 0 0.031554138848060555 -0.035304698429608747 0 0.030723807867268693 -0.03544692893806408 0 0.030351842238842817 -0.03588262586220755 0 0.02952801367962446 -0.035716807354891293 0 0.030723807867268693 -0.03544692893806408 0 0.030351842238842817 -0.03588262586220755 0 0.031035706963621446 -0.035648526307429609 0 0.030723807867268693 -0.03544692893806408 0 0.030723807867268693 -0.03544692893806408 0 0.030946958534882964 -0.035165390247037631 0 0.029933069301208811 -0.035299214320213872 0 0.031735352644865641 -0.035051945982635176 0 0.030723807867268693 -0.03544692893806408 0 0.030946958534882964 -0.035165390247037631 0 0.030595286300639325 -0.03506772515933524 0 0.029933069301208811 -0.035299214320213872 0 0.029265322538697302 -0.035124365831621984 0 0.030946958534882964 -0.035165390247037631 0 0.030595286300639325 -0.03506772515933524 0 0.029933069301208811 -0.035299214320213872 0 0.029933069301208811 -0.035299214320213872 0 0.029265322538697302 -0.035124365831621984 0 0.028503922289829824 -0.0354086418577923 0 0.029265322538697302 -0.035124365831621984 0 0.029726738059261747 -0.03499909388087323 0 0.027755280627770947 -0.034999145143741507 0 0.031698178664428506 -0.034998972081687688 0 0.030595286300639325 -0.03506772515933524 0 0.029726738059261747 -0.03499909388087323 0 0.030595286300639325 -0.03506772515933524 0 0.029265322538697302 -0.035124365831621984 0 0.029726738059261747 -0.03499909388087323 0 0.027755280627770947 -0.034999145143741507 0 0.027302141846023337 -0.035543428532841696 0 0.025787195561700848 -0.03499995045470438 0 0.029265322538697302 -0.035124365831621984 0 0.027755280627770947 -0.034999145143741507 0 0.028503922289829824 -0.0354086418577923 0 0.027755280627770947 -0.034999145143741507 0 0.028503922289829824 -0.0354086418577923 0 0.027302141846023337 -0.035543428532841696 0 0.028503922289829824 -0.0354086418577923 0 0.027302141846023337 -0.035543428532841696 0 0.027619714787523852 -0.035664580836757109 0 0.027302141846023337 -0.035543428532841696 0 0.027156083185588587 -0.035723024605673476 0 0.026797088735434304 -0.035647516583707302 0 0.027156083185588587 -0.035723024605673476 0 0.027285239691424924 -0.035861986081187583 0 0.02717974901296032 -0.035387180965868584 0 0.027156083185588587 -0.035723024605673476 0 0.027619714787523852 -0.035664580836757109 0 0.027285239691424924 -0.035861986081187583 0 0.027302141846023337 -0.035543428532841696 0 0.027156083185588587 -0.035723024605673476 0 0.027619714787523852 -0.035664580836757109 0 0.029231158047593915 -0.03648207571156778 0 0.028430479274176749 -0.035744072544389008 0 0.027285239691424924 -0.035861986081187583 0 0.028503922289829824 -0.0354086418577923 0 0.028430479274176749 -0.035744072544389008 0 0.027619714787523852 -0.035664580836757109 0 0.028430479274176749 -0.035744072544389008 0 0.027619714787523852 -0.035664580836757109 0 0.027285239691424924 -0.035861986081187583 0 0.026354306920136291 -0.035456269529653452 0 0.027285239691424924 -0.035861986081187583 0 0.026676819246890457 -0.035436162386825863 0 0.027240806449730474 -0.035958968785680966 0 0.027541469791930472 -0.035905991155252864 0 0.027285239691424924 -0.035861986081187583 0 0.026676819246890457 -0.035436162386825863 0 0.02698664785271436 -0.035309922105600203 0 0.026676819246890457 -0.035436162386825863 0 0.02698664785271436 -0.035309922105600203 0 0.026685844832218732 -0.034955157367278875 0 0.027285239691424924 -0.035861986081187583 0 0.02698664785271436 -0.035309922105600203 0 0.02717974901296032 -0.035387180965868584 0 0.02698664785271436 -0.035309922105600203 0 0.02717974901296032 -0.035387180965868584 0 0.026968389330920564 -0.034896448517213512 0 0.02717974901296032 -0.035387180965868584 0 0.026968389330920564 -0.034896448517213512 0 0.027211506719452237 -0.034660036334537223 0 0.026968389330920564 -0.034896448517213512 0 0.02674712788807734 -0.034263464696676162 0 0.027211506719452237 -0.034660036334537223 0 0.02674712788807734 -0.034263464696676162 0 0.027124724227402794 -0.033538715318283181 0 0.027211506719452237 -0.034660036334537223 0 0.028248589816195938 -0.031598571238084537 0 0.027384766931152587 -0.026000979049707332 0 0.030105094678578463 -0.027858974703441595 0 0.030050249163323182 -0.027540902896325107 0 0.030448340343154204 -0.027575501806656529 0 0.030105094678578463 -0.027858974703441595 0 0.029566513924259491 -0.027692329403025271 0 0.030050249163323182 -0.027540902896325107 0 0.026968389330920564 -0.034896448517213512 0 0.02674712788807734 -0.034263464696676162 0 0.026685844832218732 -0.034955157367278875 0 0.028248589816195938 -0.031598571238084537 0 0.029144765228187781 -0.031520084910993756 0 0.02674712788807734 -0.034263464696676162 0 0.026685844832218732 -0.034955157367278875 0 0.026266906525141066 -0.034753876372282895 0 0.026676819246890457 -0.035436162386825863 0 0.026685844832218732 -0.034955157367278875 0 0.026266906525141066 -0.034753876372282895 0 0.02698664785271436 -0.035309922105600203 0 0.026968389330920564 -0.034896448517213512 0 0.026685844832218732 -0.034955157367278875 0 0.035572882946095452 -0.028912425273624011 0 0.034747269433647893 -0.029420690262503487 0 0.035478434066935294 -0.029308272927523384 0 0.034747269433647893 -0.029420690262503487 0 0.035478434066935294 -0.029308272927523384 0 0.035232266423294537 -0.029610725754526487 0 0.031644396578786246 -0.033802983137529739 0 0.029144765228187781 -0.031520084910993756 0 0.035923491282168152 -0.029316813723445714 0 0.035572882946095452 -0.028912425273624011 0 0.035478434066935294 -0.029308272927523384 0 0.035478434066935294 -0.029308272927523384 0 0.035232266423294537 -0.029610725754526487 0 0.035617251723940632 -0.02967793264836633 0 0.035923491282168152 -0.029316813723445714 0 0.035478434066935294 -0.029308272927523384 0 0.035617251723940632 -0.02967793264836633 0 0.035232266423294537 -0.029610725754526487 0 0.035170996425849844 -0.030200407910066365 0 0.035617251723940632 -0.02967793264836633 0 0.035936700806271593 -0.03029878628807698 0 0.035170996425849844 -0.030200407910066365 0 0.035617251723940632 -0.02967793264836633 0 0.029144765228187781 -0.031520084910993756 0 0.032369655027488564 -0.028490805888215856 0 0.034747269433647893 -0.029420690262503487 0 0.035232266423294537 -0.029610725754526487 0 0.035170996425849844 -0.030200407910066365 0 0.030105094678578463 -0.027858974703441595 0 0.029739381428342405 -0.028145393766831249 0 0.029566513924259491 -0.027692329403025271 0 0.029566513924259491 -0.027692329403025271 0 0.029859420204554149 -0.027358626540470245 0 0.029655051523504457 -0.027199893352426386 0 0.029566513924259491 -0.027692329403025271 0 0.029859420204554149 -0.027358626540470245 0 0.030050249163323182 -0.027540902896325107 0 0.032369655027488564 -0.028490805888215856 0 0.034608704107219397 -0.029049489745410793 0 0.029566513924259491 -0.027692329403025271 0 0.029402979671865202 -0.027261632839097313 0 0.029655051523504457 -0.027199893352426386 0 0.035936700806271593 -0.03029878628807698 0 0.035170996425849844 -0.030200407910066365 0 0.035549610038864171 -0.030962102972938294 0 0.029402979671865202 -0.027261632839097313 0 0.029655051523504457 -0.027199893352426386 0 0.029574695639461215 -0.02690618045730471 0 0.034608704107219397 -0.029049489745410793 0 0.032921454120420121 -0.026910733585641222 0 0.036552441376075724 -0.029131380868643867 0 0.036536057706714836 -0.029077474540525311 0 0.036610848401743161 -0.028988320021428832 0 0.036501421115481984 -0.029175264734164014 0 0.036589330019964714 -0.029184635361947344 0 0.036536057706714836 -0.029077474540525311 0 0.034608704107219397 -0.029049489745410793 0 0.035837774612168596 -0.029475628969709046 0 0.029859420204554149 -0.027358626540470245 0 0.029655051523504457 -0.027199893352426386 0 0.029846181657046951 -0.027135587391256988 0 0.029655051523504457 -0.027199893352426386 0 0.029846181657046951 -0.027135587391256988 0 0.029763951389622813 -0.026932294269397934 0 0.029859420204554149 -0.027358626540470245 0 0.029846181657046951 -0.027135587391256988 0 0.030202713514046922 -0.027267167996903544 0 0.029846181657046951 -0.027135587391256988 0 0.030202713514046922 -0.027267167996903544 0 0.02996372782017321 -0.026947210796914603 0 0.028626083404259112 -0.024021846271996852 0 0.029054669824125069 -0.024247889938833363 0 0.030202713514046922 -0.027267167996903544 0 0.030050249163323182 -0.027540902896325107 0 0.030448340343154204 -0.027575501806656529 0 0.026950011590567199 -0.021093548471585725 0 0.026025004504008683 -0.021041319354161727 0 0.025830415018045502 -0.021423173879243022 0 0.028626083404259112 -0.024021846271996852 0 0.027384766931152587 -0.026000979049707332 0 0.029859420204554149 -0.027358626540470245 0 0.030202713514046922 -0.027267167996903544 0 0.030050249163323182 -0.027540902896325107 0 0.022719786048658226 -0.024386845811359453 0 0.023152198241695194 -0.024515891172076733 0 0.024666388044820499 -0.021819242613929431 0 0.023152198241695194 -0.024515891172076733 0 0.024666388044820499 -0.021819242613929431 0 0.024448769744456481 -0.023580463543959797 0 0.024353826194524419 -0.022467484422845459 0 0.024500448352814893 -0.022332351351800062 0 0.025538581883557714 -0.021396246275525332 0 0.025794998956657461 -0.021386225810599509 0 0.024666388044820499 -0.021819242613929431 0 0.025538581883557714 -0.021396246275525332 0 0.025830415018045502 -0.021423173879243022 0 0.024666388044820499 -0.021819242613929431 0 0.025538581883557714 -0.021396246275525332 0 0.025794998956657461 -0.021386225810599509 0 0.025770743169250373 -0.021433522609113298 0 0.025770743169250373 -0.021433522609113298 0 0.025775054893078235 -0.021239624229918895 0 0.025590540694901485 -0.021465651217569142 0 0.025538581883557714 -0.021396246275525332 0 0.025770743169250373 -0.021433522609113298 0 0.025775054893078235 -0.021239624229918895 0 0.02736397996167677 -0.02401477947104726 0 0.027384766931152587 -0.026000979049707332 0 0.025775054893078235 -0.021239624229918895 0 0.026025004504008683 -0.021041319354161727 0 0.025830415018045502 -0.021423173879243022 0 0.025538581883557714 -0.021396246275525332 0 0.025775054893078235 -0.021239624229918895 0 0.025830415018045502 -0.021423173879243022 0 0.026950011590567199 -0.021093548471585725 0 0.025830415018045502 -0.021423173879243022 0 0.026204970968122566 -0.021608116741680457 0 0.025830415018045502 -0.021423173879243022 0 0.026204970968122566 -0.021608116741680457 0 0.025282230607105285 -0.021761884006154239 0 0.025282230607105285 -0.021761884006154239 0 0.024666388044820499 -0.021819242613929431 0 0.024751444191428402 -0.02178296189558241 0 0.025830415018045502 -0.021423173879243022 0 0.025282230607105285 -0.021761884006154239 0 0.024666388044820499 -0.021819242613929431 0 0.024666388044820499 -0.021819242613929431 0 0.024751444191428402 -0.02178296189558241 0 0.024992358834357773 -0.022861077768483867 0 0.024981327255122868 -0.022451402191524635 0 0.024936368116293125 -0.022833444148349005 0 0.024751444191428402 -0.02178296189558241 0 0.02475384311670363 -0.021737689201101109 0 0.024992358834357773 -0.022861077768483867 0 0.025422148697001934 -0.022923078178664805 0 0.025565005685926939 -0.023112489041581412 0 0.024992358834357773 -0.022861077768483867 0 0.025574345727205659 -0.022955642553628579 0 0.025422148697001934 -0.022923078178664805 0 0.025565005685926939 -0.023112489041581412 0 0.025565005685926939 -0.023112489041581412 0 0.025346646219061249 -0.023643818423253891 0 0.024992358834357773 -0.022861077768483867 0 0.025565005685926939 -0.023112489041581412 0 0.025346646219061249 -0.023643818423253891 0 0.025948511459889165 -0.023733305329857891 0 0.023152198241695194 -0.024515891172076733 0 0.024448769744456481 -0.023580463543959797 0 0.024845806536534787 -0.024249414644027072 0 0.024666388044820499 -0.021819242613929431 0 0.024992358834357773 -0.022861077768483867 0 0.024448769744456481 -0.023580463543959797 0 0.025346646219061249 -0.023643818423253891 0 0.024448769744456481 -0.023580463543959797 0 0.024845806536534787 -0.024249414644027072 0 0.025346646219061249 -0.023643818423253891 0 0.024992358834357773 -0.022861077768483867 0 0.024448769744456481 -0.023580463543959797 0 0.025700783943028816 -0.031659528721077211 0 0.023696108682613647 -0.030651219378820004 0 0.023300854444401456 -0.027714086229305972 0 0.023152198241695194 -0.024515891172076733 0 0.025700783943028816 -0.031659528721077211 0 0.023300854444401456 -0.027714086229305972 0 0.023152198241695194 -0.024515891172076733 0 0.024845806536534787 -0.024249414644027072 0 0.025128712189824574 -0.025173495800055411 0 0.023129787405132645 -0.024573668339052682 0 0.02487763085117722 -0.028637794771585706 0 0.025346646219061249 -0.023643818423253891 0 0.024845806536534787 -0.024249414644027072 0 0.025385866330727813 -0.024482447660338993 0 0.024845806536534787 -0.024249414644027072 0 0.025385866330727813 -0.024482447660338993 0 0.025128712189824574 -0.025173495800055411 0 0.025385866330727813 -0.024482447660338993 0 0.025585014551873245 -0.025627114593427838 0 0.025948511459889165 -0.023733305329857891 0 0.021626623291978092 -0.030473878309441135 0 0.018106925738630247 -0.027617380244926003 0 0.0113785348773931 -0.032763024817055231 0 0.011089229548332188 -0.032947420605967247 0 0.011324071571819803 -0.03183701107118514 0 0.025346646219061249 -0.023643818423253891 0 0.025385866330727813 -0.024482447660338993 0 0.025948511459889165 -0.023733305329857891 0 0.011370543547584471 -0.032140306619917826 0 0.017265328243719028 -0.034463407215864938 0 0.025385866330727813 -0.024482447660338993 0 0.025585014551873245 -0.025627114593427838 0 0.025128712189824574 -0.025173495800055411 0 0.0113785348773931 -0.032763024817055231 0 0.011089229548332188 -0.032947420605967247 0 0.01173942968291062 -0.0335901911566268 0 0.021626623291978092 -0.030473878309441135 0 0.02487763085117722 -0.028637794771585706 0 0.025316862051316499 -0.032988173978340141 0 0.025700783943028816 -0.031659528721077211 0 0.025007193521245898 -0.033491003259878936 0 0.025700783943028816 -0.031659528721077211 0 0.024260398785724602 -0.033430595008773788 0 0.023696108682613647 -0.030651219378820004 0 0.025700783943028816 -0.031659528721077211 0 0.024260398785724602 -0.033430595008773788 0 0.025007193521245898 -0.033491003259878936 0 0.02502188985614149 -0.03042904066524996 0 0.025802926144607153 -0.035327145924866882 0 0.024260398785724602 -0.033430595008773788 0 0.02398535153238859 -0.033102951267926034 0 0.02400444349746356 -0.033895488415340062 0 0.024260398785724602 -0.033430595008773788 0 0.023696108682613647 -0.030651219378820004 0 0.02092975351197577 -0.029642330797059316 0 0.023642012438231851 -0.033179975820129583 0 0.02502188985614149 -0.03042904066524996 0 0.024353826194524419 -0.022467484422845459 0 0.02502188985614149 -0.03042904066524996 0 0.023696108682613647 -0.030651219378820004 0 0.023300854444401456 -0.027714086229305972 0 0.02092975351197577 -0.029642330797059316 0 0.022719786048658226 -0.024386845811359453 0 0.023300854444401456 -0.027714086229305972 0 0.02092975351197577 -0.029642330797059316 0 0.025794998956657461 -0.021386225810599509 0 0.025770743169250373 -0.021433522609113298 0 0.026029422342894286 -0.022201400854889874 0 0.022719786048658226 -0.024386845811359453 0 0.023152198241695194 -0.024515891172076733 0 0.023300854444401456 -0.027714086229305972 0 0.027384766931152587 -0.026000979049707332 0 0.02502188985614149 -0.03042904066524996 0 0.025770743169250373 -0.021433522609113298 0 0.025590540694901485 -0.021465651217569142 0 0.026029422342894286 -0.022201400854889874 0 0.027124724227402794 -0.033538715318283181 0 0.027696996268058029 -0.034235016049473876 0 0.027211506719452237 -0.034660036334537223 0 0.027696996268058029 -0.034235016049473876 0 0.027211506719452237 -0.034660036334537223 0 0.027500161324901667 -0.035421599905666186 0 0.02717974901296032 -0.035387180965868584 0 0.027211506719452237 -0.034660036334537223 0 0.027500161324901667 -0.035421599905666186 0 0.027156083185588587 -0.035723024605673476 0 0.02717974901296032 -0.035387180965868584 0 0.027500161324901667 -0.035421599905666186 0 0.024260398785724602 -0.033430595008773788 0 0.02400444349746356 -0.033895488415340062 0 0.024465858782648155 -0.034346114168965713 0 0.02400444349746356 -0.033895488415340062 0 0.024465858782648155 -0.034346114168965713 0 0.024544224376548233 -0.034696989995304954 0 0.027156083185588587 -0.035723024605673476 0 0.027500161324901667 -0.035421599905666186 0 0.026797088735434304 -0.035647516583707302 0 0.025802926144607153 -0.035327145924866882 0 0.025702884854505306 -0.034894873183598719 0 0.027302141846023337 -0.035543428532841696 0 0.026797088735434304 -0.035647516583707302 0 0.025787195561700848 -0.03499995045470438 0 0.024465858782648155 -0.034346114168965713 0 0.024544224376548233 -0.034696989995304954 0 0.024599411238260337 -0.034538512947426457 0 0.024544224376548233 -0.034696989995304954 0 0.024599411238260337 -0.034538512947426457 0 0.024747598127915597 -0.034730790584024243 0 0.024544224376548233 -0.034696989995304954 0 0.024747598127915597 -0.034730790584024243 0 0.025440908928918256 -0.034999089746854221 0 0.024114054542597633 -0.035676151863579593 0 0.025439404835302194 -0.035000041750257747 0 0.023919428214653603 -0.034999757297447268 0 0.024435724432899944 -0.035188592717187869 0 0.025439117739183337 -0.035000022348185035 0 0.025702884854505306 -0.034894873183598719 0 0.0257846988276118 -0.034999884868293162 0 0.024544224376548233 -0.034696989995304954 0 0.025440908928918256 -0.034999089746854221 0 0.025782363033249465 -0.035000394847364211 0 0.02280305509891201 -0.035471579994880348 0 0.02240052817458647 -0.034999647027792354 0 0.023176370756277643 -0.035456719473483368 0 0.02240052817458647 -0.034999647027792354 0 0.023919428214653603 -0.034999757297447268 0 0.023176370756277643 -0.035456719473483368 0 0.024114054542597633 -0.035676151863579593 0 0.023919428214653603 -0.034999757297447268 0 0.023176370756277643 -0.035456719473483368 0 0.024435724432899944 -0.035188592717187869 0 0.023876198861949569 -0.035023353301953851 0 0.024465858782648155 -0.034346114168965713 0 0.024599411238260337 -0.034538512947426457 0 0.024608812427585391 -0.034382816727086762 0 0.024114054542597633 -0.035676151863579593 0 0.023176370756277643 -0.035456719473483368 0 0.023025247204152052 -0.035663378966044802 0 0.024599411238260337 -0.034538512947426457 0 0.024747598127915597 -0.034730790584024243 0 0.024608812427585391 -0.034382816727086762 0 0.023025247204152052 -0.035663378966044802 0 0.023289084660849405 -0.035352204120114264 0 0.023923303686863118 -0.034662489692176141 0 0.02280305509891201 -0.035471579994880348 0 0.023176370756277643 -0.035456719473483368 0 0.023025247204152052 -0.035663378966044802 0 0.02280305509891201 -0.035471579994880348 0 0.023025247204152052 -0.035663378966044802 0 0.023289084660849405 -0.035352204120114264 0 0.02280305509891201 -0.035471579994880348 0 0.023289084660849405 -0.035352204120114264 0 0.023248225133390716 -0.035384260553317934 0 0.023876198861949569 -0.035023353301953851 0 0.023921991576787621 -0.034727701384701645 0 0.024608812427585391 -0.034382816727086762 0 0.023923303686863118 -0.034662489692176141 0 0.024509846900365048 -0.034415259795967823 0 0.023923303686863118 -0.034662489692176141 0 0.024509846900365048 -0.034415259795967823 0 0.024659026196941387 -0.034122632841577481 0 0.024465858782648155 -0.034346114168965713 0 0.024509846900365048 -0.034415259795967823 0 0.024659026196941387 -0.034122632841577481 0 0.024465858782648155 -0.034346114168965713 0 0.024608812427585391 -0.034382816727086762 0 0.024509846900365048 -0.034415259795967823 0 0.024260398785724602 -0.033430595008773788 0 0.024465858782648155 -0.034346114168965713 0 0.024659026196941387 -0.034122632841577481 0 0.024260398785724602 -0.033430595008773788 0 0.024659026196941387 -0.034122632841577481 0 0.025007193521245898 -0.033491003259878936 0 0.025316862051316499 -0.032988173978340141 0 0.025007193521245898 -0.033491003259878936 0 0.024764586351498512 -0.03398633874802616 0 0.023923303686863118 -0.034662489692176141 0 0.024659026196941387 -0.034122632841577481 0 0.024764586351498512 -0.03398633874802616 0 0.024659026196941387 -0.034122632841577481 0 0.025007193521245898 -0.033491003259878936 0 0.024764586351498512 -0.03398633874802616 0 0.021626623291978092 -0.030473878309441135 0 0.017265328243719028 -0.034463407215864938 0 0.011483534260824208 -0.033356325566208246 0 0.011878750513285212 -0.03334200430431012 0 0.01181690398134254 -0.032925973600770188 0 0.011483534260824208 -0.033356325566208246 0 0.011878750513285212 -0.03334200430431012 0 0.011905866887101104 -0.033808225248034826 0 0.017265328243719028 -0.034463407215864938 0 0.016192055021879273 -0.034927359984326931 0 0.011878750513285212 -0.03334200430431012 0 0.012324516337567485 -0.033289633985471773 0 0.01181690398134254 -0.032925973600770188 0 0.011878750513285212 -0.03334200430431012 0 0.012324516337567485 -0.033289633985471773 0 0.011905866887101104 -0.033808225248034826 0 0.012324516337567485 -0.033289633985471773 0 0.012402488853388795 -0.034270328991562245 0 0.011905866887101104 -0.033808225248034826 0 0.012704437520649573 -0.033346894151707183 0 0.013064579246102674 -0.034337417630107683 0 0.013432737454035355 -0.033775173261515828 0 0.012166362857907464 -0.03305677187224787 0 0.016313766393272356 -0.035362954517359907 0 0.016313766393272356 -0.035362954517359907 0 0.016192055021879273 -0.034927359984326931 0 0.023923303686863118 -0.034662489692176141 0 0.024764586351498512 -0.03398633874802616 0 0.023248225133390716 -0.035384260553317934 0 0.017265328243719028 -0.034463407215864938 0 0.022718343982896662 -0.035769996579213655 0 0.020689638583456273 -0.036353654939273075 0 0.020593847283867501 -0.036225378811644858 0 0.020755273663570491 -0.035983763449282447 0 0.020353933594422828 -0.036075730412995048 0 0.020593847283867501 -0.036225378811644858 0 0.020755273663570491 -0.035983763449282447 0 0.023289084660849405 -0.035352204120114264 0 0.023923303686863118 -0.034662489692176141 0 0.023248225133390716 -0.035384260553317934 0 0.020353933594422828 -0.036075730412995048 0 0.020755273663570491 -0.035983763449282447 0 0.020314150746779568 -0.035675831790026841 0 0.020036935765631179 -0.03715897761871715 0 0.020074823480307081 -0.036114174399650201 0 0.018926235694610386 -0.036125674499499952 0 0.016313766393272356 -0.035362954517359907 0 0.020157445443523964 -0.036071451610189077 0 0.020314150746779568 -0.035675831790026841 0 0.020166813019713261 -0.034999622235359885 0 0.020879257859019028 -0.035000302459489194 0 0.020074823480307081 -0.036114174399650201 0 0.02016555045462224 -0.035000005554853698 0 0.019523227120607008 -0.035567899438780068 0 0.020157445443523964 -0.036071451610189077 0 0.020165698451428033 -0.035000057603991316 0 0.020755273663570491 -0.035983763449282447 0 0.020314150746779568 -0.035675831790026841 0 0.020879257859019028 -0.035000302459489194 0 0.02280305509891201 -0.035471579994880348 0 0.02240052817458647 -0.034999647027792354 0 0.020882633548861752 -0.035000123679756065 0 0.022718343982896662 -0.035769996579213655 0 0.020880217636995976 -0.034999145272714971 0 0.02280305509891201 -0.035471579994880348 0 0.023248225133390716 -0.035384260553317934 0 0.020882633548861752 -0.035000123679756065 0 0.017679520595299491 -0.034999909647153882 0 0.016809871264910424 -0.035495303512029411 0 0.017669791441557336 -0.035001789871753883 0 0.014614851591781473 -0.034954567932164643 0 0.015273198403031731 -0.034570079690032889 0 0.017680291230121045 -0.035000013166017231 0 0.018922980482791167 -0.034999964058310587 0 0.018926235694610386 -0.036125674499499952 0 0.020074823480307081 -0.036114174399650201 0 0.019523227120607008 -0.035567899438780068 0 0.018926235694610386 -0.036125674499499952 0 0.02016555045462224 -0.035000005554853698 0 0.018922980482791167 -0.034999964058310587 0 0.019523227120607008 -0.035567899438780068 0 0.018922980482791167 -0.034999964058310587 0 0.019523227120607008 -0.035567899438780068 0 0.018926235694610386 -0.036125674499499952 0 0.013064579246102674 -0.034337417630107683 0 0.014614851591781473 -0.034954567932164643 0 0.014070055547547736 -0.034314033149408063 0 0.016313766393272356 -0.035362954517359907 0 0.016809871264910424 -0.035495303512029411 0 0.014614851591781473 -0.034954567932164643 0 0.015273198403031731 -0.034570079690032889 0 0.014070055547547736 -0.034314033149408063 0 0.015273198403031731 -0.034570079690032889 0 0.014084460653821733 -0.033842837075413169 0 0.014070055547547736 -0.034314033149408063 0 0.013064579246102674 -0.034337417630107683 0 0.014070055547547736 -0.034314033149408063 0 0.013432737454035355 -0.033775173261515828 0 0.014084460653821733 -0.033842837075413169 0 0.014070055547547736 -0.034314033149408063 0 0.013432737454035355 -0.033775173261515828 0 0.012704437520649573 -0.033346894151707183 0 0.013432737454035355 -0.033775173261515828 0 0.013202162371750285 -0.033137365521589343 0 0.014084460653821733 -0.033842837075413169 0 0.013432737454035355 -0.033775173261515828 0 0.013202162371750285 -0.033137365521589343 0 0.014084460653821733 -0.033842837075413169 0 0.013713770420154687 -0.033384080007547445 0 0.013202162371750285 -0.033137365521589343 0 0.013713770420154687 -0.033384080007547445 0 0.013248974054134225 -0.032728799066886652 0 0.013202162371750285 -0.033137365521589343 0 0.013248974054134225 -0.032728799066886652 0 0.012763775709680824 -0.032449499835948727 0 0.013202162371750285 -0.033137365521589343 0 0.013033336161923889 -0.032104122265368261 0 0.013248974054134225 -0.032728799066886652 0 0.012540989598317006 -0.031790309553274117 0 0.013248974054134225 -0.032728799066886652 0 0.012763775709680824 -0.032449499835948727 0 0.012540989598317006 -0.031790309553274117 0 0.012763775709680824 -0.032449499835948727 0 0.012000697581062389 -0.031715063656076833 0 0.012540989598317006 -0.031790309553274117 0 0.012763775709680824 -0.032449499835948727 0 0.013202162371750285 -0.033137365521589343 0 0.012199552569502422 -0.032436744301343398 0 0.012704437520649573 -0.033346894151707183 0 0.013202162371750285 -0.033137365521589343 0 0.012199552569502422 -0.032436744301343398 0 0.012166362857907464 -0.03305677187224787 0 0.012330157572844098 -0.032569882220165297 0 0.012324516337567485 -0.033289633985471773 0 0.01181690398134254 -0.032925973600770188 0 0.012199552569502422 -0.032436744301343398 0 0.0113785348773931 -0.032763024817055231 0 0.011483534260824208 -0.033356325566208246 0 0.01181690398134254 -0.032925973600770188 0 0.01181690398134254 -0.032925973600770188 0 0.01167909402755072 -0.03238968517402005 0 0.012199552569502422 -0.032436744301343398 0 0.0113785348773931 -0.032763024817055231 0 0.01181690398134254 -0.032925973600770188 0 0.01167909402755072 -0.03238968517402005 0 0.01167909402755072 -0.03238968517402005 0 0.012000697581062389 -0.031715063656076833 0 0.011324071571819803 -0.03183701107118514 0 0.0113785348773931 -0.032763024817055231 0 0.01167909402755072 -0.03238968517402005 0 0.011324071571819803 -0.03183701107118514 0 0.012763775709680824 -0.032449499835948727 0 0.012199552569502422 -0.032436744301343398 0 0.012000697581062389 -0.031715063656076833 0 0.01167909402755072 -0.03238968517402005 0 0.012199552569502422 -0.032436744301343398 0 0.012000697581062389 -0.031715063656076833 0 0.018106925738630247 -0.027617380244926003 0 0.0186701361588568 -0.027015766520325803 0 0.012000697581062389 -0.031715063656076833 0 0.011324071571819803 -0.03183701107118514 0 0.011403869153517116 -0.030800859260522711 0 0.025565005685926939 -0.023112489041581412 0 0.025948511459889165 -0.023733305329857891 0 0.025624563490952722 -0.022940145028231402 0 0.025574345727205659 -0.022955642553628579 0 0.025565005685926939 -0.023112489041581412 0 0.025624563490952722 -0.022940145028231402 0 0.011403869153517116 -0.030800859260522711 0 0.011872690410182353 -0.031012800389762469 0 0.011702183160015863 -0.03044189602763368 0 0.012000697581062389 -0.031715063656076833 0 0.011403869153517116 -0.030800859260522711 0 0.011872690410182353 -0.031012800389762469 0 0.011872690410182353 -0.031012800389762469 0 0.012243983342131649 -0.031223776979864525 0 0.011983518557889518 -0.030575937150228754 0 0.012000697581062389 -0.031715063656076833 0 0.011872690410182353 -0.031012800389762469 0 0.012243983342131649 -0.031223776979864525 0 0.012243983342131649 -0.031223776979864525 0 0.012399684490650606 -0.030798393312714469 0 0.011983518557889518 -0.030575937150228754 0 0.012845981424996138 -0.031389562449040342 0 0.012399684490650606 -0.030798393312714469 0 0.012609923729246167 -0.03145960659583396 0 0.012243983342131649 -0.031223776979864525 0 0.012399684490650606 -0.030798393312714469 0 0.012609923729246167 -0.03145960659583396 0 0.012243983342131649 -0.031223776979864525 0 0.012609923729246167 -0.03145960659583396 0 0.012540989598317006 -0.031790309553274117 0 0.013033336161923889 -0.032104122265368261 0 0.012609923729246167 -0.03145960659583396 0 0.012540989598317006 -0.031790309553274117 0 0.012000697581062389 -0.031715063656076833 0 0.012243983342131649 -0.031223776979864525 0 0.012540989598317006 -0.031790309553274117 0 0.017796714818332292 -0.025921651684710403 0 0.012935253981844561 -0.026460876719670758 0 0.011784331569901442 -0.030051720353344108 0 0.01204444134504048 -0.03003878499626688 0 0.011760833231428507 -0.029415280487814714 0 0.011784331569901442 -0.030051720353344108 0 0.011505248638156093 -0.029840609070780295 0 0.011760833231428507 -0.029415280487814714 0 0.012184660119071366 -0.029445999825290142 0 0.01204444134504048 -0.03003878499626688 0 0.011760833231428507 -0.029415280487814714 0 0.012184660119071366 -0.029445999825290142 0 0.01240758473250996 -0.030206765780195571 0 0.01204444134504048 -0.03003878499626688 0 0.01240758473250996 -0.030206765780195571 0 0.012399684490650606 -0.030798393312714469 0 0.01204444134504048 -0.03003878499626688 0 0.012399684490650606 -0.030798393312714469 0 0.01204444134504048 -0.03003878499626688 0 0.011983518557889518 -0.030575937150228754 0 0.011784331569901442 -0.030051720353344108 0 0.01204444134504048 -0.03003878499626688 0 0.011983518557889518 -0.030575937150228754 0 0.011784331569901442 -0.030051720353344108 0 0.011983518557889518 -0.030575937150228754 0 0.011702183160015863 -0.03044189602763368 0 0.011872690410182353 -0.031012800389762469 0 0.011983518557889518 -0.030575937150228754 0 0.011702183160015863 -0.03044189602763368 0 0.011403869153517116 -0.030800859260522711 0 0.011702183160015863 -0.03044189602763368 0 0.011505248638156093 -0.029840609070780295 0 0.0186701361588568 -0.027015766520325803 0 0.017796714818332292 -0.025921651684710403 0 0.025624563490952722 -0.022940145028231402 0 0.025522464238050324 -0.02306952147624957 0 0.025265950548296535 -0.023165719979802532 0 0.025574345727205659 -0.022955642553628579 0 0.025624563490952722 -0.022940145028231402 0 0.025522464238050324 -0.02306952147624957 0 0.025574345727205659 -0.022955642553628579 0 0.025522464238050324 -0.02306952147624957 0 0.02555915446076196 -0.022970867117936781 0 0.023363151766003121 -0.021623340683181284 0 0.023421033061750324 -0.021395458414650154 0 0.019771586411570591 -0.020799809205147176 0 0.020199941241797689 -0.022489041703447531 0 0.021777546996685607 -0.01987845493081963 0 0.020895030381080846 -0.022463172834383309 0 0.023421033061750324 -0.021395458414650154 0 0.019771586411570591 -0.020799809205147176 0 0.019068412672518832 -0.022001854749882511 0 0.020199941241797689 -0.022489041703447531 0 0.019068412672518832 -0.022001854749882511 0 0.020199941241797689 -0.022489041703447531 0 0.018540079605657733 -0.022976101378280874 0 0.021830157366420057 -0.02231468965263142 0 0.023042564850037885 -0.022139552016805352 0 0.022653215165193401 -0.022456510224319336 0 0.011784331569901442 -0.030051720353344108 0 0.011702183160015863 -0.03044189602763368 0 0.011505248638156093 -0.029840609070780295 0 0.023363151766003121 -0.021623340683181284 0 0.017796714818332292 -0.025921651684710403 0 0.019771586411570591 -0.020799809205147176 0 0.019068412672518832 -0.022001854749882511 0 0.017742868587262081 -0.021713082626410491 0 0.019068412672518832 -0.022001854749882511 0 0.017742868587262081 -0.021713082626410491 0 0.018540079605657733 -0.022976101378280874 0 0.018540079605657733 -0.022976101378280874 0 0.016827710896675709 -0.023759348100259231 0 0.01886710899002907 -0.024946075365195022 0 0.017742868587262081 -0.021713082626410491 0 0.018540079605657733 -0.022976101378280874 0 0.016827710896675709 -0.023759348100259231 0 0.021830157366420057 -0.02231468965263142 0 0.021231178803820323 -0.02473934341886503 0 0.01886710899002907 -0.024946075365195022 0 0.020895030381080846 -0.022463172834383309 0 0.019076360848112622 -0.024873436382465645 0 0.021830157366420057 -0.02231468965263142 0 0.022336874285737135 -0.022883005069897322 0 0.021231178803820323 -0.02473934341886503 0 0.020199941241797689 -0.022489041703447531 0 0.018540079605657733 -0.022976101378280874 0 0.01886710899002907 -0.024946075365195022 0 0.021830157366420057 -0.02231468965263142 0 0.022336874285737135 -0.022883005069897322 0 0.022653215165193401 -0.022456510224319336 0 0.019398900024716056 -0.026316312132668641 0 0.021194693810928689 -0.026859170386515311 0 0.018080220543230854 -0.027566250770813937 0 0.021231178803820323 -0.02473934341886503 0 0.021194693810928689 -0.026859170386515311 0 0.023572275926338222 -0.025268167686999611 0 0.021231178803820323 -0.02473934341886503 0 0.019398900024716056 -0.026316312132668641 0 0.01886710899002907 -0.024946075365195022 0 0.021231178803820323 -0.02473934341886503 0 0.019398900024716056 -0.026316312132668641 0 0.021194693810928689 -0.026859170386515311 0 0.016827710896675709 -0.023759348100259231 0 0.016730905395099482 -0.025314379951370217 0 0.01886710899002907 -0.024946075365195022 0 0.016730905395099482 -0.025314379951370217 0 0.01886710899002907 -0.024946075365195022 0 0.017826039010190697 -0.025851363227415269 0 0.019398900024716056 -0.026316312132668641 0 0.01886710899002907 -0.024946075365195022 0 0.017826039010190697 -0.025851363227415269 0 0.019398900024716056 -0.026316312132668641 0 0.017826039010190697 -0.025851363227415269 0 0.017573200000094307 -0.026699348308801045 0 0.017826039010190697 -0.025851363227415269 0 0.016865111908752214 -0.026079287354534592 0 0.017573200000094307 -0.026699348308801045 0 0.016730905395099482 -0.025314379951370217 0 0.017826039010190697 -0.025851363227415269 0 0.016865111908752214 -0.026079287354534592 0 0.016865111908752214 -0.026079287354534592 0 0.017573200000094307 -0.026699348308801045 0 0.016481945171875827 -0.026509065453615518 0 0.016730905395099482 -0.025314379951370217 0 0.016865111908752214 -0.026079287354534592 0 0.015577475278316223 -0.026227133729039297 0 0.016865111908752214 -0.026079287354534592 0 0.015577475278316223 -0.026227133729039297 0 0.016481945171875827 -0.026509065453615518 0 0.015577475278316223 -0.026227133729039297 0 0.014911355475739654 -0.025080244234151023 0 0.013978500260565947 -0.026058012975583741 0 0.016730905395099482 -0.025314379951370217 0 0.015577475278316223 -0.026227133729039297 0 0.014911355475739654 -0.025080244234151023 0 0.016827710896675709 -0.023759348100259231 0 0.016730905395099482 -0.025314379951370217 0 0.014911355475739654 -0.025080244234151023 0 0.017742868587262081 -0.021713082626410491 0 0.016827710896675709 -0.023759348100259231 0 0.015086464817052956 -0.023213057032981613 0 0.016827710896675709 -0.023759348100259231 0 0.014911355475739654 -0.025080244234151023 0 0.015086464817052956 -0.023213057032981613 0 0.012776422406134434 -0.026731723501597915 0 0.012935253981844561 -0.026460876719670758 0 0.013142322660153099 -0.025082475003899291 0 0.014911355475739654 -0.025080244234151023 0 0.015086464817052956 -0.023213057032981613 0 0.012184660119071366 -0.029445999825290142 0 0.011899722179898323 -0.02864065337750166 0 0.011760833231428507 -0.029415280487814714 0 0.013142322660153099 -0.025082475003899291 0 0.012799029826448685 -0.026519512842654868 0 0.013978500260565947 -0.026058012975583741 0 0.013142322660153099 -0.025082475003899291 0 0.014911355475739654 -0.025080244234151023 0 0.013978500260565947 -0.026058012975583741 0 0.012888331459837206 -0.026837859102020894 0 0.012799029826448685 -0.026519512842654868 0 0.01406333100241368 -0.027085484450609383 0 0.012799029826448685 -0.026519512842654868 0 0.013978500260565947 -0.026058012975583741 0 0.01406333100241368 -0.027085484450609383 0 0.015577475278316223 -0.026227133729039297 0 0.01406333100241368 -0.027085484450609383 0 0.016352278749223847 -0.027026330641776414 0 0.01406333100241368 -0.027085484450609383 0 0.016352278749223847 -0.027026330641776414 0 0.015762347354922948 -0.028005662704235813 0 0.015577475278316223 -0.026227133729039297 0 0.013978500260565947 -0.026058012975583741 0 0.01406333100241368 -0.027085484450609383 0 0.015577475278316223 -0.026227133729039297 0 0.016352278749223847 -0.027026330641776414 0 0.016481945171875827 -0.026509065453615518 0 0.01406333100241368 -0.027085484450609383 0 0.015762347354922948 -0.028005662704235813 0 0.015344297233615392 -0.029397940565164489 0 0.015762347354922948 -0.028005662704235813 0 0.015538288151699761 -0.029606827367091453 0 0.017381777567272126 -0.027004779430448177 0 0.015762347354922948 -0.028005662704235813 0 0.015344297233615392 -0.029397940565164489 0 0.015538288151699761 -0.029606827367091453 0 0.012888331459837206 -0.026837859102020894 0 0.01406333100241368 -0.027085484450609383 0 0.013037844254146131 -0.027095320190047199 0 0.01402767056596604 -0.026942219205329593 0 0.013388716827873046 -0.028937262204162675 0 0.01406333100241368 -0.027085484450609383 0 0.013787526790896145 -0.030208646050600276 0 0.015344297233615392 -0.029397940565164489 0 0.015835464704419214 -0.027554808275012554 0 0.014336644725443357 -0.029001207697955642 0 0.013787526790896145 -0.030208646050600276 0 0.015344297233615392 -0.029397940565164489 0 0.015501714024087454 -0.029580297804639225 0 0.013787526790896145 -0.030208646050600276 0 0.015501714024087454 -0.029580297804639225 0 0.014308603833095082 -0.031110947631177371 0 0.015928662541911935 -0.027805316719404942 0 0.015835464704419214 -0.027554808275012554 0 0.014946063651361002 -0.025897221603525596 0 0.014528195957002573 -0.026519847199821714 0 0.015658667046487593 -0.026619858290164448 0 0.014528195957002573 -0.026519847199821714 0 0.015658667046487593 -0.026619858290164448 0 0.014992223340957646 -0.027208720300327185 0 0.013388716827873046 -0.028937262204162675 0 0.013480105184872172 -0.028862514110789602 0 0.012474881776498895 -0.027350886266211839 0 0.013037844254146131 -0.027095320190047199 0 0.012867600290737701 -0.027955525167184598 0 0.014336644725443357 -0.029001207697955642 0 0.013480105184872172 -0.028862514110789602 0 0.013787526790896145 -0.030208646050600276 0 0.014308603833095082 -0.031110947631177371 0 0.013455654309136575 -0.032454354955036395 0 0.017326397875876452 -0.026344208861844482 0 0.017549949808980152 -0.026259975648119403 0 0.017374564836292156 -0.025859575129178351 0 0.017326397875876452 -0.026344208861844482 0 0.017549949808980152 -0.026259975648119403 0 0.017555346047247657 -0.026554028274274614 0 0.017762221457340466 -0.026648780066419978 0 0.017555346047247657 -0.026554028274274614 0 0.017381129704007878 -0.026810840563242559 0 0.017762221457340466 -0.026648780066419978 0 0.017549949808980152 -0.026259975648119403 0 0.017555346047247657 -0.026554028274274614 0 0.015835464704419214 -0.027554808275012554 0 0.016304122466022756 -0.02660314393788538 0 0.017326397875876452 -0.026344208861844482 0 0.017555346047247657 -0.026554028274274614 0 0.017381129704007878 -0.026810840563242559 0 0.024695432195931837 -0.022181440663636181 0 0.024666861973228725 -0.020981631466390798 0 0.032798918614894285 -0.017321028394789734 0 0.031854866746382937 -0.015525165554610528 0 0.033363177344044342 -0.015817673615408045 0 0.017762221457340466 -0.026648780066419978 0 0.017381129704007878 -0.026810840563242559 0 0.017381777567272126 -0.027004779430448177 0 0.015835464704419214 -0.027554808275012554 0 0.017571888296567063 -0.027197834441358107 0 0.017381129704007878 -0.026810840563242559 0 0.017381777567272126 -0.027004779430448177 0 0.017387509416397072 -0.02695875482491604 0 0.024666861973228725 -0.020981631466390798 0 0.023720634506518633 -0.021110408425132423 0 0.016352278749223847 -0.027026330641776414 0 0.017381777567272126 -0.027004779430448177 0 0.017118599684648399 -0.026902005715754133 0 0.016352278749223847 -0.027026330641776414 0 0.015762347354922948 -0.028005662704235813 0 0.017381777567272126 -0.027004779430448177 0 0.019398900024716056 -0.026316312132668641 0 0.018080220543230854 -0.027566250770813937 0 0.017573200000094307 -0.026699348308801045 0 0.017406152768377838 -0.026861282997610675 0 0.017355579628138249 -0.026836084573290848 0 0.017573200000094307 -0.026699348308801045 0 0.023720634506518633 -0.021110408425132423 0 0.023088292003523442 -0.022754299261483747 0 0.023720634506518633 -0.021110408425132423 0 0.023073639366614575 -0.021186031300858627 0 0.017381777567272126 -0.027004779430448177 0 0.017387509416397072 -0.02695875482491604 0 0.017118599684648399 -0.026902005715754133 0 0.017118599684648399 -0.026902005715754133 0 0.017355579628138249 -0.026836084573290848 0 0.016896503461833041 -0.026770541039603191 0 0.017387509416397072 -0.02695875482491604 0 0.017118599684648399 -0.026902005715754133 0 0.017355579628138249 -0.026836084573290848 0 0.017355579628138249 -0.026836084573290848 0 0.017573200000094307 -0.026699348308801045 0 0.016896503461833041 -0.026770541039603191 0 0.017573200000094307 -0.026699348308801045 0 0.016481945171875827 -0.026509065453615518 0 0.016896503461833041 -0.026770541039603191 0 0.016352278749223847 -0.027026330641776414 0 0.016481945171875827 -0.026509065453615518 0 0.016896503461833041 -0.026770541039603191 0 0.016352278749223847 -0.027026330641776414 0 0.017118599684648399 -0.026902005715754133 0 0.016896503461833041 -0.026770541039603191 0 0.031854866746382937 -0.015525165554610528 0 0.030850015901242048 -0.013714543368802165 0 0.033271952557223657 -0.014457713737078321 0 0.023720634506518633 -0.021110408425132423 0 0.02831076593378646 -0.021837371587146343 0 0.021194693810928689 -0.026859170386515311 0 0.018080220543230854 -0.027566250770813937 0 0.022972814107832411 -0.029177694178158541 0 0.021194693810928689 -0.026859170386515311 0 0.022972814107832411 -0.029177694178158541 0 0.023572275926338222 -0.025268167686999611 0 0.022972814107832411 -0.029177694178158541 0 0.025437606506158297 -0.027999720339176914 0 0.023572275926338222 -0.025268167686999611 0 0.024407549379052332 -0.025244513082593383 0 0.025244675476302623 -0.026540656776894427 0 0.025709957323956166 -0.02533912527720036 0 0.024824641387011896 -0.027243056006050273 0 0.031250037804411289 -0.022508530568357419 0 0.022972814107832411 -0.029177694178158541 0 0.025437606506158297 -0.027999720339176914 0 0.02725076533150143 -0.030558745788657641 0 0.02831076593378646 -0.021837371587146343 0 0.031250037804411289 -0.022508530568357419 0 0.031854866746382937 -0.015525165554610528 0 0.033271952557223657 -0.014457713737078321 0 0.033363177344044342 -0.015817673615408045 0 0.033271952557223657 -0.014457713737078321 0 0.033363177344044342 -0.015817673615408045 0 0.035706860641666047 -0.015322281412689039 0 0.032798918614894285 -0.017321028394789734 0 0.033363177344044342 -0.015817673615408045 0 0.034415200399701806 -0.016558508165483765 0 0.033363177344044342 -0.015817673615408045 0 0.034415200399701806 -0.016558508165483765 0 0.035706860641666047 -0.015322281412689039 0 0.034415200399701806 -0.016558508165483765 0 0.035958745967373355 -0.016729331856726141 0 0.035706860641666047 -0.015322281412689039 0 0.034415200399701806 -0.016558508165483765 0 0.035096966945904688 -0.017206607576001707 0 0.035958745967373355 -0.016729331856726141 0 0.035096966945904688 -0.017206607576001707 0 0.034916192205123993 -0.018276308476780089 0 0.034071838032675467 -0.017669506848391359 0 0.034415200399701806 -0.016558508165483765 0 0.035096966945904688 -0.017206607576001707 0 0.034071838032675467 -0.017669506848391359 0 0.034916192205123993 -0.018276308476780089 0 0.034071838032675467 -0.017669506848391359 0 0.033708918018254951 -0.019283776538865118 0 0.035096966945904688 -0.017206607576001707 0 0.034916192205123993 -0.018276308476780089 0 0.03617242605578732 -0.016994134774443937 0 0.037022279630332944 -0.016398788852660787 0 0.035890471025056749 -0.017301954231199471 0 0.032798918614894285 -0.017321028394789734 0 0.034415200399701806 -0.016558508165483765 0 0.034071838032675467 -0.017669506848391359 0 0.032798918614894285 -0.017321028394789734 0 0.034071838032675467 -0.017669506848391359 0 0.033708918018254951 -0.019283776538865118 0 0.024695432195931837 -0.022181440663636181 0 0.029266809266878704 -0.020203174230335814 0 0.036091897212836226 -0.016976751626212032 0 0.034972623336950066 -0.016902805909803656 0 0.036638447290940242 -0.016927725886883196 0 0.03586935752589239 -0.017376403500381096 0 0.035068109902554156 -0.016908470253752774 0 0.035704455398272515 -0.017133812515332511 0 0.03540357718432758 -0.016938768505894874 0 0.035187590899560459 -0.01710005095275232 0 0.036638447290940242 -0.016927725886883196 0 0.036584546571525801 -0.017044040797307817 0 0.03586935752589239 -0.017376403500381096 0 0.036638447290940242 -0.016927725886883196 0 0.036584546571525801 -0.017044040797307817 0 0.036465436943628381 -0.017003611584527061 0 0.036091897212836226 -0.016976751626212032 0 0.035285822217009336 -0.01646140989657513 0 0.035838919665722835 -0.016737290747314486 0 0.035241304134398348 -0.016013279154701396 0 0.035886383802511856 -0.015959577741194261 0 0.035838919665722835 -0.016737290747314486 0 0.035886383802511856 -0.015959577741194261 0 0.036108356229626923 -0.01643005189887577 0 0.035886383802511856 -0.015959577741194261 0 0.036108356229626923 -0.01643005189887577 0 0.036447350882426822 -0.015945474697446952 0 0.036108356229626923 -0.01643005189887577 0 0.036325971872103811 -0.016538371510087826 0 0.036447350882426822 -0.015945474697446952 0 0.037366940453593678 -0.016146899899588153 0 0.036325971872103811 -0.016538371510087826 0 0.03617242605578732 -0.016994134774443937 0 0.037366940453593678 -0.016146899899588153 0 0.036325971872103811 -0.016538371510087826 0 0.036447350882426822 -0.015945474697446952 0 0.035096966945904688 -0.017206607576001707 0 0.03617242605578732 -0.016994134774443937 0 0.035958745967373355 -0.016729331856726141 0 0.036325971872103811 -0.016538371510087826 0 0.03617242605578732 -0.016994134774443937 0 0.036220939199144188 -0.016945084352152539 0 0.03617242605578732 -0.016994134774443937 0 0.036220939199144188 -0.016945084352152539 0 0.035958745967373355 -0.016729331856726141 0 0.036220939199144188 -0.016945084352152539 0 0.036465436943628381 -0.017003611584527061 0 0.035958745967373355 -0.016729331856726141 0 0.036584546571525801 -0.017044040797307817 0 0.036465436943628381 -0.017003611584527061 0 0.035958745967373355 -0.016729331856726141 0 0.035838919665722835 -0.016737290747314486 0 0.036108356229626923 -0.01643005189887577 0 0.036220939199144188 -0.016945084352152539 0 0.036108356229626923 -0.01643005189887577 0 0.036325971872103811 -0.016538371510087826 0 0.036220939199144188 -0.016945084352152539 0 0.036091897212836226 -0.016976751626212032 0 0.036239100541081273 -0.016968095119205728 0 0.036552794500894811 -0.0170881106136632 0 0.036220939199144188 -0.016945084352152539 0 0.036465436943628381 -0.017003611584527061 0 0.036091897212836226 -0.016976751626212032 0 0.036136930339101085 -0.01699435962432495 0 0.036584546571525801 -0.017044040797307817 0 0.035958745967373355 -0.016729331856726141 0 0.035706860641666047 -0.015322281412689039 0 0.03651406181617612 -0.017826947750580521 0 0.036084926707609537 -0.018144635932713687 0 0.037501473750400402 -0.018759728396786253 0 0.036584546571525801 -0.017044040797307817 0 0.03651406181617612 -0.017826947750580521 0 0.037501473750400402 -0.018759728396786253 0 0.037906331847838343 -0.0152991303381226 0 0.031250037804411289 -0.022508530568357419 0 0.03651406181617612 -0.017826947750580521 0 0.03586935752589239 -0.017376403500381096 0 0.036084926707609537 -0.018144635932713687 0 0.036584546571525801 -0.017044040797307817 0 0.03651406181617612 -0.017826947750580521 0 0.03586935752589239 -0.017376403500381096 0 0.02708651047219025 -0.027268023436570494 0 0.025244675476302623 -0.026540656776894427 0 0.027276920192880246 -0.025866053479701234 0 0.031701404342487804 -0.022731778259841681 0 0.031250037804411289 -0.022508530568357419 0 0.025244675476302623 -0.026540656776894427 0 0.025709957323956166 -0.02533912527720036 0 0.027276920192880246 -0.025866053479701234 0 0.024407549379052332 -0.025244513082593383 0 0.025709957323956166 -0.02533912527720036 0 0.025281598367313519 -0.024464535408637272 0 0.025709957323956166 -0.02533912527720036 0 0.02645266143142995 -0.024649942036939626 0 0.025281598367313519 -0.024464535408637272 0 0.027276920192880246 -0.025866053479701234 0 0.02645266143142995 -0.024649942036939626 0 0.028380457984245492 -0.024341730830526355 0 0.025709957323956166 -0.02533912527720036 0 0.027276920192880246 -0.025866053479701234 0 0.02645266143142995 -0.024649942036939626 0 0.02645266143142995 -0.024649942036939626 0 0.026519085197879547 -0.023432296572505951 0 0.028380457984245492 -0.024341730830526355 0 0.026158573992046675 -0.022441348841499034 0 0.02794812248850213 -0.022911043297822571 0 0.026519085197879547 -0.023432296572505951 0 0.026007227263424363 -0.02244725493962689 0 0.028461579943284829 -0.022666119238451837 0 0.026519085197879547 -0.023432296572505951 0 0.025079364699016535 -0.023366499288841193 0 0.026007227263424363 -0.02244725493962689 0 0.025079364699016535 -0.023366499288841193 0 0.024779689285501411 -0.022474958250901449 0 0.026007227263424363 -0.02244725493962689 0 0.02645266143142995 -0.024649942036939626 0 0.026519085197879547 -0.023432296572505951 0 0.025281598367313519 -0.024464535408637272 0 0.026519085197879547 -0.023432296572505951 0 0.025281598367313519 -0.024464535408637272 0 0.025079364699016535 -0.023366499288841193 0 0.024407549379052332 -0.025244513082593383 0 0.025281598367313519 -0.024464535408637272 0 0.0235873460318952 -0.02415177055501682 0 0.025281598367313519 -0.024464535408637272 0 0.0235873460318952 -0.02415177055501682 0 0.025079364699016535 -0.023366499288841193 0 0.024824641387011896 -0.027243056006050273 0 0.023523542963337155 -0.024573797879380684 0 0.022336874285737135 -0.022883005069897322 0 0.021231178803820323 -0.02473934341886503 0 0.023572275926338222 -0.025268167686999611 0 0.022336874285737135 -0.022883005069897322 0 0.0235873460318952 -0.02415177055501682 0 0.024055301101500375 -0.023042687421718784 0 0.022336874285737135 -0.022883005069897322 0 0.024055301101500375 -0.023042687421718784 0 0.023319080453532978 -0.022515234398023082 0 0.022439825476400919 -0.023030720102737715 0 0.023523542963337155 -0.024573797879380684 0 0.022336874285737135 -0.022883005069897322 0 0.022653215165193401 -0.022456510224319336 0 0.023319080453532978 -0.022515234398023082 0 0.0235873460318952 -0.02415177055501682 0 0.025079364699016535 -0.023366499288841193 0 0.024055301101500375 -0.023042687421718784 0 0.025079364699016535 -0.023366499288841193 0 0.024055301101500375 -0.023042687421718784 0 0.024779689285501411 -0.022474958250901449 0 0.024779689285501411 -0.022474958250901449 0 0.024432088497974985 -0.02204706539160721 0 0.024915593063804489 -0.021870835479000043 0 0.024779689285501411 -0.022474958250901449 0 0.024432088497974985 -0.02204706539160721 0 0.024065745554212155 -0.022386522915294266 0 0.024055301101500375 -0.023042687421718784 0 0.024779689285501411 -0.022474958250901449 0 0.024065745554212155 -0.022386522915294266 0 0.024432088497974985 -0.02204706539160721 0 0.024065745554212155 -0.022386522915294266 0 0.024004173124902158 -0.021966265049942511 0 0.021830157366420057 -0.02231468965263142 0 0.023430408462911424 -0.021879301743321516 0 0.023754713145805868 -0.021556373368651613 0 0.021830157366420057 -0.02231468965263142 0 0.023042564850037885 -0.022139552016805352 0 0.023430408462911424 -0.021879301743321516 0 0.023042564850037885 -0.022139552016805352 0 0.022653215165193401 -0.022456510224319336 0 0.023319080453532978 -0.022515234398023082 0 0.023042564850037885 -0.022139552016805352 0 0.023319080453532978 -0.022515234398023082 0 0.023578582246907412 -0.022164546639017201 0 0.024055301101500375 -0.023042687421718784 0 0.023319080453532978 -0.022515234398023082 0 0.024065745554212155 -0.022386522915294266 0 0.023319080453532978 -0.022515234398023082 0 0.024065745554212155 -0.022386522915294266 0 0.023578582246907412 -0.022164546639017201 0 0.024065745554212155 -0.022386522915294266 0 0.024004173124902158 -0.021966265049942511 0 0.023578582246907412 -0.022164546639017201 0 0.024004173124902158 -0.021966265049942511 0 0.023430408462911424 -0.021879301743321516 0 0.023884505370036519 -0.021740285540066802 0 0.024004173124902158 -0.021966265049942511 0 0.023578582246907412 -0.022164546639017201 0 0.023430408462911424 -0.021879301743321516 0 0.023042564850037885 -0.022139552016805352 0 0.023578582246907412 -0.022164546639017201 0 0.023430408462911424 -0.021879301743321516 0 0.023430408462911424 -0.021879301743321516 0 0.023754713145805868 -0.021556373368651613 0 0.023884505370036519 -0.021740285540066802 0 0.023754713145805868 -0.021556373368651613 0 0.024043527717298317 -0.021632025731738981 0 0.023884505370036519 -0.021740285540066802 0 0.023421033061750324 -0.021395458414650154 0 0.023545728004096593 -0.021383167899131621 0 0.024004173124902158 -0.021966265049942511 0 0.023884505370036519 -0.021740285540066802 0 0.024445969733252221 -0.021713577342930931 0 0.024043527717298317 -0.021632025731738981 0 0.023884505370036519 -0.021740285540066802 0 0.024445969733252221 -0.021713577342930931 0 0.024981327255122868 -0.022451402191524635 0 0.023421033061750324 -0.021395458414650154 0 0.02475384311670363 -0.021737689201101109 0 0.023902314548119762 -0.021604504011160208 0 0.024043527717298317 -0.021632025731738981 0 0.02475384311670363 -0.021737689201101109 0 0.024043527717298317 -0.021632025731738981 0 0.024445969733252221 -0.021713577342930931 0 0.025574345727205659 -0.022955642553628579 0 0.025422148697001934 -0.022923078178664805 0 0.02555915446076196 -0.022970867117936781 0 0.024432088497974985 -0.02204706539160721 0 0.024004173124902158 -0.021966265049942511 0 0.024445969733252221 -0.021713577342930931 0 0.024432088497974985 -0.02204706539160721 0 0.024915593063804489 -0.021870835479000043 0 0.024445969733252221 -0.021713577342930931 0 0.024751444191428402 -0.02178296189558241 0 0.02475384311670363 -0.021737689201101109 0 0.024445969733252221 -0.021713577342930931 0 0.024751444191428402 -0.02178296189558241 0 0.024915593063804489 -0.021870835479000043 0 0.024445969733252221 -0.021713577342930931 0 0.025282230607105285 -0.021761884006154239 0 0.024751444191428402 -0.02178296189558241 0 0.024915593063804489 -0.021870835479000043 0 0.025282230607105285 -0.021761884006154239 0 0.024915593063804489 -0.021870835479000043 0 0.025865913554856765 -0.021912031448590105 0 0.026204970968122566 -0.021608116741680457 0 0.025282230607105285 -0.021761884006154239 0 0.025865913554856765 -0.021912031448590105 0 0.026204970968122566 -0.021608116741680457 0 0.025865913554856765 -0.021912031448590105 0 0.02710059843906068 -0.021870676758090398 0 0.025865913554856765 -0.021912031448590105 0 0.026007227263424363 -0.02244725493962689 0 0.02710059843906068 -0.021870676758090398 0 0.024779689285501411 -0.022474958250901449 0 0.024915593063804489 -0.021870835479000043 0 0.026007227263424363 -0.02244725493962689 0 0.024915593063804489 -0.021870835479000043 0 0.025865913554856765 -0.021912031448590105 0 0.026007227263424363 -0.02244725493962689 0 0.02863043805593761 -0.021773738328748422 0 0.02710059843906068 -0.021870676758090398 0 0.028603487524117347 -0.022502621262434238 0 0.02863043805593761 -0.021773738328748422 0 0.029757171020192968 -0.021952113423011534 0 0.028603487524117347 -0.022502621262434238 0 0.026007227263424363 -0.02244725493962689 0 0.02710059843906068 -0.021870676758090398 0 0.027419124162736959 -0.023115287662734713 0 0.02710059843906068 -0.021870676758090398 0 0.028603487524117347 -0.022502621262434238 0 0.027419124162736959 -0.023115287662734713 0 0.026950011590567199 -0.021093548471585725 0 0.026204970968122566 -0.021608116741680457 0 0.02710059843906068 -0.021870676758090398 0 0.026950011590567199 -0.021093548471585725 0 0.02710059843906068 -0.021870676758090398 0 0.028230807848586982 -0.021287816790962453 0 0.02863043805593761 -0.021773738328748422 0 0.02710059843906068 -0.021870676758090398 0 0.028230807848586982 -0.021287816790962453 0 0.02863043805593761 -0.021773738328748422 0 0.028230807848586982 -0.021287816790962453 0 0.02971217841624119 -0.021732635351954181 0 0.02996372782017321 -0.026947210796914603 0 0.029763951389622813 -0.026932294269397934 0 0.029708620456540297 -0.026601149229016109 0 0.029846181657046951 -0.027135587391256988 0 0.02996372782017321 -0.026947210796914603 0 0.029763951389622813 -0.026932294269397934 0 0.029054669824125069 -0.024247889938833363 0 0.030903173693460077 -0.023186964600694464 0 0.029655051523504457 -0.027199893352426386 0 0.029763951389622813 -0.026932294269397934 0 0.029574695639461215 -0.02690618045730471 0 0.02931801379088991 -0.026638238021936756 0 0.032921454120420121 -0.026910733585641222 0 0.032921454120420121 -0.026910733585641222 0 0.030903173693460077 -0.023186964600694464 0 0.029763951389622813 -0.026932294269397934 0 0.029570986750418568 -0.026883237462328444 0 0.029708620456540297 -0.026601149229016109 0 0.034757333528421058 -0.023184964769910221 0 0.034754254597218169 -0.023134058555969273 0 0.034763441257204555 -0.023114881258855757 0 0.034757333528421058 -0.023184964769910221 0 0.034754254597218169 -0.023134058555969273 0 0.034699488518802883 -0.023177841636178111 0 0.032921454120420121 -0.026910733585641222 0 0.036283890893034167 -0.025287068494439811 0 0.036536057706714836 -0.029077474540525311 0 0.036610848401743161 -0.028988320021428832 0 0.036503255228070498 -0.028953494101649456 0 0.035021475448984395 -0.022819161134091052 0 0.036283890893034167 -0.025287068494439811 0 0.034754254597218169 -0.023134058555969273 0 0.034750205801094516 -0.023093751401598993 0 0.034699488518802883 -0.023177841636178111 0 0.034754254597218169 -0.023134058555969273 0 0.034750205801094516 -0.023093751401598993 0 0.034763441257204555 -0.023114881258855757 0 0.030903173693460077 -0.023186964600694464 0 0.033589294959827022 -0.022711989877163673 0 0.034750205801094516 -0.023093751401598993 0 0.034763441257204555 -0.023114881258855757 0 0.034760184453004987 -0.023091474222424663 0 0.034750205801094516 -0.023093751401598993 0 0.034760184453004987 -0.023091474222424663 0 0.0347968460394492 -0.023107649018932124 0 0.034750205801094516 -0.023093751401598993 0 0.0347968460394492 -0.023107649018932124 0 0.034943699938737513 -0.023046943456797662 0 0.030187112736372621 -0.021147546153281332 0 0.029757171020192968 -0.021952113423011534 0 0.032097485660892912 -0.022236686631564112 0 0.02863043805593761 -0.021773738328748422 0 0.02971217841624119 -0.021732635351954181 0 0.029757171020192968 -0.021952113423011534 0 0.030903173693460077 -0.023186964600694464 0 0.030610112818839543 -0.022296330626321539 0 0.029757171020192968 -0.021952113423011534 0 0.031259161970774059 -0.023049148979501864 0 0.032097485660892912 -0.022236686631564112 0 0.031259161970774059 -0.023049148979501864 0 0.030046730285548887 -0.023984419105410579 0 0.028603487524117347 -0.022502621262434238 0 0.029757171020192968 -0.021952113423011534 0 0.031259161970774059 -0.023049148979501864 0 0.028603487524117347 -0.022502621262434238 0 0.031259161970774059 -0.023049148979501864 0 0.032097485660892912 -0.022236686631564112 0 0.034367457549093282 -0.023198139441573985 0 0.034760184453004987 -0.023091474222424663 0 0.034737483458921241 -0.02309323699154579 0 0.0347968460394492 -0.023107649018932124 0 0.033589294959827022 -0.022711989877163673 0 0.034279156399126209 -0.023249194163506928 0 0.031259161970774059 -0.023049148979501864 0 0.033617642258668416 -0.024166657210472495 0 0.034367457549093282 -0.023198139441573985 0 0.030581379816794905 -0.023596658914674815 0 0.033364034621893614 -0.024205879131219774 0 0.031029309310870903 -0.023282894241017076 0 0.032129319705727445 -0.024660739841383485 0 0.033617642258668416 -0.024166657210472495 0 0.031259161970774059 -0.023049148979501864 0 0.030046730285548887 -0.023984419105410579 0 0.033617642258668416 -0.024166657210472495 0 0.031029309310870903 -0.023282894241017076 0 0.030486131126362705 -0.024799336185763233 0 0.032129319705727445 -0.024660739841383485 0 0.031029309310870903 -0.023282894241017076 0 0.028461579943284829 -0.022666119238451837 0 0.028380457984245492 -0.024341730830526355 0 0.031029309310870903 -0.023282894241017076 0 0.028380457984245492 -0.024341730830526355 0 0.030486131126362705 -0.024799336185763233 0 0.030581379816794905 -0.023596658914674815 0 0.02794812248850213 -0.022911043297822571 0 0.030046730285548887 -0.023984419105410579 0 0.028603487524117347 -0.022502621262434238 0 0.027419124162736959 -0.023115287662734713 0 0.026519085197879547 -0.023432296572505951 0 0.028461579943284829 -0.022666119238451837 0 0.028380457984245492 -0.024341730830526355 0 0.027276920192880246 -0.025866053479701234 0 0.028380457984245492 -0.024341730830526355 0 0.028949350508410656 -0.025638647627375315 0 0.028380457984245492 -0.024341730830526355 0 0.028949350508410656 -0.025638647627375315 0 0.030486131126362705 -0.024799336185763233 0 0.028949350508410656 -0.025638647627375315 0 0.030486131126362705 -0.024799336185763233 0 0.030429221665338284 -0.026503464769335613 0 0.028949350508410656 -0.025638647627375315 0 0.030429221665338284 -0.026503464769335613 0 0.029106989025655179 -0.028015279593771501 0 0.027276920192880246 -0.025866053479701234 0 0.028949350508410656 -0.025638647627375315 0 0.029106989025655179 -0.028015279593771501 0 0.02708651047219025 -0.027268023436570494 0 0.027276920192880246 -0.025866053479701234 0 0.029106989025655179 -0.028015279593771501 0 0.03586935752589239 -0.017376403500381096 0 0.034624546675802087 -0.01762970597493612 0 0.035068109902554156 -0.016908470253752774 0 0.031701404342487804 -0.022731778259841681 0 0.031412234130007058 -0.022962945584684324 0 0.03586935752589239 -0.017376403500381096 0 0.036084926707609537 -0.018144635932713687 0 0.034624546675802087 -0.01762970597493612 0 0.029106989025655179 -0.028015279593771501 0 0.031385847700670315 -0.028827210735869826 0 0.0307158829000484 -0.027797706333021685 0 0.031412234130007058 -0.022962945584684324 0 0.034721110003543054 -0.021177456061170361 0 0.030429221665338284 -0.026503464769335613 0 0.029106989025655179 -0.028015279593771501 0 0.0307158829000484 -0.027797706333021685 0 0.034624546675802087 -0.01762970597493612 0 0.033643558522587214 -0.016892718503505988 0 0.033208422857811885 -0.017149839097568214 0 0.035010505196003593 -0.018060359023708339 0 0.034917438622145705 -0.016238438198189042 0 0.035187590899560459 -0.01710005095275232 0 0.034682530099856806 -0.017071589689865253 0 0.035106413587292731 -0.016746136528506428 0 0.034624546675802087 -0.01762970597493612 0 0.035068109902554156 -0.016908470253752774 0 0.033643558522587214 -0.016892718503505988 0 0.034972623336950066 -0.016902805909803656 0 0.035010505196003593 -0.018060359023708339 0 0.03540357718432758 -0.016938768505894874 0 0.035187590899560459 -0.01710005095275232 0 0.035106413587292731 -0.016746136528506428 0 0.038658176185656493 -0.019429073808264651 0 0.036848837468562157 -0.019072886870157454 0 0.038108087732094495 -0.019242728015670552 0 0.038332689648870245 -0.019072789968166675 0 0.038635008694368887 -0.019260200745912288 0 0.038725154706606875 -0.019642203187393518 0 0.038450718529908411 -0.019524581568316587 0 0.039016568099934375 -0.019668220844219528 0 0.038725154706606875 -0.019642203187393518 0 0.038589117187578362 -0.019862284832335583 0 0.039025408254557054 -0.019823861371148593 0 0.038589117187578362 -0.019862284832335583 0 0.038450718529908411 -0.019524581568316587 0 0.03814888168287052 -0.020026017692062244 0 0.038725154706606875 -0.019642203187393518 0 0.038589117187578362 -0.019862284832335583 0 0.038450718529908411 -0.019524581568316587 0 0.038332689648870245 -0.019072789968166675 0 0.038635008694368887 -0.019260200745912288 0 0.038418966557456101 -0.018863067312287492 0 0.035010505196003593 -0.018060359023708339 0 0.036848837468562157 -0.019072886870157454 0 0.035010505196003593 -0.018060359023708339 0 0.034721110003543054 -0.021177456061170361 0 0.035592673399392705 -0.019018998442727912 0 0.03558567361293289 -0.019023897223125991 0 0.035583595679552923 -0.019034305884748973 0 0.038725154706606875 -0.019642203187393518 0 0.039030095689859677 -0.019774847140940691 0 0.039025408254557054 -0.019823861371148593 0 0.038725154706606875 -0.019642203187393518 0 0.039016568099934375 -0.019668220844219528 0 0.038993601174423104 -0.019789221783795819 0 0.038965539610905944 -0.020724170032031492 0 0.034721110003543054 -0.021177456061170361 0 0.036848837468562157 -0.019072886870157454 0 0.034721110003543054 -0.021177456061170361 0 0.034721110003543054 -0.021177456061170361 0 0.034384096184186932 -0.023604663982314016 0 0.034384096184186932 -0.023604663982314016 0 0.031698894477983339 -0.027708387501651298 0 0.03140218265612197 -0.028682751374258676 0 0.0307158829000484 -0.027797706333021685 0 0.031613821170721895 -0.027212029111105863 0 0.031385847700670315 -0.028827210735869826 0 0.03140218265612197 -0.028682751374258676 0 0.0307158829000484 -0.027797706333021685 0 0.030429221665338284 -0.026503464769335613 0 0.0307158829000484 -0.027797706333021685 0 0.031613821170721895 -0.027212029111105863 0 0.034384096184186932 -0.023604663982314016 0 0.035999410789037033 -0.02356194650553076 0 0.031814561794017891 -0.027781082033268498 0 0.03193704354064647 -0.026633154431743359 0 0.033144763332318895 -0.026887979903451879 0 0.038589117187578362 -0.019862284832335583 0 0.039025408254557054 -0.019823861371148593 0 0.038527455874335814 -0.020307999417419429 0 0.038589117187578362 -0.019862284832335583 0 0.038527455874335814 -0.020307999417419429 0 0.03814888168287052 -0.020026017692062244 0 0.033144763332318895 -0.026887979903451879 0 0.032568130930174383 -0.02610871042421636 0 0.033412458939321057 -0.025313850663230983 0 0.03193704354064647 -0.026633154431743359 0 0.033144763332318895 -0.026887979903451879 0 0.032568130930174383 -0.02610871042421636 0 0.032568130930174383 -0.02610871042421636 0 0.033412458939321057 -0.025313850663230983 0 0.031908856188083277 -0.025539070231251921 0 0.03193704354064647 -0.026633154431743359 0 0.032568130930174383 -0.02610871042421636 0 0.031908856188083277 -0.025539070231251921 0 0.031698894477983339 -0.027708387501651298 0 0.031939893465889983 -0.025432638097525231 0 0.030429221665338284 -0.026503464769335613 0 0.031613821170721895 -0.027212029111105863 0 0.031908856188083277 -0.025539070231251921 0 0.030486131126362705 -0.024799336185763233 0 0.030429221665338284 -0.026503464769335613 0 0.031908856188083277 -0.025539070231251921 0 0.030486131126362705 -0.024799336185763233 0 0.031908856188083277 -0.025539070231251921 0 0.032129319705727445 -0.024660739841383485 0 0.033412458939321057 -0.025313850663230983 0 0.031908856188083277 -0.025539070231251921 0 0.032129319705727445 -0.024660739841383485 0 0.033412458939321057 -0.025313850663230983 0 0.032129319705727445 -0.024660739841383485 0 0.033617642258668416 -0.024166657210472495 0 0.03422953557573228 -0.024590005566633391 0 0.035204877791606061 -0.023438117921054658 0 0.034833832962090999 -0.025492153449862984 0 0.033412458939321057 -0.025313850663230983 0 0.033617642258668416 -0.024166657210472495 0 0.03422953557573228 -0.024590005566633391 0 0.033617642258668416 -0.024166657210472495 0 0.03422953557573228 -0.024590005566633391 0 0.035204877791606061 -0.023438117921054658 0 0.035204877791606061 -0.023438117921054658 0 0.034833832962090999 -0.025492153449862984 0 0.036346277799788732 -0.022799744173612656 0 0.036295071328742441 -0.023283752849262505 0 0.036329782281522498 -0.022949531348984458 0 0.035204877791606061 -0.023438117921054658 0 0.036346277799788732 -0.022799744173612656 0 0.035831361824886145 -0.023033252073489757 0 0.036996788246631128 -0.020912679036487525 0 0.038015351458758562 -0.021068640767144299 0 0.036346277799788732 -0.022799744173612656 0 0.036996788246631128 -0.020912679036487525 0 0.038015351458758562 -0.021068640767144299 0 0.037629646477513178 -0.020267451064329256 0 0.035999410789037033 -0.02356194650553076 0 0.036295071328742441 -0.023283752849262505 0 0.038527455874335814 -0.020307999417419429 0 0.038015351458758562 -0.021068640767144299 0 0.038077559646565132 -0.020436224367333021 0 0.033144763332318895 -0.026887979903451879 0 0.033412458939321057 -0.025313850663230983 0 0.034833832962090999 -0.025492153449862984 0 0.033412458939321057 -0.025313850663230983 0 0.03422953557573228 -0.024590005566633391 0 0.034833832962090999 -0.025492153449862984 0 0.038015351458758562 -0.021068640767144299 0 0.038077559646565132 -0.020436224367333021 0 0.037629646477513178 -0.020267451064329256 0 0.038527455874335814 -0.020307999417419429 0 0.03814888168287052 -0.020026017692062244 0 0.038077559646565132 -0.020436224367333021 0 0.03814888168287052 -0.020026017692062244 0 0.037629646477513178 -0.020267451064329256 0 0.037820320716503687 -0.019739587090739464 0 0.03814888168287052 -0.020026017692062244 0 0.038077559646565132 -0.020436224367333021 0 0.037629646477513178 -0.020267451064329256 0 0.036996788246631128 -0.020912679036487525 0 0.037629646477513178 -0.020267451064329256 0 0.037295021654953228 -0.019619933645600437 0 0.036996788246631128 -0.020912679036487525 0 0.037566033514146856 -0.018538315718442947 0 0.036570819192793293 -0.019436696572677815 0 0.037045437597290044 -0.020733163537120028 0 0.037462734649105191 -0.019262677686550246 0 0.037629646477513178 -0.020267451064329256 0 0.037295021654953228 -0.019619933645600437 0 0.037820320716503687 -0.019739587090739464 0 0.037295021654953228 -0.019619933645600437 0 0.037542896365791917 -0.019312174088224176 0 0.037417759276437992 -0.018688720588782588 0 0.037462734649105191 -0.019262677686550246 0 0.037003643425429868 -0.016931107955247059 0 0.037295021654953228 -0.019619933645600437 0 0.037542896365791917 -0.019312174088224176 0 0.037820320716503687 -0.019739587090739464 0 0.037566033514146856 -0.018538315718442947 0 0.036747766296856728 -0.018039713309028056 0 0.037785180392783141 -0.016586394261009347 0 0.038658176185656493 -0.019429073808264651 0 0.037433725932500342 -0.019306461416450697 0 0.038108087732094495 -0.019242728015670552 0 0.037542896365791917 -0.019312174088224176 0 0.037840648211873905 -0.018933328578095307 0 0.038450718529908411 -0.019524581568316587 0 0.037542896365791917 -0.019312174088224176 0 0.037820320716503687 -0.019739587090739464 0 0.038450718529908411 -0.019524581568316587 0 0.03814888168287052 -0.020026017692062244 0 0.037820320716503687 -0.019739587090739464 0 0.034999714598464383 -0.019217597954174721 0 0.03583066580545069 -0.01874886507828296 0 0.034999901370051843 -0.017375294861062582 0 0.036036521147447965 -0.01755764791313176 0 0.03583066580545069 -0.01874886507828296 0 0.034999901370051843 -0.017375294861062582 0 0.037566033514146856 -0.018538315718442947 0 0.036747766296856728 -0.018039713309028056 0 0.036570819192793293 -0.019436696572677815 0 0.036747766296856728 -0.018039713309028056 0 0.036570819192793293 -0.019436696572677815 0 0.03583066580545069 -0.01874886507828296 0 0.036036521147447965 -0.01755764791313176 0 0.036747766296856728 -0.018039713309028056 0 0.03583066580545069 -0.01874886507828296 0 0.036036521147447965 -0.01755764791313176 0 0.036747766296856728 -0.018039713309028056 0 0.036621317893668667 -0.017187537720669076 0 0.036570819192793293 -0.019436696572677815 0 0.03583066580545069 -0.01874886507828296 0 0.035823283973399407 -0.020529631310377303 0 0.034999714598464383 -0.019217597954174721 0 0.03583066580545069 -0.01874886507828296 0 0.035823283973399407 -0.020529631310377303 0 0.034999714598464383 -0.019217597954174721 0 0.035823283973399407 -0.020529631310377303 0 0.034999617359374929 -0.021060369843266539 0 0.036996788246631128 -0.020912679036487525 0 0.036570819192793293 -0.019436696572677815 0 0.035823283973399407 -0.020529631310377303 0 0.036996788246631128 -0.020912679036487525 0 0.035823283973399407 -0.020529631310377303 0 0.036346277799788732 -0.022799744173612656 0 0.035823283973399407 -0.020529631310377303 0 0.036346277799788732 -0.022799744173612656 0 0.035717661100186301 -0.021841583441634428 0 0.036346277799788732 -0.022799744173612656 0 0.035717661100186301 -0.021841583441634428 0 0.035732052327263342 -0.022700700775246444 0 0.035823283973399407 -0.020529631310377303 0 0.035717661100186301 -0.021841583441634428 0 0.034999617359374929 -0.021060369843266539 0 0.035717661100186301 -0.021841583441634428 0 0.034999617359374929 -0.021060369843266539 0 0.035732052327263342 -0.022700700775246444 0 0.034999617359374929 -0.021060369843266539 0 0.034999787593408778 -0.022901907001477394 0 0.035732052327263342 -0.022700700775246444 0 0.034999787593408778 -0.022901907001477394 0 0.035585503655075235 -0.023497142832465165 0 0.034999932384176195 -0.024740762154512028 0 0.034999787593408778 -0.022901907001477394 0 0.035585503655075235 -0.023497142832465165 0 0.035732052327263342 -0.022700700775246444 0 0.035585503655075235 -0.023497142832465165 0 0.035703630270757528 -0.023137385042172155 0 0.035732052327263342 -0.022700700775246444 0 0.035585503655075235 -0.023497142832465165 0 0.035703630270757528 -0.023137385042172155 0 0.035494786655094916 -0.023269340344531889 0 0.036346277799788732 -0.022799744173612656 0 0.035732052327263342 -0.022700700775246444 0 0.035831361824886145 -0.023033252073489757 0 0.035703630270757528 -0.023137385042172155 0 0.035732052327263342 -0.022700700775246444 0 0.035831361824886145 -0.023033252073489757 0 0.035703630270757528 -0.023137385042172155 0 0.035831361824886145 -0.023033252073489757 0 0.035230653431545217 -0.023082050703535101 0 0.035204877791606061 -0.023438117921054658 0 0.035831361824886145 -0.023033252073489757 0 0.035230653431545217 -0.023082050703535101 0 0.035204877791606061 -0.023438117921054658 0 0.034367457549093282 -0.023198139441573985 0 0.035230653431545217 -0.023082050703535101 0 0.033617642258668416 -0.024166657210472495 0 0.035204877791606061 -0.023438117921054658 0 0.034367457549093282 -0.023198139441573985 0 0.034760184453004987 -0.023091474222424663 0 0.034367457549093282 -0.023198139441573985 0 0.034737483458921241 -0.02309323699154579 0 0.034367457549093282 -0.023198139441573985 0 0.034737483458921241 -0.02309323699154579 0 0.035230653431545217 -0.023082050703535101 0 0.034737483458921241 -0.02309323699154579 0 0.035230653431545217 -0.023082050703535101 0 0.035053070746081903 -0.023111121053662687 0 0.034737483458921241 -0.02309323699154579 0 0.0347968460394492 -0.023107649018932124 0 0.035053070746081903 -0.023111121053662687 0 0.035703630270757528 -0.023137385042172155 0 0.035230653431545217 -0.023082050703535101 0 0.035494786655094916 -0.023269340344531889 0 0.035230653431545217 -0.023082050703535101 0 0.035494786655094916 -0.023269340344531889 0 0.035053070746081903 -0.023111121053662687 0 0.035494786655094916 -0.023269340344531889 0 0.035053070746081903 -0.023111121053662687 0 0.035327614689284165 -0.023067337920164646 0 0.035494786655094916 -0.023269340344531889 0 0.035327614689284165 -0.023067337920164646 0 0.035571653260215948 -0.023701222870808353 0 0.035053070746081903 -0.023111121053662687 0 0.034943699938737513 -0.023046943456797662 0 0.035327614689284165 -0.023067337920164646 0 0.0347968460394492 -0.023107649018932124 0 0.035053070746081903 -0.023111121053662687 0 0.034943699938737513 -0.023046943456797662 0 0.034750205801094516 -0.023093751401598993 0 0.034943699938737513 -0.023046943456797662 0 0.034897176468250767 -0.022867062492655809 0 0.038939902166501089 -0.025653413826015267 0 0.038195097376167809 -0.025987671613273276 0 0.037611865850953975 -0.02538931798574082 0 0.036283890893034167 -0.025287068494439811 0 0.036542847809305452 -0.024207238993006388 0 0.034943699938737513 -0.023046943456797662 0 0.034897176468250767 -0.022867062492655809 0 0.035327614689284165 -0.023067337920164646 0 0.037345477108955756 -0.028214998325288124 0 0.036283890893034167 -0.025287068494439811 0 0.038255043824873845 -0.026836034589985763 0 0.038939902166501089 -0.025653413826015267 0 0.038195097376167809 -0.025987671613273276 0 0.036426910150746228 -0.029148432927885111 0 0.036536057706714836 -0.029077474540525311 0 0.036503255228070498 -0.028953494101649456 0 0.036678816801132497 -0.026398209388171189 0 0.037577639212300819 -0.026486847652089519 0 0.037611865850953975 -0.02538931798574082 0 0.037577639212300819 -0.026486847652089519 0 0.038195097376167809 -0.025987671613273276 0 0.037611865850953975 -0.02538931798574082 0 0.036678816801132497 -0.026398209388171189 0 0.037611865850953975 -0.02538931798574082 0 0.036289687102581007 -0.025090739325219033 0 0.036678816801132497 -0.026398209388171189 0 0.03500047961307054 -0.02474166889649751 0 0.036289687102581007 -0.025090739325219033 0 0.035585503655075235 -0.023497142832465165 0 0.034999932384176195 -0.024740762154512028 0 0.035571653260215948 -0.023701222870808353 0 0.03500006373383379 -0.024743007827485685 0 0.035821032297781566 -0.024410070395192805 0 0.036542847809305452 -0.024207238993006388 0 0.035821032297781566 -0.024410070395192805 0 0.035585503655075235 -0.023497142832465165 0 0.035494786655094916 -0.023269340344531889 0 0.035571653260215948 -0.023701222870808353 0 0.035939664168054351 -0.010051689447094239 0 0.036256007161113116 -0.010992537438573849 0 0.035741941104108957 -0.011147969490762581 0 0.034999558518311318 -0.0097240844546825494 0 0.035741941104108957 -0.011147969490762581 0 0.035000265317749822 -0.011731993466763067 0 0.035939664168054351 -0.010051689447094239 0 0.034999558518311318 -0.0097240844546825494 0 0.035741941104108957 -0.011147969490762581 0 0.035939664168054351 -0.010051689447094239 0 0.034999558518311318 -0.0097240844546825494 0 0.03583224672194775 -0.0088850994340568829 0 0.035939664168054351 -0.010051689447094239 0 0.03583224672194775 -0.0088850994340568829 0 0.03714725237052581 -0.0092108061221473116 0 0.036451839215767445 -0.010324608790106249 0 0.036305097050927049 -0.010872636171902358 0 0.035939664168054351 -0.010051689447094239 0 0.03714725237052581 -0.0092108061221473116 0 0.036256007161113116 -0.010992537438573849 0 0.035804842643882506 -0.011462032525049251 0 0.035666244163996386 -0.011320619677670299 0 0.035471345088602321 -0.01144304617513941 0 0.035666244163996386 -0.011320619677670299 0 0.036256007161113116 -0.010992537438573849 0 0.035840766057221238 -0.011190937400047235 0 0.035666244163996386 -0.011320619677670299 0 0.035840766057221238 -0.011190937400047235 0 0.035497488067440026 -0.011339982945466887 0 0.035804842643882506 -0.011462032525049251 0 0.035666244163996386 -0.011320619677670299 0 0.036256007161113116 -0.010992537438573849 0 0.036256007161113116 -0.010992537438573849 0 0.036015506856091263 -0.011256195799402482 0 0.035840766057221238 -0.011190937400047235 0 0.036015506856091263 -0.011256195799402482 0 0.035840766057221238 -0.011190937400047235 0 0.035831692697297197 -0.011226410591617591 0 0.035840766057221238 -0.011190937400047235 0 0.035598560443915572 -0.011260192954095246 0 0.035497488067440026 -0.011339982945466887 0 0.035840766057221238 -0.011190937400047235 0 0.035831692697297197 -0.011226410591617591 0 0.035598560443915572 -0.011260192954095246 0 0.035831692697297197 -0.011226410591617591 0 0.035912676265017533 -0.011247011060795821 0 0.035808699229665099 -0.011174594812056573 0 0.035831692697297197 -0.011226410591617591 0 0.035639654017064135 -0.011173279048261162 0 0.035598560443915572 -0.011260192954095246 0 0.035831692697297197 -0.011226410591617591 0 0.035808699229665099 -0.011174594812056573 0 0.035639654017064135 -0.011173279048261162 0 0.036015506856091263 -0.011256195799402482 0 0.035891158802217299 -0.011489933265062027 0 0.035912676265017533 -0.011247011060795821 0 0.036015506856091263 -0.011256195799402482 0 0.035831692697297197 -0.011226410591617591 0 0.035912676265017533 -0.011247011060795821 0 0.036015506856091263 -0.011256195799402482 0 0.035891158802217299 -0.011489933265062027 0 0.035741941104108957 -0.011147969490762581 0 0.036256007161113116 -0.010992537438573849 0 0.036015506856091263 -0.011256195799402482 0 0.035741941104108957 -0.011147969490762581 0 0.035741941104108957 -0.011147969490762581 0 0.035000265317749822 -0.011731993466763067 0 0.035074074586620874 -0.011724577737903088 0 0.035891158802217299 -0.011489933265062027 0 0.035741941104108957 -0.011147969490762581 0 0.035074074586620874 -0.011724577737903088 0 0.034993103550025266 -0.011730678756728008 0 0.034630194215975518 -0.011747584293835234 0 0.034920485666557567 -0.011902021895912393 0 0.034999898463482636 -0.013691256706947215 0 0.035749626136323744 -0.0133727987624662 0 0.034630194215975518 -0.011747584293835234 0 0.035651057065851512 -0.013244494159923584 0 0.036224151900914797 -0.011961581152163338 0 0.034630194215975518 -0.011747584293835234 0 0.036430681396353588 -0.012615741071272835 0 0.034771715749240019 -0.011520093803460914 0 0.035524059261538177 -0.013105535067188414 0 0.034999898463482636 -0.013691256706947215 0 0.035749626136323744 -0.0133727987624662 0 0.036423028080767271 -0.014844430914147924 0 0.035524059261538177 -0.013105535067188414 0 0.036455758798904087 -0.013629544723308401 0 0.036283125935890344 -0.014703867691346312 0 0.036430681396353588 -0.012615741071272835 0 0.036455758798904087 -0.013629544723308401 0 0.038094719252394695 -0.01371746675205047 0 0.036455758798904087 -0.013629544723308401 0 0.036283125935890344 -0.014703867691346312 0 0.038094719252394695 -0.01371746675205047 0 0.035651057065851512 -0.013244494159923584 0 0.036359955886862062 -0.01479177901231817 0 0.036430681396353588 -0.012615741071272835 0 0.035524059261538177 -0.013105535067188414 0 0.036455758798904087 -0.013629544723308401 0 0.034999898463482636 -0.013691256706947215 0 0.036423028080767271 -0.014844430914147924 0 0.034999985270819413 -0.015533249820266127 0 0.036423028080767271 -0.014844430914147924 0 0.034999985270819413 -0.015533249820266127 0 0.036021422395655533 -0.016495176390876585 0 0.036423028080767271 -0.014844430914147924 0 0.037064679528627596 -0.016303388369560003 0 0.036021422395655533 -0.016495176390876585 0 0.036359955886862062 -0.01479177901231817 0 0.037014484690213352 -0.016191221412359416 0 0.036747766296856728 -0.018039713309028056 0 0.036621317893668667 -0.017187537720669076 0 0.037785180392783141 -0.016586394261009347 0 0.037064679528627596 -0.016303388369560003 0 0.036621317893668667 -0.017187537720669076 0 0.036021422395655533 -0.016495176390876585 0 0.036036521147447965 -0.01755764791313176 0 0.036621317893668667 -0.017187537720669076 0 0.036021422395655533 -0.016495176390876585 0 0.036036521147447965 -0.01755764791313176 0 0.034999901370051843 -0.017375294861062582 0 0.036021422395655533 -0.016495176390876585 0 0.034999985270819413 -0.015533249820266127 0 0.034999901370051843 -0.017375294861062582 0 0.036021422395655533 -0.016495176390876585 0 0.037840648211873905 -0.018933328578095307 0 0.037417759276437992 -0.018688720588782588 0 0.037922849213267593 -0.018460047656092125 0 0.037840648211873905 -0.018933328578095307 0 0.037922849213267593 -0.018460047656092125 0 0.038148188767910846 -0.018861293918552402 0 0.038108087732094495 -0.019242728015670552 0 0.037840648211873905 -0.018933328578095307 0 0.038148188767910846 -0.018861293918552402 0 0.037542896365791917 -0.019312174088224176 0 0.037840648211873905 -0.018933328578095307 0 0.037417759276437992 -0.018688720588782588 0 0.037064679528627596 -0.016303388369560003 0 0.036621317893668667 -0.017187537720669076 0 0.037758666129632863 -0.016627085339138436 0 0.036998969403568151 -0.016997540528956325 0 0.037003643425429868 -0.016931107955247059 0 0.037064679528627596 -0.016303388369560003 0 0.037758666129632863 -0.016627085339138436 0 0.037932873421561597 -0.015183875348413704 0 0.036283125935890344 -0.014703867691346312 0 0.037064679528627596 -0.016303388369560003 0 0.037932873421561597 -0.015183875348413704 0 0.037003643425429868 -0.016931107955247059 0 0.036974356731128991 -0.014926639507199618 0 0.035870770447604845 -0.015760652026301121 0 0.036812400638333222 -0.015269592762321692 0 0.035985917738398515 -0.014718478006910543 0 0.037003643425429868 -0.016931107955247059 0 0.037354672026183235 -0.016973387777840278 0 0.036812400638333222 -0.015269592762321692 0 0.036929363982339196 -0.014233276207206515 0 0.035985917738398515 -0.014718478006910543 0 0.036929363982339196 -0.014233276207206515 0 0.035985917738398515 -0.014718478006910543 0 0.036105638043740708 -0.013677878006483271 0 0.035991756620178714 -0.012306275687447486 0 0.036521205822000094 -0.013056100198659376 0 0.036974356731128991 -0.014926639507199618 0 0.036521205822000094 -0.013056100198659376 0 0.036283125935890344 -0.014703867691346312 0 0.037932873421561597 -0.015183875348413704 0 0.038094719252394695 -0.01371746675205047 0 0.035891158802217299 -0.011489933265062027 0 0.035910513952826642 -0.011088493306181727 0 0.035912676265017533 -0.011247011060795821 0 0.036224151900914797 -0.011961581152163338 0 0.036521205822000094 -0.013056100198659376 0 0.035910513952826642 -0.011088493306181727 0 0.035912676265017533 -0.011247011060795821 0 0.035808699229665099 -0.011174594812056573 0 0.035670896278224173 -0.01086164434064792 0 0.035910513952826642 -0.011088493306181727 0 0.03573990711696412 -0.011040446617769406 0 0.035910513952826642 -0.011088493306181727 0 0.03573990711696412 -0.011040446617769406 0 0.035808699229665099 -0.011174594812056573 0 0.03573990711696412 -0.011040446617769406 0 0.035808699229665099 -0.011174594812056573 0 0.035639654017064135 -0.011173279048261162 0 0.03573990711696412 -0.011040446617769406 0 0.035433561195986077 -0.0109879741204732 0 0.035639654017064135 -0.011173279048261162 0 0.035433561195986077 -0.0109879741204732 0 0.035343867741746221 -0.011260845025539997 0 0.035639654017064135 -0.011173279048261162 0 0.035670896278224173 -0.01086164434064792 0 0.03573990711696412 -0.011040446617769406 0 0.035433561195986077 -0.0109879741204732 0 0.035433561195986077 -0.0109879741204732 0 0.035028268233848539 -0.011077040113302922 0 0.035343867741746221 -0.011260845025539997 0 0.034972055619597861 -0.012854894708850831 0 0.03472776634572361 -0.011653882149568114 0 0.035433561195986077 -0.0109879741204732 0 0.035100115922214382 -0.010804912738979213 0 0.035028268233848539 -0.011077040113302922 0 0.035433561195986077 -0.0109879741204732 0 0.035100115922214382 -0.010804912738979213 0 0.035407575185084132 -0.010681733614131737 0 0.034972055619597861 -0.012854894708850831 0 0.036978479955892249 -0.014665941038838433 0 0.035670896278224173 -0.01086164434064792 0 0.035433561195986077 -0.0109879741204732 0 0.035407575185084132 -0.010681733614131737 0 0.035991756620178714 -0.012306275687447486 0 0.036978479955892249 -0.014665941038838433 0 0.037922849213267593 -0.018460047656092125 0 0.03828170183108575 -0.018551183145498137 0 0.038372796920055283 -0.018215695960739936 0 0.037354672026183235 -0.016973387777840278 0 0.036978479955892249 -0.014665941038838433 0 0.036812400638333222 -0.015269592762321692 0 0.036929363982339196 -0.014233276207206515 0 0.037746964270639505 -0.014784522221821224 0 0.037922849213267593 -0.018460047656092125 0 0.03828170183108575 -0.018551183145498137 0 0.038148188767910846 -0.018861293918552402 0 0.033556666187130262 -0.013482237312964196 0 0.033457750370151113 -0.014549896017581259 0 0.034015989005256896 -0.013963482551391125 0 0.036978479955892249 -0.014665941038838433 0 0.035942986365739782 -0.016417190135375861 0 0.03614360101359277 -0.014355159083582144 0 0.035653589120519726 -0.014612956718697797 0 0.036077827164296007 -0.014902229335772128 0 0.03828170183108575 -0.018551183145498137 0 0.038372796920055283 -0.018215695960739936 0 0.038732061490106745 -0.018462696882254815 0 0.034972055619597861 -0.012854894708850831 0 0.035942986365739782 -0.016417190135375861 0 0.035508060509116528 -0.017536126331761791 0 0.035402161523200554 -0.017530657704258139 0 0.035462135872261498 -0.017051776662234515 0 0.036848837468562157 -0.019072886870157454 0 0.035942986365739782 -0.016417190135375861 0 0.03828170183108575 -0.018551183145498137 0 0.038732061490106745 -0.018462696882254815 0 0.038418966557456101 -0.018863067312287492 0 0.038635008694368887 -0.019260200745912288 0 0.038732061490106745 -0.018462696882254815 0 0.038418966557456101 -0.018863067312287492 0 0.038332689648870245 -0.019072789968166675 0 0.038418966557456101 -0.018863067312287492 0 0.038148188767910846 -0.018861293918552402 0 0.038108087732094495 -0.019242728015670552 0 0.038332689648870245 -0.019072789968166675 0 0.038148188767910846 -0.018861293918552402 0 0.03828170183108575 -0.018551183145498137 0 0.038418966557456101 -0.018863067312287492 0 0.038148188767910846 -0.018861293918552402 0 0.034817240931755519 -0.01507261750703494 0 0.034669995317318431 -0.01542507958012348 0 0.034556932762739322 -0.014705034224313475 0 0.034817240931755519 -0.01507261750703494 0 0.035107731951569729 -0.015100894471574014 0 0.034732774325357076 -0.015367228864412502 0 0.034817240931755519 -0.01507261750703494 0 0.034732774325357076 -0.015367228864412502 0 0.034669995317318431 -0.01542507958012348 0 0.035107731951569729 -0.015100894471574014 0 0.034732774325357076 -0.015367228864412502 0 0.035340081153178542 -0.01552513461044446 0 0.034817240931755519 -0.01507261750703494 0 0.035107731951569729 -0.015100894471574014 0 0.034978936351758527 -0.014742881616208101 0 0.035241304134398348 -0.016013279154701396 0 0.034732774325357076 -0.015367228864412502 0 0.035340081153178542 -0.01552513461044446 0 0.035241304134398348 -0.016013279154701396 0 0.034732774325357076 -0.015367228864412502 0 0.034663274272572195 -0.015417828968418399 0 0.035285822217009336 -0.01646140989657513 0 0.034917438622145705 -0.016238438198189042 0 0.034934205350719609 -0.016194223124736125 0 0.034917438622145705 -0.016238438198189042 0 0.033457750370151113 -0.014549896017581259 0 0.034669995317318431 -0.01542507958012348 0 0.034556932762739322 -0.014705034224313475 0 0.035942986365739782 -0.016417190135375861 0 0.034917438622145705 -0.016238438198189042 0 0.035508060509116528 -0.017536126331761791 0 0.035462135872261498 -0.017051776662234515 0 0.035815895248492581 -0.017290689145459559 0 0.033457750370151113 -0.014549896017581259 0 0.034398689238202967 -0.014226996643449811 0 0.034556932762739322 -0.014705034224313475 0 0.033457750370151113 -0.014549896017581259 0 0.034015989005256896 -0.013963482551391125 0 0.034398689238202967 -0.014226996643449811 0 0.034015989005256896 -0.013963482551391125 0 0.034398689238202967 -0.014226996643449811 0 0.034598102227899497 -0.013650660836164053 0 0.034398689238202967 -0.014226996643449811 0 0.034968581693955503 -0.014186586352953804 0 0.034556932762739322 -0.014705034224313475 0 0.034398689238202967 -0.014226996643449811 0 0.034968581693955503 -0.014186586352953804 0 0.034598102227899497 -0.013650660836164053 0 0.034817240931755519 -0.01507261750703494 0 0.034556932762739322 -0.014705034224313475 0 0.034978936351758527 -0.014742881616208101 0 0.034968581693955503 -0.014186586352953804 0 0.034556932762739322 -0.014705034224313475 0 0.034978936351758527 -0.014742881616208101 0 0.034968581693955503 -0.014186586352953804 0 0.034978936351758527 -0.014742881616208101 0 0.035346661673357066 -0.014635727922109352 0 0.035107731951569729 -0.015100894471574014 0 0.034978936351758527 -0.014742881616208101 0 0.035346661673357066 -0.014635727922109352 0 0.034968581693955503 -0.014186586352953804 0 0.035490927309762943 -0.014057573690690056 0 0.035346661673357066 -0.014635727922109352 0 0.034968581693955503 -0.014186586352953804 0 0.035136731596284131 -0.013439038079485318 0 0.035490927309762943 -0.014057573690690056 0 0.035136731596284131 -0.013439038079485318 0 0.035577395655738073 -0.013471784052697416 0 0.035490927309762943 -0.014057573690690056 0 0.034968581693955503 -0.014186586352953804 0 0.035136731596284131 -0.013439038079485318 0 0.034598102227899497 -0.013650660836164053 0 0.035136731596284131 -0.013439038079485318 0 0.034598102227899497 -0.013650660836164053 0 0.034685045728911137 -0.012924688840011028 0 0.035136731596284131 -0.013439038079485318 0 0.034685045728911137 -0.012924688840011028 0 0.035136454007597129 -0.012853442821410229 0 0.035136731596284131 -0.013439038079485318 0 0.03557724967290575 -0.012826075013106578 0 0.035577395655738073 -0.013471784052697416 0 0.035136731596284131 -0.013439038079485318 0 0.035136454007597129 -0.012853442821410229 0 0.03557724967290575 -0.012826075013106578 0 0.034209974658411121 -0.013111556669269418 0 0.034685045728911137 -0.012924688840011028 0 0.034317862811266697 -0.012482051573074054 0 0.033556666187130262 -0.013482237312964196 0 0.034015989005256896 -0.013963482551391125 0 0.034598102227899497 -0.013650660836164053 0 0.033556666187130262 -0.013482237312964196 0 0.034598102227899497 -0.013650660836164053 0 0.034685045728911137 -0.012924688840011028 0 0.034972055619597861 -0.012854894708850831 0 0.034249430361194669 -0.013134262440828669 0 0.034685045728911137 -0.012924688840011028 0 0.034317862811266697 -0.012482051573074054 0 0.03483218430991511 -0.01208927209909859 0 0.034685045728911137 -0.012924688840011028 0 0.03483218430991511 -0.01208927209909859 0 0.035147803269680596 -0.012262285093321926 0 0.035147803269680596 -0.012262285093321926 0 0.035751813473008591 -0.012302526946709229 0 0.03557724967290575 -0.012826075013106578 0 0.035136454007597129 -0.012853442821410229 0 0.035147803269680596 -0.012262285093321926 0 0.03557724967290575 -0.012826075013106578 0 0.034685045728911137 -0.012924688840011028 0 0.035136454007597129 -0.012853442821410229 0 0.035147803269680596 -0.012262285093321926 0 0.035147803269680596 -0.012262285093321926 0 0.03558018375666467 -0.011703081776205744 0 0.035751813473008591 -0.012302526946709229 0 0.035147803269680596 -0.012262285093321926 0 0.035088691181047245 -0.011684753388230265 0 0.03558018375666467 -0.011703081776205744 0 0.035139683445706962 -0.011404086175278468 0 0.035113585851505889 -0.01140431639386218 0 0.035105109088825248 -0.011404221864576406 0 0.035088691181047245 -0.011684753388230265 0 0.035139683445706962 -0.011404086175278468 0 0.03558018375666467 -0.011703081776205744 0 0.035157881323254536 -0.011419707643742678 0 0.03536763459523979 -0.011525113309870992 0 0.035139683445706962 -0.011404086175278468 0 0.035105109088825248 -0.011404221864576406 0 0.035103315190453954 -0.011399157997241911 0 0.035139683445706962 -0.011404086175278468 0 0.035067052753298071 -0.011433081882493489 0 0.035174990700880635 -0.011401677140974191 0 0.035088691181047245 -0.011684753388230265 0 0.035139683445706962 -0.011404086175278468 0 0.035067052753298071 -0.011433081882493489 0 0.034317862811266697 -0.012482051573074054 0 0.03483218430991511 -0.01208927209909859 0 0.034886012159130779 -0.011545473576603177 0 0.03472776634572361 -0.011653882149568114 0 0.034807692542203582 -0.011661633909672342 0 0.035088691181047245 -0.011684753388230265 0 0.035067052753298071 -0.011433081882493489 0 0.034886012159130779 -0.011545473576603177 0 0.03483218430991511 -0.01208927209909859 0 0.035147803269680596 -0.012262285093321926 0 0.035088691181047245 -0.011684753388230265 0 0.03483218430991511 -0.01208927209909859 0 0.035088691181047245 -0.011684753388230265 0 0.034886012159130779 -0.011545473576603177 0 0.034886012159130779 -0.011545473576603177 0 0.035343867741746221 -0.011260845025539997 0 0.035268703723627455 -0.011399189506253586 0 0.035028268233848539 -0.011077040113302922 0 0.034886012159130779 -0.011545473576603177 0 0.035343867741746221 -0.011260845025539997 0 0.035343867741746221 -0.011260845025539997 0 0.035639654017064135 -0.011173279048261162 0 0.035598560443915572 -0.011260192954095246 0 0.035343867741746221 -0.011260845025539997 0 0.035598560443915572 -0.011260192954095246 0 0.035268703723627455 -0.011399189506253586 0 0.035598560443915572 -0.011260192954095246 0 0.035497488067440026 -0.011339982945466887 0 0.035268703723627455 -0.011399189506253586 0 0.035497488067440026 -0.011339982945466887 0 0.035268703723627455 -0.011399189506253586 0 0.035262419718770373 -0.011405302837005768 0 0.035067052753298071 -0.011433081882493489 0 0.034886012159130779 -0.011545473576603177 0 0.035268703723627455 -0.011399189506253586 0 0.035067052753298071 -0.011433081882493489 0 0.035268703723627455 -0.011399189506253586 0 0.035262419718770373 -0.011405302837005768 0 0.035262419718770373 -0.011405302837005768 0 0.035394431037279191 -0.011402489141210311 0 0.035275940347221368 -0.011419621322930501 0 0.035262419718770373 -0.011405302837005768 0 0.035275940347221368 -0.011419621322930501 0 0.035174990700880635 -0.011401677140974191 0 0.035666244163996386 -0.011320619677670299 0 0.035497488067440026 -0.011339982945466887 0 0.035394431037279191 -0.011402489141210311 0 0.035497488067440026 -0.011339982945466887 0 0.035262419718770373 -0.011405302837005768 0 0.035394431037279191 -0.011402489141210311 0 0.035666244163996386 -0.011320619677670299 0 0.035394431037279191 -0.011402489141210311 0 0.035471345088602321 -0.01144304617513941 0 0.035394431037279191 -0.011402489141210311 0 0.035471345088602321 -0.01144304617513941 0 0.03535388111810963 -0.011438307399035487 0 0.03535388111810963 -0.011438307399035487 0 0.035275940347221368 -0.011419621322930501 0 0.035288358355432578 -0.011438452756816877 0 0.035394431037279191 -0.011402489141210311 0 0.03535388111810963 -0.011438307399035487 0 0.035275940347221368 -0.011419621322930501 0 0.035275940347221368 -0.011419621322930501 0 0.035210648668196586 -0.011424218811897698 0 0.035174990700880635 -0.011401677140974191 0 0.035275940347221368 -0.011419621322930501 0 0.035210648668196586 -0.011424218811897698 0 0.035288358355432578 -0.011438452756816877 0 0.035210648668196586 -0.011424218811897698 0 0.03522772729573545 -0.01144113168052479 0 0.035288358355432578 -0.011438452756816877 0 0.035210648668196586 -0.011424218811897698 0 0.03517472761380367 -0.011451699343975842 0 0.03522772729573545 -0.01144113168052479 0 0.035210648668196586 -0.011424218811897698 0 0.035149194426451244 -0.011407514703639461 0 0.03517472761380367 -0.011451699343975842 0 0.035149194426451244 -0.011407514703639461 0 0.035087201910212119 -0.011421703441469871 0 0.03517472761380367 -0.011451699343975842 0 0.035087201910212119 -0.011421703441469871 0 0.035118099196896103 -0.011464232066768835 0 0.03517472761380367 -0.011451699343975842 0 0.035113585851505889 -0.01140431639386218 0 0.035149194426451244 -0.011407514703639461 0 0.035087201910212119 -0.011421703441469871 0 0.035139683445706962 -0.011404086175278468 0 0.035113585851505889 -0.01140431639386218 0 0.035149194426451244 -0.011407514703639461 0 0.035210648668196586 -0.011424218811897698 0 0.035149194426451244 -0.011407514703639461 0 0.035174990700880635 -0.011401677140974191 0 0.035139683445706962 -0.011404086175278468 0 0.035149194426451244 -0.011407514703639461 0 0.035174990700880635 -0.011401677140974191 0 0.035067052753298071 -0.011433081882493489 0 0.035262419718770373 -0.011405302837005768 0 0.035174990700880635 -0.011401677140974191 0 0.02698565524274165 -0.013002966764323288 0 0.028472105296545494 -0.014644193538299865 0 0.034903388352653858 -0.011408658012473115 0 0.034783262994110026 -0.011395679545589182 0 0.034824127097179372 -0.011306646756827942 0 0.034766621620653117 -0.011406138296501151 0 0.034783262994110026 -0.011395679545589182 0 0.03474717317368646 -0.011318347562446511 0 0.034903388352653858 -0.011408658012473115 0 0.034756944347828049 -0.011415252577545077 0 0.034783262994110026 -0.011395679545589182 0 0.02698565524274165 -0.013002966764323288 0 0.028768319477387151 -0.011892805050140662 0 0.035113585851505889 -0.01140431639386218 0 0.035087201910212119 -0.011421703441469871 0 0.035095495870449876 -0.011404740585190528 0 0.034915278729714831 -0.011478317580846527 0 0.035530977599960205 -0.011161152466897454 0 0.034903388352653858 -0.011408658012473115 0 0.035087201910212119 -0.011421703441469871 0 0.034824127097179372 -0.011306646756827942 0 0.034903388352653858 -0.011408658012473115 0 0.035087201910212119 -0.011421703441469871 0 0.035002365851302432 -0.011488851724671737 0 0.035087201910212119 -0.011421703441469871 0 0.035002365851302432 -0.011488851724671737 0 0.035118099196896103 -0.011464232066768835 0 0.034903388352653858 -0.011408658012473115 0 0.034756944347828049 -0.011415252577545077 0 0.035002365851302432 -0.011488851724671737 0 0.02698565524274165 -0.013002966764323288 0 0.026552457919395169 -0.005574735859811354 0 0.032053480222752603 -0.0077439779881476861 0 0.033259616004377435 -0.0089645766283734073 0 0.032081184435977399 -0.0091129431041747453 0 0.02698565524274165 -0.013002966764323288 0 0.034831068068551477 -0.010070603282644567 0 0.014821222643553596 -0.012805990949962189 0 0.015662202793818285 -0.013634731610853074 0 0.012456557503188765 -0.016442574277223725 0 0.021282795026476453 -0.0097604887553283497 0 0.023164918586635237 -0.0080365301540198889 0 0.021299495637181264 -0.0061476730960293409 0 0.015948987528097626 -0.010125262986029398 0 0.026552457919395169 -0.005574735859811354 0 0.015948987528097626 -0.010125262986029398 0 0.0092535328266192002 -0.011261502269386979 0 0.018577625070112035 -0.014647460163781522 0 0.015948987528097626 -0.010125262986029398 0 0.018577625070112035 -0.014647460163781522 0 0.020222039670336037 -0.016339708639696277 0 0.021081784073288177 -0.017336194111249679 0 0.021111733806199757 -0.017314885897955868 0 0.021035276583811865 -0.017337132530614446 0 0.021081784073288177 -0.017336194111249679 0 0.021109000935825021 -0.017342880761700659 0 0.021111733806199757 -0.017314885897955868 0 0.02120302457847693 -0.017292611075492768 0 0.021109000935825021 -0.017342880761700659 0 0.021111733806199757 -0.017314885897955868 0 0.02698565524274165 -0.013002966764323288 0 0.015948987528097626 -0.010125262986029398 0 0.018577625070112035 -0.014647460163781522 0 0.013768353466476316 -0.017494629685439314 0 0.014821222643553596 -0.012805990949962189 0 0.0098031195547242118 -0.012028646712319409 0 0.012456557503188765 -0.016442574277223725 0 0.02108893735765463 -0.017382918411217134 0 0.021035276583811865 -0.017337132530614446 0 0.020704075161139562 -0.017372223214596645 0 0.02094432165686232 -0.017212033958804801 0 0.021035276583811865 -0.017337132530614446 0 0.020704075161139562 -0.017372223214596645 0 0.02094432165686232 -0.017212033958804801 0 0.020855796485452674 -0.017160691361060649 0 0.020704075161139562 -0.017372223214596645 0 0.02094432165686232 -0.017212033958804801 0 0.021035276583811865 -0.017337132530614446 0 0.021082303255733976 -0.017261931462968384 0 0.021059261539363387 -0.017195012937893057 0 0.02094432165686232 -0.017212033958804801 0 0.021082303255733976 -0.017261931462968384 0 0.02120302457847693 -0.017292611075492768 0 0.021140817631048903 -0.017221293391969962 0 0.021172559291091162 -0.017090832949138206 0 0.02698565524274165 -0.013002966764323288 0 0.019890800822434475 -0.018411573910955017 0 0.02120302457847693 -0.017292611075492768 0 0.021148996773800041 -0.017272501649952886 0 0.021111733806199757 -0.017314885897955868 0 0.02120302457847693 -0.017292611075492768 0 0.021148996773800041 -0.017272501649952886 0 0.021140817631048903 -0.017221293391969962 0 0.021111733806199757 -0.017314885897955868 0 0.021035276583811865 -0.017337132530614446 0 0.021082303255733976 -0.017261931462968384 0 0.021148996773800041 -0.017272501649952886 0 0.021111733806199757 -0.017314885897955868 0 0.021082303255733976 -0.017261931462968384 0 0.021148996773800041 -0.017272501649952886 0 0.021082303255733976 -0.017261931462968384 0 0.021140817631048903 -0.017221293391969962 0 0.021059261539363387 -0.017195012937893057 0 0.021082303255733976 -0.017261931462968384 0 0.021140817631048903 -0.017221293391969962 0 0.021172559291091162 -0.017090832949138206 0 0.021696805651268587 -0.016652422725321834 0 0.022312603561828615 -0.016980078568118041 0 0.022339499642171912 -0.01831937811746491 0 0.021172559291091162 -0.017090832949138206 0 0.022312603561828615 -0.016980078568118041 0 0.021059261539363387 -0.017195012937893057 0 0.021140817631048903 -0.017221293391969962 0 0.021172559291091162 -0.017090832949138206 0 0.021172559291091162 -0.017090832949138206 0 0.021696805651268587 -0.016652422725321834 0 0.021204699228417376 -0.016699814885670124 0 0.019817874631022039 -0.016588679558963263 0 0.020498720144888325 -0.017033360692804367 0 0.02094432165686232 -0.017212033958804801 0 0.020855796485452674 -0.017160691361060649 0 0.020989426677521673 -0.017152815242254638 0 0.021059261539363387 -0.017195012937893057 0 0.021172559291091162 -0.017090832949138206 0 0.020989426677521673 -0.017152815242254638 0 0.020855796485452674 -0.017160691361060649 0 0.020989426677521673 -0.017152815242254638 0 0.020841774281698918 -0.016975828550102903 0 0.021059261539363387 -0.017195012937893057 0 0.02094432165686232 -0.017212033958804801 0 0.020989426677521673 -0.017152815242254638 0 0.021172559291091162 -0.017090832949138206 0 0.020989426677521673 -0.017152815242254638 0 0.020841774281698918 -0.016975828550102903 0 0.021172559291091162 -0.017090832949138206 0 0.020841774281698918 -0.016975828550102903 0 0.021204699228417376 -0.016699814885670124 0 0.020305595132262998 -0.017898119722866476 0 0.020841774281698918 -0.016975828550102903 0 0.020203573608446258 -0.017164171478355736 0 0.020841774281698918 -0.016975828550102903 0 0.020203573608446258 -0.017164171478355736 0 0.02041595411746016 -0.016650978526768136 0 0.02041595411746016 -0.016650978526768136 0 0.020720877827021093 -0.01621052750920686 0 0.019873557427861205 -0.016174468761945521 0 0.020841774281698918 -0.016975828550102903 0 0.02041595411746016 -0.016650978526768136 0 0.020720877827021093 -0.01621052750920686 0 0.020841774281698918 -0.016975828550102903 0 0.020720877827021093 -0.01621052750920686 0 0.021204699228417376 -0.016699814885670124 0 0.020720877827021093 -0.01621052750920686 0 0.021204699228417376 -0.016699814885670124 0 0.02144770481059163 -0.01625988117284009 0 0.021124977459870863 -0.015938689423431199 0 0.020720877827021093 -0.01621052750920686 0 0.02144770481059163 -0.01625988117284009 0 0.021124977459870863 -0.015938689423431199 0 0.020720877827021093 -0.01621052750920686 0 0.02095620805316464 -0.015501725524770299 0 0.020720877827021093 -0.01621052750920686 0 0.020350245438476258 -0.015656817718534704 0 0.019873557427861205 -0.016174468761945521 0 0.021878375232293589 -0.016250710265820062 0 0.021696805651268587 -0.016652422725321834 0 0.022312603561828615 -0.016980078568118041 0 0.021878375232293589 -0.016250710265820062 0 0.021696805651268587 -0.016652422725321834 0 0.02144770481059163 -0.01625988117284009 0 0.021696805651268587 -0.016652422725321834 0 0.021204699228417376 -0.016699814885670124 0 0.02144770481059163 -0.01625988117284009 0 0.021124977459870863 -0.015938689423431199 0 0.02144770481059163 -0.01625988117284009 0 0.021569312594983771 -0.015663878966554773 0 0.021878375232293589 -0.016250710265820062 0 0.02144770481059163 -0.01625988117284009 0 0.021569312594983771 -0.015663878966554773 0 0.021878375232293589 -0.016250710265820062 0 0.022369357040355125 -0.015690391383122629 0 0.021569312594983771 -0.015663878966554773 0 0.035095495870449876 -0.011404740585190528 0 0.035086173582836208 -0.011407951759294561 0 0.035054801356259456 -0.011420718884652188 0 0.03474717317368646 -0.011318347562446511 0 0.034824127097179372 -0.011306646756827942 0 0.034675625706190732 -0.011310787985685473 0 0.035530977599960205 -0.011161152466897454 0 0.031028002421575791 -0.012916010292364877 0 0.021878375232293589 -0.016250710265820062 0 0.022312603561828615 -0.016980078568118041 0 0.022369357040355125 -0.015690391383122629 0 0.028472105296545494 -0.014644193538299865 0 0.031028002421575791 -0.012916010292364877 0 0.035086173582836208 -0.011407951759294561 0 0.035054801356259456 -0.011420718884652188 0 0.035069432018411235 -0.011414580726183204 0 0.034783262994110026 -0.011395679545589182 0 0.03474717317368646 -0.011318347562446511 0 0.034824127097179372 -0.011306646756827942 0 0.035113585851505889 -0.01140431639386218 0 0.035095495870449876 -0.011404740585190528 0 0.035105109088825248 -0.011404221864576406 0 0.035095495870449876 -0.011404740585190528 0 0.035105109088825248 -0.011404221864576406 0 0.035086173582836208 -0.011407951759294561 0 0.035105109088825248 -0.011404221864576406 0 0.035103315190453954 -0.011399157997241911 0 0.035086173582836208 -0.011407951759294561 0 0.035103315190453954 -0.011399157997241911 0 0.035086173582836208 -0.011407951759294561 0 0.035069432018411235 -0.011414580726183204 0 0.03536763459523979 -0.011525113309870992 0 0.035268052401415034 -0.01242510030972791 0 0.03558018375666467 -0.011703081776205744 0 0.035751813473008591 -0.012302526946709229 0 0.036317265234005025 -0.012332425050584978 0 0.035751813473008591 -0.012302526946709229 0 0.035926071851652898 -0.012583017913410396 0 0.03557724967290575 -0.012826075013106578 0 0.035751813473008591 -0.012302526946709229 0 0.035926071851652898 -0.012583017913410396 0 0.036317265234005025 -0.012332425050584978 0 0.035926071851652898 -0.012583017913410396 0 0.036074948750022477 -0.012857450699051077 0 0.036317265234005025 -0.012332425050584978 0 0.035926071851652898 -0.012583017913410396 0 0.036074948750022477 -0.012857450699051077 0 0.03557724967290575 -0.012826075013106578 0 0.036074948750022477 -0.012857450699051077 0 0.03557724967290575 -0.012826075013106578 0 0.035823685401459804 -0.01314131736314818 0 0.034706086545274129 -0.012885253535017021 0 0.034413353097676937 -0.012596413335348281 0 0.034413806902639607 -0.012664123457816456 0 0.031028002421575791 -0.012916010292364877 0 0.033002791639927649 -0.013144634446869646 0 0.035054801356259456 -0.011420718884652188 0 0.035069432018411235 -0.011414580726183204 0 0.035047830452685141 -0.011424742392762338 0 0.035268052401415034 -0.01242510030972791 0 0.034395508172817772 -0.013320632927525396 0 0.035268052401415034 -0.01242510030972791 0 0.033002791639927649 -0.013144634446869646 0 0.036074948750022477 -0.012857450699051077 0 0.03679533653340724 -0.012892850388228823 0 0.036396550318794435 -0.013290455537913666 0 0.036074948750022477 -0.012857450699051077 0 0.036317265234005025 -0.012332425050584978 0 0.03679533653340724 -0.012892850388228823 0 0.029708242522915658 -0.013903723389813837 0 0.029702352235736047 -0.013374530953647894 0 0.029259069074423154 -0.013027070365801358 0 0.031028002421575791 -0.012916010292364877 0 0.026425435679998267 -0.013662634415310036 0 0.030671364325459142 -0.0142473101293618 0 0.030672475928607088 -0.014455361250242823 0 0.030085402902678585 -0.014000510615280641 0 0.033002791639927649 -0.013144634446869646 0 0.026425435679998267 -0.013662634415310036 0 0.034395508172817772 -0.013320632927525396 0 0.033002791639927649 -0.013144634446869646 0 0.036720175129589173 -0.013003913597856432 0 0.036740623935647171 -0.013640280166865396 0 0.037233731833134297 -0.013542439655247858 0 0.034395508172817772 -0.013320632927525396 0 0.036262445799824135 -0.013410290582614504 0 0.03679533653340724 -0.012892850388228823 0 0.036396550318794435 -0.013290455537913666 0 0.036740623935647171 -0.013640280166865396 0 0.036396550318794435 -0.013290455537913666 0 0.036440374985713453 -0.013878603160219643 0 0.03603721291813218 -0.013470235606698761 0 0.036396550318794435 -0.013290455537913666 0 0.036440374985713453 -0.013878603160219643 0 0.036740623935647171 -0.013640280166865396 0 0.036440374985713453 -0.013878603160219643 0 0.036740623935647171 -0.013640280166865396 0 0.037039304659421977 -0.013956460224571445 0 0.035577395655738073 -0.013471784052697416 0 0.035823685401459804 -0.01314131736314818 0 0.03603721291813218 -0.013470235606698761 0 0.03557724967290575 -0.012826075013106578 0 0.035577395655738073 -0.013471784052697416 0 0.035823685401459804 -0.01314131736314818 0 0.036074948750022477 -0.012857450699051077 0 0.035823685401459804 -0.01314131736314818 0 0.03603721291813218 -0.013470235606698761 0 0.036074948750022477 -0.012857450699051077 0 0.036396550318794435 -0.013290455537913666 0 0.03603721291813218 -0.013470235606698761 0 0.035577395655738073 -0.013471784052697416 0 0.03603721291813218 -0.013470235606698761 0 0.035909066023247102 -0.013969468465469101 0 0.036440374985713453 -0.013878603160219643 0 0.03603721291813218 -0.013470235606698761 0 0.035909066023247102 -0.013969468465469101 0 0.035577395655738073 -0.013471784052697416 0 0.035909066023247102 -0.013969468465469101 0 0.035490927309762943 -0.014057573690690056 0 0.035490927309762943 -0.014057573690690056 0 0.035346661673357066 -0.014635727922109352 0 0.035723097253199866 -0.014515176327951866 0 0.035909066023247102 -0.013969468465469101 0 0.035490927309762943 -0.014057573690690056 0 0.035723097253199866 -0.014515176327951866 0 0.035346661673357066 -0.014635727922109352 0 0.035723097253199866 -0.014515176327951866 0 0.035507709665717591 -0.0150519005563459 0 0.035723097253199866 -0.014515176327951866 0 0.035507709665717591 -0.0150519005563459 0 0.035934471877799634 -0.014951011096263015 0 0.035723097253199866 -0.014515176327951866 0 0.036195491820055402 -0.014385957098321099 0 0.035934471877799634 -0.014951011096263015 0 0.035909066023247102 -0.013969468465469101 0 0.035723097253199866 -0.014515176327951866 0 0.036195491820055402 -0.014385957098321099 0 0.036440374985713453 -0.013878603160219643 0 0.035909066023247102 -0.013969468465469101 0 0.036195491820055402 -0.014385957098321099 0 0.036440374985713453 -0.013878603160219643 0 0.036195491820055402 -0.014385957098321099 0 0.036825268651362104 -0.014446977188785447 0 0.036440374985713453 -0.013878603160219643 0 0.036825268651362104 -0.014446977188785447 0 0.037039304659421977 -0.013956460224571445 0 0.036825268651362104 -0.014446977188785447 0 0.03647099580113923 -0.014806530725007615 0 0.037033144427658475 -0.015209368900054178 0 0.036195491820055402 -0.014385957098321099 0 0.03647099580113923 -0.014806530725007615 0 0.035934471877799634 -0.014951011096263015 0 0.036195491820055402 -0.014385957098321099 0 0.036825268651362104 -0.014446977188785447 0 0.03647099580113923 -0.014806530725007615 0 0.03647099580113923 -0.014806530725007615 0 0.036242132216755006 -0.015328650613209018 0 0.035934471877799634 -0.014951011096263015 0 0.03647099580113923 -0.014806530725007615 0 0.036242132216755006 -0.015328650613209018 0 0.037033144427658475 -0.015209368900054178 0 0.036242132216755006 -0.015328650613209018 0 0.036447350882426822 -0.015945474697446952 0 0.037033144427658475 -0.015209368900054178 0 0.035886383802511856 -0.015959577741194261 0 0.036242132216755006 -0.015328650613209018 0 0.036447350882426822 -0.015945474697446952 0 0.035886383802511856 -0.015959577741194261 0 0.036242132216755006 -0.015328650613209018 0 0.035776750970472664 -0.015362495413965175 0 0.035886383802511856 -0.015959577741194261 0 0.035340081153178542 -0.01552513461044446 0 0.035776750970472664 -0.015362495413965175 0 0.035241304134398348 -0.016013279154701396 0 0.035886383802511856 -0.015959577741194261 0 0.035340081153178542 -0.01552513461044446 0 0.035340081153178542 -0.01552513461044446 0 0.035507709665717591 -0.0150519005563459 0 0.035776750970472664 -0.015362495413965175 0 0.035107731951569729 -0.015100894471574014 0 0.035340081153178542 -0.01552513461044446 0 0.035507709665717591 -0.0150519005563459 0 0.035107731951569729 -0.015100894471574014 0 0.035346661673357066 -0.014635727922109352 0 0.035507709665717591 -0.0150519005563459 0 0.035507709665717591 -0.0150519005563459 0 0.035934471877799634 -0.014951011096263015 0 0.035776750970472664 -0.015362495413965175 0 0.036242132216755006 -0.015328650613209018 0 0.035934471877799634 -0.014951011096263015 0 0.035776750970472664 -0.015362495413965175 0 0.017326397875876452 -0.026344208861844482 0 0.017275017018643517 -0.025952444863369849 0 0.017329668707502847 -0.025906906776378202 0 0.017326397875876452 -0.026344208861844482 0 0.017329668707502847 -0.025906906776378202 0 0.017374564836292156 -0.025859575129178351 0 0.029266809266878704 -0.020203174230335814 0 0.01932819894512236 -0.024099168431417503 0 0.017275017018643517 -0.025952444863369849 0 0.017329668707502847 -0.025906906776378202 0 0.017372016145557809 -0.025855810045026805 0 0.018236361603331502 -0.025164922139476277 0 0.01932819894512236 -0.024099168431417503 0 0.037366940453593678 -0.016146899899588153 0 0.038127223235137078 -0.015430675482708748 0 0.037033144427658475 -0.015209368900054178 0 0.037022279630332944 -0.016398788852660787 0 0.029266809266878704 -0.020203174230335814 0 0.038127223235137078 -0.015430675482708748 0 0.037033144427658475 -0.015209368900054178 0 0.03772888189599298 -0.01455494531816026 0 0.037366940453593678 -0.016146899899588153 0 0.036447350882426822 -0.015945474697446952 0 0.037033144427658475 -0.015209368900054178 0 0.036825268651362104 -0.014446977188785447 0 0.03772888189599298 -0.01455494531816026 0 0.037039304659421977 -0.013956460224571445 0 0.036825268651362104 -0.014446977188785447 0 0.037033144427658475 -0.015209368900054178 0 0.03772888189599298 -0.01455494531816026 0 0.031373455690659212 -0.017395677119479515 0 0.025610190930352807 -0.017165160556098968 0 0.03772888189599298 -0.01455494531816026 0 0.037039304659421977 -0.013956460224571445 0 0.037402928206321011 -0.013718630926173862 0 0.025454502920602588 -0.019905632085126579 0 0.02657978024028395 -0.020491725041911008 0 0.025045739217345674 -0.018755718545839368 0 0.021531023625055629 -0.019842527776001359 0 0.021557113100153645 -0.019793047481466396 0 0.021532970790870912 -0.019836605903938091 0 0.01932819894512236 -0.024099168431417503 0 0.025610190930352807 -0.017165160556098968 0 0.025975015315184351 -0.021023023861232146 0 0.025454502920602588 -0.019905632085126579 0 0.02657978024028395 -0.020491725041911008 0 0.029266809266878704 -0.020203174230335814 0 0.031373455690659212 -0.017395677119479515 0 0.01932819894512236 -0.024099168431417503 0 0.018714805120821038 -0.022665814319537427 0 0.01932819894512236 -0.024099168431417503 0 0.018006288344252663 -0.02455347808097692 0 0.021557113100153645 -0.019793047481466396 0 0.021540681474194561 -0.019795228451272604 0 0.021532970790870912 -0.019836605903938091 0 0.021699105781237842 -0.014247641324028738 0 0.021416167661973184 -0.014385438868949997 0 0.020041267855520014 -0.014566969696522467 0 0.025610190930352807 -0.017165160556098968 0 0.019590997884757988 -0.017746733177191269 0 0.020868927509933948 -0.014851812783162366 0 0.021416167661973184 -0.014385438868949997 0 0.020041267855520014 -0.014566969696522467 0 0.020868927509933948 -0.014851812783162366 0 0.021416167661973184 -0.014385438868949997 0 0.02139557537521684 -0.015011621882725652 0 0.036740623935647171 -0.013640280166865396 0 0.037039304659421977 -0.013956460224571445 0 0.037233731833134297 -0.013542439655247858 0 0.037039304659421977 -0.013956460224571445 0 0.037402928206321011 -0.013718630926173862 0 0.037233731833134297 -0.013542439655247858 0 0.025610190930352807 -0.017165160556098968 0 0.028602469781296845 -0.015023224868408265 0 0.021699105781237842 -0.014247641324028738 0 0.021416167661973184 -0.014385438868949997 0 0.021974177296064989 -0.014478637725688684 0 0.021416167661973184 -0.014385438868949997 0 0.022014912580139916 -0.014920385538822047 0 0.02139557537521684 -0.015011621882725652 0 0.021377722139490903 -0.013667229287899128 0 0.026425435679998267 -0.013662634415310036 0 0.030671364325459142 -0.0142473101293618 0 0.029722045710769703 -0.013293824026660331 0 0.030085402902678585 -0.014000510615280641 0 0.028602469781296845 -0.015023224868408265 0 0.026425435679998267 -0.013662634415310036 0 0.034395508172817772 -0.013320632927525396 0 0.028602469781296845 -0.015023224868408265 0 0.021416167661973184 -0.014385438868949997 0 0.021974177296064989 -0.014478637725688684 0 0.022303849311168102 -0.015120887037750346 0 0.022369357040355125 -0.015690391383122629 0 0.022014912580139916 -0.014920385538822047 0 0.02183675328080829 -0.01532121412259224 0 0.022014912580139916 -0.014920385538822047 0 0.02139557537521684 -0.015011621882725652 0 0.02183675328080829 -0.01532121412259224 0 0.021124977459870863 -0.015938689423431199 0 0.021569312594983771 -0.015663878966554773 0 0.02095620805316464 -0.015501725524770299 0 0.02139557537521684 -0.015011621882725652 0 0.021569312594983771 -0.015663878966554773 0 0.02183675328080829 -0.01532121412259224 0 0.02139557537521684 -0.015011621882725652 0 0.021569312594983771 -0.015663878966554773 0 0.02095620805316464 -0.015501725524770299 0 0.022369357040355125 -0.015690391383122629 0 0.021569312594983771 -0.015663878966554773 0 0.02183675328080829 -0.01532121412259224 0 0.020600550089582014 -0.015151805843179038 0 0.020350245438476258 -0.015656817718534704 0 0.020041267855520014 -0.014566969696522467 0 0.020868927509933948 -0.014851812783162366 0 0.020600550089582014 -0.015151805843179038 0 0.020041267855520014 -0.014566969696522467 0 0.020868927509933948 -0.014851812783162366 0 0.02139557537521684 -0.015011621882725652 0 0.020956485337220172 -0.015128782905336716 0 0.020868927509933948 -0.014851812783162366 0 0.020600550089582014 -0.015151805843179038 0 0.020956485337220172 -0.015128782905336716 0 0.02139557537521684 -0.015011621882725652 0 0.020956485337220172 -0.015128782905336716 0 0.02095620805316464 -0.015501725524770299 0 0.020600550089582014 -0.015151805843179038 0 0.020956485337220172 -0.015128782905336716 0 0.02095620805316464 -0.015501725524770299 0 0.020600550089582014 -0.015151805843179038 0 0.02095620805316464 -0.015501725524770299 0 0.020350245438476258 -0.015656817718534704 0 0.020720877827021093 -0.01621052750920686 0 0.02095620805316464 -0.015501725524770299 0 0.020350245438476258 -0.015656817718534704 0 0.019590997884757988 -0.017746733177191269 0 0.01973645231698366 -0.016239385303925172 0 0.019497832158561292 -0.016715925664617926 0 0.019255208882404236 -0.016764142218222072 0 0.019514960472569468 -0.017212160659148511 0 0.020350245438476258 -0.015656817718534704 0 0.020041267855520014 -0.014566969696522467 0 0.019873557427861205 -0.016174468761945521 0 0.019255208882404236 -0.016764142218222072 0 0.019181940022352528 -0.017316799769112039 0 0.019514960472569468 -0.017212160659148511 0 0.012082909685372366 -0.022201315263282943 0 0.012566483422459265 -0.021760528698945587 0 0.012401389327549518 -0.02371345424290849 0 0.016379922662415568 -0.020009198053623608 0 0.016092843522629362 -0.020490788254148087 0 0.012082909685372366 -0.022201315263282943 0 0.011337262330899074 -0.022852661700327584 0 0.012401389327549518 -0.02371345424290849 0 0.012082909685372366 -0.022201315263282943 0 0.01153127312322357 -0.022004474681159975 0 0.012566483422459265 -0.021760528698945587 0 0.012082909685372366 -0.022201315263282943 0 0.011510700499275247 -0.021999556532746059 0 0.011337262330899074 -0.022852661700327584 0 0.011600396066294079 -0.022956480278631477 0 0.012328950092505181 -0.024123344249957285 0 0.013942276611715897 -0.02391277783764563 0 0.015999100904049754 -0.023451401411413785 0 0.016128865589427759 -0.021405318976159455 0 0.013942276611715897 -0.02391277783764563 0 0.016128865589427759 -0.021405318976159455 0 0.013433075199961217 -0.023724740852181909 0 0.016769058586829838 -0.022676403540837293 0 0.013219300909169299 -0.02548968637844419 0 0.016488510773928954 -0.024615993554777324 0 0.015506955183272294 -0.024596713192271254 0 0.01408285626372301 -0.02669050057861173 0 0.012328950092505181 -0.024123344249957285 0 0.016379922662415568 -0.020009198053623608 0 0.017725688577084345 -0.020182676702030306 0 0.018489068855351901 -0.020016665216776842 0 0.01843958460452029 -0.020956148632375486 0 0.019590997884757988 -0.017746733177191269 0 0.016379922662415568 -0.020009198053623608 0 0.016379922662415568 -0.020009198053623608 0 0.016769058586829838 -0.022676403540837293 0 0.016296748056794565 -0.027430243407166745 0 0.015494733797708575 -0.027945279607792903 0 0.015728533823892863 -0.02731064881875326 0 0.018006288344252663 -0.02455347808097692 0 0.015411333728809777 -0.026368896051919832 0 0.018120460208475981 -0.022960270267066232 0 0.016509906157953041 -0.024286586172239423 0 0.015506955183272294 -0.024596713192271254 0 0.019590997884757988 -0.017746733177191269 0 0.018714805120821038 -0.022665814319537427 0 0.017725688577084345 -0.020182676702030306 0 0.017636992830977357 -0.021664603500769777 0 0.01843958460452029 -0.020956148632375486 0 0.018120460208475981 -0.022960270267066232 0 0.018101335512411151 -0.02324442953229014 0 0.016509906157953041 -0.024286586172239423 0 0.018913767919511177 -0.02383504096610272 0 0.018261922585209603 -0.024023047956724178 0 0.018235989375079347 -0.024412011636698514 0 0.016442437114699542 -0.027380924393724117 0 0.016298373873809606 -0.027424732946210298 0 0.016300274193370878 -0.027372006700570269 0 0.018006288344252663 -0.02455347808097692 0 0.017955246722474928 -0.024806966722036302 0 0.018006288344252663 -0.02455347808097692 0 0.018714805120821038 -0.022665814319537427 0 0.018101335512411151 -0.02324442953229014 0 0.016509906157953041 -0.024286586172239423 0 0.01648908404333161 -0.024617002275773493 0 0.018714805120821038 -0.022665814319537427 0 0.016769058586829838 -0.022676403540837293 0 0.016732941755574392 -0.023092498845502043 0 0.016769058586829838 -0.022676403540837293 0 0.015494733797708575 -0.027945279607792903 0 0.015728533823892863 -0.02731064881875326 0 0.014992223340957646 -0.027208720300327185 0 0.016509906157953041 -0.024286586172239423 0 0.016488510773928954 -0.024615993554777324 0 0.015506955183272294 -0.024596713192271254 0 0.015658667046487593 -0.026619858290164448 0 0.015728533823892863 -0.02731064881875326 0 0.014992223340957646 -0.027208720300327185 0 0.015658667046487593 -0.026619858290164448 0 0.016442437114699542 -0.027380924393724117 0 0.016300274193370878 -0.027372006700570269 0 0.015658667046487593 -0.026619858290164448 0 0.015728533823892863 -0.02731064881875326 0 0.016300274193370878 -0.027372006700570269 0 0.016304122466022756 -0.02660314393788538 0 0.01932819894512236 -0.024099168431417503 0 0.016296748056794565 -0.027430243407166745 0 0.015728533823892863 -0.02731064881875326 0 0.016300274193370878 -0.027372006700570269 0 0.014097262081224549 -0.027155725823973458 0 0.014992223340957646 -0.027208720300327185 0 0.014580901911000277 -0.027765178197396764 0 0.014528195957002573 -0.026519847199821714 0 0.014097262081224549 -0.027155725823973458 0 0.014992223340957646 -0.027208720300327185 0 0.015494733797708575 -0.027945279607792903 0 0.014992223340957646 -0.027208720300327185 0 0.014580901911000277 -0.027765178197396764 0 0.013480105184872172 -0.028862514110789602 0 0.011839726173157424 -0.028224223939036761 0 0.014097262081224549 -0.027155725823973458 0 0.014580901911000277 -0.027765178197396764 0 0.013888579136777515 -0.028148807294125808 0 0.012362336649582788 -0.027881412283822224 0 0.010869576390624523 -0.028818617580119634 0 0.010319467020833013 -0.027124060309544326 0 0.013343447892005023 -0.027376438508231234 0 0.011839726173157424 -0.028224223939036761 0 0.014580901911000277 -0.027765178197396764 0 0.014697766906837774 -0.028445197543998681 0 0.013888579136777515 -0.028148807294125808 0 0.015411333728809777 -0.026368896051919832 0 0.013343447892005023 -0.027376438508231234 0 0.015506955183272294 -0.024596713192271254 0 0.01290081139594026 -0.026253050029903607 0 0.01408285626372301 -0.02669050057861173 0 0.015494733797708575 -0.027945279607792903 0 0.014580901911000277 -0.027765178197396764 0 0.014697766906837774 -0.028445197543998681 0 0.013343447892005023 -0.027376438508231234 0 0.013219300909169299 -0.02548968637844419 0 0.012317341995306937 -0.02783458470562309 0 0.013214401707499117 -0.028157555028593243 0 0.012895125157421453 -0.028437797039341909 0 0.011012637729681744 -0.022117319311460177 0 0.011337262330899074 -0.022852661700327584 0 0.0099456003648664346 -0.023049787163365844 0 0.011510700499275247 -0.021999556532746059 0 0.011012637729681744 -0.022117319311460177 0 0.011337262330899074 -0.022852661700327584 0 0.012328950092505181 -0.024123344249957285 0 0.012358478511984272 -0.026008086100481827 0 0.012898641730710314 -0.024994569273224802 0 0.012673352274187165 -0.0249130173255123 0 0.012463998641914399 -0.025097621496938314 0 0.012328950092505181 -0.024123344249957285 0 0.013219300909169299 -0.02548968637844419 0 0.013219300909169299 -0.02548968637844419 0 0.012358478511984272 -0.026008086100481827 0 0.012358478511984272 -0.026008086100481827 0 0.011614969336650384 -0.028546971361471052 0 0.012317341995306937 -0.02783458470562309 0 0.012895125157421453 -0.028437797039341909 0 0.011471609131014717 -0.028784950186566485 0 0.012358478511984272 -0.026008086100481827 0 0.010680573909508063 -0.026279363974020524 0 0.010869576390624523 -0.028818617580119634 0 0.010445267710249423 -0.029079521914200577 0 0.010319467020833013 -0.027124060309544326 0 0.010869576390624523 -0.028818617580119634 0 0.011471609131014717 -0.028784950186566485 0 0.011088039158554551 -0.029245759219652532 0 0.013343447892005023 -0.027376438508231234 0 0.010685619443893199 -0.028920038259150634 0 0.012317341995306937 -0.02783458470562309 0 0.010869576390624523 -0.028818617580119634 0 0.011471609131014717 -0.028784950186566485 0 0.01286776227056078 -0.028447699617963836 0 0.011471609131014717 -0.028784950186566485 0 0.011458356827178336 -0.029678105905427618 0 0.011471609131014717 -0.028784950186566485 0 0.011088039158554551 -0.029245759219652532 0 0.011458356827178336 -0.029678105905427618 0 0.011088039158554551 -0.029245759219652532 0 0.010787058953948528 -0.029479747195719747 0 0.011458356827178336 -0.029678105905427618 0 0.011088039158554551 -0.029245759219652532 0 0.010787058953948528 -0.029479747195719747 0 0.010445267710249423 -0.029079521914200577 0 0.010869576390624523 -0.028818617580119634 0 0.011088039158554551 -0.029245759219652532 0 0.010445267710249423 -0.029079521914200577 0 0.0099456003648664346 -0.023049787163365844 0 0.010055603440371116 -0.024447781446441601 0 0.0089041886977456793 -0.023972545181346245 0 0.011458356827178336 -0.029678105905427618 0 0.01008082375646786 -0.030805050908197025 0 0.01023198214154915 -0.029853577884458533 0 0.010787058953948528 -0.029479747195719747 0 0.011458356827178336 -0.029678105905427618 0 0.01023198214154915 -0.029853577884458533 0 0.010680573909508063 -0.026279363974020524 0 0.010013851889491021 -0.028029668819434712 0 0.0093882201579531272 -0.029983660500632836 0 0.0093100149419109452 -0.029969857620772481 0 0.009572644641649709 -0.030401447192676033 0 0.010055603440371116 -0.024447781446441601 0 0.0095281745795132156 -0.025598282620117568 0 0.0089041886977456793 -0.023972545181346245 0 0.011099710735316725 -0.02456955024671087 0 0.011578667306493769 -0.025112012358776449 0 0.010566581959475701 -0.025748144192084974 0 0.010055603440371116 -0.024447781446441601 0 0.011099710735316725 -0.02456955024671087 0 0.010566581959475701 -0.025748144192084974 0 0.010055603440371116 -0.024447781446441601 0 0.011099710735316725 -0.02456955024671087 0 0.010966111964670386 -0.023727791140369929 0 0.0099456003648664346 -0.023049787163365844 0 0.010055603440371116 -0.024447781446441601 0 0.010966111964670386 -0.023727791140369929 0 0.011337262330899074 -0.022852661700327584 0 0.0099456003648664346 -0.023049787163365844 0 0.010966111964670386 -0.023727791140369929 0 0.011337262330899074 -0.022852661700327584 0 0.010966111964670386 -0.023727791140369929 0 0.012401389327549518 -0.02371345424290849 0 0.011099710735316725 -0.02456955024671087 0 0.010966111964670386 -0.023727791140369929 0 0.012401389327549518 -0.02371345424290849 0 0.020203573608446258 -0.017164171478355736 0 0.02041595411746016 -0.016650978526768136 0 0.019873557427861205 -0.016174468761945521 0 0.019181940022352528 -0.017316799769112039 0 0.019514960472569468 -0.017212160659148511 0 0.019666364097772157 -0.018108314460529244 0 0.01973645231698366 -0.016239385303925172 0 0.01964318714459018 -0.018248755885512658 0 0.020203573608446258 -0.017164171478355736 0 0.019873557427861205 -0.016174468761945521 0 0.019666364097772157 -0.018108314460529244 0 0.019181940022352528 -0.017316799769112039 0 0.018931993164872162 -0.01846648684492895 0 0.019666364097772157 -0.018108314460529244 0 0.020305595132262998 -0.017898119722866476 0 0.020203573608446258 -0.017164171478355736 0 0.019666364097772157 -0.018108314460529244 0 0.016092843522629362 -0.020490788254148087 0 0.012768292509404653 -0.021405680959810786 0 0.012401389327549518 -0.02371345424290849 0 0.011578667306493769 -0.025112012358776449 0 0.012231610842076673 -0.025632598629943625 0 0.011099710735316725 -0.02456955024671087 0 0.012401389327549518 -0.02371345424290849 0 0.011578667306493769 -0.025112012358776449 0 0.011578667306493769 -0.025112012358776449 0 0.012231610842076673 -0.025632598629943625 0 0.011605817951277454 -0.025892759727931411 0 0.0077795973570333066 -0.021278688622058419 0 0.0054190492516453543 -0.02464594613089395 0 0.012768292509404653 -0.021405680959810786 0 0.0054190492516453543 -0.02464594613089395 0 0.0099553903694077767 -0.022234064751009606 0 0.0098435824676958127 -0.02401064138319859 0 0.006778017010261591 -0.023526645235176471 0 0.012768292509404653 -0.021405680959810786 0 0.0077795973570333066 -0.021278688622058419 0 -0.0010419755565549825 -0.02477029006502984 0 -0.0010970794983060379 -0.0247746452129444 0 -0.0011251539974314112 -0.024820780327967813 0 0.019817874631022039 -0.016588679558963263 0 0.013768353466476316 -0.017494629685439314 0 0.020305595132262998 -0.017898119722866476 0 0.018931993164872162 -0.01846648684492895 0 0.019666364097772157 -0.018108314460529244 0 0.019817874631022039 -0.016588679558963263 0 0.012768292509404653 -0.021405680959810786 0 0.0175905901485553 -0.01601998086281697 0 0.011481433291565471 -0.018493524124801326 0 0.015381105174673471 -0.020480152048847768 0 0.011481433291565471 -0.018493524124801326 0 0.011394872887810716 -0.019848633227520368 0 0.015381105174673471 -0.020480152048847768 0 0.0077795973570333066 -0.021278688622058419 0 0.013768353466476316 -0.017494629685439314 0 0.0098031195547242118 -0.012028646712319409 0 0.0080135073391295226 -0.015573995190277997 0 0.012456557503188765 -0.016442574277223725 0 0.013768353466476316 -0.017494629685439314 0 0.0080308812958081368 -0.017878303889097915 0 0.0067974761088010743 -0.01824698043827273 0 0.0090615038844006745 -0.018594419359083521 0 0.0077218487224878967 -0.021228840023385803 0 0.0067974761088010743 -0.01824698043827273 0 0.0065928886589797743 -0.021053314731162918 0 0.0077218487224878967 -0.021228840023385803 0 0.0077795973570333066 -0.021278688622058419 0 0.0025983266299156051 -0.023250340101752885 0 -0.0010419755565549825 -0.02477029006502984 0 -0.0011251539974314112 -0.024820780327967813 0 -0.0011373233190589791 -0.024847941436586286 0 -0.0010970794983060379 -0.0247746452129444 0 -0.0011251539974314112 -0.024820780327967813 0 -0.0011510861742871376 -0.02483300120489508 0 -0.0011251539974314112 -0.024820780327967813 0 -0.0011373233190589791 -0.024847941436586286 0 -0.0011766719980746707 -0.024855617604626675 0 0.00080220632720598125 -0.026547172841591055 0 -0.0011567270792866798 -0.025263352221715499 0 -0.0011510861742871376 -0.02483300120489508 0 -0.0011742576318150989 -0.024855448774494131 0 -0.0011766719980746707 -0.024855617604626675 0 0.0054190492516453543 -0.02464594613089395 0 0.00080220632720598125 -0.026547172841591055 0 -0.0011251539974314112 -0.024820780327967813 0 -0.0011510861742871376 -0.02483300120489508 0 -0.0011766719980746707 -0.024855617604626675 0 -0.0011709165293710361 -0.02484874824308056 0 -0.0011804805216613801 -0.024843178218381386 0 -0.0011779160434250452 -0.024864185103814912 0 -0.0010970794983060379 -0.0247746452129444 0 -0.0011510861742871376 -0.02483300120489508 0 -0.0011804805216613801 -0.024843178218381386 0 -0.0011510861742871376 -0.02483300120489508 0 -0.0011709165293710361 -0.02484874824308056 0 -0.0011804805216613801 -0.024843178218381386 0 -0.0011510861742871376 -0.02483300120489508 0 -0.0011709165293710361 -0.02484874824308056 0 -0.0011742576318150989 -0.024855448774494131 0 -0.00024724875464078138 -0.027250317259341638 0 -0.00010790128805231916 -0.026297946360013105 0 0.0010144714385468471 -0.026840224633301345 0 0.0048567039966401493 -0.026408399249807053 0 0.0047673163332588872 -0.026131790070006013 0 0.0050575875057985355 -0.026162898465610495 0 0.010055603440371116 -0.024447781446441601 0 0.0095281745795132156 -0.025598282620117568 0 0.010566581959475701 -0.025748144192084974 0 -6.5333829426833157e-05 -0.027365730371463334 0 0.00044406315101735115 -0.028164326411453548 0 0.00056221890525088723 -0.02746347434556691 0 0.0027573945723113266 -0.025716937170612696 0 0.0050519979964357455 -0.029374561765790383 0 0.0041533354559034775 -0.02923040406349664 0 0.00080220632720598125 -0.026547172841591055 0 0.0067494798952389499 -0.027731049061594099 0 0.00080220632720598125 -0.026547172841591055 0 0.0059220900871776224 -0.028913033947945112 0 0.0059220900871776224 -0.028913033947945112 0 0.0067494798952389499 -0.027731049061594099 0 0.0067494798952389499 -0.027731049061594099 0 0.0082917763386521123 -0.026074521116453683 0 0.0053570333675558744 -0.026196012836457463 0 0.0048567039966401493 -0.026408399249807053 0 0.0050575875057985355 -0.026162898465610495 0 0.011578667306493769 -0.025112012358776449 0 0.011605817951277454 -0.025892759727931411 0 0.010566581959475701 -0.025748144192084974 0 0.0054190492516453543 -0.02464594613089395 0 0.0082917763386521123 -0.026074521116453683 0 -0.00078986131677554101 -0.024978922320203295 0 -0.00038959154236207978 -0.025193150354101888 0 -0.00073278428623391374 -0.025596697085844774 0 -0.00078986131677554101 -0.024978922320203295 0 -0.00073278428623391374 -0.025596697085844774 0 -0.0012701611033798538 -0.0248499046216097 0 -0.00093706239515618632 -0.024605939388627148 0 -0.0012701611033798538 -0.0248499046216097 0 -0.001185876538605497 -0.024405602536872878 0 -0.00078986131677554101 -0.024978922320203295 0 -0.00093706239515618632 -0.024605939388627148 0 -0.0012701611033798538 -0.0248499046216097 0 -0.00078986131677554101 -0.024978922320203295 0 -0.00054316480080133297 -0.024635235175708908 0 -0.00038959154236207978 -0.025193150354101888 0 -0.00078986131677554101 -0.024978922320203295 0 -0.00093706239515618632 -0.024605939388627148 0 -0.00054316480080133297 -0.024635235175708908 0 -0.00054316480080133297 -0.024635235175708908 0 -2.6024418387566512e-05 -0.024810718746184662 0 -0.00017045906799866212 -0.024135561520345031 0 -0.00054316480080133297 -0.024635235175708908 0 -2.6024418387566512e-05 -0.024810718746184662 0 -0.00038959154236207978 -0.025193150354101888 0 -2.6024418387566512e-05 -0.024810718746184662 0 0.00053700375089827052 -0.025118639784814843 0 0.00031453217031174996 -0.024411795459098867 0 -2.6024418387566512e-05 -0.024810718746184662 0 8.1215353994401881e-05 -0.025393931939493266 0 0.00053700375089827052 -0.025118639784814843 0 -0.00038959154236207978 -0.025193150354101888 0 -0.00021229016821848934 -0.025744161232346637 0 -0.00073278428623391374 -0.025596697085844774 0 8.1215353994401881e-05 -0.025393931939493266 0 -0.00038959154236207978 -0.025193150354101888 0 -0.00021229016821848934 -0.025744161232346637 0 -2.6024418387566512e-05 -0.024810718746184662 0 8.1215353994401881e-05 -0.025393931939493266 0 -0.00038959154236207978 -0.025193150354101888 0 0.00080220632720598125 -0.026547172841591055 0 -0.00092976671887118529 -0.025883599452716649 0 -0.00021229016821848934 -0.025744161232346637 0 -0.00010790128805231916 -0.026297946360013105 0 -0.00073278428623391374 -0.025596697085844774 0 -0.00024724875464078138 -0.027250317259341638 0 -0.00010790128805231916 -0.026297946360013105 0 -0.00073278428623391374 -0.025596697085844774 0 8.1215353994401881e-05 -0.025393931939493266 0 -0.00021229016821848934 -0.025744161232346637 0 0.00044278295254515811 -0.025839138762530488 0 -0.00021229016821848934 -0.025744161232346637 0 -0.00010790128805231916 -0.026297946360013105 0 0.00044278295254515811 -0.025839138762530488 0 -0.00081076111530306821 -0.026062584847224891 0 -0.00073278428623391374 -0.025596697085844774 0 -0.0012701611033798538 -0.0248499046216097 0 -0.0011567270792866798 -0.025263352221715499 0 -0.0011937743372628165 -0.025013337356639322 0 -0.00014883304253514217 -0.027134220822002557 0 -0.00081076111530306821 -0.026062584847224891 0 -0.00073278428623391374 -0.025596697085844774 0 -0.0011779160434250452 -0.024864185103814912 0 -0.0012308067614450935 -0.024865375232869243 0 -0.0012701611033798538 -0.0248499046216097 0 -0.0011709165293710361 -0.02484874824308056 0 -0.0011779160434250452 -0.024864185103814912 0 -0.0011742576318150989 -0.024855448774494131 0 -0.0011779160434250452 -0.024864185103814912 0 -0.0011921085866969494 -0.02486254220200312 0 -0.0012308067614450935 -0.024865375232869243 0 -0.0011921085866969494 -0.02486254220200312 0 -0.0011766719980746707 -0.024855617604626675 0 -0.0012308067614450935 -0.024865375232869243 0 -0.0011779160434250452 -0.024864185103814912 0 -0.0011921085866969494 -0.02486254220200312 0 -0.0011742576318150989 -0.024855448774494131 0 -0.0011921085866969494 -0.02486254220200312 0 -0.0011742576318150989 -0.024855448774494131 0 -0.0011766719980746707 -0.024855617604626675 0 -0.0011373233190589791 -0.024847941436586286 0 -0.0012308067614450935 -0.024865375232869243 0 -0.0012907505331010464 -0.02485254530000006 0 -0.0011373233190589791 -0.024847941436586286 0 -0.0011766719980746707 -0.024855617604626675 0 -0.0012308067614450935 -0.024865375232869243 0 0.0025983266299156051 -0.023250340101752885 0 0.0028473275702722324 -0.023096948035910052 0 0.0080308812958081368 -0.017878303889097915 0 0.0028473275702722324 -0.023096948035910052 0 0.0065928886589797743 -0.021053314731162918 0 0.0077218487224878967 -0.021228840023385803 0 0.0063560704985983485 -0.023853818439683993 0 0.0080135073391295226 -0.015573995190277997 0 0.0092371219898696264 -0.019259937546777336 0 0.0062031257660844948 -0.019138892576148585 0 0.0080135073391295226 -0.015573995190277997 0 0.0092371219898696264 -0.019259937546777336 0 0.012456557503188765 -0.016442574277223725 0 0.0036917200909043512 -0.0084889492491517227 0 0.003749417938469668 -0.011290382172326885 0 0.0074597189804731416 -0.0095435144781531138 0 0.0036917200909043512 -0.0084889492491517227 0 0.00055803099565319579 -0.011194189167305002 0 0.003749417938469668 -0.011290382172326885 0 0.0069613084927478905 -0.013358761775722868 0 0.0015592585405787118 -0.019889377653702627 0 -0.0012763711469015097 -0.024863451111961168 0 -0.0012907505331010464 -0.02485254530000006 0 -0.0014547734922168308 -0.024746005410662159 0 -0.0012763711469015097 -0.024863451111961168 0 -0.0014547734922168308 -0.024746005410662159 0 -0.0012701611033798538 -0.0248499046216097 0 -0.0012308067614450935 -0.024865375232869243 0 -0.0012763711469015097 -0.024863451111961168 0 -0.0012907505331010464 -0.02485254530000006 0 -0.0012308067614450935 -0.024865375232869243 0 -0.0012763711469015097 -0.024863451111961168 0 -0.0012701611033798538 -0.0248499046216097 0 0.0028473275702722324 -0.023096948035910052 0 -0.00017174189184056239 -0.025547076869671299 0 0.0092371219898696264 -0.019259937546777336 0 0.0062031257660844948 -0.019138892576148585 0 0.0059888714720000092 -0.022082041598366523 0 0.0028473275702722324 -0.023096948035910052 0 0.0015592585405787118 -0.019889377653702627 0 -0.0015975857501567242 -0.025184553838444736 0 -0.0014547734922168308 -0.024746005410662159 0 -0.0017000097410443595 -0.024397393704422607 0 -0.0014547734922168308 -0.024746005410662159 0 -0.0012701611033798538 -0.0248499046216097 0 -0.001185876538605497 -0.024405602536872878 0 -0.0014547734922168308 -0.024746005410662159 0 -0.0017000097410443595 -0.024397393704422607 0 -0.001185876538605497 -0.024405602536872878 0 0.0015592585405787118 -0.019889377653702627 0 -0.0022910200906222128 -0.024764784091131073 0 0.0015592585405787118 -0.019889377653702627 0 -0.00069145533757303246 -0.018823562766362229 0 -0.0015074786502175138 -0.023973026494623195 0 -0.0013488415982348613 -0.022724562926524885 0 -0.00091852846444500139 -0.023486599635969909 0 0.00055803099565319579 -0.011194189167305002 0 0.0024659388079759201 -0.013594513035250994 0 0.00013883019976150855 -0.015764426944353538 0 -0.0017000097410443595 -0.024397393704422607 0 -0.00091852846444500139 -0.023486599635969909 0 -0.001185876538605497 -0.024405602536872878 0 0.00055803099565319579 -0.011194189167305002 0 0.003749417938469668 -0.011290382172326885 0 0.0024659388079759201 -0.013594513035250994 0 0.003749417938469668 -0.011290382172326885 0 0.0024659388079759201 -0.013594513035250994 0 0.0056342182824413766 -0.014082163951495731 0 0.0027120361102575146 -0.01608386164231616 0 0.0045519067531088258 -0.018059396388845791 0 0.0056342182824413766 -0.014082163951495731 0 0.0024659388079759201 -0.013594513035250994 0 0.0027120361102575146 -0.01608386164231616 0 0.0056342182824413766 -0.014082163951495731 0 0.0024659388079759201 -0.013594513035250994 0 0.0027120361102575146 -0.01608386164231616 0 0.00013883019976150855 -0.015764426944353538 0 0.0027120361102575146 -0.01608386164231616 0 0.00013883019976150855 -0.015764426944353538 0 0.0019938936423674002 -0.018284082256194732 0 -0.00055825320191035658 -0.022406149252497454 0 -0.00091852846444500139 -0.023486599635969909 0 -0.00034938729644537654 -0.023323991191134173 0 -0.0013488415982348613 -0.022724562926524885 0 -0.00055825320191035658 -0.022406149252497454 0 -0.00091852846444500139 -0.023486599635969909 0 -0.00072611001166874537 -0.024089679479846426 0 -0.00017045906799866212 -0.024135561520345031 0 -0.00034938729644537654 -0.023323991191134173 0 -0.00091852846444500139 -0.023486599635969909 0 -0.00072611001166874537 -0.024089679479846426 0 -0.00034938729644537654 -0.023323991191134173 0 -0.00054316480080133297 -0.024635235175708908 0 -0.00072611001166874537 -0.024089679479846426 0 -0.00017045906799866212 -0.024135561520345031 0 -0.00093706239515618632 -0.024605939388627148 0 -0.00054316480080133297 -0.024635235175708908 0 -0.00072611001166874537 -0.024089679479846426 0 -0.00091852846444500139 -0.023486599635969909 0 -0.00072611001166874537 -0.024089679479846426 0 -0.001185876538605497 -0.024405602536872878 0 -0.00093706239515618632 -0.024605939388627148 0 -0.00072611001166874537 -0.024089679479846426 0 -0.001185876538605497 -0.024405602536872878 0 -0.00017045906799866212 -0.024135561520345031 0 -0.00034938729644537654 -0.023323991191134173 0 0.00030547130632342076 -0.023593405706338184 0 -2.6024418387566512e-05 -0.024810718746184662 0 -0.00017045906799866212 -0.024135561520345031 0 0.00031453217031174996 -0.024411795459098867 0 -0.00017045906799866212 -0.024135561520345031 0 0.00030547130632342076 -0.023593405706338184 0 0.00031453217031174996 -0.024411795459098867 0 -0.00034938729644537654 -0.023323991191134173 0 -0.00014415501051028002 -0.022494563577540708 0 0.00030547130632342076 -0.023593405706338184 0 -0.00055825320191035658 -0.022406149252497454 0 -0.00034938729644537654 -0.023323991191134173 0 -0.00014415501051028002 -0.022494563577540708 0 -0.00014415501051028002 -0.022494563577540708 0 -0.00017390437467587868 -0.021777777290778691 0 -0.00047803875092575947 -0.021598961499156653 0 -0.00014415501051028002 -0.022494563577540708 0 -0.00017390437467587868 -0.021777777290778691 0 0.00050914033757592592 -0.022752649535791872 0 -0.00055825320191035658 -0.022406149252497454 0 -0.00047803875092575947 -0.021598961499156653 0 -0.0001383816783668449 -0.020978759926822761 0 -0.00055825320191035658 -0.022406149252497454 0 -0.00014415501051028002 -0.022494563577540708 0 -0.00047803875092575947 -0.021598961499156653 0 -0.00047803875092575947 -0.021598961499156653 0 -0.00027691388880607626 -0.02187596667991026 0 -0.0006120071770718096 -0.021120772936352308 0 -0.00047803875092575947 -0.021598961499156653 0 -0.00027691388880607626 -0.02187596667991026 0 -0.0001383816783668449 -0.020978759926822761 0 -0.00017390437467587868 -0.021777777290778691 0 -0.00047803875092575947 -0.021598961499156653 0 -0.0006120071770718096 -0.021120772936352308 0 -0.00096368665550678411 -0.021968945024946129 0 7.4116342503722249e-05 -0.017720026564556891 0 -0.00071702309234683733 -0.018612312241653522 0 7.4116342503722249e-05 -0.017720026564556891 0 -0.0006120071770718096 -0.021120772936352308 0 -0.00085220830284022081 -0.019243216616425349 0 -0.003039572145386651 -0.01957985450641711 0 -0.00027691388880607626 -0.02187596667991026 0 -0.0006120071770718096 -0.021120772936352308 0 -0.00036168107502060673 -0.022625066574374107 0 1.5240669617986258e-05 -0.017831947826045937 0 -0.00032942481738213185 -0.017591798480557686 0 -0.00018776403905502293 -0.017469878112435805 0 -0.00032942481738213185 -0.017591798480557686 0 -0.00018776403905502293 -0.017469878112435805 0 -0.00035626536270873808 -0.017233319917787818 0 -0.00018776403905502293 -0.017469878112435805 0 -0.00035626536270873808 -0.017233319917787818 0 -0.00018936184255413795 -0.017225667155813487 0 -0.00018776403905502293 -0.017469878112435805 0 1.7033250087004726e-05 -0.017459725127563486 0 -0.00018936184255413795 -0.017225667155813487 0 1.7033250087004726e-05 -0.017459725127563486 0 0.0003689630677197373 -0.017733269063608496 0 0.00034098524607272353 -0.017106327992977916 0 1.5240669617986258e-05 -0.017831947826045937 0 1.7033250087004726e-05 -0.017459725127563486 0 0.0003689630677197373 -0.017733269063608496 0 1.5240669617986258e-05 -0.017831947826045937 0 -0.00018776403905502293 -0.017469878112435805 0 1.7033250087004726e-05 -0.017459725127563486 0 0.034098470991100992 6.0180705655435502e-05 0 0.034072977484448819 0.0004577707355087195 0 0.034360784218576065 0.00022352988552272267 0 0.015507914971643414 -0.0084191715951082245 0 0.014326549209571869 -0.011169612221325011 0 0.0097427334101401301 -0.016426786054972449 0 0.0059723110909266032 -0.014127160166563166 0 0.010056121313258165 -0.010548267061272635 0 -0.00043551452587129298 -0.017081851628907071 0 -0.00045759809969966658 -0.017276549696518775 0 -0.00044163209880999059 -0.017111626930285475 0 0.015507914971643414 -0.0084191715951082245 0 0.0018575496601341023 -0.01532723573376985 0 -0.00032942481738213185 -0.017591798480557686 0 -0.00035626536270873808 -0.017233319917787818 0 -0.00045759809969966658 -0.017276549696518775 0 -0.00035626536270873808 -0.017233319917787818 0 -0.00045759809969966658 -0.017276549696518775 0 -0.00044163209880999059 -0.017111626930285475 0 7.4116342503722249e-05 -0.017720026564556891 0 0.0018575496601341023 -0.01532723573376985 0 -0.00027691388880607626 -0.02187596667991026 0 0.00099181694094204755 -0.023192551087573902 0 0.0016267244081572033 -0.022265897786246408 0 -0.00027691388880607626 -0.02187596667991026 0 -0.00036168107502060673 -0.022625066574374107 0 0.00099181694094204755 -0.023192551087573902 0 7.4116342503722249e-05 -0.017720026564556891 0 0.0024724873179291637 -0.017243296798143477 0 0.0059723110909266032 -0.014127160166563166 0 0.0061242664324572564 -0.011168551720781709 0 0.010056121313258165 -0.010548267061272635 0 0.0021733906888306352 -0.011820063708720869 0 0.0059723110909266032 -0.014127160166563166 0 0.0061242664324572564 -0.011168551720781709 0 0.0032935002734828713 -0.023445971510992446 0 0.0036691533718853425 -0.022189938782247336 0 0.0016267244081572033 -0.022265897786246408 0 0.00099181694094204755 -0.023192551087573902 0 0.0032935002734828713 -0.023445971510992446 0 0.0016267244081572033 -0.022265897786246408 0 0.0024724873179291637 -0.017243296798143477 0 0.014326549209571869 -0.011169612221325011 0 0.014326549209571869 -0.011169612221325011 0 0.0073462000779588926 -0.024220793285173837 0 0.0036691533718853425 -0.022189938782247336 0 0.0016267244081572033 -0.022265897786246408 0 0.0024855877608020768 -0.020407435780772972 0 0.0036691533718853425 -0.022189938782247336 0 0.0024855877608020768 -0.020407435780772972 0 0.0043940686292813754 -0.020298143526314223 0 -0.00027691388880607626 -0.02187596667991026 0 0.0016267244081572033 -0.022265897786246408 0 -0.0001383816783668449 -0.020978759926822761 0 0.0016267244081572033 -0.022265897786246408 0 0.0024855877608020768 -0.020407435780772972 0 -0.0001383816783668449 -0.020978759926822761 0 -0.0013488415982348613 -0.022724562926524885 0 -0.00055825320191035658 -0.022406149252497454 0 -0.0001383816783668449 -0.020978759926822761 0 -0.00069145533757303246 -0.018823562766362229 0 -0.00025183465933350651 -0.021108395328126771 0 0.00013883019976150855 -0.015764426944353538 0 -0.0001383816783668449 -0.020978759926822761 0 0.0019938936423674002 -0.018284082256194732 0 0.0024855877608020768 -0.020407435780772972 0 -0.0001383816783668449 -0.020978759926822761 0 0.0019938936423674002 -0.018284082256194732 0 0.0024855877608020768 -0.020407435780772972 0 0.0043940686292813754 -0.020298143526314223 0 0.0045519067531088258 -0.018059396388845791 0 0.0024855877608020768 -0.020407435780772972 0 0.0019938936423674002 -0.018284082256194732 0 0.0045519067531088258 -0.018059396388845791 0 0.0027120361102575146 -0.01608386164231616 0 0.0019938936423674002 -0.018284082256194732 0 0.0045519067531088258 -0.018059396388845791 0 0.0045519067531088258 -0.018059396388845791 0 0.0069327822914428631 -0.020393608629786071 0 0.0077549373681154044 -0.016767070936731042 0 0.0043940686292813754 -0.020298143526314223 0 0.0045519067531088258 -0.018059396388845791 0 0.0069327822914428631 -0.020393608629786071 0 0.010743794760634169 -0.018165123087384667 0 0.0069327822914428631 -0.020393608629786071 0 0.0077549373681154044 -0.016767070936731042 0 0.010743794760634169 -0.018165123087384667 0 0.0069327822914428631 -0.020393608629786071 0 0.010296074000602833 -0.023314367554906866 0 0.0069327822914428631 -0.020393608629786071 0 0.0070586519161232476 -0.023845540203919328 0 0.010296074000602833 -0.023314367554906866 0 0.022698149945272562 -0.010288230436729856 0 0.026033568279725708 -0.0088543453491605178 0 0.0036691533718853425 -0.022189938782247336 0 0.0069327822914428631 -0.020393608629786071 0 0.0070586519161232476 -0.023845540203919328 0 0.0036691533718853425 -0.022189938782247336 0 0.0043940686292813754 -0.020298143526314223 0 0.0069327822914428631 -0.020393608629786071 0 0.034072977484448819 0.0004577707355087195 0 0.034443427747365155 0.00035837192592148864 0 0.034481067534421088 0.0005177031546872772 0 0.014326549209571869 -0.011169612221325011 0 0.020837803743680949 -0.011572071024557153 0 0.0036296984540470437 -0.02432036103249241 0 0.0036691533718853425 -0.022189938782247336 0 0.0070586519161232476 -0.023845540203919328 0 0.034072977484448819 0.0004577707355087195 0 0.034443427747365155 0.00035837192592148864 0 0.034360784218576065 0.00022352988552272267 0 0.034443427747365155 0.00035837192592148864 0 0.034481067534421088 0.0005177031546872772 0 0.034703136327845704 0.00036365653768245484 0 0.034443427747365155 0.00035837192592148864 0 0.034703136327845704 0.00036365653768245484 0 0.034709838037580452 0.00032089035936752185 0 0.034481067534421088 0.0005177031546872772 0 0.034950677065700993 0.00044832514035818375 0 0.034964779665508511 0.00030891543566815015 0 0.034481067534421088 0.0005177031546872772 0 0.034964779665508511 0.00030891543566815015 0 0.034703136327845704 0.00036365653768245484 0 0.020837803743680949 -0.011572071024557153 0 0.026033568279725708 -0.0088543453491605178 0 0.026033568279725708 -0.0088543453491605178 0 0.028741506285814261 -0.0022791918004147157 0 0.035025844317735026 0.00019641560037556894 0 0.034964779665508511 0.00030891543566815015 0 0.03506998988812865 0.00018088656976961271 0 0.034964779665508511 0.00030891543566815015 0 0.034992083026849509 0.00032178308090894102 0 0.03506998988812865 0.00018088656976961271 0 0.034964779665508511 0.00030891543566815015 0 0.034875373189829459 0.00032997463692239538 0 0.034992083026849509 0.00032178308090894102 0 0.034964779665508511 0.00030891543566815015 0 0.034875373189829459 0.00032997463692239538 0 0.034703136327845704 0.00036365653768245484 0 0.034875373189829459 0.00032997463692239538 0 0.034703136327845704 0.00036365653768245484 0 0.034709838037580452 0.00032089035936752185 0 0.034875373189829459 0.00032997463692239538 0 0.034709838037580452 0.00032089035936752185 0 0.034872311418108683 0.00034227487404648807 0 0.034709838037580452 0.00032089035936752185 0 0.034872311418108683 0.00034227487404648807 0 0.034710183320011474 0.00029459061113893759 0 0.034992083026849509 0.00032178308090894102 0 0.034872311418108683 0.00034227487404648807 0 0.034995056282371047 0.00037843686204896889 0 0.034875373189829459 0.00032997463692239538 0 0.034992083026849509 0.00032178308090894102 0 0.034872311418108683 0.00034227487404648807 0 0.034872311418108683 0.00034227487404648807 0 0.034995056282371047 0.00037843686204896889 0 0.034952435031232312 0.00040806003623011387 0 0.034872311418108683 0.00034227487404648807 0 0.034952435031232312 0.00040806003623011387 0 0.034710183320011474 0.00029459061113893759 0 0.034952435031232312 0.00040806003623011387 0 0.034710183320011474 0.00029459061113893759 0 0.034736220436710263 0.00032436180375155214 0 0.034710183320011474 0.00029459061113893759 0 0.034555271491960388 0.00020069424378748148 0 0.034736220436710263 0.00032436180375155214 0 0.034710183320011474 0.00029459061113893759 0 0.034550628991814152 0.0002622726986386282 0 0.034555271491960388 0.00020069424378748148 0 0.034550628991814152 0.0002622726986386282 0 0.034555271491960388 0.00020069424378748148 0 0.034360784218576065 0.00022352988552272267 0 0.034555271491960388 0.00020069424378748148 0 0.034360784218576065 0.00022352988552272267 0 0.034384308004059283 -5.9665318416523544e-06 0 0.034098470991100992 6.0180705655435502e-05 0 0.034360784218576065 0.00022352988552272267 0 0.034384308004059283 -5.9665318416523544e-06 0 0.034443427747365155 0.00035837192592148864 0 0.034550628991814152 0.0002622726986386282 0 0.034360784218576065 0.00022352988552272267 0 0.034443427747365155 0.00035837192592148864 0 0.034709838037580452 0.00032089035936752185 0 0.034550628991814152 0.0002622726986386282 0 0.034709838037580452 0.00032089035936752185 0 0.034710183320011474 0.00029459061113893759 0 0.034550628991814152 0.0002622726986386282 0 0.034782488868150149 0.00049424071454057738 0 0.03500093697589618 0.00048045940930228323 0 0.03488350050428006 0.00022783473902865501 0 0.03500093697589618 0.00048045940930228323 0 0.035002675440915745 0.00032737017586840795 0 0.03488350050428006 0.00022783473902865501 0 0.034782488868150149 0.00049424071454057738 0 0.03500093697589618 0.00048045940930228323 0 0.034992894622069615 0.00076096867759790888 0 0.03500093697589618 0.00048045940930228323 0 0.035099922434725268 0.00063431809323547092 0 0.034992894622069615 0.00076096867759790888 0 0.03500093697589618 0.00048045940930228323 0 0.035059483950068672 0.00046071656823354156 0 0.035099922434725268 0.00063431809323547092 0 0.034952435031232312 0.00040806003623011387 0 0.035059483950068672 0.00046071656823354156 0 0.035100011128696991 0.0006120674028925353 0 0.034995056282371047 0.00037843686204896889 0 0.034952435031232312 0.00040806003623011387 0 0.035059483950068672 0.00046071656823354156 0 0.034995056282371047 0.00037843686204896889 0 0.035059483950068672 0.00046071656823354156 0 0.035040143978212382 0.00029910693854603114 0 0.034992083026849509 0.00032178308090894102 0 0.034995056282371047 0.00037843686204896889 0 0.035040143978212382 0.00029910693854603114 0 0.035059483950068672 0.00046071656823354156 0 0.035002675440915745 0.00032737017586840795 0 0.035040143978212382 0.00029910693854603114 0 0.03500093697589618 0.00048045940930228323 0 0.035059483950068672 0.00046071656823354156 0 0.035002675440915745 0.00032737017586840795 0 0.035002675440915745 0.00032737017586840795 0 0.035040143978212382 0.00029910693854603114 0 0.035001586756847801 0.00011522238774833945 0 0.035040143978212382 0.00029910693854603114 0 0.03506998988812865 0.00018088656976961271 0 0.035001586756847801 0.00011522238774833945 0 0.034992083026849509 0.00032178308090894102 0 0.035040143978212382 0.00029910693854603114 0 0.03506998988812865 0.00018088656976961271 0 0.03506998988812865 0.00018088656976961271 0 0.035001586756847801 0.00011522238774833945 0 0.035125919898415889 -6.1578656411358414e-05 0 0.026033568279725708 -0.0088543453491605178 0 0.036922936128376646 -0.0022738362763954564 0 0.035025844317735026 0.00019641560037556894 0 0.03506998988812865 0.00018088656976961271 0 0.035125919898415889 -6.1578656411358414e-05 0 0.035001586756847801 0.00011522238774833945 0 0.034827332696982315 -0.0002530212955655161 0 0.035125919898415889 -6.1578656411358414e-05 0 0.034658270867373477 4.6768532048169306e-05 0 0.03488350050428006 0.00022783473902865501 0 0.034827332696982315 -0.0002530212955655161 0 0.034782488868150149 0.00049424071454057738 0 0.034658270867373477 4.6768532048169306e-05 0 0.03488350050428006 0.00022783473902865501 0 0.035001586756847801 0.00011522238774833945 0 0.03488350050428006 0.00022783473902865501 0 0.034827332696982315 -0.0002530212955655161 0 0.035002675440915745 0.00032737017586840795 0 0.035001586756847801 0.00011522238774833945 0 0.03488350050428006 0.00022783473902865501 0 0.034827332696982315 -0.0002530212955655161 0 0.0349129866887073 -0.00099683840704230166 0 0.034402754243879001 -0.00056835085436260694 0 0.034658270867373477 4.6768532048169306e-05 0 0.034827332696982315 -0.0002530212955655161 0 0.034402754243879001 -0.00056835085436260694 0 0.034827332696982315 -0.0002530212955655161 0 0.035144848790476607 -0.00050373931808646896 0 0.0349129866887073 -0.00099683840704230166 0 0.035459220055438258 -0.0010924731238117571 0 0.0355110724131667 -8.9281403384028506e-05 0 0.035144848790476607 -0.00050373931808646896 0 0.0355110724131667 -8.9281403384028506e-05 0 0.035125919898415889 -6.1578656411358414e-05 0 0.035144848790476607 -0.00050373931808646896 0 0.034827332696982315 -0.0002530212955655161 0 0.035125919898415889 -6.1578656411358414e-05 0 0.035144848790476607 -0.00050373931808646896 0 0.035459220055438258 -0.0010924731238117571 0 0.035144848790476607 -0.00050373931808646896 0 0.0349129866887073 -0.00099683840704230166 0 0.0349129866887073 -0.00099683840704230166 0 0.034731421340894131 -0.0015017295804087333 0 0.034402754243879001 -0.00056835085436260694 0 0.0349129866887073 -0.00099683840704230166 0 0.035012010151387697 -0.001670506088729283 0 0.034731421340894131 -0.0015017295804087333 0 0.035012010151387697 -0.001670506088729283 0 0.034768841710142814 -0.0019187344555383731 0 0.034911146668226825 -0.0021012874273538423 0 0.034768841710142814 -0.0019187344555383731 0 0.034911146668226825 -0.0021012874273538423 0 0.03482792754508398 -0.0023450947133126956 0 0.035012010151387697 -0.001670506088729283 0 0.034911146668226825 -0.0021012874273538423 0 0.035103396424923737 -0.0021157800605966816 0 0.035012010151387697 -0.001670506088729283 0 0.034768841710142814 -0.0019187344555383731 0 0.034731421340894131 -0.0015017295804087333 0 0.035012010151387697 -0.001670506088729283 0 0.035360859295682105 -0.0018841417840415662 0 0.035103396424923737 -0.0021157800605966816 0 0.035459220055438258 -0.0010924731238117571 0 0.0349129866887073 -0.00099683840704230166 0 0.035012010151387697 -0.001670506088729283 0 0.035459220055438258 -0.0010924731238117571 0 0.035012010151387697 -0.001670506088729283 0 0.035360859295682105 -0.0018841417840415662 0 0.011330153834064488 -0.013019252246821879 0 0.0077549373681154044 -0.016767070936731042 0 0.0056342182824413766 -0.014082163951495731 0 0.022698149945272562 -0.010288230436729856 0 0.02337337935104692 -0.0072867571002545508 0 0.010743794760634169 -0.018165123087384667 0 0.011330153834064488 -0.013019252246821879 0 0.0077549373681154044 -0.016767070936731042 0 0.0045519067531088258 -0.018059396388845791 0 0.0077549373681154044 -0.016767070936731042 0 0.0056342182824413766 -0.014082163951495731 0 0.003749417938469668 -0.011290382172326885 0 0.0056342182824413766 -0.014082163951495731 0 0.0074597189804731416 -0.0095435144781531138 0 0.011330153834064488 -0.013019252246821879 0 0.0056342182824413766 -0.014082163951495731 0 0.0074597189804731416 -0.0095435144781531138 0 0.0074597189804731416 -0.0095435144781531138 0 0.011905792219468197 -0.0078325238760003427 0 0.011838180689826654 -0.0084383873466732373 0 0.011330153834064488 -0.013019252246821879 0 0.0074597189804731416 -0.0095435144781531138 0 0.011838180689826654 -0.0084383873466732373 0 0.0036917200909043512 -0.0084889492491517227 0 0.0074597189804731416 -0.0095435144781531138 0 0.0068381842408076149 -0.0058360681733401329 0 0.0074597189804731416 -0.0095435144781531138 0 0.0068381842408076149 -0.0058360681733401329 0 0.0096311444084266982 -0.0063296637542105084 0 0.0069613084927478905 -0.013358761775722868 0 0.0092535328266192002 -0.011261502269386979 0 0.0099626904450909725 -0.0032463574849106373 0 0.0096311444084266982 -0.0063296637542105084 0 0.011972471100406362 -0.0052256711691314271 0 0.0099626904450909725 -0.0032463574849106373 0 0.0068381842408076149 -0.0058360681733401329 0 0.0096311444084266982 -0.0063296637542105084 0 0.0074597189804731416 -0.0095435144781531138 0 0.0096311444084266982 -0.0063296637542105084 0 0.011905792219468197 -0.0078325238760003427 0 0.0096311444084266982 -0.0063296637542105084 0 0.011972471100406362 -0.0052256711691314271 0 0.011905792219468197 -0.0078325238760003427 0 0.035141158316016885 -0.0028534914692220112 0 0.03482792754508398 -0.0023450947133126956 0 0.035066246609558427 -0.0024102651056880937 0 0.033259616004377435 -0.0089645766283734073 0 0.032081184435977399 -0.0091129431041747453 0 0.03372543985321623 -0.010567904330630125 0 0.035141158316016885 -0.0028534914692220112 0 0.035200306652170686 -0.0025402758032400797 0 0.035066246609558427 -0.0024102651056880937 0 0.026552457919395169 -0.005574735859811354 0 0.035620300891965335 -0.0068493984541269553 0 0.026552457919395169 -0.005574735859811354 0 0.024086816992888171 -0.0050623352582704331 0 0.033259616004377435 -0.0089645766283734073 0 0.03372543985321623 -0.010567904330630125 0 0.034348391996751979 -0.010228153240613679 0 0.034831068068551477 -0.010070603282644567 0 0.034679466043303207 -0.010823290368041086 0 0.035002365851302432 -0.011488851724671737 0 0.035118099196896103 -0.011464232066768835 0 0.035208074191898572 -0.011468638004999225 0 0.034911146668226825 -0.0021012874273538423 0 0.03482792754508398 -0.0023450947133126956 0 0.035066246609558427 -0.0024102651056880937 0 0.035103396424923737 -0.0021157800605966816 0 0.035220594577876747 -0.0024711147648673413 0 0.035066246609558427 -0.0024102651056880937 0 0.02337337935104692 -0.0072867571002545508 0 0.023825139267166225 -0.0054690822821859024 0 0.034911146668226825 -0.0021012874273538423 0 0.035103396424923737 -0.0021157800605966816 0 0.035066246609558427 -0.0024102651056880937 0 0.035360859295682105 -0.0018841417840415662 0 0.035103396424923737 -0.0021157800605966816 0 0.035220594577876747 -0.0024711147648673413 0 0.035200306652170686 -0.0025402758032400797 0 0.035220594577876747 -0.0024711147648673413 0 0.035066246609558427 -0.0024102651056880937 0 0.024086816992888171 -0.0050623352582704331 0 0.023825139267166225 -0.0054690822821859024 0 0.035231162868661715 -0.011412827057736084 0 0.035218456289620073 -0.011446507834184329 0 0.035255090532248137 -0.011431141153992979 0 0.035231162868661715 -0.011412827057736084 0 0.035278771479624854 -0.011392525257958402 0 0.035255090532248137 -0.011431141153992979 0 0.035278771479624854 -0.011392525257958402 0 0.035255090532248137 -0.011431141153992979 0 0.035307628931533115 -0.011427207129383577 0 0.035278771479624854 -0.011392525257958402 0 0.03534514992538771 -0.011414108450048565 0 0.035320746289962422 -0.011368094972035158 0 0.035231162868661715 -0.011412827057736084 0 0.035278771479624854 -0.011392525257958402 0 0.03523734323839766 -0.011295681250726478 0 0.03372543985321623 -0.010567904330630125 0 0.034348391996751979 -0.010228153240613679 0 0.03523734323839766 -0.011295681250726478 0 0.035231162868661715 -0.011412827057736084 0 0.035208074191898572 -0.011468638004999225 0 0.03523734323839766 -0.011295681250726478 0 0.034679466043303207 -0.010823290368041086 0 0.035223281621329747 -0.011283407595720328 0 0.035231162868661715 -0.011412827057736084 0 0.035208074191898572 -0.011468638004999225 0 0.035218456289620073 -0.011446507834184329 0 0.035208074191898572 -0.011468638004999225 0 0.035218456289620073 -0.011446507834184329 0 0.03517472761380367 -0.011451699343975842 0 0.035118099196896103 -0.011464232066768835 0 0.035208074191898572 -0.011468638004999225 0 0.03517472761380367 -0.011451699343975842 0 0.035218456289620073 -0.011446507834184329 0 0.03517472761380367 -0.011451699343975842 0 0.03522772729573545 -0.01144113168052479 0 0.035218456289620073 -0.011446507834184329 0 0.03522772729573545 -0.01144113168052479 0 0.035255090532248137 -0.011431141153992979 0 0.035255090532248137 -0.011431141153992979 0 0.035288358355432578 -0.011438452756816877 0 0.035307628931533115 -0.011427207129383577 0 0.03522772729573545 -0.01144113168052479 0 0.035255090532248137 -0.011431141153992979 0 0.035288358355432578 -0.011438452756816877 0 0.03535388111810963 -0.011438307399035487 0 0.035288358355432578 -0.011438452756816877 0 0.03538317421821769 -0.011446687577062249 0 0.035288358355432578 -0.011438452756816877 0 0.03538317421821769 -0.011446687577062249 0 0.035307628931533115 -0.011427207129383577 0 0.035471345088602321 -0.01144304617513941 0 0.03538317421821769 -0.011446687577062249 0 0.035525863245038578 -0.011474476788257453 0 0.035471345088602321 -0.01144304617513941 0 0.03535388111810963 -0.011438307399035487 0 0.03538317421821769 -0.011446687577062249 0 0.03538317421821769 -0.011446687577062249 0 0.035410859138234115 -0.011427081107258577 0 0.035468957971037239 -0.011450259358370943 0 0.03538317421821769 -0.011446687577062249 0 0.035468957971037239 -0.011450259358370943 0 0.035525863245038578 -0.011474476788257453 0 0.03538317421821769 -0.011446687577062249 0 0.03534514992538771 -0.011414108450048565 0 0.035410859138234115 -0.011427081107258577 0 0.03538317421821769 -0.011446687577062249 0 0.035307628931533115 -0.011427207129383577 0 0.03534514992538771 -0.011414108450048565 0 0.035278771479624854 -0.011392525257958402 0 0.035307628931533115 -0.011427207129383577 0 0.03534514992538771 -0.011414108450048565 0 0.03534514992538771 -0.011414108450048565 0 0.035374823867959773 -0.011406980288037537 0 0.035320746289962422 -0.011368094972035158 0 0.035374823867959773 -0.011406980288037537 0 0.035410859138234115 -0.011427081107258577 0 0.035399694160551082 -0.011395674592056705 0 0.03534514992538771 -0.011414108450048565 0 0.035374823867959773 -0.011406980288037537 0 0.035410859138234115 -0.011427081107258577 0 0.035374823867959773 -0.011406980288037537 0 0.03534936447205049 -0.011420366287429545 0 0.035399694160551082 -0.011395674592056705 0 0.035374823867959773 -0.011406980288037537 0 0.03534936447205049 -0.011420366287429545 0 0.035320746289962422 -0.011368094972035158 0 0.035410859138234115 -0.011427081107258577 0 0.035432427981470553 -0.011408094549775431 0 0.035468957971037239 -0.011450259358370943 0 0.035410859138234115 -0.011427081107258577 0 0.035399694160551082 -0.011395674592056705 0 0.035432427981470553 -0.011408094549775431 0 0.035399694160551082 -0.011395674592056705 0 0.035406714432096108 -0.011350002656607263 0 0.035432427981470553 -0.011408094549775431 0 0.035399694160551082 -0.011395674592056705 0 0.035406714432096108 -0.011350002656607263 0 0.035405758025791795 -0.011314521965489377 0 0.035406714432096108 -0.011350002656607263 0 0.035405758025791795 -0.011314521965489377 0 0.035391806672714361 -0.011283077221224697 0 0.035399694160551082 -0.011395674592056705 0 0.035412176540526953 -0.011351816676870798 0 0.035405758025791795 -0.011314521965489377 0 0.03534936447205049 -0.011420366287429545 0 0.035399694160551082 -0.011395674592056705 0 0.035412176540526953 -0.011351816676870798 0 0.034419930976177605 -0.0018358922379624765 0 0.034422885188293798 -0.00089338859759112226 0 0.033488052832518635 -0.00097084021690282279 0 0.03534936447205049 -0.011420366287429545 0 0.035129550373463006 -0.011547667591649921 0 0.035412176540526953 -0.011351816676870798 0 0.034478953128302375 -0.0064621515843150601 0 0.034390616229675201 -0.0066133758566181639 0 0.03534936447205049 -0.011420366287429545 0 0.035320746289962422 -0.011368094972035158 0 0.035129550373463006 -0.011547667591649921 0 0.03523734323839766 -0.011295681250726478 0 0.035320746289962422 -0.011368094972035158 0 0.035129550373463006 -0.011547667591649921 0 0.035278771479624854 -0.011392525257958402 0 0.03523734323839766 -0.011295681250726478 0 0.035320746289962422 -0.011368094972035158 0 0.03372543985321623 -0.010567904330630125 0 0.03523734323839766 -0.011295681250726478 0 0.035129550373463006 -0.011547667591649921 0 0.035620300891965335 -0.0068493984541269553 0 0.034478953128302375 -0.0064621515843150601 0 0.034768841710142814 -0.0019187344555383731 0 0.034419930976177605 -0.0018358922379624765 0 0.034731421340894131 -0.0015017295804087333 0 0.034768841710142814 -0.0019187344555383731 0 0.03482792754508398 -0.0023450947133126956 0 0.034419930976177605 -0.0018358922379624765 0 0.034419930976177605 -0.0018358922379624765 0 0.034731421340894131 -0.0015017295804087333 0 0.034422885188293798 -0.00089338859759112226 0 0.03475692493121213 -0.001397827293527982 0 0.034823417901936743 -0.00024818053859012803 0 0.034422885188293798 -0.00089338859759112226 0 0.034133058553736779 0.00026402942632504394 0 0.035249633214595323 1.9837225490179121e-05 0 0.034731421340894131 -0.0015017295804087333 0 0.034422885188293798 -0.00089338859759112226 0 0.035249633214595323 1.9837225490179121e-05 0 0.034422885188293798 -0.00089338859759112226 0 0.034133058553736779 0.00026402942632504394 0 0.033488052832518635 -0.00097084021690282279 0 0.034133058553736779 0.00026402942632504394 0 0.035249633214595323 1.9837225490179121e-05 0 0.034592610360558482 0.0015590522006314657 0 0.035249633214595323 1.9837225490179121e-05 0 0.035430060457243936 0.0022447526379650385 0 0.034592610360558482 0.0015590522006314657 0 0.034782488868150149 0.00049424071454057738 0 0.034658270867373477 4.6768532048169306e-05 0 0.034434427677958908 0.00028111052073846325 0 0.034658270867373477 4.6768532048169306e-05 0 0.034402754243879001 -0.00056835085436260694 0 0.034434427677958908 0.00028111052073846325 0 0.034823417901936743 -0.00024818053859012803 0 0.034922121116367486 0.0012502924714080104 0 0.035430060457243936 0.0022447526379650385 0 0.034592610360558482 0.0015590522006314657 0 0.03531643265059882 0.0024648978382734704 0 0.035186078491984449 0.0022765841447999566 0 0.034479449627418626 0.002579513942331121 0 0.034133058553736779 0.00026402942632504394 0 0.034592610360558482 0.0015590522006314657 0 0.033442566049363694 0.0014078515382988136 0 0.035400227352630931 0.0025750818918156568 0 0.03531643265059882 0.0024648978382734704 0 0.035441212975619758 0.0025957808790382777 0 0.034592610360558482 0.0015590522006314657 0 0.03531643265059882 0.0024648978382734704 0 0.033442566049363694 0.0014078515382988136 0 0.035400227352630931 0.0025750818918156568 0 0.035381573930794448 0.0025958944095690563 0 0.03531643265059882 0.0024648978382734704 0 0.035400227352630931 0.0025750818918156568 0 0.035381573930794448 0.0025958944095690563 0 0.035408139123089252 0.0026431408164777261 0 0.035381573930794448 0.0025958944095690563 0 0.035408139123089252 0.0026431408164777261 0 0.035404051975902476 0.0027422599081000074 0 0.035381573930794448 0.0025958944095690563 0 0.03531643265059882 0.0024648978382734704 0 0.035404051975902476 0.0027422599081000074 0 0.034782488868150149 0.00049424071454057738 0 0.034434427677958908 0.00028111052073846325 0 0.034539868598741683 0.0011737536839768266 0 0.035430060457243936 0.0022447526379650385 0 0.03531643265059882 0.0024648978382734704 0 0.035494385486374375 0.0029669316065265455 0 0.034922121116367486 0.0012502924714080104 0 0.035041451411152821 0.002061346795814629 0 0.035422840414783163 0.0025873526670456542 0 0.035402921067810032 0.0025984957652636521 0 0.035424132427375979 0.0026507294696552454 0 0.035402921067810032 0.0025984957652636521 0 0.035386553289601365 0.0026986191789479651 0 0.035424132427375979 0.0026507294696552454 0 0.035402921067810032 0.0025984957652636521 0 0.035381559352270248 0.0025323311433678888 0 0.035352087242693044 0.0026460797795267777 0 0.035402921067810032 0.0025984957652636521 0 0.035386553289601365 0.0026986191789479651 0 0.035352087242693044 0.0026460797795267777 0 0.035386553289601365 0.0026986191789479651 0 0.035338890917660015 0.0027345143644014673 0 0.035352087242693044 0.0026460797795267777 0 0.035386553289601365 0.0026986191789479651 0 0.035424132427375979 0.0026507294696552454 0 0.035422218460621838 0.0028106711888152935 0 0.035421579601395747 0.0027233208415535703 0 0.035424132427375979 0.0026507294696552454 0 0.035422218460621838 0.0028106711888152935 0 0.035421579601395747 0.0027233208415535703 0 0.035408139123089252 0.0026431408164777261 0 0.035424132427375979 0.0026507294696552454 0 0.035421579601395747 0.0027233208415535703 0 0.035408139123089252 0.0026431408164777261 0 0.035436249972856625 0.0028159111040930869 0 0.035408139123089252 0.0026431408164777261 0 0.035428308334445553 0.0025978409055117616 0 0.035424132427375979 0.0026507294696552454 0 0.035400227352630931 0.0025750818918156568 0 0.035408139123089252 0.0026431408164777261 0 0.035428308334445553 0.0025978409055117616 0 0.035422840414783163 0.0025873526670456542 0 0.035428308334445553 0.0025978409055117616 0 0.035424132427375979 0.0026507294696552454 0 0.035422840414783163 0.0025873526670456542 0 0.035428308334445553 0.0025978409055117616 0 0.035423780920959089 0.002565784062023051 0 0.035428308334445553 0.0025978409055117616 0 0.035423780920959089 0.002565784062023051 0 0.035441212975619758 0.0025957808790382777 0 0.035423780920959089 0.002565784062023051 0 0.035441212975619758 0.0025957808790382777 0 0.035374138045643051 0.0024339356249626506 0 0.035400227352630931 0.0025750818918156568 0 0.035428308334445553 0.0025978409055117616 0 0.035441212975619758 0.0025957808790382777 0 0.035423780920959089 0.002565784062023051 0 0.035433833176826218 0.0025054138666306043 0 0.035465464746710106 0.0024140890808680014 0 0.035599603493204547 0.0027783957393501773 0 0.035291087156422964 0.0014123199839576532 0 0.035422840414783163 0.0025873526670456542 0 0.035423780920959089 0.002565784062023051 0 0.035433833176826218 0.0025054138666306043 0 0.035422840414783163 0.0025873526670456542 0 0.035402921067810032 0.0025984957652636521 0 0.035433833176826218 0.0025054138666306043 0 0.035402921067810032 0.0025984957652636521 0 0.035433833176826218 0.0025054138666306043 0 0.035381559352270248 0.0025323311433678888 0 0.035433833176826218 0.0025054138666306043 0 0.035439669560602537 0.0024574762292628154 0 0.035381559352270248 0.0025323311433678888 0 0.035433833176826218 0.0025054138666306043 0 0.035465464746710106 0.0024140890808680014 0 0.035439669560602537 0.0024574762292628154 0 0.035291087156422964 0.0014123199839576532 0 0.035180724394665748 0.00186534491474248 0 0.035423780920959089 0.002565784062023051 0 0.035347917402434294 0.002458967960404818 0 0.035374138045643051 0.0024339356249626506 0 0.035465464746710106 0.0024140890808680014 0 0.035476177655107279 0.0024114714476186441 0 0.035439669560602537 0.0024574762292628154 0 0.035291087156422964 0.0014123199839576532 0 0.034850966170898022 -0.0028858706790193191 0 0.034133058553736779 0.00026402942632504394 0 0.033442566049363694 0.0014078515382988136 0 0.033247693426064887 0.00025576520551504517 0 0.034479449627418626 0.002579513942331121 0 0.034850966170898022 -0.0028858706790193191 0 0.033442566049363694 0.0014078515382988136 0 0.032102690102016024 0.00032103979890322202 0 0.033247693426064887 0.00025576520551504517 0 0.032102690102016024 0.00032103979890322202 0 0.033247693426064887 0.00025576520551504517 0 0.033488052832518635 -0.00097084021690282279 0 0.034133058553736779 0.00026402942632504394 0 0.033247693426064887 0.00025576520551504517 0 0.033488052832518635 -0.00097084021690282279 0 0.034850966170898022 -0.0028858706790193191 0 0.034390616229675201 -0.0066133758566181639 0 0.035407698036998649 -0.01115605335953428 0 0.035405758025791795 -0.011314521965489377 0 0.035391806672714361 -0.011283077221224697 0 0.035407698036998649 -0.01115605335953428 0 0.035412176540526953 -0.011351816676870798 0 0.035405758025791795 -0.011314521965489377 0 0.035407698036998649 -0.01115605335953428 0 0.035391806672714361 -0.011283077221224697 0 0.035342529426074409 -0.011243880851599938 0 0.034850966170898022 -0.0028858706790193191 0 0.035688334717033643 -0.004801662166270787 0 0.035391806672714361 -0.011283077221224697 0 0.035342529426074409 -0.011243880851599938 0 0.035397042069281029 -0.01133649858786809 0 0.037877881118942629 -0.003990976822840624 0 0.037276560671134065 -0.0036356694322811083 0 0.036732186133317961 -0.0040801271634687631 0 0.037974741664595191 -0.0038943039258482314 0 0.037444348230337501 -0.0033189900079494566 0 0.037597616897492976 -0.0027381337299580799 0 0.037877881118942629 -0.003990976822840624 0 0.037974741664595191 -0.0038943039258482314 0 0.037276560671134065 -0.0036356694322811083 0 0.037021174674262351 -0.0041866182433943659 0 0.035688334717033643 -0.004801662166270787 0 0.037974741664595191 -0.0038943039258482314 0 0.037444348230337501 -0.0033189900079494566 0 0.037276560671134065 -0.0036356694322811083 0 0.037444348230337501 -0.0033189900079494566 0 0.037276560671134065 -0.0036356694322811083 0 0.036928859165017695 -0.003008246074099866 0 0.037974741664595191 -0.0038943039258482314 0 0.037597616897492976 -0.0027381337299580799 0 0.038059029635487809 -0.0022599253106841523 0 0.035688334717033643 -0.004801662166270787 0 0.036802960425077837 0.00079545604265206541 0 0.037444348230337501 -0.0033189900079494566 0 0.037597616897492976 -0.0027381337299580799 0 0.036928859165017695 -0.003008246074099866 0 0.037597616897492976 -0.0027381337299580799 0 0.037576234176633402 -0.0021310448515196269 0 0.038059029635487809 -0.0022599253106841523 0 0.037597616897492976 -0.0027381337299580799 0 0.03709265751672243 -0.0021260066417469882 0 0.036928859165017695 -0.003008246074099866 0 0.037597616897492976 -0.0027381337299580799 0 0.037576234176633402 -0.0021310448515196269 0 0.03709265751672243 -0.0021260066417469882 0 0.035291087156422964 0.0014123199839576532 0 0.035688334717033643 -0.004801662166270787 0 0.035195351752794944 0.0017433972455594953 0 0.035252622123826981 0.0023608742105589021 0 0.035386655543432642 0.0023271798970229476 0 0.035603328671192778 0.0023187408985751354 0 0.035195351752794944 0.0017433972455594953 0 0.035386655543432642 0.0023271798970229476 0 0.03580602757866088 -0.0021339361678463136 0 0.036021594175253829 -0.0023519022335446939 0 0.034690130859809785 -0.0033167514446777293 0 0.035252622123826981 0.0023608742105589021 0 0.035386655543432642 0.0023271798970229476 0 0.035411782867843723 0.0023744528916673081 0 0.035603328671192778 0.0023187408985751354 0 0.035386655543432642 0.0023271798970229476 0 0.035476177655107279 0.0024114714476186441 0 0.035386655543432642 0.0023271798970229476 0 0.035476177655107279 0.0024114714476186441 0 0.035421238753020765 0.0024273174795815459 0 0.035381559352270248 0.0025323311433678888 0 0.035411782867843723 0.0023744528916673081 0 0.035238637098272532 0.0026848216103504364 0 0.035421238753020765 0.0024273174795815459 0 0.035439669560602537 0.0024574762292628154 0 0.035381559352270248 0.0025323311433678888 0 0.035492926924868259 0.0024359657551286671 0 0.035794518078628934 0.0025705878698532424 0 0.035421238753020765 0.0024273174795815459 0 0.035381559352270248 0.0025323311433678888 0 0.035411782867843723 0.0023744528916673081 0 0.036802960425077837 0.00079545604265206541 0 0.037032337388677596 0.00065590665073823125 0 0.035476177655107279 0.0024114714476186441 0 0.035421238753020765 0.0024273174795815459 0 0.035439669560602537 0.0024574762292628154 0 0.035252622123826981 0.0023608742105589021 0 0.035411782867843723 0.0023744528916673081 0 0.036058416997332289 0.0023374568257063543 0 0.035386655543432642 0.0023271798970229476 0 0.035421238753020765 0.0024273174795815459 0 0.035411782867843723 0.0023744528916673081 0 0.037576234176633402 -0.0021310448515196269 0 0.038059029635487809 -0.0022599253106841523 0 0.03755801750044814 -0.0013958017940771639 0 0.038059029635487809 -0.0022599253106841523 0 0.03755801750044814 -0.0013958017940771639 0 0.038067744340469979 -0.0005882881478486596 0 0.03709265751672243 -0.0021260066417469882 0 0.03755801750044814 -0.0013958017940771639 0 0.036643063732760502 -0.0013461830677011352 0 0.037576234176633402 -0.0021310448515196269 0 0.03709265751672243 -0.0021260066417469882 0 0.03755801750044814 -0.0013958017940771639 0 0.03755801750044814 -0.0013958017940771639 0 0.036991461906535864 -0.0005146488653610809 0 0.036643063732760502 -0.0013461830677011352 0 0.03755801750044814 -0.0013958017940771639 0 0.036991461906535864 -0.0005146488653610809 0 0.038067744340469979 -0.0005882881478486596 0 0.036991461906535864 -0.0005146488653610809 0 0.036657954029308409 0.00035135213538871704 0 0.037364727700149536 0.00032148675327067837 0 0.036991461906535864 -0.0005146488653610809 0 0.038067744340469979 -0.0005882881478486596 0 0.037364727700149536 0.00032148675327067837 0 0.036348564039693693 0.0023474104997791125 0 0.036058416997332289 0.0023374568257063543 0 0.036822420864397125 0.0024622530541683822 0 0.035411782867843723 0.0023744528916673081 0 0.036348564039693693 0.0023474104997791125 0 0.036058416997332289 0.0023374568257063543 0 0.035238637098272532 0.0026848216103504364 0 0.035338890917660015 0.0027345143644014673 0 0.035352087242693044 0.0026460797795267777 0 0.035381559352270248 0.0025323311433678888 0 0.035238637098272532 0.0026848216103504364 0 0.035352087242693044 0.0026460797795267777 0 0.035906332251006368 -0.00036371122541253381 0 0.034999859995316955 -0.0016819437250503919 0 0.03499981556223055 0.00032851220766545123 0 0.036991461906535864 -0.0005146488653610809 0 0.035906332251006368 -0.00036371122541253381 0 0.036657954029308409 0.00035135213538871704 0 0.036991461906535864 -0.0005146488653610809 0 0.035906332251006368 -0.00036371122541253381 0 0.036643063732760502 -0.0013461830677011352 0 0.03709265751672243 -0.0021260066417469882 0 0.036643063732760502 -0.0013461830677011352 0 0.03620047805683841 -0.0023336872739091229 0 0.035906332251006368 -0.00036371122541253381 0 0.036643063732760502 -0.0013461830677011352 0 0.034999859995316955 -0.0016819437250503919 0 0.036643063732760502 -0.0013461830677011352 0 0.034999859995316955 -0.0016819437250503919 0 0.03620047805683841 -0.0023336872739091229 0 0.034999859995316955 -0.0016819437250503919 0 0.03620047805683841 -0.0023336872739091229 0 0.034999944276715253 -0.0036922846406508519 0 0.03620047805683841 -0.0023336872739091229 0 0.036163535361587493 -0.003441896234866077 0 0.034999944276715253 -0.0036922846406508519 0 0.03709265751672243 -0.0021260066417469882 0 0.03620047805683841 -0.0023336872739091229 0 0.036928859165017695 -0.003008246074099866 0 0.03620047805683841 -0.0023336872739091229 0 0.036928859165017695 -0.003008246074099866 0 0.036163535361587493 -0.003441896234866077 0 0.036163535361587493 -0.003441896234866077 0 0.036732186133317961 -0.0040801271634687631 0 0.035796088611278899 -0.0045974806353582705 0 0.037276560671134065 -0.0036356694322811083 0 0.036928859165017695 -0.003008246074099866 0 0.03671730834264407 -0.0035358677588880078 0 0.037276560671134065 -0.0036356694322811083 0 0.03671730834264407 -0.0035358677588880078 0 0.036732186133317961 -0.0040801271634687631 0 0.036928859165017695 -0.003008246074099866 0 0.03671730834264407 -0.0035358677588880078 0 0.036163535361587493 -0.003441896234866077 0 0.03671730834264407 -0.0035358677588880078 0 0.036163535361587493 -0.003441896234866077 0 0.036732186133317961 -0.0040801271634687631 0 0.036163535361587493 -0.003441896234866077 0 0.034999944276715253 -0.0036922846406508519 0 0.035796088611278899 -0.0045974806353582705 0 0.034999944276715253 -0.0036922846406508519 0 0.035796088611278899 -0.0045974806353582705 0 0.034999884945282486 -0.0057028838453363675 0 0.035796088611278899 -0.0045974806353582705 0 0.035709493122513029 -0.005429435118703637 0 0.034999884945282486 -0.0057028838453363675 0 0.035796088611278899 -0.0045974806353582705 0 0.035709493122513029 -0.005429435118703637 0 0.03629144687936791 -0.0051859145778190875 0 0.034999884945282486 -0.0057028838453363675 0 0.035779529409633137 -0.0062618967408848564 0 0.034999821107112548 -0.0077131311887585824 0 0.035709493122513029 -0.005429435118703637 0 0.034999884945282486 -0.0057028838453363675 0 0.035779529409633137 -0.0062618967408848564 0 0.035709493122513029 -0.005429435118703637 0 0.035779529409633137 -0.0062618967408848564 0 0.03629144687936791 -0.0051859145778190875 0 0.035779529409633137 -0.0062618967408848564 0 0.036698293005834534 -0.0065123434643006243 0 0.036655846751798941 -0.0054997664083707596 0 0.035828587912086061 -0.0062120159563419054 0 0.036855288385291986 -0.0052765275893891768 0 0.035779529409633137 -0.0062618967408848564 0 0.036908617184998854 -0.0050884508771264552 0 0.03629144687936791 -0.0051859145778190875 0 0.038012119304076587 -0.0039853382062269068 0 0.036908617184998854 -0.0050884508771264552 0 0.03629144687936791 -0.0051859145778190875 0 0.037021174674262351 -0.0041866182433943659 0 0.036724663871562535 -0.0049977439562852773 0 0.037877881118942629 -0.003990976822840624 0 0.036732186133317961 -0.0040801271634687631 0 0.03629144687936791 -0.0051859145778190875 0 0.036732186133317961 -0.0040801271634687631 0 0.035796088611278899 -0.0045974806353582705 0 0.03629144687936791 -0.0051859145778190875 0 0.037509458185153173 -0.0046593169056879866 0 0.037586129078891049 -0.0045806678753554497 0 0.037517962308522439 -0.0059511909341564148 0 0.037021174674262351 -0.0041866182433943659 0 0.036855288385291986 -0.0052765275893891768 0 0.035688334717033643 -0.004801662166270787 0 0.036517450545934659 -0.0093284995886428381 0 0.037509458185153173 -0.0046593169056879866 0 0.036655846751798941 -0.0054997664083707596 0 0.037517962308522439 -0.0059511909341564148 0 0.035342529426074409 -0.011243880851599938 0 0.035397042069281029 -0.01133649858786809 0 0.035401408389543851 -0.011375887919210827 0 0.035406714432096108 -0.011350002656607263 0 0.035391806672714361 -0.011283077221224697 0 0.035397042069281029 -0.01133649858786809 0 0.035406714432096108 -0.011350002656607263 0 0.035397042069281029 -0.01133649858786809 0 0.035432427981470553 -0.011408094549775431 0 0.035397042069281029 -0.01133649858786809 0 0.035432427981470553 -0.011408094549775431 0 0.035401408389543851 -0.011375887919210827 0 0.035432427981470553 -0.011408094549775431 0 0.035401408389543851 -0.011375887919210827 0 0.035536081985194833 -0.011464150200240372 0 0.036698293005834534 -0.0065123434643006243 0 0.036655846751798941 -0.0054997664083707596 0 0.037517962308522439 -0.0059511909341564148 0 0.036517450545934659 -0.0093284995886428381 0 0.03649310679210771 -0.0093101191648754696 0 0.036698293005834534 -0.0065123434643006243 0 0.037517962308522439 -0.0059511909341564148 0 0.03745368507812219 -0.007456887792823357 0 0.035536081985194833 -0.011464150200240372 0 0.035468957971037239 -0.011450259358370943 0 0.035525863245038578 -0.011474476788257453 0 0.035432427981470553 -0.011408094549775431 0 0.035536081985194833 -0.011464150200240372 0 0.035468957971037239 -0.011450259358370943 0 0.035804842643882506 -0.011462032525049251 0 0.035471345088602321 -0.01144304617513941 0 0.035525863245038578 -0.011474476788257453 0 0.036451839215767445 -0.010324608790106249 0 0.03649310679210771 -0.0093101191648754696 0 0.035804842643882506 -0.011462032525049251 0 0.035536081985194833 -0.011464150200240372 0 0.035525863245038578 -0.011474476788257453 0 0.03714725237052581 -0.0092108061221473116 0 0.03745368507812219 -0.007456887792823357 0 0.036265707583917853 -0.0076358751719446472 0 0.03583224672194775 -0.0088850994340568829 0 0.03714725237052581 -0.0092108061221473116 0 0.036265707583917853 -0.0076358751719446472 0 0.034999558518311318 -0.0097240844546825494 0 0.03583224672194775 -0.0088850994340568829 0 0.034999821107112548 -0.0077131311887585824 0 0.03583224672194775 -0.0088850994340568829 0 0.034999821107112548 -0.0077131311887585824 0 0.036265707583917853 -0.0076358751719446472 0 0.035779529409633137 -0.0062618967408848564 0 0.034999821107112548 -0.0077131311887585824 0 0.036265707583917853 -0.0076358751719446472 0 0.036698293005834534 -0.0065123434643006243 0 0.03745368507812219 -0.007456887792823357 0 0.036265707583917853 -0.0076358751719446472 0 0.035779529409633137 -0.0062618967408848564 0 0.036698293005834534 -0.0065123434643006243 0 0.036265707583917853 -0.0076358751719446472 0 0.0011300431595855107 -0.028970380347236636 0 -0.0004423377452715546 -0.029428863761739314 0 0.0012669764291758868 -0.029413797157606003 0 0.0011300431595855107 -0.028970380347236636 0 -0.0004423377452715546 -0.029428863761739314 0 0.00020739413577981785 -0.02871580205474706 0 -0.0004423377452715546 -0.029428863761739314 0 -0.00097606820638272967 -0.028551780779826237 0 0.00020739413577981785 -0.02871580205474706 0 -0.0004423377452715546 -0.029428863761739314 0 -0.00097606820638272967 -0.028551780779826237 0 -0.0028780639598100966 -0.028637069842031369 0 -0.00097606820638272967 -0.028551780779826237 0 0.00020739413577981785 -0.02871580205474706 0 -0.00010788898986856064 -0.028074815521511982 0 0.0011300431595855107 -0.028970380347236636 0 0.00020739413577981785 -0.02871580205474706 0 0.0012417647269010515 -0.02846051050217616 0 0.00020739413577981785 -0.02871580205474706 0 0.0012417647269010515 -0.02846051050217616 0 -0.00010788898986856064 -0.028074815521511982 0 0.0012417647269010515 -0.02846051050217616 0 0.0022000202155020069 -0.028671528932364663 0 0.0022401009233656965 -0.028277362043691343 0 0.0011300431595855107 -0.028970380347236636 0 0.0012417647269010515 -0.02846051050217616 0 0.0022000202155020069 -0.028671528932364663 0 0.0022401009233656965 -0.028277362043691343 0 0.0030853854680651625 -0.028279328752588546 0 0.0029075411212531278 -0.028505939709614275 0 0.0022000202155020069 -0.028671528932364663 0 0.0022401009233656965 -0.028277362043691343 0 0.0029075411212531278 -0.028505939709614275 0 0.0022000202155020069 -0.028671528932364663 0 0.0021783965542127815 -0.028863080791515301 0 0.0029331578463634542 -0.028650375561488344 0 0.0022000202155020069 -0.028671528932364663 0 0.0029331578463634542 -0.028650375561488344 0 0.0029075411212531278 -0.028505939709614275 0 0.0011300431595855107 -0.028970380347236636 0 0.0022000202155020069 -0.028671528932364663 0 0.0021783965542127815 -0.028863080791515301 0 0.0011300431595855107 -0.028970380347236636 0 0.0021783965542127815 -0.028863080791515301 0 0.0017508302613372404 -0.029072032810170442 0 0.0017508302613372404 -0.029072032810170442 0 0.002110835119561913 -0.029049896511878438 0 0.0012669764291758868 -0.029413797157606003 0 0.0021783965542127815 -0.028863080791515301 0 0.0017508302613372404 -0.029072032810170442 0 0.0024205494886425402 -0.028875969812657901 0 0.0017508302613372404 -0.029072032810170442 0 0.002110835119561913 -0.029049896511878438 0 0.0024205494886425402 -0.028875969812657901 0 0.0024205494886425402 -0.028875969812657901 0 0.0029467209867966469 -0.028627512533012073 0 0.0029331578463634542 -0.028650375561488344 0 0.0021783965542127815 -0.028863080791515301 0 0.0024205494886425402 -0.028875969812657901 0 0.0029331578463634542 -0.028650375561488344 0 0.0029467209867966469 -0.028627512533012073 0 0.0026210885466711026 -0.028808455450815042 0 0.0030578378164290245 -0.028516924306900924 0 0.0024205494886425402 -0.028875969812657901 0 0.0029467209867966469 -0.028627512533012073 0 0.0026210885466711026 -0.028808455450815042 0 0.0026210885466711026 -0.028808455450815042 0 0.0030578378164290245 -0.028516924306900924 0 0.0028378759781033259 -0.028658301959881664 0 0.002110835119561913 -0.029049896511878438 0 0.0026210885466711026 -0.028808455450815042 0 0.0024324852490475702 -0.028935696275999075 0 0.002110835119561913 -0.029049896511878438 0 0.0012669764291758868 -0.029413797157606003 0 0.0024324852490475702 -0.028935696275999075 0 0.002110835119561913 -0.029049896511878438 0 0.0024205494886425402 -0.028875969812657901 0 0.0026210885466711026 -0.028808455450815042 0 0.0026210885466711026 -0.028808455450815042 0 0.0024324852490475702 -0.028935696275999075 0 0.0028378759781033259 -0.028658301959881664 0 -0.002446296038814235 -0.029884989789841523 0 -0.0024439781153742877 -0.030110477320992739 0 -0.0026110988424929474 -0.029800535886657101 0 -0.00059255077598107699 -0.029681539398160976 0 -0.00042782073015197765 -0.029545089941582742 0 -0.002480962093265383 -0.029817395817784784 0 -0.002446296038814235 -0.029884989789841523 0 -0.0026110988424929474 -0.029800535886657101 0 -0.0095038072585340045 -0.023576403257894521 0 -0.0095383594543915432 -0.023671780369375232 0 -0.0092943887261507461 -0.023830139375503451 0 -0.0060088554979391773 -0.026763719835066677 0 -0.0058665793157720277 -0.026870515818730248 0 -0.002480962093265383 -0.029817395817784784 0 -0.002446296038814235 -0.029884989789841523 0 -0.0025030009899932974 -0.029748442192694045 0 -0.0097089268303880826 -0.023641623127826736 0 -0.0098230296687283752 -0.023673338378477442 0 -0.009771750524081798 -0.023721210544220033 0 -0.0097089268303880826 -0.023641623127826736 0 -0.0096664865665284719 -0.023713766437576229 0 -0.009771750524081798 -0.023721210544220033 0 -0.0097089268303880826 -0.023641623127826736 0 -0.0095921462119783179 -0.023685612427272896 0 -0.0096664865665284719 -0.023713766437576229 0 -0.0097089268303880826 -0.023641623127826736 0 -0.0096355183907232168 -0.023615670851168391 0 -0.0097337549288298679 -0.023558711272120447 0 -0.0095038072585340045 -0.023576403257894521 0 -0.0096355183907232168 -0.023615670851168391 0 -0.0095921462119783179 -0.023685612427272896 0 -0.0097089268303880826 -0.023641623127826736 0 -0.0096355183907232168 -0.023615670851168391 0 -0.0095921462119783179 -0.023685612427272896 0 -0.0095038072585340045 -0.023576403257894521 0 -0.0095921462119783179 -0.023685612427272896 0 -0.0095383594543915432 -0.023671780369375232 0 -0.0095038072585340045 -0.023576403257894521 0 -0.0096355183907232168 -0.023615670851168391 0 -0.0097337549288298679 -0.023558711272120447 0 -0.0097089268303880826 -0.023641623127826736 0 -0.0097337549288298679 -0.023558711272120447 0 -0.0098157367030942168 -0.023609645211842618 0 -0.002446296038814235 -0.029884989789841523 0 -0.0024439781153742877 -0.030110477320992739 0 -0.0024811153139447165 -0.03019403613097309 0 0.0011300431595855107 -0.028970380347236636 0 0.0017508302613372404 -0.029072032810170442 0 0.0012669764291758868 -0.029413797157606003 0 -0.0060093364107718979 -0.026752142815208751 0 -0.0064454453762364944 -0.026714955336491885 0 -0.0064209892190245895 -0.026723051787993137 0 -0.001507278687568126 -0.029562162298600699 0 -0.00059255077598107699 -0.029681539398160976 0 -0.0023870283576053245 -0.029902403299471664 0 -0.0024439781153742877 -0.030110477320992739 0 -0.0024811153139447165 -0.03019403613097309 0 -0.010196331428284779 -0.023342472000779605 0 -0.010170931320194374 -0.023419011445070349 0 -0.010030528814671331 -0.02347357909971905 0 -0.010196331428284779 -0.023342472000779605 0 -0.01022545094217632 -0.023390108371618434 0 -0.010285680159285313 -0.023382112776942313 0 -0.01022545094217632 -0.023390108371618434 0 -0.010170931320194374 -0.023419011445070349 0 -0.010240676533528281 -0.023431106800478628 0 -0.010196331428284779 -0.023342472000779605 0 -0.01022545094217632 -0.023390108371618434 0 -0.010170931320194374 -0.023419011445070349 0 -0.010170931320194374 -0.023419011445070349 0 -0.01015128063886519 -0.023483717305964186 0 -0.010240676533528281 -0.023431106800478628 0 -0.0095038072585340045 -0.023576403257894521 0 -0.0097337549288298679 -0.023558711272120447 0 -0.010196331428284779 -0.023342472000779605 0 -0.0060088554979391773 -0.026763719835066677 0 -0.0090216018248861912 -0.024358212119267031 0 -0.0097337549288298679 -0.023558711272120447 0 -0.010196331428284779 -0.023342472000779605 0 -0.010030528814671331 -0.02347357909971905 0 -0.0060088554979391773 -0.026763719835066677 0 -0.003729834145221547 -0.029158185274672666 0 -0.01015128063886519 -0.023483717305964186 0 -0.010105854288214717 -0.023593803549210771 0 -0.010309603942889376 -0.023507418366567997 0 -0.010170931320194374 -0.023419011445070349 0 -0.01015128063886519 -0.023483717305964186 0 -0.010030528814671331 -0.02347357909971905 0 -0.01015128063886519 -0.023483717305964186 0 -0.010014769336106018 -0.023537819945489293 0 -0.010105854288214717 -0.023593803549210771 0 -0.01015128063886519 -0.023483717305964186 0 -0.010030528814671331 -0.02347357909971905 0 -0.010014769336106018 -0.023537819945489293 0 -0.0097337549288298679 -0.023558711272120447 0 -0.010030528814671331 -0.02347357909971905 0 -0.0098787032369318586 -0.023555903512994674 0 -0.010030528814671331 -0.02347357909971905 0 -0.010014769336106018 -0.023537819945489293 0 -0.0098787032369318586 -0.023555903512994674 0 -0.0097337549288298679 -0.023558711272120447 0 -0.0098157367030942168 -0.023609645211842618 0 -0.0098787032369318586 -0.023555903512994674 0 -0.0098157367030942168 -0.023609645211842618 0 -0.0098787032369318586 -0.023555903512994674 0 -0.009926939563142426 -0.023621779747691432 0 -0.010014769336106018 -0.023537819945489293 0 -0.009926939563142426 -0.023621779747691432 0 -0.010105854288214717 -0.023593803549210771 0 -0.010014769336106018 -0.023537819945489293 0 -0.0098787032369318586 -0.023555903512994674 0 -0.009926939563142426 -0.023621779747691432 0 -0.009926939563142426 -0.023621779747691432 0 -0.010105854288214717 -0.023593803549210771 0 -0.0099152250023076174 -0.023780048273709851 0 -0.009926939563142426 -0.023621779747691432 0 -0.0098230296687283752 -0.023673338378477442 0 -0.0099152250023076174 -0.023780048273709851 0 -0.0098157367030942168 -0.023609645211842618 0 -0.009926939563142426 -0.023621779747691432 0 -0.0098230296687283752 -0.023673338378477442 0 -0.0097089268303880826 -0.023641623127826736 0 -0.0098157367030942168 -0.023609645211842618 0 -0.0098230296687283752 -0.023673338378477442 0 -0.010309603942889376 -0.023507418366567997 0 -0.010462755867581247 -0.023522983502745728 0 -0.010390128376608286 -0.023636586260064481 0 -0.010105854288214717 -0.023593803549210771 0 -0.010309603942889376 -0.023507418366567997 0 -0.010390128376608286 -0.023636586260064481 0 -0.01015128063886519 -0.023483717305964186 0 -0.010309603942889376 -0.023507418366567997 0 -0.010240676533528281 -0.023431106800478628 0 -0.010309603942889376 -0.023507418366567997 0 -0.01031890965964217 -0.023437009694246853 0 -0.010395459199528365 -0.023452801588965216 0 -0.010309603942889376 -0.023507418366567997 0 -0.010240676533528281 -0.023431106800478628 0 -0.01031890965964217 -0.023437009694246853 0 -0.010309603942889376 -0.023507418366567997 0 -0.010462755867581247 -0.023522983502745728 0 -0.010395459199528365 -0.023452801588965216 0 -0.010592009023354705 -0.023555123548378021 0 -0.010462755867581247 -0.023522983502745728 0 -0.010390128376608286 -0.023636586260064481 0 -0.010592009023354705 -0.023555123548378021 0 -0.01053704212257358 -0.023501061576758644 0 -0.010462755867581247 -0.023522983502745728 0 -0.010592009023354705 -0.023555123548378021 0 -0.01053704212257358 -0.023501061576758644 0 -0.010589862042908953 -0.023513788797743299 0 -0.01053704212257358 -0.023501061576758644 0 -0.010462755867581247 -0.023522983502745728 0 -0.010480254547900787 -0.023453703772360009 0 -0.010462755867581247 -0.023522983502745728 0 -0.010480254547900787 -0.023453703772360009 0 -0.010395459199528365 -0.023452801588965216 0 -0.010480254547900787 -0.023453703772360009 0 -0.010547917961344079 -0.023462183844336942 0 -0.010512676330294818 -0.023435368076187377 0 -0.01053704212257358 -0.023501061576758644 0 -0.010480254547900787 -0.023453703772360009 0 -0.010547917961344079 -0.023462183844336942 0 -0.01053704212257358 -0.023501061576758644 0 -0.010547917961344079 -0.023462183844336942 0 -0.010589862042908953 -0.023513788797743299 0 -0.010547917961344079 -0.023462183844336942 0 -0.010512676330294818 -0.023435368076187377 0 -0.010549247079060254 -0.023431243736416956 0 -0.010547917961344079 -0.023462183844336942 0 -0.010567953036315409 -0.023449954874616936 0 -0.010549247079060254 -0.023431243736416956 0 -0.010480254547900787 -0.023453703772360009 0 -0.01047228342998071 -0.023423649684072553 0 -0.010512676330294818 -0.023435368076187377 0 -0.010480254547900787 -0.023453703772360009 0 -0.01047228342998071 -0.023423649684072553 0 -0.010423106767709253 -0.023418162552308726 0 -0.010512676330294818 -0.023435368076187377 0 -0.010506130909163254 -0.023419263344024176 0 -0.010549247079060254 -0.023431243736416956 0 -0.01047228342998071 -0.023423649684072553 0 -0.010512676330294818 -0.023435368076187377 0 -0.010506130909163254 -0.023419263344024176 0 -0.01047228342998071 -0.023423649684072553 0 -0.010455873423248239 -0.023408511872522228 0 -0.010506130909163254 -0.023419263344024176 0 -0.010196331428284779 -0.023342472000779605 0 -0.010378995991585939 -0.023388430650634621 0 -0.010502984327722887 -0.023400292344766684 0 -0.0064454453762364944 -0.026714955336491885 0 -0.0064209892190245895 -0.026723051787993137 0 -0.0068245430901885491 -0.026681377446969787 0 -0.01047228342998071 -0.023423649684072553 0 -0.010455873423248239 -0.023408511872522228 0 -0.010423106767709253 -0.023418162552308726 0 -0.010455873423248239 -0.023408511872522228 0 -0.010423106767709253 -0.023418162552308726 0 -0.010378995991585939 -0.023388430650634621 0 -0.010423106767709253 -0.023418162552308726 0 -0.010378995991585939 -0.023388430650634621 0 -0.010347186920517804 -0.023402942762278906 0 -0.010196331428284779 -0.023342472000779605 0 -0.010378995991585939 -0.023388430650634621 0 -0.010285680159285313 -0.023382112776942313 0 -0.010378995991585939 -0.023388430650634621 0 -0.010347186920517804 -0.023402942762278906 0 -0.010285680159285313 -0.023382112776942313 0 -0.010347186920517804 -0.023402942762278906 0 -0.01027495742626431 -0.023404510598808506 0 -0.01031890965964217 -0.023437009694246853 0 -0.010347186920517804 -0.023402942762278906 0 -0.010285680159285313 -0.023382112776942313 0 -0.01027495742626431 -0.023404510598808506 0 -0.01022545094217632 -0.023390108371618434 0 -0.010285680159285313 -0.023382112776942313 0 -0.01027495742626431 -0.023404510598808506 0 -0.01027495742626431 -0.023404510598808506 0 -0.010240676533528281 -0.023431106800478628 0 -0.01031890965964217 -0.023437009694246853 0 -0.01022545094217632 -0.023390108371618434 0 -0.01027495742626431 -0.023404510598808506 0 -0.010240676533528281 -0.023431106800478628 0 -0.010347186920517804 -0.023402942762278906 0 -0.01031890965964217 -0.023437009694246853 0 -0.010395459199528365 -0.023452801588965216 0 -0.010480254547900787 -0.023453703772360009 0 -0.010423106767709253 -0.023418162552308726 0 -0.010395459199528365 -0.023452801588965216 0 -0.010423106767709253 -0.023418162552308726 0 -0.010347186920517804 -0.023402942762278906 0 -0.010395459199528365 -0.023452801588965216 0 -0.010834201618900871 -0.023556565335876335 0 -0.01082739882800675 -0.023690906809428845 0 -0.010741207283007061 -0.02358774425605082 0 -0.01082739882800675 -0.023690906809428845 0 -0.010741207283007061 -0.02358774425605082 0 -0.010739949685365281 -0.023641509495531593 0 -0.010834155150483051 -0.023804915658690994 0 -0.01082739882800675 -0.023690906809428845 0 -0.010739949685365281 -0.023641509495531593 0 -0.010741207283007061 -0.02358774425605082 0 -0.010658504376495724 -0.023559874619137271 0 -0.010662783570600796 -0.023523737326725722 0 -0.010741207283007061 -0.02358774425605082 0 -0.010739949685365281 -0.023641509495531593 0 -0.010658504376495724 -0.023559874619137271 0 -0.010739949685365281 -0.023641509495531593 0 -0.010658504376495724 -0.023559874619137271 0 -0.010677385183469881 -0.023582860361538734 0 -0.010592009023354705 -0.023555123548378021 0 -0.010658504376495724 -0.023559874619137271 0 -0.010677385183469881 -0.023582860361538734 0 -0.010592009023354705 -0.023555123548378021 0 -0.010658504376495724 -0.023559874619137271 0 -0.010589862042908953 -0.023513788797743299 0 -0.010658504376495724 -0.023559874619137271 0 -0.010589862042908953 -0.023513788797743299 0 -0.010605084445787647 -0.023481072144139751 0 -0.010547917961344079 -0.023462183844336942 0 -0.010589862042908953 -0.023513788797743299 0 -0.010605084445787647 -0.023481072144139751 0 -0.010605084445787647 -0.023481072144139751 0 -0.010567953036315409 -0.023449954874616936 0 -0.010571594097392825 -0.023433861340867796 0 -0.010547917961344079 -0.023462183844336942 0 -0.010605084445787647 -0.023481072144139751 0 -0.010567953036315409 -0.023449954874616936 0 -0.010605084445787647 -0.023481072144139751 0 -0.010657749026465673 -0.023467957659018473 0 -0.010571594097392825 -0.023433861340867796 0 -0.010605084445787647 -0.023481072144139751 0 -0.010662783570600796 -0.023523737326725722 0 -0.010657749026465673 -0.023467957659018473 0 -0.010658504376495724 -0.023559874619137271 0 -0.010605084445787647 -0.023481072144139751 0 -0.010662783570600796 -0.023523737326725722 0 -0.010741207283007061 -0.02358774425605082 0 -0.010662783570600796 -0.023523737326725722 0 -0.010657749026465673 -0.023467957659018473 0 -0.010828179329621641 -0.023470344671701185 0 -0.010834201618900871 -0.023556565335876335 0 -0.010657749026465673 -0.023467957659018473 0 -0.010834201618900871 -0.023556565335876335 0 -0.010741207283007061 -0.02358774425605082 0 -0.010657749026465673 -0.023467957659018473 0 -0.010619931945977996 -0.023430615962858961 0 -0.010657749026465673 -0.023467957659018473 0 -0.010538474853276769 -0.02343782511456011 0 -0.010828179329621641 -0.023470344671701185 0 -0.010619931945977996 -0.023430615962858961 0 -0.010657749026465673 -0.023467957659018473 0 -0.010657749026465673 -0.023467957659018473 0 -0.010538474853276769 -0.02343782511456011 0 -0.010571594097392825 -0.023433861340867796 0 -0.010538474853276769 -0.02343782511456011 0 -0.010571594097392825 -0.023433861340867796 0 -0.010586559620569716 -0.023503302816250928 0 -0.010571594097392825 -0.023433861340867796 0 -0.010549247079060254 -0.023431243736416956 0 -0.010564810298874417 -0.023440693919520892 0 -0.010567953036315409 -0.023449954874616936 0 -0.010571594097392825 -0.023433861340867796 0 -0.010549247079060254 -0.023431243736416956 0 -0.010571594097392825 -0.023433861340867796 0 -0.010586559620569716 -0.023503302816250928 0 -0.010564810298874417 -0.023440693919520892 0 -0.010538474853276769 -0.02343782511456011 0 -0.010586559620569716 -0.023503302816250928 0 -0.01064201435574756 -0.023706320747271057 0 -0.010538474853276769 -0.02343782511456011 0 -0.010228320653265469 -0.023594037835811172 0 -0.01064201435574756 -0.023706320747271057 0 -0.010619931945977996 -0.023430615962858961 0 -0.010538474853276769 -0.02343782511456011 0 -0.010228320653265469 -0.023594037835811172 0 -0.0023870283576053245 -0.029902403299471664 0 -0.0034015556463100377 -0.029917497358481877 0 -0.0035730656004457893 -0.029820301630253954 0 -0.003729834145221547 -0.029158185274672666 0 -0.0069346058812444333 -0.026602046084337916 0 -0.0090216018248861912 -0.024358212119267031 0 -0.0069346058812444333 -0.026602046084337916 0 -0.0023870283576053245 -0.029902403299471664 0 -0.0024811153139447165 -0.03019403613097309 0 -0.0034015556463100377 -0.029917497358481877 0 -0.010455873423248239 -0.023408511872522228 0 -0.010378995991585939 -0.023388430650634621 0 -0.010492444825591894 -0.023407596292959319 0 -0.010378995991585939 -0.023388430650634621 0 -0.010502984327722887 -0.023400292344766684 0 -0.010492444825591894 -0.023407596292959319 0 -0.010455873423248239 -0.023408511872522228 0 -0.010506130909163254 -0.023419263344024176 0 -0.010492444825591894 -0.023407596292959319 0 -0.010506130909163254 -0.023419263344024176 0 -0.010539092481642288 -0.023422710071340658 0 -0.010492444825591894 -0.023407596292959319 0 -0.010539092481642288 -0.023422710071340658 0 -0.010492444825591894 -0.023407596292959319 0 -0.010530938413856201 -0.023414777958514717 0 -0.010506130909163254 -0.023419263344024176 0 -0.010539092481642288 -0.023422710071340658 0 -0.010549247079060254 -0.023431243736416956 0 -0.010539092481642288 -0.023422710071340658 0 -0.010549247079060254 -0.023431243736416956 0 -0.010564810298874417 -0.023440693919520892 0 -0.010586559620569716 -0.023503302816250928 0 -0.010555637170442857 -0.023435284222439734 0 -0.010547942445735002 -0.023417663713934545 0 -0.010586559620569716 -0.023503302816250928 0 -0.010564810298874417 -0.023440693919520892 0 -0.010555637170442857 -0.023435284222439734 0 -0.010539092481642288 -0.023422710071340658 0 -0.010564810298874417 -0.023440693919520892 0 -0.010555637170442857 -0.023435284222439734 0 -0.010502984327722887 -0.023400292344766684 0 -0.010492444825591894 -0.023407596292959319 0 -0.010530938413856201 -0.023414777958514717 0 -0.010502984327722887 -0.023400292344766684 0 -0.010530938413856201 -0.023414777958514717 0 -0.010547942445735002 -0.023417663713934545 0 -0.010555637170442857 -0.023435284222439734 0 -0.010530938413856201 -0.023414777958514717 0 -0.010547942445735002 -0.023417663713934545 0 -0.010539092481642288 -0.023422710071340658 0 -0.010555637170442857 -0.023435284222439734 0 -0.010530938413856201 -0.023414777958514717 0 -0.0069346058812444333 -0.026602046084337916 0 -0.0070781603363778466 -0.026589437960323838 0 -0.0035730656004457893 -0.029820301630253954 0 -0.0028780639598100966 -0.028637069842031369 0 -0.0061239137098711661 -0.028168297867960372 0 -0.0070781603363778466 -0.026589437960323838 0 -0.0083524028043338271 -0.02587678599151734 0 -0.010586559620569716 -0.023503302816250928 0 -0.010547942445735002 -0.023417663713934545 0 -0.01064201435574756 -0.023706320747271057 0 -0.0023870283576053245 -0.029902403299471664 0 -0.0035730656004457893 -0.029820301630253954 0 -0.0028780639598100966 -0.028637069842031369 0 -0.001507278687568126 -0.029562162298600699 0 -0.0027840980659518959 -0.028594678593024593 0 -0.0028780639598100966 -0.028637069842031369 0 -0.0038941009314762544 -0.026280098098369981 0 -0.001798029047015229 -0.027385054433809185 0 -0.00097606820638272967 -0.028551780779826237 0 -0.0028780639598100966 -0.028637069842031369 0 -0.001798029047015229 -0.027385054433809185 0 -0.0028780639598100966 -0.028637069842031369 0 -0.0038941009314762544 -0.026280098098369981 0 -0.0061239137098711661 -0.028168297867960372 0 -0.0038941009314762544 -0.026280098098369981 0 -0.0020444951456564291 -0.026161134514230692 0 -0.001798029047015229 -0.027385054433809185 0 -0.010228320653265469 -0.023594037835811172 0 -0.01064201435574756 -0.023706320747271057 0 -0.0092035564033154105 -0.024672441073908532 0 -0.0083524028043338271 -0.02587678599151734 0 -0.009200980514394809 -0.02476589531296566 0 -0.0061239137098711661 -0.028168297867960372 0 -0.0064999960676334449 -0.025084959238547921 0 -0.0092035564033154105 -0.024672441073908532 0 -0.0038941009314762544 -0.026280098098369981 0 -0.0061239137098711661 -0.028168297867960372 0 -0.0064999960676334449 -0.025084959238547921 0 -0.0064999960676334449 -0.025084959238547921 0 -0.0092035564033154105 -0.024672441073908532 0 -0.0073721454361817939 -0.023492459344922292 0 -0.0064999960676334449 -0.025084959238547921 0 -0.0073721454361817939 -0.023492459344922292 0 -0.0053211995565510444 -0.024645154765035138 0 -0.0049154591189413052 -0.023766628871243312 0 -0.0073721454361817939 -0.023492459344922292 0 -0.0053211995565510444 -0.024645154765035138 0 -0.0038941009314762544 -0.026280098098369981 0 -0.0033912579237758665 -0.024972644937396971 0 -0.0020444951456564291 -0.026161134514230692 0 -0.0038941009314762544 -0.026280098098369981 0 -0.0053211995565510444 -0.024645154765035138 0 -0.0033912579237758665 -0.024972644937396971 0 -0.0038941009314762544 -0.026280098098369981 0 -0.0064999960676334449 -0.025084959238547921 0 -0.0053211995565510444 -0.024645154765035138 0 -0.0049154591189413052 -0.023766628871243312 0 -0.0053211995565510444 -0.024645154765035138 0 -0.0033912579237758665 -0.024972644937396971 0 -0.0028726371580269786 -0.024066344882946428 0 -0.0049154591189413052 -0.023766628871243312 0 -0.0033912579237758665 -0.024972644937396971 0 -0.0028726371580269786 -0.024066344882946428 0 -0.0033912579237758665 -0.024972644937396971 0 -0.0016415752147812489 -0.025133686165746964 0 -0.0016415752147812489 -0.025133686165746964 0 -0.00056453084367583573 -0.026120347696570498 0 0.00014576963619698005 -0.025514372758980698 0 -0.00056453084367583573 -0.026120347696570498 0 0.00096740310746538027 -0.026724938874207169 0 0.00014576963619698005 -0.025514372758980698 0 -0.00056453084367583573 -0.026120347696570498 0 -0.00034396109135338622 -0.027047692988588026 0 0.00096740310746538027 -0.026724938874207169 0 -0.00056453084367583573 -0.026120347696570498 0 -0.0020444951456564291 -0.026161134514230692 0 -0.00034396109135338622 -0.027047692988588026 0 -0.0016415752147812489 -0.025133686165746964 0 -0.00056453084367583573 -0.026120347696570498 0 -0.0020444951456564291 -0.026161134514230692 0 -0.0033912579237758665 -0.024972644937396971 0 -0.0016415752147812489 -0.025133686165746964 0 -0.0020444951456564291 -0.026161134514230692 0 -0.0020444951456564291 -0.026161134514230692 0 -0.00034396109135338622 -0.027047692988588026 0 -0.001798029047015229 -0.027385054433809185 0 0.0012417647269010515 -0.02846051050217616 0 -0.00010788898986856064 -0.028074815521511982 0 0.0011032667977717238 -0.027707463910582927 0 -0.00034396109135338622 -0.027047692988588026 0 -0.00010788898986856064 -0.028074815521511982 0 0.0011032667977717238 -0.027707463910582927 0 -0.00097606820638272967 -0.028551780779826237 0 -0.00010788898986856064 -0.028074815521511982 0 -0.001798029047015229 -0.027385054433809185 0 -0.00034396109135338622 -0.027047692988588026 0 -0.00010788898986856064 -0.028074815521511982 0 -0.001798029047015229 -0.027385054433809185 0 0.0022401009233656965 -0.028277362043691343 0 0.0026029266036545207 -0.027709999678688476 0 0.0030853854680651625 -0.028279328752588546 0 0.0022401009233656965 -0.028277362043691343 0 0.0011032667977717238 -0.027707463910582927 0 0.0026029266036545207 -0.027709999678688476 0 0.0012417647269010515 -0.02846051050217616 0 0.0022401009233656965 -0.028277362043691343 0 0.0011032667977717238 -0.027707463910582927 0 0.0011032667977717238 -0.027707463910582927 0 0.0026029266036545207 -0.027709999678688476 0 0.00096740310746538027 -0.026724938874207169 0 -0.00034396109135338622 -0.027047692988588026 0 0.0011032667977717238 -0.027707463910582927 0 0.00096740310746538027 -0.026724938874207169 0 0.0023436291057916865 -0.026743590938296185 0 0.00096740310746538027 -0.026724938874207169 0 0.0015059629068744384 -0.025930781428458505 0 0.0026029266036545207 -0.027709999678688476 0 0.0023436291057916865 -0.026743590938296185 0 0.00096740310746538027 -0.026724938874207169 0 0.00096740310746538027 -0.026724938874207169 0 0.00014576963619698005 -0.025514372758980698 0 0.0015059629068744384 -0.025930781428458505 0 0.0016482994187498377 -0.024918120837755686 0 0.00014576963619698005 -0.025514372758980698 0 0.0015059629068744384 -0.025930781428458505 0 0.0016482994187498377 -0.024918120837755686 0 0.0015059629068744384 -0.025930781428458505 0 0.0032256852532390034 -0.025931149213529896 0 0.0023436291057916865 -0.026743590938296185 0 0.0015059629068744384 -0.025930781428458505 0 0.0032256852532390034 -0.025931149213529896 0 0.0023436291057916865 -0.026743590938296185 0 0.0032256852532390034 -0.025931149213529896 0 0.0038226267240960626 -0.027241834789434073 0 0.0026029266036545207 -0.027709999678688476 0 0.0023436291057916865 -0.026743590938296185 0 0.0038226267240960626 -0.027241834789434073 0 0.0038226267240960626 -0.027241834789434073 0 0.0047591535260500554 -0.026502387256825532 0 0.0061739596571836605 -0.027380040029459471 0 0.0038226267240960626 -0.027241834789434073 0 0.0061739596571836605 -0.027380040029459471 0 0.0042879390046588568 -0.028290228972702849 0 0.0056938186927501288 -0.025577737223276591 0 0.0032256852532390034 -0.025931149213529896 0 0.0047591535260500554 -0.026502387256825532 0 0.0032256852532390034 -0.025931149213529896 0 0.0038226267240960626 -0.027241834789434073 0 0.0047591535260500554 -0.026502387256825532 0 0.0056938186927501288 -0.025577737223276591 0 0.0047591535260500554 -0.026502387256825532 0 0.0061739596571836605 -0.027380040029459471 0 0.0079595479184974803 -0.026073710227759624 0 0.0056938186927501288 -0.025577737223276591 0 0.0061739596571836605 -0.027380040029459471 0 0.0079595479184974803 -0.026073710227759624 0 0.0081194194704939313 -0.027536997615479328 0 0.0061739596571836605 -0.027380040029459471 0 0.0081194194704939313 -0.027536997615479328 0 0.0061739596571836605 -0.027380040029459471 0 0.0071090500094110089 -0.028585615772008799 0 0.0061739596571836605 -0.027380040029459471 0 0.0071090500094110089 -0.028585615772008799 0 0.0042879390046588568 -0.028290228972702849 0 0.0071090500094110089 -0.028585615772008799 0 0.0061892823781485046 -0.029785666755065936 0 0.0042879390046588568 -0.028290228972702849 0 0.0073160273853979064 -0.029587944261440902 0 0.0061892823781485046 -0.029785666755065936 0 0.007391528650076533 -0.030364733987132988 0 0.0071090500094110089 -0.028585615772008799 0 0.0073160273853979064 -0.029587944261440902 0 0.0061892823781485046 -0.029785666755065936 0 0.0071090500094110089 -0.028585615772008799 0 0.0073160273853979064 -0.029587944261440902 0 0.0080625442216380877 -0.029168058122640388 0 0.0048852150913795593 -0.029036613908166104 0 0.0042862677419053382 -0.028335560666868435 0 0.0036460276242904015 -0.028435115345634698 0 0.0036375385947362811 -0.028391041201889507 0 0.0042879390046588568 -0.028290228972702849 0 0.0036375385947362811 -0.028391041201889507 0 0.0030853854680651625 -0.028279328752588546 0 0.0042879390046588568 -0.028290228972702849 0 0.0026029266036545207 -0.027709999678688476 0 0.0030853854680651625 -0.028279328752588546 0 0.0042879390046588568 -0.028290228972702849 0 0.0026029266036545207 -0.027709999678688476 0 0.0038226267240960626 -0.027241834789434073 0 0.0042879390046588568 -0.028290228972702849 0 0.013480105184872172 -0.028862514110789602 0 0.01220556795204965 -0.028738694891768245 0 0.010391481266806465 -0.028668137696371832 0 0.011839726173157424 -0.028224223939036761 0 0.012916492773697909 -0.028039769472599615 0 0.01225759906871891 -0.029049675298117771 0 0.012677576188594827 -0.029324387310715547 0 0.01225759906871891 -0.029049675298117771 0 0.011648920574819676 -0.028988052105563083 0 0.012677576188594827 -0.029324387310715547 0 0.012474881776498895 -0.027350886266211839 0 0.012867600290737701 -0.027955525167184598 0 0.012044656394706284 -0.028013329317735446 0 0.012867600290737701 -0.027955525167184598 0 0.01225759906871891 -0.029049675298117771 0 0.012044656394706284 -0.028013329317735446 0 0.011561942192321928 -0.026885484232773305 0 0.012044656394706284 -0.028013329317735446 0 0.011169437639319872 -0.027879731330472411 0 0.012044656394706284 -0.028013329317735446 0 0.011169437639319872 -0.027879731330472411 0 0.011648920574819676 -0.028988052105563083 0 0.01225759906871891 -0.029049675298117771 0 0.012044656394706284 -0.028013329317735446 0 0.011648920574819676 -0.028988052105563083 0 0.009261404389603916 -0.028252308924141052 0 0.0084953181096807037 -0.027933664869109139 0 0.008734191468320527 -0.028443011666759794 0 0.010391481266806465 -0.028668137696371832 0 0.0093840624696952639 -0.028220356202071282 0 0.011169437639319872 -0.027879731330472411 0 0.011648920574819676 -0.028988052105563083 0 0.010304632872974161 -0.028610759434379032 0 0.0084953181096807037 -0.027933664869109139 0 0.008151250398613313 -0.028398387891896148 0 0.008734191468320527 -0.028443011666759794 0 0.0099883220047365176 -0.027097329071264293 0 0.011169437639319872 -0.027879731330472411 0 0.010304632872974161 -0.028610759434379032 0 0.0099883220047365176 -0.027097329071264293 0 0.0079595479184974803 -0.026073710227759624 0 0.0081194194704939313 -0.027536997615479328 0 0.0099883220047365176 -0.027097329071264293 0 0.0081194194704939313 -0.027536997615479328 0 0.010304632872974161 -0.028610759434379032 0 0.0081194194704939313 -0.027536997615479328 0 0.0071090500094110089 -0.028585615772008799 0 0.008151250398613313 -0.028398387891896148 0 0.008207621924041026 -0.027637041018506458 0 0.0093840624696952639 -0.028220356202071282 0 0.0081194194704939313 -0.027536997615479328 0 0.0084953181096807037 -0.027933664869109139 0 0.008151250398613313 -0.028398387891896148 0 0.008151250398613313 -0.028398387891896148 0 0.0080625442216380877 -0.029168058122640388 0 0.0085848324160561242 -0.028907634096692517 0 0.0071090500094110089 -0.028585615772008799 0 0.008151250398613313 -0.028398387891896148 0 0.0080625442216380877 -0.029168058122640388 0 0.0073160273853979064 -0.029587944261440902 0 0.0080625442216380877 -0.029168058122640388 0 0.0080035525861422534 -0.029862258004905867 0 0.0080625442216380877 -0.029168058122640388 0 0.0084842090791268625 -0.029466995912435522 0 0.0080035525861422534 -0.029862258004905867 0 0.0080625442216380877 -0.029168058122640388 0 0.0084842090791268625 -0.029466995912435522 0 0.0085848324160561242 -0.028907634096692517 0 0.0084842090791268625 -0.029466995912435522 0 0.0088340812222910924 -0.029683291188488364 0 0.0089230281420759963 -0.029261274421368146 0 0.0084842090791268625 -0.029466995912435522 0 0.0088340812222910924 -0.029683291188488364 0 0.0085071787812765459 -0.029970677934060073 0 0.0084842090791268625 -0.029466995912435522 0 0.0085848324160561242 -0.028907634096692517 0 0.0089230281420759963 -0.029261274421368146 0 0.0085848324160561242 -0.028907634096692517 0 0.0091263539967455804 -0.02880959044768849 0 0.0089230281420759963 -0.029261274421368146 0 0.0085848324160561242 -0.028907634096692517 0 0.008734191468320527 -0.028443011666759794 0 0.0091263539967455804 -0.02880959044768849 0 0.008151250398613313 -0.028398387891896148 0 0.0085848324160561242 -0.028907634096692517 0 0.008734191468320527 -0.028443011666759794 0 0.009261404389603916 -0.028252308924141052 0 0.008734191468320527 -0.028443011666759794 0 0.0091263539967455804 -0.02880959044768849 0 0.009261404389603916 -0.028252308924141052 0 0.0095063142517264922 -0.028634780307274836 0 0.0091263539967455804 -0.02880959044768849 0 0.0091263539967455804 -0.02880959044768849 0 0.009316120086653305 -0.029199747906712068 0 0.009568898458875567 -0.028910092524993526 0 0.0095063142517264922 -0.028634780307274836 0 0.0091263539967455804 -0.02880959044768849 0 0.009568898458875567 -0.028910092524993526 0 0.0089230281420759963 -0.029261274421368146 0 0.0091752904619250199 -0.02951072577133183 0 0.009316120086653305 -0.029199747906712068 0 0.0091263539967455804 -0.02880959044768849 0 0.0089230281420759963 -0.029261274421368146 0 0.009316120086653305 -0.029199747906712068 0 0.0088340812222910924 -0.029683291188488364 0 0.0089230281420759963 -0.029261274421368146 0 0.0091752904619250199 -0.02951072577133183 0 0.0088340812222910924 -0.029683291188488364 0 0.0091752904619250199 -0.02951072577133183 0 0.0091887674070367659 -0.029866366578784703 0 0.0091752904619250199 -0.02951072577133183 0 0.0094369534289784653 -0.029572957065433721 0 0.009316120086653305 -0.029199747906712068 0 0.0091752904619250199 -0.02951072577133183 0 0.0094369534289784653 -0.029572957065433721 0 0.0091887674070367659 -0.029866366578784703 0 0.0094369534289784653 -0.029572957065433721 0 0.009316120086653305 -0.029199747906712068 0 0.0096873298563187396 -0.02922880295857825 0 0.0095398592147566373 -0.029339168916973322 0 0.011839726173157424 -0.028224223939036761 0 0.009887322464354158 -0.029528718876106676 0 0.010445267710249423 -0.029079521914200577 0 0.010319467020833013 -0.027124060309544326 0 0.009316120086653305 -0.029199747906712068 0 0.0096873298563187396 -0.02922880295857825 0 0.009568898458875567 -0.028910092524993526 0 0.0096873298563187396 -0.02922880295857825 0 0.009887322464354158 -0.029528718876106676 0 0.010066433664150767 -0.028567899703108596 0 0.0096873298563187396 -0.02922880295857825 0 0.0096429701227984353 -0.029596511069984021 0 0.009887322464354158 -0.029528718876106676 0 0.0094369534289784653 -0.029572957065433721 0 0.0096873298563187396 -0.02922880295857825 0 0.0096429701227984353 -0.029596511069984021 0 0.0096429701227984353 -0.029596511069984021 0 0.009887322464354158 -0.029528718876106676 0 0.0097430518407749279 -0.029860232123609418 0 0.0094369534289784653 -0.029572957065433721 0 0.0096429701227984353 -0.029596511069984021 0 0.009499142160160982 -0.029867004871528623 0 0.009887322464354158 -0.029528718876106676 0 0.010445267710249423 -0.029079521914200577 0 0.01023198214154915 -0.029853577884458533 0 0.010787058953948528 -0.029479747195719747 0 0.010445267710249423 -0.029079521914200577 0 0.01023198214154915 -0.029853577884458533 0 0.0096873298563187396 -0.02922880295857825 0 0.009568898458875567 -0.028910092524993526 0 0.010066433664150767 -0.028567899703108596 0 0.009261404389603916 -0.028252308924141052 0 0.0095063142517264922 -0.028634780307274836 0 0.010066433664150767 -0.028567899703108596 0 0.0095063142517264922 -0.028634780307274836 0 0.009568898458875567 -0.028910092524993526 0 0.010066433664150767 -0.028567899703108596 0 0.009963020417553068 -0.031030224899416287 0 0.0094450774225203846 -0.030744278763327346 0 0.0096172772093043278 -0.030354013629616691 0 0.0059220900871776224 -0.028913033947945112 0 0.010541435216904371 -0.031298475237317963 0 0.0067494798952389499 -0.027731049061594099 0 0.010013851889491021 -0.028029668819434712 0 0.0093882201579531272 -0.029983660500632836 0 0.0096172772093043278 -0.030354013629616691 0 0.0096202210593612225 -0.030363428129697098 0 0.0093882201579531272 -0.029983660500632836 0 0.0096202210593612225 -0.030363428129697098 0 0.009572644641649709 -0.030401447192676033 0 0.0094450774225203846 -0.030744278763327346 0 0.0096172772093043278 -0.030354013629616691 0 0.0094077408376329434 -0.03049904971938688 0 0.0096172772093043278 -0.030354013629616691 0 0.0093894251459350399 -0.030388343022164886 0 0.0094077408376329434 -0.03049904971938688 0 0.0096172772093043278 -0.030354013629616691 0 0.0095447375190673631 -0.030258406628409965 0 0.0093894251459350399 -0.030388343022164886 0 0.0096172772093043278 -0.030354013629616691 0 0.0096202210593612225 -0.030363428129697098 0 0.0095447375190673631 -0.030258406628409965 0 0.010013851889491021 -0.028029668819434712 0 0.010172979549937568 -0.030249885313112571 0 0.0096202210593612225 -0.030363428129697098 0 0.0097592703797173188 -0.030263403315648613 0 0.0096314509607568471 -0.030239763675180158 0 0.0096509470958516183 -0.02854860696850104 0 0.010013851889491021 -0.028029668819434712 0 0.01008082375646786 -0.030805050908197025 0 0.01023198214154915 -0.029853577884458533 0 0.0097430518407749279 -0.029860232123609418 0 0.009887322464354158 -0.029528718876106676 0 0.01023198214154915 -0.029853577884458533 0 0.0097430518407749279 -0.029860232123609418 0 0.0096429701227984353 -0.029596511069984021 0 0.009499142160160982 -0.029867004871528623 0 0.0097430518407749279 -0.029860232123609418 0 0.009499142160160982 -0.029867004871528623 0 0.0097430518407749279 -0.029860232123609418 0 0.0096302170254618721 -0.030070421004663225 0 0.009499142160160982 -0.029867004871528623 0 0.0096302170254618721 -0.030070421004663225 0 0.0093811442764242057 -0.030089512264409393 0 0.0096302170254618721 -0.030070421004663225 0 0.0095447375190673631 -0.030258406628409965 0 0.0093811442764242057 -0.030089512264409393 0 0.0097592703797173188 -0.030263403315648613 0 0.0097430518407749279 -0.029860232123609418 0 0.0096302170254618721 -0.030070421004663225 0 0.0097592703797173188 -0.030263403315648613 0 0.0096302170254618721 -0.030070421004663225 0 0.0096314509607568471 -0.030239763675180158 0 0.0096302170254618721 -0.030070421004663225 0 0.0096314509607568471 -0.030239763675180158 0 0.0095447375190673631 -0.030258406628409965 0 0.0096202210593612225 -0.030363428129697098 0 0.0096314509607568471 -0.030239763675180158 0 0.0095447375190673631 -0.030258406628409965 0 0.0093811442764242057 -0.030089512264409393 0 0.0091887674070367659 -0.029866366578784703 0 0.0091143601291097665 -0.030195051849458521 0 0.0095447375190673631 -0.030258406628409965 0 0.0093109545712730581 -0.030270591940479676 0 0.0093811442764242057 -0.030089512264409393 0 0.0095447375190673631 -0.030258406628409965 0 0.0093109545712730581 -0.030270591940479676 0 0.0093894251459350399 -0.030388343022164886 0 0.0093109545712730581 -0.030270591940479676 0 0.0093811442764242057 -0.030089512264409393 0 0.0091143601291097665 -0.030195051849458521 0 0.0094369534289784653 -0.029572957065433721 0 0.009499142160160982 -0.029867004871528623 0 0.0091887674070367659 -0.029866366578784703 0 0.009499142160160982 -0.029867004871528623 0 0.0093811442764242057 -0.030089512264409393 0 0.0091887674070367659 -0.029866366578784703 0 0.0088340812222910924 -0.029683291188488364 0 0.0091887674070367659 -0.029866366578784703 0 0.0088464163896111586 -0.030085565848100307 0 0.0091887674070367659 -0.029866366578784703 0 0.0088464163896111586 -0.030085565848100307 0 0.0091143601291097665 -0.030195051849458521 0 0.0088464163896111586 -0.030085565848100307 0 0.0091143601291097665 -0.030195051849458521 0 0.0088899613391629235 -0.030359011603308499 0 0.0091143601291097665 -0.030195051849458521 0 0.0088899613391629235 -0.030359011603308499 0 0.0091815863649718707 -0.030511225035832139 0 0.0088899613391629235 -0.030359011603308499 0 0.0091815863649718707 -0.030511225035832139 0 0.008697981095640954 -0.030629583649417057 0 0.0093109545712730581 -0.030270591940479676 0 0.0091143601291097665 -0.030195051849458521 0 0.0091815863649718707 -0.030511225035832139 0 0.0093109545712730581 -0.030270591940479676 0 0.0093894251459350399 -0.030388343022164886 0 0.0091815863649718707 -0.030511225035832139 0 0.0093894251459350399 -0.030388343022164886 0 0.0094077408376329434 -0.03049904971938688 0 0.0091815863649718707 -0.030511225035832139 0 0.0094450774225203846 -0.030744278763327346 0 0.0091815863649718707 -0.030511225035832139 0 0.0091029112585359808 -0.030934865438611837 0 0.0094450774225203846 -0.030744278763327346 0 0.0094077408376329434 -0.03049904971938688 0 0.0091815863649718707 -0.030511225035832139 0 0.0091815863649718707 -0.030511225035832139 0 0.008697981095640954 -0.030629583649417057 0 0.0091029112585359808 -0.030934865438611837 0 0.008697981095640954 -0.030629583649417057 0 0.0081690791925058317 -0.030890642703744652 0 0.0091029112585359808 -0.030934865438611837 0 0.0053765709353598944 -0.029493365056503962 0 0.0052908422196848949 -0.029732440605225063 0 0.00276198060527368 -0.028368661316573889 0 0.0028998063559067802 -0.028377210166101677 0 0.0028538574850192041 -0.028348827676336598 0 0.0046367138453272819 -0.028914645374977233 0 0.0053765709353598944 -0.029493365056503962 0 0.008697981095640954 -0.030629583649417057 0 0.0082446302785282918 -0.030375940410234469 0 0.0081690791925058317 -0.030890642703744652 0 0.0088899613391629235 -0.030359011603308499 0 0.008697981095640954 -0.030629583649417057 0 0.0086111741457206934 -0.030310962680907411 0 0.008697981095640954 -0.030629583649417057 0 0.0086111741457206934 -0.030310962680907411 0 0.0082446302785282918 -0.030375940410234469 0 0.0088464163896111586 -0.030085565848100307 0 0.0088899613391629235 -0.030359011603308499 0 0.0086111741457206934 -0.030310962680907411 0 0.0088464163896111586 -0.030085565848100307 0 0.0086111741457206934 -0.030310962680907411 0 0.0085071787812765459 -0.029970677934060073 0 0.0088340812222910924 -0.029683291188488364 0 0.0088464163896111586 -0.030085565848100307 0 0.0085071787812765459 -0.029970677934060073 0 0.0084842090791268625 -0.029466995912435522 0 0.0085071787812765459 -0.029970677934060073 0 0.0080035525861422534 -0.029862258004905867 0 0.0085071787812765459 -0.029970677934060073 0 0.0082446302785282918 -0.030375940410234469 0 0.0080035525861422534 -0.029862258004905867 0 0.0086111741457206934 -0.030310962680907411 0 0.0085071787812765459 -0.029970677934060073 0 0.0082446302785282918 -0.030375940410234469 0 0.0073160273853979064 -0.029587944261440902 0 0.0080035525861422534 -0.029862258004905867 0 0.007391528650076533 -0.030364733987132988 0 0.0082446302785282918 -0.030375940410234469 0 0.0080035525861422534 -0.029862258004905867 0 0.007391528650076533 -0.030364733987132988 0 0.0082446302785282918 -0.030375940410234469 0 0.0081690791925058317 -0.030890642703744652 0 0.007391528650076533 -0.030364733987132988 0 0.0053765709353598944 -0.029493365056503962 0 0.0053918054897732085 -0.029452255257986851 0 0.0028998063559067802 -0.028377210166101677 0 0.0031447050172745414 -0.028320094691612823 0 0.0034012647250730417 -0.028500889950202508 0 0.0028998063559067802 -0.028377210166101677 0 0.0029815430656005408 -0.028312480147207147 0 0.0031447050172745414 -0.028320094691612823 0 0.0028998063559067802 -0.028377210166101677 0 0.0029177455294967106 -0.028337778063132067 0 0.0029815430656005408 -0.028312480147207147 0 0.0029177455294967106 -0.028337778063132067 0 0.0029815430656005408 -0.028312480147207147 0 0.0029211261279616409 -0.028286490332124863 0 0.0029177455294967106 -0.028337778063132067 0 0.0028538574850192041 -0.028348827676336598 0 0.0029211261279616409 -0.028286490332124863 0 0.0028998063559067802 -0.028377210166101677 0 0.0029177455294967106 -0.028337778063132067 0 0.0028538574850192041 -0.028348827676336598 0 0.0029815430656005408 -0.028312480147207147 0 0.0031447050172745414 -0.028320094691612823 0 0.0030013528987557518 -0.028231093279634845 0 0.0031447050172745414 -0.028320094691612823 0 0.0032314503163240302 -0.028153506271602475 0 0.0033495408674151469 -0.028351498577230697 0 0.0031050346250702005 -0.028181199337213046 0 0.0032314503163240302 -0.028153506271602475 0 0.0030552700457415339 -0.028025302231062255 0 0.0031447050172745414 -0.028320094691612823 0 0.0031050346250702005 -0.028181199337213046 0 0.0030013528987557518 -0.028231093279634845 0 0.0031447050172745414 -0.028320094691612823 0 0.0031050346250702005 -0.028181199337213046 0 0.0032314503163240302 -0.028153506271602475 0 0.0029815430656005408 -0.028312480147207147 0 0.0030013528987557518 -0.028231093279634845 0 0.0029211261279616409 -0.028286490332124863 0 0.0028399636064476291 -0.028274794381136271 0 0.0028991751443038566 -0.028180141304608431 0 0.0027377901391106288 -0.028190696865480324 0 0.0028538574850192041 -0.028348827676336598 0 0.0028399636064476291 -0.028274794381136271 0 0.0029211261279616409 -0.028286490332124863 0 0.0030013528987557518 -0.028231093279634845 0 0.0029211261279616409 -0.028286490332124863 0 0.0028991751443038566 -0.028180141304608431 0 0.0028399636064476291 -0.028274794381136271 0 0.0029211261279616409 -0.028286490332124863 0 0.0028991751443038566 -0.028180141304608431 0 0.0028991751443038566 -0.028180141304608431 0 0.0028534104872182885 -0.028032211109148063 0 0.0027377901391106288 -0.028190696865480324 0 0.0028991751443038566 -0.028180141304608431 0 0.0029908703923570679 -0.028126118210402656 0 0.0028534104872182885 -0.028032211109148063 0 0.0031050346250702005 -0.028181199337213046 0 0.0030013528987557518 -0.028231093279634845 0 0.0029908703923570679 -0.028126118210402656 0 0.0031050346250702005 -0.028181199337213046 0 0.0029908703923570679 -0.028126118210402656 0 0.0030552700457415339 -0.028025302231062255 0 0.0030013528987557518 -0.028231093279634845 0 0.0028991751443038566 -0.028180141304608431 0 0.0029908703923570679 -0.028126118210402656 0 0.0028534104872182885 -0.028032211109148063 0 0.0029289205944439305 -0.027862824545005639 0 0.0030552700457415339 -0.028025302231062255 0 0.0029908703923570679 -0.028126118210402656 0 0.0028534104872182885 -0.028032211109148063 0 0.0030552700457415339 -0.028025302231062255 0 0.0028534104872182885 -0.028032211109148063 0 0.0029289205944439305 -0.027862824545005639 0 0.0026629933115648371 -0.027817546426831964 0 0.0029289205944439305 -0.027862824545005639 0 0.0031525607398184105 -0.027913914306427891 0 0.0030552700457415339 -0.028025302231062255 0 0.0032314503163240302 -0.028153506271602475 0 0.0031525607398184105 -0.027913914306427891 0 0.0033188687743467195 -0.02801392942010248 0 0.0032314503163240302 -0.028153506271602475 0 0.0031525607398184105 -0.027913914306427891 0 0.0030552700457415339 -0.028025302231062255 0 0.0031525607398184105 -0.027913914306427891 0 0.0033188687743467195 -0.02801392942010248 0 0.0032804161320334219 -0.027780480118488927 0 0.0031525607398184105 -0.027913914306427891 0 0.0030381285020512896 -0.027683481865132264 0 0.0032804161320334219 -0.027780480118488927 0 0.0030381285020512896 -0.027683481865132264 0 0.0032026514661312069 -0.027504900509624758 0 0.0032804161320334219 -0.027780480118488927 0 0.0029289205944439305 -0.027862824545005639 0 0.0031525607398184105 -0.027913914306427891 0 0.0030381285020512896 -0.027683481865132264 0 0.0032026514661312069 -0.027504900509624758 0 0.0029015917717636866 -0.027242061373475887 0 0.0032857670948484474 -0.027153152556993073 0 0.0030381285020512896 -0.027683481865132264 0 0.0032026514661312069 -0.027504900509624758 0 0.0029015917717636866 -0.027242061373475887 0 0.0030381285020512896 -0.027683481865132264 0 0.0029015917717636866 -0.027242061373475887 0 0.0027322977857779495 -0.027575285331901143 0 0.0029289205944439305 -0.027862824545005639 0 0.0030381285020512896 -0.027683481865132264 0 0.0027322977857779495 -0.027575285331901143 0 0.0029289205944439305 -0.027862824545005639 0 0.0027322977857779495 -0.027575285331901143 0 0.0026629933115648371 -0.027817546426831964 0 0.0027322977857779495 -0.027575285331901143 0 0.0022641567567542585 -0.027552918210408311 0 0.0026629933115648371 -0.027817546426831964 0 0.0027322977857779495 -0.027575285331901143 0 0.0023580565962334822 -0.027118686496071236 0 0.0022641567567542585 -0.027552918210408311 0 0.0029015917717636866 -0.027242061373475887 0 0.0027322977857779495 -0.027575285331901143 0 0.0023580565962334822 -0.027118686496071236 0 0.0023580565962334822 -0.027118686496071236 0 0.0022641567567542585 -0.027552918210408311 0 0.0018103934680832406 -0.027128845158912347 0 0.0022641567567542585 -0.027552918210408311 0 0.0022183849522830223 -0.027936939058523295 0 0.0026629933115648371 -0.027817546426831964 0 0.0028807803419358116 -0.028477280669356703 0 0.0024349422045097358 -0.028254189131190075 0 0.0017021726792283934 -0.028373909777154784 0 0.0022183849522830223 -0.027936939058523295 0 0.0026629933115648371 -0.027817546426831964 0 0.0025954616735738775 -0.028060178864755897 0 0.0028534104872182885 -0.028032211109148063 0 0.0026629933115648371 -0.027817546426831964 0 0.0025954616735738775 -0.028060178864755897 0 0.00276198060527368 -0.028368661316573889 0 0.0028807803419358116 -0.028477280669356703 0 0.0024349422045097358 -0.028254189131190075 0 0.0025954616735738775 -0.028060178864755897 0 0.0027377901391106288 -0.028190696865480324 0 0.0024349422045097358 -0.028254189131190075 0 0.0028534104872182885 -0.028032211109148063 0 0.0025954616735738775 -0.028060178864755897 0 0.0027377901391106288 -0.028190696865480324 0 0.00276198060527368 -0.028368661316573889 0 0.0027377901391106288 -0.028190696865480324 0 0.0024349422045097358 -0.028254189131190075 0 0.00276198060527368 -0.028368661316573889 0 0.0028399636064476291 -0.028274794381136271 0 0.0027377901391106288 -0.028190696865480324 0 0.00276198060527368 -0.028368661316573889 0 0.0028538574850192041 -0.028348827676336598 0 0.0028399636064476291 -0.028274794381136271 0 0.0022183849522830223 -0.027936939058523295 0 0.0025954616735738775 -0.028060178864755897 0 0.0024349422045097358 -0.028254189131190075 0 0.0022183849522830223 -0.027936939058523295 0 0.0024349422045097358 -0.028254189131190075 0 0.0017021726792283934 -0.028373909777154784 0 0.0022641567567542585 -0.027552918210408311 0 0.0022183849522830223 -0.027936939058523295 0 0.0015153121458001825 -0.027598844481264043 0 0.0022183849522830223 -0.027936939058523295 0 0.0017021726792283934 -0.028373909777154784 0 0.0015153121458001825 -0.027598844481264043 0 0.0022641567567542585 -0.027552918210408311 0 0.0018103934680832406 -0.027128845158912347 0 0.0015153121458001825 -0.027598844481264043 0 0.0018103934680832406 -0.027128845158912347 0 0.0015153121458001825 -0.027598844481264043 0 0.0010144714385468471 -0.026840224633301345 0 0.0015153121458001825 -0.027598844481264043 0 0.0010144714385468471 -0.026840224633301345 0 0.00056221890525088723 -0.02746347434556691 0 0.00080220632720598125 -0.026547172841591055 0 0.00053443911572950394 -0.027099753124956636 0 -6.5333829426833157e-05 -0.027365730371463334 0 0.0010144714385468471 -0.026840224633301345 0 0.00056221890525088723 -0.02746347434556691 0 0.0059220900871776224 -0.028913033947945112 0 0.0052908422196848949 -0.029732440605225063 0 0.00044406315101735115 -0.028164326411453548 0 0.0017021726792283934 -0.028373909777154784 0 0.0015153121458001825 -0.027598844481264043 0 0.00044406315101735115 -0.028164326411453548 0 0.0015153121458001825 -0.027598844481264043 0 0.00056221890525088723 -0.02746347434556691 0 0.009963020417553068 -0.031030224899416287 0 0.0094450774225203846 -0.030744278763327346 0 0.0091029112585359808 -0.030934865438611837 0 0.0033556290007615897 -0.028485742136331399 0 0.0035598760834117719 -0.028419310646033022 0 0.0034529167922346233 -0.028394079466885953 0 0.0033556290007615897 -0.028485742136331399 0 0.0029331578463634542 -0.028650375561488344 0 0.0034529167922346233 -0.028394079466885953 0 0.0033556290007615897 -0.028485742136331399 0 0.0029331578463634542 -0.028650375561488344 0 0.0029075411212531278 -0.028505939709614275 0 0.0036375385947362811 -0.028391041201889507 0 0.0033556290007615897 -0.028485742136331399 0 0.0029075411212531278 -0.028505939709614275 0 0.0036375385947362811 -0.028391041201889507 0 0.0030853854680651625 -0.028279328752588546 0 0.0029075411212531278 -0.028505939709614275 0 0.0036375385947362811 -0.028391041201889507 0 0.0033556290007615897 -0.028485742136331399 0 0.0035598760834117719 -0.028419310646033022 0 0.0036460276242904015 -0.028435115345634698 0 0.0036375385947362811 -0.028391041201889507 0 0.0035598760834117719 -0.028419310646033022 0 0.0048852150913795593 -0.029036613908166104 0 0.0053918054897732085 -0.029452255257986851 0 0.0036460276242904015 -0.028435115345634698 0 0.0035598760834117719 -0.028419310646033022 0 0.0034012647250730417 -0.028500889950202508 0 0.0035598760834117719 -0.028419310646033022 0 0.0034012647250730417 -0.028500889950202508 0 0.0034890358629249638 -0.028345145988460409 0 0.0031447050172745414 -0.028320094691612823 0 0.0034012647250730417 -0.028500889950202508 0 0.0033495408674151469 -0.028351498577230697 0 0.0034012647250730417 -0.028500889950202508 0 0.0034890358629249638 -0.028345145988460409 0 0.0033495408674151469 -0.028351498577230697 0 0.0034890358629249638 -0.028345145988460409 0 0.0033495408674151469 -0.028351498577230697 0 0.0034282861325390843 -0.028175040826420573 0 0.0035598760834117719 -0.028419310646033022 0 0.0034890358629249638 -0.028345145988460409 0 0.0035425415683833401 -0.028252992005511762 0 0.0035598760834117719 -0.028419310646033022 0 0.0035425415683833401 -0.028252992005511762 0 0.0034529167922346233 -0.028394079466885953 0 0.0035425415683833401 -0.028252992005511762 0 0.0035699111205481004 -0.028196323168485089 0 0.0034529167922346233 -0.028394079466885953 0 0.0035425415683833401 -0.028252992005511762 0 0.0035519810495071064 -0.02805782474820739 0 0.0034282861325390843 -0.028175040826420573 0 0.0035425415683833401 -0.028252992005511762 0 0.0035519810495071064 -0.02805782474820739 0 0.0035699111205481004 -0.028196323168485089 0 0.0032314503163240302 -0.028153506271602475 0 0.0034282861325390843 -0.028175040826420573 0 0.0033188687743467195 -0.02801392942010248 0 0.0032314503163240302 -0.028153506271602475 0 0.0033495408674151469 -0.028351498577230697 0 0.0034282861325390843 -0.028175040826420573 0 0.0034890358629249638 -0.028345145988460409 0 0.0035425415683833401 -0.028252992005511762 0 0.0034282861325390843 -0.028175040826420573 0 0.0035519810495071064 -0.02805782474820739 0 0.0034282861325390843 -0.028175040826420573 0 0.0034456550771243392 -0.027925649476132221 0 0.0033188687743467195 -0.02801392942010248 0 0.0032804161320334219 -0.027780480118488927 0 0.0034456550771243392 -0.027925649476132221 0 0.0034282861325390843 -0.028175040826420573 0 0.0033188687743467195 -0.02801392942010248 0 0.0034456550771243392 -0.027925649476132221 0 0.0032804161320334219 -0.027780480118488927 0 0.0034456550771243392 -0.027925649476132221 0 0.0034583585454820327 -0.027599981806696018 0 0.0035519810495071064 -0.02805782474820739 0 0.0034456550771243392 -0.027925649476132221 0 0.0035750023996478286 -0.027826755625171919 0 0.0034456550771243392 -0.027925649476132221 0 0.0035750023996478286 -0.027826755625171919 0 0.0034583585454820327 -0.027599981806696018 0 0.0035750023996478286 -0.027826755625171919 0 0.0034583585454820327 -0.027599981806696018 0 0.0037065704601696265 -0.027608578673404351 0 0.0032026514661312069 -0.027504900509624758 0 0.0034583585454820327 -0.027599981806696018 0 0.0032857670948484474 -0.027153152556993073 0 0.0032026514661312069 -0.027504900509624758 0 0.0032804161320334219 -0.027780480118488927 0 0.0034583585454820327 -0.027599981806696018 0 0.0035699111205481004 -0.028196323168485089 0 0.00365470778399283 -0.027936487274821779 0 0.0035945968736149901 -0.028092349789725472 0 0.0035519810495071064 -0.02805782474820739 0 0.0035699111205481004 -0.028196323168485089 0 0.00365470778399283 -0.027936487274821779 0 0.0035519810495071064 -0.02805782474820739 0 0.0035750023996478286 -0.027826755625171919 0 0.00365470778399283 -0.027936487274821779 0 0.0035750023996478286 -0.027826755625171919 0 0.00365470778399283 -0.027936487274821779 0 0.0037065704601696265 -0.027608578673404351 0 0.00365470778399283 -0.027936487274821779 0 0.0037999257564036368 -0.02775892488388897 0 0.0037065704601696265 -0.027608578673404351 0 0.00365470778399283 -0.027936487274821779 0 0.0035945968736149901 -0.028092349789725472 0 0.0037999257564036368 -0.02775892488388897 0 0.0035945968736149901 -0.028092349789725472 0 0.003348993011883981 -0.028384924999028505 0 0.003476615173845976 -0.028175286143145632 0 0.0035699111205481004 -0.028196323168485089 0 0.0035945968736149901 -0.028092349789725472 0 0.003348993011883981 -0.028384924999028505 0 0.0035945968736149901 -0.028092349789725472 0 0.003476615173845976 -0.028175286143145632 0 0.0037999257564036368 -0.02775892488388897 0 0.0035699111205481004 -0.028196323168485089 0 0.0034529167922346233 -0.028394079466885953 0 0.003348993011883981 -0.028384924999028505 0 0.0029467209867966469 -0.028627512533012073 0 0.0029331578463634542 -0.028650375561488344 0 0.003348993011883981 -0.028384924999028505 0 0.0029331578463634542 -0.028650375561488344 0 0.0034529167922346233 -0.028394079466885953 0 0.003348993011883981 -0.028384924999028505 0 0.0029467209867966469 -0.028627512533012073 0 0.0030578378164290245 -0.028516924306900924 0 0.0032127242174674851 -0.028426321648188865 0 0.0030578378164290245 -0.028516924306900924 0 0.0032127242174674851 -0.028426321648188865 0 0.003476615173845976 -0.028175286143145632 0 0.0029467209867966469 -0.028627512533012073 0 0.003348993011883981 -0.028384924999028505 0 0.0032127242174674851 -0.028426321648188865 0 0.003348993011883981 -0.028384924999028505 0 0.0032127242174674851 -0.028426321648188865 0 0.003476615173845976 -0.028175286143145632 0 0.0030578378164290245 -0.028516924306900924 0 0.003476615173845976 -0.028175286143145632 0 0.0033560527746152161 -0.028239726637415041 0 0.003476615173845976 -0.028175286143145632 0 0.0033560527746152161 -0.028239726637415041 0 0.0037280106000641658 -0.027844037017756142 0 0.0073654012236465793 -0.026694802808368469 0 0.0083782472231775026 -0.025856590881916337 0 0.0092291145160508601 -0.027057382265314914 0 0.0062550888927819367 -0.027435856176038501 0 0.0026660528077749358 -0.027086147391003873 0 0.0033560527746152161 -0.028239726637415041 0 0.0037211844153395013 -0.027970445354961453 0 0.0030288262675663199 -0.028573295960808903 0 0.0033560527746152161 -0.028239726637415041 0 0.0037211844153395013 -0.027970445354961453 0 0.0037280106000641658 -0.027844037017756142 0 0.0037211844153395013 -0.027970445354961453 0 0.0040608180691368749 -0.027370672090531865 0 0.0045762092370257692 -0.026330322366529654 0 0.0062550888927819367 -0.027435856176038501 0 0.0041682081081501612 -0.026385663342646522 0 0.0037211844153395013 -0.027970445354961453 0 0.0040608180691368749 -0.027370672090531865 0 0.0037280106000641658 -0.027844037017756142 0 0.003476615173845976 -0.028175286143145632 0 0.0037280106000641658 -0.027844037017756142 0 0.0037999257564036368 -0.02775892488388897 0 0.0040608180691368749 -0.027370672090531865 0 0.0037280106000641658 -0.027844037017756142 0 0.0037999257564036368 -0.02775892488388897 0 0.0037999257564036368 -0.02775892488388897 0 0.0037065704601696265 -0.027608578673404351 0 0.0039388552788977597 -0.027229956249650789 0 0.0040608180691368749 -0.027370672090531865 0 0.0037999257564036368 -0.02775892488388897 0 0.0039388552788977597 -0.027229956249650789 0 0.0034583585454820327 -0.027599981806696018 0 0.0035980468606666726 -0.027274924405501028 0 0.0032857670948484474 -0.027153152556993073 0 0.0037065704601696265 -0.027608578673404351 0 0.0039388552788977597 -0.027229956249650789 0 0.0035980468606666726 -0.027274924405501028 0 0.0034583585454820327 -0.027599981806696018 0 0.0037065704601696265 -0.027608578673404351 0 0.0035980468606666726 -0.027274924405501028 0 0.0039388552788977597 -0.027229956249650789 0 0.0035980468606666726 -0.027274924405501028 0 0.0035573893592942924 -0.026773716165226395 0 0.0035980468606666726 -0.027274924405501028 0 0.0035573893592942924 -0.026773716165226395 0 0.0032857670948484474 -0.027153152556993073 0 0.0035573893592942924 -0.026773716165226395 0 0.0045762092370257692 -0.026330322366529654 0 0.0033394980947893302 -0.025800181598776378 0 0.0039388552788977597 -0.027229956249650789 0 0.0035573893592942924 -0.026773716165226395 0 0.0045762092370257692 -0.026330322366529654 0 0.0040608180691368749 -0.027370672090531865 0 0.0039388552788977597 -0.027229956249650789 0 0.0045762092370257692 -0.026330322366529654 0 0.0045762092370257692 -0.026330322366529654 0 0.0054735290967939795 -0.024813011934954225 0 0.0039968281430846639 -0.025066875999744172 0 0.0045762092370257692 -0.026330322366529654 0 0.0054735290967939795 -0.024813011934954225 0 0.0060087042487452259 -0.025575485288696884 0 0.0045762092370257692 -0.026330322366529654 0 0.0039968281430846639 -0.025066875999744172 0 0.0033394980947893302 -0.025800181598776378 0 0.0039968281430846639 -0.025066875999744172 0 0.0033394980947893302 -0.025800181598776378 0 0.0032703826979840864 -0.024818787484176524 0 0.0039968281430846639 -0.025066875999744172 0 0.0037420768525507765 -0.024095370411744612 0 0.0032703826979840864 -0.024818787484176524 0 0.0037420768525507765 -0.024095370411744612 0 0.0044977404304269945 -0.023335693721314412 0 0.0033897393642333884 -0.023190340582901255 0 0.0039968281430846639 -0.025066875999744172 0 0.0037420768525507765 -0.024095370411744612 0 0.0045858277173492085 -0.024111633051856349 0 0.0037420768525507765 -0.024095370411744612 0 0.0045858277173492085 -0.024111633051856349 0 0.0044977404304269945 -0.023335693721314412 0 0.0054735290967939795 -0.024813011934954225 0 0.0039968281430846639 -0.025066875999744172 0 0.0045858277173492085 -0.024111633051856349 0 0.0054735290967939795 -0.024813011934954225 0 0.0054110167062583559 -0.023900755889535833 0 0.0062834965886566525 -0.024240488673287208 0 0.0054735290967939795 -0.024813011934954225 0 0.0045858277173492085 -0.024111633051856349 0 0.0054110167062583559 -0.023900755889535833 0 0.0045858277173492085 -0.024111633051856349 0 0.0044977404304269945 -0.023335693721314412 0 0.0054110167062583559 -0.023900755889535833 0 0.0044977404304269945 -0.023335693721314412 0 0.0054110167062583559 -0.023900755889535833 0 0.0056213963710463419 -0.023165615771626603 0 0.0054110167062583559 -0.023900755889535833 0 0.0060070721543377123 -0.02370907981525661 0 0.0056213963710463419 -0.023165615771626603 0 0.0060070721543377123 -0.02370907981525661 0 0.0063855086472288285 -0.023340499967372565 0 0.0056213963710463419 -0.023165615771626603 0 0.0054110167062583559 -0.023900755889535833 0 0.0060070721543377123 -0.02370907981525661 0 0.0062834965886566525 -0.024240488673287208 0 0.0060070721543377123 -0.02370907981525661 0 0.0063656706333726316 -0.02383248660713147 0 0.0063855086472288285 -0.023340499967372565 0 0.0078880793971992953 -0.024548054691524258 0 0.0067453414180885431 -0.022981442210897717 0 0.0063855086472288285 -0.023340499967372565 0 0.0063656706333726316 -0.02383248660713147 0 0.0067872104435370579 -0.024035261675516131 0 0.0063855086472288285 -0.023340499967372565 0 0.0063656706333726316 -0.02383248660713147 0 0.0062834965886566525 -0.024240488673287208 0 0.0067872104435370579 -0.024035261675516131 0 0.0060070721543377123 -0.02370907981525661 0 0.0063656706333726316 -0.02383248660713147 0 0.0062834965886566525 -0.024240488673287208 0 0.0054735290967939795 -0.024813011934954225 0 0.0062834965886566525 -0.024240488673287208 0 0.0065684760346996565 -0.024844443751390395 0 0.0062834965886566525 -0.024240488673287208 0 0.0067263865481814542 -0.024419081728668617 0 0.0067872104435370579 -0.024035261675516131 0 0.0062834965886566525 -0.024240488673287208 0 0.0067263865481814542 -0.024419081728668617 0 0.0065684760346996565 -0.024844443751390395 0 0.0069694217644808007 -0.024310333955125163 0 0.0067872104435370579 -0.024035261675516131 0 0.0073477452108944574 -0.024363962077770557 0 0.0070666224818200576 -0.024532168917147254 0 0.0073477452108944574 -0.024363962077770557 0 0.0071475723889785668 -0.024928317588616414 0 0.005929761756555213 -0.024661615254408839 0 0.0064731656978800527 -0.024500908239349115 0 0.0070666224818200576 -0.024532168917147254 0 0.0067263865481814542 -0.024419081728668617 0 0.0065684760346996565 -0.024844443751390395 0 0.0070666224818200576 -0.024532168917147254 0 0.0065684760346996565 -0.024844443751390395 0 0.0071475723889785668 -0.024928317588616414 0 0.0070666224818200576 -0.024532168917147254 0 0.0069694217644808007 -0.024310333955125163 0 0.0067263865481814542 -0.024419081728668617 0 0.0069694217644808007 -0.024310333955125163 0 0.0067263865481814542 -0.024419081728668617 0 0.0067872104435370579 -0.024035261675516131 0 0.0070666224818200576 -0.024532168917147254 0 0.0069694217644808007 -0.024310333955125163 0 0.0073477452108944574 -0.024363962077770557 0 0.005929761756555213 -0.024661615254408839 0 0.0072138772232979076 -0.023416380261001953 0 0.005929761756555213 -0.024661615254408839 0 0.0068483735274222426 -0.023674211206282599 0 0.0079589266415253292 -0.023914022812818098 0 0.0076573459005425714 -0.02363859794520113 0 0.0080955513339464064 -0.02470030773452286 0 0.0067872104435370579 -0.024035261675516131 0 0.0073477452108944574 -0.024363962077770557 0 0.0063855086472288285 -0.023340499967372565 0 0.0076573459005425714 -0.02363859794520113 0 0.0080955513339464064 -0.02470030773452286 0 0.0067453414180885431 -0.022981442210897717 0 0.0079589266415253292 -0.023914022812818098 0 0.0079800476618174781 -0.023617101250239768 0 0.0081463603126810755 -0.023831183001304865 0 0.0076573459005425714 -0.02363859794520113 0 0.0079800476618174781 -0.023617101250239768 0 0.0078873114905349748 -0.023402588351858666 0 0.0079589266415253292 -0.023914022812818098 0 0.0076573459005425714 -0.02363859794520113 0 0.0079800476618174781 -0.023617101250239768 0 0.0081463603126810755 -0.023831183001304865 0 0.0080955513339464064 -0.02470030773452286 0 0.0085182067204590799 -0.022969758737931591 0 0.0079589266415253292 -0.023914022812818098 0 0.0081463603126810755 -0.023831183001304865 0 0.0080955513339464064 -0.02470030773452286 0 -0.0005759686352930785 -0.02425603928241736 0 0.0004257433312107257 -0.023831796505439793 0 -0.00056706707614910979 -0.025995061849475729 0 0.0079800476618174781 -0.023617101250239768 0 0.0081463603126810755 -0.023831183001304865 0 0.0081872492903124674 -0.023355658645268354 0 -0.0005759686352930785 -0.02425603928241736 0 -0.00084333510566693437 -0.023530908811881832 0 -0.0015457433750756331 -0.023698826269690141 0 -0.0005759686352930785 -0.02425603928241736 0 -0.00084333510566693437 -0.023530908811881832 0 0.0004257433312107257 -0.023831796505439793 0 0.005929761756555213 -0.024661615254408839 0 -0.00044384030902660452 -0.024151562659020975 0 -0.00084333510566693437 -0.023530908811881832 0 0.0004257433312107257 -0.023831796505439793 0 -0.0012689233429307343 -0.022624792542196053 0 0.0073948658152192667 -0.024394195857757206 0 0.0074250250663951776 -0.025496270240515415 0 0.0083782472231775026 -0.025856590881916337 0 0.0041009108617686722 -0.027742942757930971 0 0.002154914771799841 -0.025381203947566561 0 0.0013946678029154455 -0.025934417747345093 0 0.005929761756555213 -0.024661615254408839 0 0.0053985680642630899 -0.025630513364538778 0 0.0073654012236465793 -0.026694802808368469 0 0.0074250250663951776 -0.025496270240515415 0 0.0083782472231775026 -0.025856590881916337 0 0.0073654012236465793 -0.026694802808368469 0 0.0045762092370257692 -0.026330322366529654 0 0.0060087042487452259 -0.025575485288696884 0 0.0073654012236465793 -0.026694802808368469 0 0.0074250250663951776 -0.025496270240515415 0 0.0068832222123143914 -0.025538856678559544 0 0.0073654012236465793 -0.026694802808368469 0 0.0068832222123143914 -0.025538856678559544 0 0.0060087042487452259 -0.025575485288696884 0 0.0054735290967939795 -0.024813011934954225 0 0.0060087042487452259 -0.025575485288696884 0 0.0065684760346996565 -0.024844443751390395 0 0.0068832222123143914 -0.025538856678559544 0 0.0060087042487452259 -0.025575485288696884 0 0.0065684760346996565 -0.024844443751390395 0 0.0068832222123143914 -0.025538856678559544 0 0.0065684760346996565 -0.024844443751390395 0 0.0071475723889785668 -0.024928317588616414 0 0.0073948658152192667 -0.024394195857757206 0 0.0074250250663951776 -0.025496270240515415 0 0.0071475723889785668 -0.024928317588616414 0 0.0074250250663951776 -0.025496270240515415 0 0.0068832222123143914 -0.025538856678559544 0 0.0071475723889785668 -0.024928317588616414 0 0.00053700375089827052 -0.025118639784814843 0 0.0012517542284089722 -0.025669066526348146 0 0.00092953421171508425 -0.024527463822313904 0 0.00053700375089827052 -0.025118639784814843 0 0.00044278295254515811 -0.025839138762530488 0 0.0012517542284089722 -0.025669066526348146 0 8.1215353994401881e-05 -0.025393931939493266 0 0.00053700375089827052 -0.025118639784814843 0 0.00044278295254515811 -0.025839138762530488 0 0.0010144714385468471 -0.026840224633301345 0 0.00044278295254515811 -0.025839138762530488 0 0.0012517542284089722 -0.025669066526348146 0 -0.00010790128805231916 -0.026297946360013105 0 0.0010144714385468471 -0.026840224633301345 0 0.00044278295254515811 -0.025839138762530488 0 0.0010144714385468471 -0.026840224633301345 0 0.0018452608536612251 -0.026516911671545584 0 0.0012517542284089722 -0.025669066526348146 0 0.0018103934680832406 -0.027128845158912347 0 0.0010144714385468471 -0.026840224633301345 0 0.0018452608536612251 -0.026516911671545584 0 0.0023580565962334822 -0.027118686496071236 0 0.0018103934680832406 -0.027128845158912347 0 0.0018452608536612251 -0.026516911671545584 0 0.0018452608536612251 -0.026516911671545584 0 0.0012517542284089722 -0.025669066526348146 0 0.0019923309183054339 -0.025939774585485905 0 0.0012517542284089722 -0.025669066526348146 0 0.0019923309183054339 -0.025939774585485905 0 0.001787031811867876 -0.024891952701650018 0 0.0012517542284089722 -0.025669066526348146 0 0.001787031811867876 -0.024891952701650018 0 0.00092953421171508425 -0.024527463822313904 0 0.0025212394319285812 -0.025798995970068333 0 0.0019923309183054339 -0.025939774585485905 0 0.001787031811867876 -0.024891952701650018 0 0.0025212394319285812 -0.025798995970068333 0 0.0024516328085974373 -0.026563205790147367 0 0.0030031993917268144 -0.026627649592808032 0 0.0025212394319285812 -0.025798995970068333 0 0.0019923309183054339 -0.025939774585485905 0 0.0024516328085974373 -0.026563205790147367 0 0.0018452608536612251 -0.026516911671545584 0 0.0019923309183054339 -0.025939774585485905 0 0.0024516328085974373 -0.026563205790147367 0 0.0023580565962334822 -0.027118686496071236 0 0.0018452608536612251 -0.026516911671545584 0 0.0024516328085974373 -0.026563205790147367 0 0.0029015917717636866 -0.027242061373475887 0 0.0023580565962334822 -0.027118686496071236 0 0.0024516328085974373 -0.026563205790147367 0 0.0029015917717636866 -0.027242061373475887 0 0.0024516328085974373 -0.026563205790147367 0 0.0030031993917268144 -0.026627649592808032 0 0.0029015917717636866 -0.027242061373475887 0 0.0030031993917268144 -0.026627649592808032 0 0.0032857670948484474 -0.027153152556993073 0 0.0035573893592942924 -0.026773716165226395 0 0.0030031993917268144 -0.026627649592808032 0 0.0032857670948484474 -0.027153152556993073 0 0.0035573893592942924 -0.026773716165226395 0 0.0030031993917268144 -0.026627649592808032 0 0.0033394980947893302 -0.025800181598776378 0 0.0025212394319285812 -0.025798995970068333 0 0.0033394980947893302 -0.025800181598776378 0 0.0026381923249936055 -0.024918834848930996 0 0.0025212394319285812 -0.025798995970068333 0 0.0030031993917268144 -0.026627649592808032 0 0.0033394980947893302 -0.025800181598776378 0 0.0033394980947893302 -0.025800181598776378 0 0.0032703826979840864 -0.024818787484176524 0 0.0026381923249936055 -0.024918834848930996 0 0.0032703826979840864 -0.024818787484176524 0 0.0029228439104042815 -0.024046287463415347 0 0.0026381923249936055 -0.024918834848930996 0 0.0037420768525507765 -0.024095370411744612 0 0.0032703826979840864 -0.024818787484176524 0 0.0029228439104042815 -0.024046287463415347 0 0.0037420768525507765 -0.024095370411744612 0 0.0033897393642333884 -0.023190340582901255 0 0.0029228439104042815 -0.024046287463415347 0 0.0033897393642333884 -0.023190340582901255 0 0.0029228439104042815 -0.024046287463415347 0 0.0024953311404271512 -0.023161372521753067 0 0.0029228439104042815 -0.024046287463415347 0 0.0024953311404271512 -0.023161372521753067 0 0.0021179320995964022 -0.023974319773099224 0 0.0024953311404271512 -0.023161372521753067 0 0.0021179320995964022 -0.023974319773099224 0 0.001793629718927725 -0.02312984897411427 0 0.0025212394319285812 -0.025798995970068333 0 0.0026381923249936055 -0.024918834848930996 0 0.001787031811867876 -0.024891952701650018 0 0.0021179320995964022 -0.023974319773099224 0 0.0026381923249936055 -0.024918834848930996 0 0.001787031811867876 -0.024891952701650018 0 0.0029228439104042815 -0.024046287463415347 0 0.0021179320995964022 -0.023974319773099224 0 0.0026381923249936055 -0.024918834848930996 0 0.001787031811867876 -0.024891952701650018 0 0.0012467489722084795 -0.023648529866914805 0 0.00092953421171508425 -0.024527463822313904 0 0.0021179320995964022 -0.023974319773099224 0 0.001787031811867876 -0.024891952701650018 0 0.0012467489722084795 -0.023648529866914805 0 0.0012467489722084795 -0.023648529866914805 0 0.001793629718927725 -0.02312984897411427 0 0.0012057306821479678 -0.022568992324728143 0 0.0012467489722084795 -0.023648529866914805 0 0.00050914033757592592 -0.022752649535791872 0 0.0012057306821479678 -0.022568992324728143 0 0.0021179320995964022 -0.023974319773099224 0 0.0012467489722084795 -0.023648529866914805 0 0.001793629718927725 -0.02312984897411427 0 0.0012467489722084795 -0.023648529866914805 0 0.00050914033757592592 -0.022752649535791872 0 0.00030547130632342076 -0.023593405706338184 0 -0.00014415501051028002 -0.022494563577540708 0 0.00050914033757592592 -0.022752649535791872 0 0.00030547130632342076 -0.023593405706338184 0 0.00030547130632342076 -0.023593405706338184 0 0.00092953421171508425 -0.024527463822313904 0 0.00031453217031174996 -0.024411795459098867 0 0.0012467489722084795 -0.023648529866914805 0 0.00030547130632342076 -0.023593405706338184 0 0.00092953421171508425 -0.024527463822313904 0 0.00053700375089827052 -0.025118639784814843 0 0.00092953421171508425 -0.024527463822313904 0 0.00031453217031174996 -0.024411795459098867 0 -0.00017390437467587868 -0.021777777290778691 0 -0.0006120071770718096 -0.021120772936352308 0 0.00053836392028929825 -0.020772098909383956 0 0.00053836392028929825 -0.020772098909383956 0 0.00065649365038481812 -0.021865056174481142 0 0.0013580324632315049 -0.021388271866750384 0 -0.00017390437467587868 -0.021777777290778691 0 0.00053836392028929825 -0.020772098909383956 0 0.00065649365038481812 -0.021865056174481142 0 -0.00017390437467587868 -0.021777777290778691 0 0.00050914033757592592 -0.022752649535791872 0 0.00065649365038481812 -0.021865056174481142 0 0.00050914033757592592 -0.022752649535791872 0 0.00065649365038481812 -0.021865056174481142 0 0.0012057306821479678 -0.022568992324728143 0 0.0012057306821479678 -0.022568992324728143 0 0.0013580324632315049 -0.021388271866750384 0 0.0019603350924038048 -0.022240185453687406 0 0.00065649365038481812 -0.021865056174481142 0 0.0012057306821479678 -0.022568992324728143 0 0.0013580324632315049 -0.021388271866750384 0 0.001793629718927725 -0.02312984897411427 0 0.0012057306821479678 -0.022568992324728143 0 0.0019603350924038048 -0.022240185453687406 0 0.0013580324632315049 -0.021388271866750384 0 0.0023327340150905815 -0.021027909640217817 0 0.0016256008701758154 -0.020091277581230069 0 0.00053836392028929825 -0.020772098909383956 0 0.0013580324632315049 -0.021388271866750384 0 0.0016256008701758154 -0.020091277581230069 0 0.0013580324632315049 -0.021388271866750384 0 0.0023327340150905815 -0.021027909640217817 0 0.0019603350924038048 -0.022240185453687406 0 0.0024953311404271512 -0.023161372521753067 0 0.001793629718927725 -0.02312984897411427 0 0.0019603350924038048 -0.022240185453687406 0 0.0024953311404271512 -0.023161372521753067 0 0.0019603350924038048 -0.022240185453687406 0 0.0028930650424564466 -0.022212598744905124 0 0.0023327340150905815 -0.021027909640217817 0 0.0019603350924038048 -0.022240185453687406 0 0.0028930650424564466 -0.022212598744905124 0 0.0033897393642333884 -0.023190340582901255 0 0.0024953311404271512 -0.023161372521753067 0 0.0028930650424564466 -0.022212598744905124 0 0.0033897393642333884 -0.023190340582901255 0 0.0028930650424564466 -0.022212598744905124 0 0.0039355919848297685 -0.022309471435055236 0 0.0028930650424564466 -0.022212598744905124 0 0.0031896178485514436 -0.021186104669081551 0 0.0039355919848297685 -0.022309471435055236 0 0.0023327340150905815 -0.021027909640217817 0 0.0031896178485514436 -0.021186104669081551 0 0.0031264571484539024 -0.019356639754058876 0 0.0023327340150905815 -0.021027909640217817 0 0.0028930650424564466 -0.022212598744905124 0 0.0031896178485514436 -0.021186104669081551 0 0.0031896178485514436 -0.021186104669081551 0 0.0031264571484539024 -0.019356639754058876 0 0.0039769043307246498 -0.020486186606202512 0 0.003813072866167846 -0.018392375904346399 0 0.0026063406310354743 -0.016615752156439224 0 0.0041637063756774281 -0.016418843198127794 0 0.003813072866167846 -0.018392375904346399 0 0.0020043691896532833 -0.018086520655477965 0 0.0026063406310354743 -0.016615752156439224 0 0.003813072866167846 -0.018392375904346399 0 0.0016256008701758154 -0.020091277581230069 0 0.0020043691896532833 -0.018086520655477965 0 0.0034399619837004948 -0.018891142878402146 0 0.0016591145980404984 -0.020005617192470768 0 0.0023327340150905815 -0.021027909640217817 0 0.0031264571484539024 -0.019356639754058876 0 0.0016256008701758154 -0.020091277581230069 0 0.00053836392028929825 -0.020772098909383956 0 0.0016256008701758154 -0.020091277581230069 0 0.00080027705423989942 -0.018486998014268209 0 0.0016256008701758154 -0.020091277581230069 0 0.0020043691896532833 -0.018086520655477965 0 0.00080027705423989942 -0.018486998014268209 0 0.0020043691896532833 -0.018086520655477965 0 0.00080027705423989942 -0.018486998014268209 0 0.0012283293977447803 -0.017092029713392076 0 0.0020043691896532833 -0.018086520655477965 0 0.0012283293977447803 -0.017092029713392076 0 0.0026063406310354743 -0.016615752156439224 0 -0.00071702309234683733 -0.018612312241653522 0 0.00091164678431597697 -0.018429465613848686 0 0.0003689630677197373 -0.017733269063608496 0 0.00034098524607272353 -0.017106327992977916 0 0.0012283293977447803 -0.017092029713392076 0 0.00080027705423989942 -0.018486998014268209 0 0.0003689630677197373 -0.017733269063608496 0 0.0012283293977447803 -0.017092029713392076 0 1.5240669617986258e-05 -0.017831947826045937 0 0.00080027705423989942 -0.018486998014268209 0 0.0003689630677197373 -0.017733269063608496 0 -0.0006120071770718096 -0.021120772936352308 0 -0.00085220830284022081 -0.019243216616425349 0 0.00053836392028929825 -0.020772098909383956 0 -0.00085220830284022081 -0.019243216616425349 0 0.00053836392028929825 -0.020772098909383956 0 0.00080027705423989942 -0.018486998014268209 0 0.0076978670729006722 -0.021630165222354791 0 0.0070650904807980225 -0.021350076679221109 0 0.0078731387178505585 -0.02085041095436687 0 0.0076978670729006722 -0.021630165222354791 0 0.0078731387178505585 -0.02085041095436687 0 0.0083985136815605647 -0.021607323831653057 0 0.0076978670729006722 -0.021630165222354791 0 0.0083985136815605647 -0.021607323831653057 0 0.0079371478365960098 -0.022166974235260522 0 0.0076978670729006722 -0.021630165222354791 0 0.0070650904807980225 -0.021350076679221109 0 0.0073072949593819053 -0.022085610396413984 0 0.0070650904807980225 -0.021350076679221109 0 0.0066344585409764999 -0.022219633138721002 0 0.0062230949848640941 -0.02175826782389562 0 0.0070650904807980225 -0.021350076679221109 0 0.0078731387178505585 -0.02085041095436687 0 0.0068178604883395253 -0.020088909908225705 0 0.0070650904807980225 -0.021350076679221109 0 0.00585315148132734 -0.020957924577701192 0 0.0068178604883395253 -0.020088909908225705 0 0.0087807593192272895 -0.020751045940634427 0 0.009270935833654393 -0.021484418829005196 0 0.0094545641890596364 -0.019181548249156719 0 0.0078731387178505585 -0.02085041095436687 0 0.0087807593192272895 -0.020751045940634427 0 0.0083985136815605647 -0.021607323831653057 0 0.0034762325878724206 -0.022553599280093529 0 0.0056068291902917665 -0.018516682242522557 0 0.00064139294479365115 -0.02159516715761681 0 0.00088928264370913279 -0.02193780071182929 0 0.0019026152701382404 -0.01968335417893222 0 0.0078731387178505585 -0.02085041095436687 0 0.0087807593192272895 -0.020751045940634427 0 0.0083837354437671322 -0.019684596872169398 0 0.0068754935829370518 -0.022545715938763099 0 0.0034762325878724206 -0.022553599280093529 0 0.0092224386791739457 -0.021457859029394118 0 0.0087865329763392886 -0.021970734881736016 0 0.0092056798263653976 -0.022199897355630126 0 0.0024440516355347846 -0.022657012832466985 0 0.0028667503266055798 -0.023233313684706047 0 0.0024242978054528847 -0.02420721563048895 0 0.0034762325878724206 -0.022553599280093529 0 0.0017798881881668648 -0.024023803558024262 0 0.0034762325878724206 -0.022553599280093529 0 -0.00062431329006571226 -0.0237665530355715 0 0.0087807593192272895 -0.020751045940634427 0 0.0092224386791739457 -0.021457859029394118 0 0.0083985136815605647 -0.021607323831653057 0 0.0092224386791739457 -0.021457859029394118 0 0.0083985136815605647 -0.021607323831653057 0 0.0087865329763392886 -0.021970734881736016 0 -0.00068127651963231198 -0.025132664023292579 0 0.0017798881881668648 -0.024023803558024262 0 0.005929761756555213 -0.024661615254408839 0 0.0017798881881668648 -0.024023803558024262 0 0.0083985136815605647 -0.021607323831653057 0 0.0084668262278525634 -0.022298611651057353 0 0.0079371478365960098 -0.022166974235260522 0 0.0080955513339464064 -0.02470030773452286 0 0.0092056798263653976 -0.022199897355630126 0 0.0085182067204590799 -0.022969758737931591 0 0.0083985136815605647 -0.021607323831653057 0 0.0087865329763392886 -0.021970734881736016 0 0.0084668262278525634 -0.022298611651057353 0 0.0087865329763392886 -0.021970734881736016 0 0.0087754934243614215 -0.022333870100430839 0 0.0084668262278525634 -0.022298611651057353 0 0.0087754934243614215 -0.022333870100430839 0 0.0092056798263653976 -0.022199897355630126 0 0.0085182067204590799 -0.022969758737931591 0 0.0087754934243614215 -0.022333870100430839 0 0.0084668262278525634 -0.022298611651057353 0 0.0085182067204590799 -0.022969758737931591 0 0.0084668262278525634 -0.022298611651057353 0 0.0081565027087961879 -0.022713767561875674 0 0.0079371478365960098 -0.022166974235260522 0 0.0084668262278525634 -0.022298611651057353 0 0.0081565027087961879 -0.022713767561875674 0 0.0085182067204590799 -0.022969758737931591 0 -0.00062431329006571226 -0.0237665530355715 0 0.0017798881881668648 -0.024023803558024262 0 0.0087865329763392886 -0.021970734881736016 0 0.0087754934243614215 -0.022333870100430839 0 0.0092056798263653976 -0.022199897355630126 0 0.0081463603126810755 -0.023831183001304865 0 0.0085182067204590799 -0.022969758737931591 0 0.0081872492903124674 -0.023355658645268354 0 0.0081565027087961879 -0.022713767561875674 0 0.0085182067204590799 -0.022969758737931591 0 0.0081510777357169349 -0.023110768607196772 0 0.0085182067204590799 -0.022969758737931591 0 0.0081510777357169349 -0.023110768607196772 0 0.0081872492903124674 -0.023355658645268354 0 0.0081510777357169349 -0.023110768607196772 0 0.0081872492903124674 -0.023355658645268354 0 0.0078873114905349748 -0.023402588351858666 0 0.0079800476618174781 -0.023617101250239768 0 0.0081872492903124674 -0.023355658645268354 0 0.0078873114905349748 -0.023402588351858666 0 0.0076573459005425714 -0.02363859794520113 0 0.0074558695830813015 -0.023200860414586764 0 0.0067453414180885431 -0.022981442210897717 0 0.0076573459005425714 -0.02363859794520113 0 0.0078873114905349748 -0.023402588351858666 0 0.0074558695830813015 -0.023200860414586764 0 0.0078873114905349748 -0.023402588351858666 0 0.0074558695830813015 -0.023200860414586764 0 0.0077457181805932109 -0.022989488539565325 0 0.0081510777357169349 -0.023110768607196772 0 0.0078873114905349748 -0.023402588351858666 0 0.0077457181805932109 -0.022989488539565325 0 0.007296246388956709 -0.022859296027881223 0 0.0075704455730471343 -0.022606079438582689 0 0.0069606119760513832 -0.022569435884737626 0 0.0074558695830813015 -0.023200860414586764 0 0.007296246388956709 -0.022859296027881223 0 0.0067453414180885431 -0.022981442210897717 0 0.0074558695830813015 -0.023200860414586764 0 0.007296246388956709 -0.022859296027881223 0 0.0077457181805932109 -0.022989488539565325 0 0.007296246388956709 -0.022859296027881223 0 0.0077457181805932109 -0.022989488539565325 0 0.0075704455730471343 -0.022606079438582689 0 0.0081565027087961879 -0.022713767561875674 0 0.0077457181805932109 -0.022989488539565325 0 0.0075704455730471343 -0.022606079438582689 0 0.0081565027087961879 -0.022713767561875674 0 0.0081510777357169349 -0.023110768607196772 0 0.0077457181805932109 -0.022989488539565325 0 0.0081565027087961879 -0.022713767561875674 0 0.0075704455730471343 -0.022606079438582689 0 0.0079371478365960098 -0.022166974235260522 0 0.0075704455730471343 -0.022606079438582689 0 0.0073072949593819053 -0.022085610396413984 0 0.0079371478365960098 -0.022166974235260522 0 0.0075704455730471343 -0.022606079438582689 0 0.0073072949593819053 -0.022085610396413984 0 0.0069606119760513832 -0.022569435884737626 0 0.0076978670729006722 -0.021630165222354791 0 0.0073072949593819053 -0.022085610396413984 0 0.0079371478365960098 -0.022166974235260522 0 0.0070650904807980225 -0.021350076679221109 0 0.0073072949593819053 -0.022085610396413984 0 0.0066344585409764999 -0.022219633138721002 0 0.0073072949593819053 -0.022085610396413984 0 0.0066344585409764999 -0.022219633138721002 0 0.0069606119760513832 -0.022569435884737626 0 0.0066344585409764999 -0.022219633138721002 0 0.0069606119760513832 -0.022569435884737626 0 0.0063628657669633883 -0.022802203234184613 0 0.0069606119760513832 -0.022569435884737626 0 0.0063628657669633883 -0.022802203234184613 0 0.0067453414180885431 -0.022981442210897717 0 0.0063628657669633883 -0.022802203234184613 0 0.0067453414180885431 -0.022981442210897717 0 0.0063855086472288285 -0.023340499967372565 0 0.007296246388956709 -0.022859296027881223 0 0.0069606119760513832 -0.022569435884737626 0 0.0067453414180885431 -0.022981442210897717 0 0.0063628657669633883 -0.022802203234184613 0 0.0063855086472288285 -0.023340499967372565 0 0.0056213963710463419 -0.023165615771626603 0 0.0063628657669633883 -0.022802203234184613 0 0.0056213963710463419 -0.023165615771626603 0 0.0059102244486291715 -0.022504875005004386 0 0.0056213963710463419 -0.023165615771626603 0 0.0050583817084334922 -0.022529644484478799 0 0.0059102244486291715 -0.022504875005004386 0 0.0044977404304269945 -0.023335693721314412 0 0.0056213963710463419 -0.023165615771626603 0 0.0050583817084334922 -0.022529644484478799 0 0.0050583817084334922 -0.022529644484478799 0 0.0047604553447063115 -0.021478974352831106 0 0.005554991666554359 -0.021848224098026562 0 0.0050583817084334922 -0.022529644484478799 0 0.0059102244486291715 -0.022504875005004386 0 0.005554991666554359 -0.021848224098026562 0 0.0066344585409764999 -0.022219633138721002 0 0.0059102244486291715 -0.022504875005004386 0 0.0062230949848640941 -0.02175826782389562 0 0.0059102244486291715 -0.022504875005004386 0 0.0062230949848640941 -0.02175826782389562 0 0.005554991666554359 -0.021848224098026562 0 0.0066344585409764999 -0.022219633138721002 0 0.0063628657669633883 -0.022802203234184613 0 0.0059102244486291715 -0.022504875005004386 0 0.0044977404304269945 -0.023335693721314412 0 0.0033897393642333884 -0.023190340582901255 0 0.0039355919848297685 -0.022309471435055236 0 0.0044977404304269945 -0.023335693721314412 0 0.0050583817084334922 -0.022529644484478799 0 0.0039355919848297685 -0.022309471435055236 0 0.0050583817084334922 -0.022529644484478799 0 0.0039355919848297685 -0.022309471435055236 0 0.0047604553447063115 -0.021478974352831106 0 0.0031896178485514436 -0.021186104669081551 0 0.0039769043307246498 -0.020486186606202512 0 0.0047604553447063115 -0.021478974352831106 0 0.0039769043307246498 -0.020486186606202512 0 0.0047604553447063115 -0.021478974352831106 0 0.0050627078762715367 -0.019743355430998411 0 0.0031896178485514436 -0.021186104669081551 0 0.0039355919848297685 -0.022309471435055236 0 0.0047604553447063115 -0.021478974352831106 0 0.0047604553447063115 -0.021478974352831106 0 0.00585315148132734 -0.020957924577701192 0 0.0050627078762715367 -0.019743355430998411 0 0.0070650904807980225 -0.021350076679221109 0 0.0062230949848640941 -0.02175826782389562 0 0.00585315148132734 -0.020957924577701192 0 0.0062230949848640941 -0.02175826782389562 0 0.005554991666554359 -0.021848224098026562 0 0.00585315148132734 -0.020957924577701192 0 0.0047604553447063115 -0.021478974352831106 0 0.005554991666554359 -0.021848224098026562 0 0.00585315148132734 -0.020957924577701192 0 0.0050627078762715367 -0.019743355430998411 0 0.0067838074416206049 -0.018637782976977067 0 0.0068178604883395253 -0.020088909908225705 0 0.00585315148132734 -0.020957924577701192 0 0.0050627078762715367 -0.019743355430998411 0 0.0068178604883395253 -0.020088909908225705 0 0.0031264571484539024 -0.019356639754058876 0 0.0039769043307246498 -0.020486186606202512 0 0.0050627078762715367 -0.019743355430998411 0 0.0031264571484539024 -0.019356639754058876 0 0.0050627078762715367 -0.019743355430998411 0 0.0053382340773151073 -0.017799027065239323 0 0.0034399619837004948 -0.018891142878402146 0 0.0058138164802224645 -0.017390662593805662 0 0.003813072866167846 -0.018392375904346399 0 0.006142576618792567 -0.01703777029936417 0 0.0041637063756774281 -0.016418843198127794 0 0.0050627078762715367 -0.019743355430998411 0 0.0053382340773151073 -0.017799027065239323 0 0.0067838074416206049 -0.018637782976977067 0 0.0053382340773151073 -0.017799027065239323 0 0.0067838074416206049 -0.018637782976977067 0 0.0089074028963551898 -0.015756872843336572 0 0.0058138164802224645 -0.017390662593805662 0 0.0087866729513740131 -0.015864735310689021 0 0.0083994762791414629 -0.018155711469236387 0 0.0067838074416206049 -0.018637782976977067 0 0.0089074028963551898 -0.015756872843336572 0 0.0067838074416206049 -0.018637782976977067 0 0.0068178604883395253 -0.020088909908225705 0 0.0083837354437671322 -0.019684596872169398 0 0.0083994762791414629 -0.018155711469236387 0 0.0067838074416206049 -0.018637782976977067 0 0.0083837354437671322 -0.019684596872169398 0 0.0078731387178505585 -0.02085041095436687 0 0.0068178604883395253 -0.020088909908225705 0 0.0083837354437671322 -0.019684596872169398 0 0.00064139294479365115 -0.02159516715761681 0 0.00069292073029090487 -0.01883973890644566 0 0.0019026152701382404 -0.01968335417893222 0 0.0087807593192272895 -0.020751045940634427 0 0.0083837354437671322 -0.019684596872169398 0 0.0094545641890596364 -0.019181548249156719 0 0.0083994762791414629 -0.018155711469236387 0 0.0083837354437671322 -0.019684596872169398 0 0.0094545641890596364 -0.019181548249156719 0 0.0094952532904922782 -0.019099174300875318 0 0.0056068291902917665 -0.018516682242522557 0 0.0083994762791414629 -0.018155711469236387 0 0.010412605436467555 -0.016958429181204514 0 0.0089074028963551898 -0.015756872843336572 0 0.0083994762791414629 -0.018155711469236387 0 0.010339213823139553 -0.019482572780867003 0 0.010412605436467555 -0.016958429181204514 0 0.0056068291902917665 -0.018516682242522557 0 0.0061081496765969827 -0.01637587878114927 0 0.00174233984823272 -0.016175911297238107 0 0.0017781139480475831 -0.015684093889226064 0 0.0022310675161534093 -0.015877553370139557 0 0.0017781139480475831 -0.015684093889226064 0 0.0022310675161534093 -0.015877553370139557 0 0.0020641980491029458 -0.015545804837281371 0 0.0022310675161534093 -0.015877553370139557 0 0.0024296458404285282 -0.015407616752915869 0 0.0020641980491029458 -0.015545804837281371 0 -0.0026957697163768877 -0.014462354929810345 0 -0.00023775125363128472 -0.012557543838373987 0 -0.0072777800982397499 -0.013279473770081776 0 -0.0068528295857723381 -0.012956301207988288 0 -0.0074483404151767761 -0.012806875124405934 0 -0.0077223234421883221 -0.013369492507111584 0 -0.0072777800982397499 -0.013279473770081776 0 -0.0074483404151767761 -0.012806875124405934 0 -0.0077223234421883221 -0.013369492507111584 0 -0.0072777800982397499 -0.013279473770081776 0 -0.0074539584594270963 -0.013777770609790654 0 -0.0074539584594270963 -0.013777770609790654 0 -0.0070002524253139345 -0.013724197519327016 0 -0.0072750780496850355 -0.014475886080695015 0 -0.0074539584594270963 -0.013777770609790654 0 -0.0079767746238627816 -0.013960149365412726 0 -0.0072750780496850355 -0.014475886080695015 0 -0.0072777800982397499 -0.013279473770081776 0 -0.0074539584594270963 -0.013777770609790654 0 -0.0070002524253139345 -0.013724197519327016 0 -0.0077223234421883221 -0.013369492507111584 0 -0.0074539584594270963 -0.013777770609790654 0 -0.0079767746238627816 -0.013960149365412726 0 -0.0026957697163768877 -0.014462354929810345 0 -0.0044897033336538427 -0.018135099227432144 0 0.00174233984823272 -0.016175911297238107 0 0.0022310675161534093 -0.015877553370139557 0 0.0020007079215370064 -0.016375305664876414 0 0.0056068291902917665 -0.018516682242522557 0 -0.0044897033336538427 -0.018135099227432144 0 -0.0061463551214642354 -0.013031092010922875 0 -0.0065453647365086463 -0.013475905497088794 0 -0.0059036310537292696 -0.013465385827014478 0 -0.0056800643457882447 -0.01315089508187276 0 -0.0080619116108003111 -0.012582232901546749 0 -0.0061463551214642354 -0.013031092010922875 0 -0.0065453647365086463 -0.013475905497088794 0 -0.0068528295857723381 -0.012956301207988288 0 -0.0065453647365086463 -0.013475905497088794 0 -0.0070002524253139345 -0.013724197519327016 0 -0.0068528295857723381 -0.012956301207988288 0 -0.0072777800982397499 -0.013279473770081776 0 -0.0070002524253139345 -0.013724197519327016 0 -0.0068528295857723381 -0.012956301207988288 0 -0.0065453647365086463 -0.013475905497088794 0 -0.0070002524253139345 -0.013724197519327016 0 -0.0067162891085792336 -0.0142827927699486 0 -0.0065453647365086463 -0.013475905497088794 0 -0.0062479231672926197 -0.013874906770368494 0 -0.0059036310537292696 -0.013465385827014478 0 -0.0065453647365086463 -0.013475905497088794 0 -0.0062479231672926197 -0.013874906770368494 0 -0.0067162891085792336 -0.0142827927699486 0 -0.0062479231672926197 -0.013874906770368494 0 -0.0063611044260506767 -0.014708910263467287 0 -0.0059590681804737502 -0.014278865805109748 0 -0.0062479231672926197 -0.013874906770368494 0 -0.0067162891085792336 -0.0142827927699486 0 -0.0063611044260506767 -0.014708910263467287 0 -0.0067162891085792336 -0.0142827927699486 0 -0.0065526847109295978 -0.014950825089404769 0 -0.0072750780496850355 -0.014475886080695015 0 -0.0070002524253139345 -0.013724197519327016 0 -0.0067162891085792336 -0.0142827927699486 0 -0.0072750780496850355 -0.014475886080695015 0 -0.0099970454398216595 -0.024123395640838187 0 -0.0096078077671218134 -0.024305773601155319 0 -0.0096090071194968145 -0.024101601452688498 0 -0.0082394484336866022 -0.019521915171892876 0 -0.0091583838544055055 -0.019377488844432779 0 -0.0099970454398216595 -0.024123395640838187 0 -0.0096090071194968145 -0.024101601452688498 0 -0.0097573112549533322 -0.02396376351567198 0 -0.0065526847109295978 -0.014950825089404769 0 -0.0063611044260506767 -0.014708910263467287 0 -0.0063360617588035829 -0.014908597101225725 0 -0.0067162891085792336 -0.0142827927699486 0 -0.0065526847109295978 -0.014950825089404769 0 -0.0063611044260506767 -0.014708910263467287 0 -0.00062431329006571226 -0.0237665530355715 0 -0.0044897033336538427 -0.018135099227432144 0 -0.009070966899695854 -0.02424340460586254 0 -0.0091918644309595798 -0.02448561013307024 0 -0.0093694832533211692 -0.024202198352440505 0 -0.0044897033336538427 -0.018135099227432144 0 -0.0091583838544055055 -0.019377488844432779 0 -0.0091918644309595798 -0.02448561013307024 0 -0.0096078077671218134 -0.024305773601155319 0 -0.0093694832533211692 -0.024202198352440505 0 -0.0096090071194968145 -0.024101601452688498 0 -0.0093694832533211692 -0.024202198352440505 0 -0.0094055649619333749 -0.023965134906813301 0 -0.0096078077671218134 -0.024305773601155319 0 -0.0096090071194968145 -0.024101601452688498 0 -0.0093694832533211692 -0.024202198352440505 0 -0.00062431329006571226 -0.0237665530355715 0 -0.0065727362164769041 -0.024279702251118127 0 -0.00081230639997527008 -0.026476534555620178 0 -0.00060715077255589262 -0.026029125694338982 0 -0.0024523996387338324 -0.024357472103460735 0 -0.009070966899695854 -0.02424340460586254 0 -0.0093694832533211692 -0.024202198352440505 0 -0.0094055649619333749 -0.023965134906813301 0 -0.0005759686352930785 -0.02425603928241736 0 -0.00060715077255589262 -0.026029125694338982 0 -0.0024523996387338324 -0.024357472103460735 0 -0.0005759686352930785 -0.02425603928241736 0 -0.0024523996387338324 -0.024357472103460735 0 -0.0015457433750756331 -0.023698826269690141 0 -0.0024523996387338324 -0.024357472103460735 0 -0.0020176635146061457 -0.023022248910734091 0 -0.0028240254053507057 -0.022812174813671628 0 -0.0024523996387338324 -0.024357472103460735 0 -0.0015457433750756331 -0.023698826269690141 0 -0.0020176635146061457 -0.023022248910734091 0 -0.00084333510566693437 -0.023530908811881832 0 -0.0015457433750756331 -0.023698826269690141 0 -0.0014181027770489201 -0.023219787789634384 0 -0.0020176635146061457 -0.023022248910734091 0 -0.0028240254053507057 -0.022812174813671628 0 -0.0029997112915427157 -0.021373882937930969 0 0.0013946678029154455 -0.025934417747345093 0 0.00034652324877235927 -0.024345824982818166 0 -0.0014333794529226118 -0.023948839804972283 0 -0.00044384030902660452 -0.024151562659020975 0 -0.001992211584451114 -0.022671813990095949 0 -0.0012689233429307343 -0.022624792542196053 0 -0.0020176635146061457 -0.023022248910734091 0 -0.0029997112915427157 -0.021373882937930969 0 -0.00084333510566693437 -0.023530908811881832 0 -0.0014181027770489201 -0.023219787789634384 0 -0.0012689233429307343 -0.022624792542196053 0 -0.0014181027770489201 -0.023219787789634384 0 -0.0012689233429307343 -0.022624792542196053 0 -0.0020176635146061457 -0.023022248910734091 0 -0.0015457433750756331 -0.023698826269690141 0 -0.0014181027770489201 -0.023219787789634384 0 -0.0020176635146061457 -0.023022248910734091 0 0.002154914771799841 -0.025381203947566561 0 0.0013946678029154455 -0.025934417747345093 0 0.00034652324877235927 -0.024345824982818166 0 -0.0024523996387338324 -0.024357472103460735 0 -0.0041593277934257218 -0.022192558674448134 0 -0.0028240254053507057 -0.022812174813671628 0 -0.0065727362164769041 -0.024279702251118127 0 -0.0067720511754349004 -0.022903891059925421 0 -0.0041593277934257218 -0.022192558674448134 0 -0.0028240254053507057 -0.022812174813671628 0 -0.0029997112915427157 -0.021373882937930969 0 -0.0096090071194968145 -0.024101601452688498 0 -0.0094055649619333749 -0.023965134906813301 0 -0.0097573112549533322 -0.02396376351567198 0 -0.0094055649619333749 -0.023965134906813301 0 -0.0097400730758097215 -0.023724625267711571 0 -0.0097573112549533322 -0.02396376351567198 0 -0.0099970454398216595 -0.024123395640838187 0 -0.0097573112549533322 -0.02396376351567198 0 -0.0099680113909262433 -0.023889340267971213 0 -0.0082394484336866022 -0.019521915171892876 0 -0.0079020937597850255 -0.019633162656327807 0 -0.0099970454398216595 -0.024123395640838187 0 -0.0099680113909262433 -0.023889340267971213 0 -0.010338433315099496 -0.023957484104583905 0 -0.0099680113909262433 -0.023889340267971213 0 -0.010111583834285967 -0.023773343457779008 0 -0.010338433315099496 -0.023957484104583905 0 -0.010111583834285967 -0.023773343457779008 0 -0.0099819405703820314 -0.023738338636968375 0 -0.010085210349657991 -0.023666569111724555 0 -0.0099680113909262433 -0.023889340267971213 0 -0.010111583834285967 -0.023773343457779008 0 -0.0099819405703820314 -0.023738338636968375 0 -0.0097400730758097215 -0.023724625267711571 0 -0.0099680113909262433 -0.023889340267971213 0 -0.0099819405703820314 -0.023738338636968375 0 -0.0097400730758097215 -0.023724625267711571 0 -0.0097573112549533322 -0.02396376351567198 0 -0.0099680113909262433 -0.023889340267971213 0 -0.0041593277934257218 -0.022192558674448134 0 -0.0058905234088222919 -0.019967743727740982 0 -0.0047725660121918688 -0.02015643980109277 0 -0.0097400730758097215 -0.023724625267711571 0 -0.0099957526978081933 -0.023645821004900786 0 -0.010049470054341465 -0.023521870700325669 0 -0.0067720511754349004 -0.022903891059925421 0 -0.0085903166779716413 -0.022221706603162927 0 -0.0097400730758097215 -0.023724625267711571 0 -0.0099819405703820314 -0.023738338636968375 0 -0.0099957526978081933 -0.023645821004900786 0 -0.010111583834285967 -0.023773343457779008 0 -0.010177746264369169 -0.023683184522680228 0 -0.010085210349657991 -0.023666569111724555 0 -0.010111583834285967 -0.023773343457779008 0 -0.010177746264369169 -0.023683184522680228 0 -0.010253793269973131 -0.02373589280163545 0 -0.010177746264369169 -0.023683184522680228 0 -0.010277445292004393 -0.023653077202178029 0 -0.010253793269973131 -0.02373589280163545 0 -0.0099819405703820314 -0.023738338636968375 0 -0.0099957526978081933 -0.023645821004900786 0 -0.010085210349657991 -0.023666569111724555 0 -0.010177746264369169 -0.023683184522680228 0 -0.010085210349657991 -0.023666569111724555 0 -0.010153385521413507 -0.023594856920655247 0 -0.0099957526978081933 -0.023645821004900786 0 -0.010153385521413507 -0.023594856920655247 0 -0.010049470054341465 -0.023521870700325669 0 -0.0099957526978081933 -0.023645821004900786 0 -0.010085210349657991 -0.023666569111724555 0 -0.010153385521413507 -0.023594856920655247 0 -0.010177746264369169 -0.023683184522680228 0 -0.010153385521413507 -0.023594856920655247 0 -0.010277445292004393 -0.023653077202178029 0 -0.010153385521413507 -0.023594856920655247 0 -0.010049470054341465 -0.023521870700325669 0 -0.010390128376608286 -0.023636586260064481 0 -0.0098021992811653403 -0.024138530472381941 0 -0.0099152250023076174 -0.023780048273709851 0 -0.010390128376608286 -0.023636586260064481 0 -0.010105854288214717 -0.023593803549210771 0 -0.0099152250023076174 -0.023780048273709851 0 -0.010390128376608286 -0.023636586260064481 0 -0.0085903166779716413 -0.022221706603162927 0 -0.010788079862604116 -0.023982169326410698 0 -0.0098021992811653403 -0.024138530472381941 0 -0.0099152250023076174 -0.023780048273709851 0 -0.0097556192366631978 -0.023961192358086157 0 -0.0099152250023076174 -0.023780048273709851 0 -0.0097556192366631978 -0.023961192358086157 0 -0.0097555007945967602 -0.02386853396398143 0 -0.0099152250023076174 -0.023780048273709851 0 -0.0097300816060335721 -0.023788825047066784 0 -0.009771750524081798 -0.023721210544220033 0 -0.0099152250023076174 -0.023780048273709851 0 -0.0097555007945967602 -0.02386853396398143 0 -0.0097300816060335721 -0.023788825047066784 0 -0.0098230296687283752 -0.023673338378477442 0 -0.0099152250023076174 -0.023780048273709851 0 -0.009771750524081798 -0.023721210544220033 0 -0.0092676916774858346 -0.024181988325188346 0 -0.0091341349891673682 -0.024296485036725341 0 -0.0095914425251134635 -0.024105805081148596 0 -0.0098021992811653403 -0.024138530472381941 0 -0.0092919468390614563 -0.024322557680866344 0 -0.0091341349891673682 -0.024296485036725341 0 -0.0092676916774858346 -0.024181988325188346 0 -0.0094167542417220307 -0.024143621914785376 0 -0.0095124284828963252 -0.024157091289737719 0 -0.0092676916774858346 -0.024181988325188346 0 -0.0093476682987884002 -0.024047562255043245 0 -0.0092441341548390246 -0.024119563835327991 0 -0.0092676916774858346 -0.024181988325188346 0 -0.0094167542417220307 -0.024143621914785376 0 -0.0093476682987884002 -0.024047562255043245 0 -0.0094167542417220307 -0.024143621914785376 0 -0.0093476682987884002 -0.024047562255043245 0 -0.0094827555946776446 -0.023998512444305512 0 -0.0093476682987884002 -0.024047562255043245 0 -0.0092418516418002299 -0.024043040667224441 0 -0.0092441957489047249 -0.02395076399489102 0 -0.0093476682987884002 -0.024047562255043245 0 -0.0092418516418002299 -0.024043040667224441 0 -0.0092441341548390246 -0.024119563835327991 0 -0.0092418516418002299 -0.024043040667224441 0 -0.0091445219911488341 -0.02401913176557564 0 -0.0091647752139059502 -0.024117913957938445 0 -0.0092418516418002299 -0.024043040667224441 0 -0.0092441341548390246 -0.024119563835327991 0 -0.0091647752139059502 -0.024117913957938445 0 -0.0091445219911488341 -0.02401913176557564 0 -0.0090671295581607469 -0.024201493041974935 0 -0.0090493721384972674 -0.024092955433461953 0 -0.0091647752139059502 -0.024117913957938445 0 -0.0091822558767319408 -0.024193529638252925 0 -0.0090671295581607469 -0.024201493041974935 0 -0.0091445219911488341 -0.02401913176557564 0 -0.0091647752139059502 -0.024117913957938445 0 -0.0090671295581607469 -0.024201493041974935 0 -0.0092441341548390246 -0.024119563835327991 0 -0.0091647752139059502 -0.024117913957938445 0 -0.0091822558767319408 -0.024193529638252925 0 -0.0092676916774858346 -0.024181988325188346 0 -0.0092441341548390246 -0.024119563835327991 0 -0.0091822558767319408 -0.024193529638252925 0 -0.0092676916774858346 -0.024181988325188346 0 -0.0091822558767319408 -0.024193529638252925 0 -0.0091341349891673682 -0.024296485036725341 0 -0.0091822558767319408 -0.024193529638252925 0 -0.0090671295581607469 -0.024201493041974935 0 -0.0091341349891673682 -0.024296485036725341 0 -0.0090671295581607469 -0.024201493041974935 0 -0.0091341349891673682 -0.024296485036725341 0 -0.0089687399496948591 -0.024272870494538898 0 -0.0085903166779716413 -0.022221706603162927 0 -0.0061968950054784762 -0.022270952014570633 0 -0.0098021992811653403 -0.024138530472381941 0 -0.0091341349891673682 -0.024296485036725341 0 -0.0095914425251134635 -0.024105805081148596 0 -0.0098021992811653403 -0.024138530472381941 0 -0.0096914274460256442 -0.024065752806682925 0 -0.0097556192366631978 -0.023961192358086157 0 -0.0098021992811653403 -0.024138530472381941 0 -0.0096914274460256442 -0.024065752806682925 0 -0.0095914425251134635 -0.024105805081148596 0 -0.0096914274460256442 -0.024065752806682925 0 -0.009687023760502558 -0.02398610524819432 0 -0.0095914425251134635 -0.024105805081148596 0 -0.009687023760502558 -0.02398610524819432 0 -0.0095935931755024399 -0.024033828025887109 0 -0.0096024826928256066 -0.023960332433352119 0 -0.009687023760502558 -0.02398610524819432 0 -0.0095914425251134635 -0.024105805081148596 0 -0.0095935931755024399 -0.024033828025887109 0 -0.0096914274460256442 -0.024065752806682925 0 -0.009687023760502558 -0.02398610524819432 0 -0.0097556192366631978 -0.023961192358086157 0 -0.0092676916774858346 -0.024181988325188346 0 -0.0095124284828963252 -0.024157091289737719 0 -0.0095914425251134635 -0.024105805081148596 0 -0.0094167542417220307 -0.024143621914785376 0 -0.009484727478711253 -0.02407448298420994 0 -0.0095914425251134635 -0.024105805081148596 0 -0.0094167542417220307 -0.024143621914785376 0 -0.0095124284828963252 -0.024157091289737719 0 -0.0095914425251134635 -0.024105805081148596 0 -0.0095914425251134635 -0.024105805081148596 0 -0.0095935931755024399 -0.024033828025887109 0 -0.0094827555946776446 -0.023998512444305512 0 -0.0095935931755024399 -0.024033828025887109 0 -0.0094827555946776446 -0.023998512444305512 0 -0.0096024826928256066 -0.023960332433352119 0 -0.009484727478711253 -0.02407448298420994 0 -0.0095914425251134635 -0.024105805081148596 0 -0.0094827555946776446 -0.023998512444305512 0 -0.0094167542417220307 -0.024143621914785376 0 -0.009484727478711253 -0.02407448298420994 0 -0.0094827555946776446 -0.023998512444305512 0 -0.0094827555946776446 -0.023998512444305512 0 -0.0096028668692076796 -0.023881238609860286 0 -0.0095109644534423395 -0.023917107697906909 0 -0.0094827555946776446 -0.023998512444305512 0 -0.0095109644534423395 -0.023917107697906909 0 -0.0094173176670290428 -0.023877138903436297 0 -0.0094827555946776446 -0.023998512444305512 0 -0.0096024826928256066 -0.023960332433352119 0 -0.0096028668692076796 -0.023881238609860286 0 -0.0095109644534423395 -0.023917107697906909 0 -0.0095224149710969631 -0.02383784757574724 0 -0.0094173176670290428 -0.023877138903436297 0 -0.0096028668692076796 -0.023881238609860286 0 -0.0095109644534423395 -0.023917107697906909 0 -0.0095224149710969631 -0.02383784757574724 0 -0.009687023760502558 -0.02398610524819432 0 -0.0097556192366631978 -0.023961192358086157 0 -0.0097555007945967602 -0.02386853396398143 0 -0.009687023760502558 -0.02398610524819432 0 -0.0096024826928256066 -0.023960332433352119 0 -0.0096028668692076796 -0.023881238609860286 0 -0.009687023760502558 -0.02398610524819432 0 -0.0096707959085807118 -0.023898288128711816 0 -0.0097555007945967602 -0.02386853396398143 0 -0.009687023760502558 -0.02398610524819432 0 -0.0096028668692076796 -0.023881238609860286 0 -0.0096707959085807118 -0.023898288128711816 0 -0.0096626451933676666 -0.023844505415474643 0 -0.0096707959085807118 -0.023898288128711816 0 -0.0097555007945967602 -0.02386853396398143 0 -0.0096028668692076796 -0.023881238609860286 0 -0.0096626451933676666 -0.023844505415474643 0 -0.0096707959085807118 -0.023898288128711816 0 -0.0096626451933676666 -0.023844505415474643 0 -0.0097555007945967602 -0.02386853396398143 0 -0.0097300816060335721 -0.023788825047066784 0 -0.0096626451933676666 -0.023844505415474643 0 -0.0097300816060335721 -0.023788825047066784 0 -0.0096297948614437086 -0.023790657196627131 0 -0.0097300816060335721 -0.023788825047066784 0 -0.0096664865665284719 -0.023713766437576229 0 -0.0096297948614437086 -0.023790657196627131 0 -0.0097300816060335721 -0.023788825047066784 0 -0.0096664865665284719 -0.023713766437576229 0 -0.009771750524081798 -0.023721210544220033 0 -0.0095224149710969631 -0.02383784757574724 0 -0.0095374441884474529 -0.023759115010334019 0 -0.009438448974174108 -0.023791160813285445 0 -0.0096028668692076796 -0.023881238609860286 0 -0.0095224149710969631 -0.02383784757574724 0 -0.0096297948614437086 -0.023790657196627131 0 -0.0095224149710969631 -0.02383784757574724 0 -0.0096297948614437086 -0.023790657196627131 0 -0.0095374441884474529 -0.023759115010334019 0 -0.0096028668692076796 -0.023881238609860286 0 -0.0096626451933676666 -0.023844505415474643 0 -0.0096297948614437086 -0.023790657196627131 0 -0.0096664865665284719 -0.023713766437576229 0 -0.0096297948614437086 -0.023790657196627131 0 -0.0095374441884474529 -0.023759115010334019 0 -0.0095921462119783179 -0.023685612427272896 0 -0.0096664865665284719 -0.023713766437576229 0 -0.0095374441884474529 -0.023759115010334019 0 -0.0095383594543915432 -0.023671780369375232 0 -0.0095374441884474529 -0.023759115010334019 0 -0.009438448974174108 -0.023791160813285445 0 -0.0095921462119783179 -0.023685612427272896 0 -0.0095383594543915432 -0.023671780369375232 0 -0.0095374441884474529 -0.023759115010334019 0 -0.0095038072585340045 -0.023576403257894521 0 -0.0092943887261507461 -0.023830139375503451 0 -0.0091602028351529183 -0.023933215501235755 0 -0.0095038072585340045 -0.023576403257894521 0 -0.0091602028351529183 -0.023933215501235755 0 -0.0091729923858825547 -0.02380634135796025 0 -0.0095383594543915432 -0.023671780369375232 0 -0.0092943887261507461 -0.023830139375503451 0 -0.009438448974174108 -0.023791160813285445 0 -0.0095224149710969631 -0.02383784757574724 0 -0.009438448974174108 -0.023791160813285445 0 -0.0094173176670290428 -0.023877138903436297 0 -0.0092943887261507461 -0.023830139375503451 0 -0.009438448974174108 -0.023791160813285445 0 -0.0094173176670290428 -0.023877138903436297 0 -0.0094173176670290428 -0.023877138903436297 0 -0.0093436594238558539 -0.023889246265897134 0 -0.0093555021026609647 -0.02395297170174954 0 -0.0092943887261507461 -0.023830139375503451 0 -0.0093436594238558539 -0.023889246265897134 0 -0.0092441957489047249 -0.02395076399489102 0 -0.0092943887261507461 -0.023830139375503451 0 -0.0094173176670290428 -0.023877138903436297 0 -0.0093436594238558539 -0.023889246265897134 0 -0.0093476682987884002 -0.024047562255043245 0 -0.0093555021026609647 -0.02395297170174954 0 -0.0092441957489047249 -0.02395076399489102 0 -0.0093436594238558539 -0.023889246265897134 0 -0.0093555021026609647 -0.02395297170174954 0 -0.0092441957489047249 -0.02395076399489102 0 -0.0093476682987884002 -0.024047562255043245 0 -0.0094827555946776446 -0.023998512444305512 0 -0.0093555021026609647 -0.02395297170174954 0 -0.0094827555946776446 -0.023998512444305512 0 -0.0094173176670290428 -0.023877138903436297 0 -0.0093555021026609647 -0.02395297170174954 0 -0.0091445219911488341 -0.02401913176557564 0 -0.0091602028351529183 -0.023933215501235755 0 -0.0090493721384972674 -0.024092955433461953 0 -0.0092418516418002299 -0.024043040667224441 0 -0.0091445219911488341 -0.02401913176557564 0 -0.0092441957489047249 -0.02395076399489102 0 -0.0091445219911488341 -0.02401913176557564 0 -0.0091602028351529183 -0.023933215501235755 0 -0.0092441957489047249 -0.02395076399489102 0 -0.0092943887261507461 -0.023830139375503451 0 -0.0091602028351529183 -0.023933215501235755 0 -0.0092441957489047249 -0.02395076399489102 0 -0.0025030009899932974 -0.029748442192694045 0 -0.0026110988424929474 -0.029800535886657101 0 -0.0026283025070300095 -0.029599684847594811 0 -0.002480962093265383 -0.029817395817784784 0 -0.0025030009899932974 -0.029748442192694045 0 -0.0026110988424929474 -0.029800535886657101 0 -0.00042782073015197765 -0.029545089941582742 0 0.0026660528077749358 -0.027086147391003873 0 -0.0026110988424929474 -0.029800535886657101 0 -0.0026283025070300095 -0.029599684847594811 0 -0.0028111101044899071 -0.02937881710337489 0 -0.0025030009899932974 -0.029748442192694045 0 -0.0026283025070300095 -0.029599684847594811 0 -0.0026547302807230582 -0.029448784030144087 0 -0.0092919468390614563 -0.024322557680866344 0 -0.0091341349891673682 -0.024296485036725341 0 -0.0084987979410621351 -0.024491112630179689 0 -0.0091602028351529183 -0.023933215501235755 0 -0.0091729923858825547 -0.02380634135796025 0 -0.0084987979410621351 -0.024491112630179689 0 -0.0091341349891673682 -0.024296485036725341 0 -0.0089687399496948591 -0.024272870494538898 0 -0.0084987979410621351 -0.024491112630179689 0 -0.0090493721384972674 -0.024092955433461953 0 -0.0089687399496948591 -0.024272870494538898 0 -0.0084987979410621351 -0.024491112630179689 0 -0.0091602028351529183 -0.023933215501235755 0 -0.0090493721384972674 -0.024092955433461953 0 -0.0084987979410621351 -0.024491112630179689 0 -0.0058665793157720277 -0.026870515818730248 0 -0.0042948584300086662 -0.025569805583624115 0 -0.0090671295581607469 -0.024201493041974935 0 -0.0090493721384972674 -0.024092955433461953 0 -0.0089687399496948591 -0.024272870494538898 0 0.0024324852490475702 -0.028935696275999075 0 0.0028378759781033259 -0.028658301959881664 0 0.0030288262675663199 -0.028573295960808903 0 0.0030578378164290245 -0.028516924306900924 0 0.0028378759781033259 -0.028658301959881664 0 0.003083512786531763 -0.028487220249334037 0 0.0033560527746152161 -0.028239726637415041 0 0.003083512786531763 -0.028487220249334037 0 0.0030288262675663199 -0.028573295960808903 0 0.0030578378164290245 -0.028516924306900924 0 0.0033560527746152161 -0.028239726637415041 0 0.003083512786531763 -0.028487220249334037 0 0.0028378759781033259 -0.028658301959881664 0 0.003083512786531763 -0.028487220249334037 0 0.0030288262675663199 -0.028573295960808903 0 0.00015194331859337201 -0.022841520882262961 0 -0.00073795721128261144 -0.023250107886684006 0 -0.0017219472502541468 -0.02235911862602414 0 0.002154914771799841 -0.025381203947566561 0 0.00015194331859337201 -0.022841520882262961 0 0.00034652324877235927 -0.024345824982818166 0 0.0026660528077749358 -0.027086147391003873 0 -0.0042948584300086662 -0.025569805583624115 0 0.0053985680642630899 -0.025630513364538778 0 0.0026660528077749358 -0.027086147391003873 0 0.00015194331859337201 -0.022841520882262961 0 -0.00073795721128261144 -0.023250107886684006 0 0.00034652324877235927 -0.024345824982818166 0 -0.00073795721128261144 -0.023250107886684006 0 0.00034652324877235927 -0.024345824982818166 0 -0.0014333794529226118 -0.023948839804972283 0 -0.0061968950054784762 -0.022270952014570633 0 -0.001992211584451114 -0.022671813990095949 0 -0.0044300695350852183 -0.021876456542709685 0 -0.0014333794529226118 -0.023948839804972283 0 -0.0017219472502541468 -0.02235911862602414 0 -0.0041593277934257218 -0.022192558674448134 0 -0.0047725660121918688 -0.02015643980109277 0 -0.0029997112915427157 -0.021373882937930969 0 -0.0061968950054784762 -0.022270952014570633 0 -0.0042948584300086662 -0.025569805583624115 0 -0.00073795721128261144 -0.023250107886684006 0 -0.0014333794529226118 -0.023948839804972283 0 -0.0017219472502541468 -0.02235911862602414 0 -0.0026283025070300095 -0.029599684847594811 0 -0.0028111101044899071 -0.02937881710337489 0 -0.0026547302807230582 -0.029448784030144087 0 -0.01087857893081989 -0.023684774901854985 0 -0.010671674802456633 -0.023661084041305729 0 -0.010814093800836666 -0.023609790969308785 0 -0.015296875994653016 -0.020539490578686068 0 -0.01090630341509603 -0.019285402074087295 0 -0.01087857893081989 -0.023684774901854985 0 -0.010757149085856156 -0.023577197948185441 0 -0.010671674802456633 -0.023661084041305729 0 -0.010883639982887008 -0.024864809757403093 0 -0.01090630341509603 -0.019285402074087295 0 -0.011239432709360335 -0.023574286557947976 0 -0.01087857893081989 -0.023684774901854985 0 -0.010757149085856156 -0.023577197948185441 0 -0.015318523787445327 -0.020485088034685937 0 -0.015296875994653016 -0.020539490578686068 0 -0.018941590271672942 -0.017775925883941546 0 -0.018813282211404991 -0.017539349342521989 0 -0.018883457717291 -0.017530853485568963 0 -0.010834155150483051 -0.023804915658690994 0 -0.010739949685365281 -0.023641509495531593 0 -0.010757149085856156 -0.023577197948185441 0 -0.010583969036932509 -0.023709903151386082 0 -0.010974144622969742 -0.02354811857001067 0 -0.011239432709360335 -0.023574286557947976 0 -0.011196211347442206 -0.023358265985874573 0 -0.010757149085856156 -0.023577197948185441 0 -0.010739949685365281 -0.023641509495531593 0 -0.010677385183469881 -0.023582860361538734 0 -0.010757149085856156 -0.023577197948185441 0 -0.010757149085856156 -0.023577197948185441 0 -0.010599621503410416 -0.02360501450721263 0 -0.010671674802456633 -0.023661084041305729 0 -0.010677385183469881 -0.023582860361538734 0 -0.010757149085856156 -0.023577197948185441 0 -0.010599621503410416 -0.02360501450721263 0 -0.010592009023354705 -0.023555123548378021 0 -0.010677385183469881 -0.023582860361538734 0 -0.010599621503410416 -0.02360501450721263 0 -0.010592009023354705 -0.023555123548378021 0 -0.010599621503410416 -0.02360501450721263 0 -0.010390128376608286 -0.023636586260064481 0 -0.010599621503410416 -0.02360501450721263 0 -0.010390128376608286 -0.023636586260064481 0 -0.010470679421442298 -0.023660827460689524 0 -0.010390128376608286 -0.023636586260064481 0 -0.010277445292004393 -0.023653077202178029 0 -0.010470679421442298 -0.023660827460689524 0 -0.010153385521413507 -0.023594856920655247 0 -0.010390128376608286 -0.023636586260064481 0 -0.010277445292004393 -0.023653077202178029 0 -0.010277445292004393 -0.023653077202178029 0 -0.010387088980297042 -0.023748468388338179 0 -0.010470679421442298 -0.023660827460689524 0 -0.010277445292004393 -0.023653077202178029 0 -0.010387088980297042 -0.023748468388338179 0 -0.010253793269973131 -0.02373589280163545 0 -0.010599621503410416 -0.02360501450721263 0 -0.010671674802456633 -0.023661084041305729 0 -0.010470679421442298 -0.023660827460689524 0 -0.010387088980297042 -0.023748468388338179 0 -0.010470679421442298 -0.023660827460689524 0 -0.010526020752788377 -0.023752576792831336 0 -0.010671674802456633 -0.023661084041305729 0 -0.010526020752788377 -0.023752576792831336 0 -0.010646659560324482 -0.023804944294083519 0 -0.010671674802456633 -0.023661084041305729 0 -0.010470679421442298 -0.023660827460689524 0 -0.010526020752788377 -0.023752576792831336 0 -0.010526020752788377 -0.023752576792831336 0 -0.010338433315099496 -0.023957484104583905 0 -0.010646659560324482 -0.023804944294083519 0 -0.0079020937597850255 -0.019633162656327807 0 -0.01090630341509603 -0.019285402074087295 0 -0.010387088980297042 -0.023748468388338179 0 -0.010526020752788377 -0.023752576792831336 0 -0.010338433315099496 -0.023957484104583905 0 -0.010387088980297042 -0.023748468388338179 0 -0.010253793269973131 -0.02373589280163545 0 -0.010338433315099496 -0.023957484104583905 0 -0.010111583834285967 -0.023773343457779008 0 -0.010253793269973131 -0.02373589280163545 0 -0.010338433315099496 -0.023957484104583905 0 -0.0065526847109295978 -0.014950825089404769 0 -0.0063522874656847727 -0.015041962472864046 0 -0.0063360617588035829 -0.014908597101225725 0 -0.0063522874656847727 -0.015041962472864046 0 -0.0062853115072950714 -0.014994792819151639 0 -0.0063360617588035829 -0.014908597101225725 0 -0.0063522874656847727 -0.015041962472864046 0 -0.0062853115072950714 -0.014994792819151639 0 -0.0063237977934720987 -0.015143132183386379 0 -0.018743671161466156 -0.01735333496355683 0 -0.018796193351655634 -0.017327143777163389 0 -0.01874808808379225 -0.017356817483715002 0 -0.012822434490118023 -0.01571121673514328 0 -0.01090630341509603 -0.019285402074087295 0 -0.018743671161466156 -0.01735333496355683 0 -0.018806641482065688 -0.01742767116745032 0 -0.018796193351655634 -0.017327143777163389 0 -0.018743671161466156 -0.01735333496355683 0 -0.018711134026635188 -0.017471927579653219 0 -0.018806641482065688 -0.01742767116745032 0 -0.018813282211404991 -0.017539349342521989 0 -0.018711134026635188 -0.017471927579653219 0 -0.018806641482065688 -0.01742767116745032 0 -0.018813282211404991 -0.017539349342521989 0 -0.018883457717291 -0.017530853485568963 0 -0.018806641482065688 -0.01742767116745032 0 -0.018883457717291 -0.017530853485568963 0 -0.018806641482065688 -0.01742767116745032 0 -0.018875537375699122 -0.017371559983697674 0 -0.018806641482065688 -0.01742767116745032 0 -0.018875537375699122 -0.017371559983697674 0 -0.018796193351655634 -0.017327143777163389 0 -0.018889026525051734 -0.017232488847777595 0 -0.018875537375699122 -0.017371559983697674 0 -0.018796193351655634 -0.017327143777163389 0 -0.018889026525051734 -0.017232488847777595 0 -0.018796193351655634 -0.017327143777163389 0 -0.018799136484091507 -0.017361377477476056 0 -0.01889107076952944 -0.01719607397422173 0 -0.018791991596578916 -0.017205286386025937 0 -0.018799136484091507 -0.017361377477476056 0 -0.01874808808379225 -0.017356817483715002 0 -0.018731231493453279 -0.017372752627641794 0 -0.018791991596578916 -0.017205286386025937 0 -0.015748355124104493 -0.014909876471670582 0 -0.018796193351655634 -0.017327143777163389 0 -0.018799136484091507 -0.017361377477476056 0 -0.01874808808379225 -0.017356817483715002 0 -0.018743671161466156 -0.01735333496355683 0 -0.01874808808379225 -0.017356817483715002 0 -0.018688201657031618 -0.01736084013263554 0 -0.012822434490118023 -0.01571121673514328 0 -0.010010312727942802 -0.015744656691913293 0 -0.010010312727942802 -0.015744656691913293 0 -0.015748355124104493 -0.014909876471670582 0 -0.0047960950857223071 -0.014474983215275272 0 -0.0051062530115394021 -0.014040287162212535 0 -0.0046902229465587619 -0.013615787324231762 0 -0.010010312727942802 -0.015744656691913293 0 -0.0082559984588427299 -0.012481817129442921 0 -0.011309677119059489 -0.014489338340115553 0 -0.011041752908089583 -0.014455775372349898 0 -0.011237050737547938 -0.013984372258168379 0 -0.01874808808379225 -0.017356817483715002 0 -0.018688201657031618 -0.01736084013263554 0 -0.018731231493453279 -0.017372752627641794 0 -0.010962911966717739 -0.011605642992681567 0 -0.012077912996797635 -0.011736219518512421 0 -0.011631109446378834 -0.010965821451195549 0 -0.018771633936079536 -0.016762082492441113 0 -0.018977047747646015 -0.016949984545783232 0 -0.019019565968382876 -0.016792082261542104 0 -0.0063611044260506767 -0.014708910263467287 0 -0.0063360617588035829 -0.014908597101225725 0 -0.0063139512538551877 -0.014873710466480198 0 -0.0062853115072950714 -0.014994792819151639 0 -0.0063360617588035829 -0.014908597101225725 0 -0.0063139512538551877 -0.014873710466480198 0 -0.0062853115072950714 -0.014994792819151639 0 -0.0062913239875806003 -0.01489982448021193 0 -0.0063139512538551877 -0.014873710466480198 0 -0.0055249972187831403 -0.014577730865052818 0 -0.0055234568647039928 -0.013824400901140729 0 -0.0051062530115394021 -0.014040287162212535 0 -0.0047960950857223071 -0.014474983215275272 0 -0.0055249972187831403 -0.014577730865052818 0 -0.0051062530115394021 -0.014040287162212535 0 -0.010010312727942802 -0.015744656691913293 0 -0.0050214854242982112 -0.014584621657499025 0 -0.0066807280982497802 -0.014767227185564049 0 -0.0050214854242982112 -0.014584621657499025 0 -0.0055249972187831403 -0.014577730865052818 0 -0.0059590681804737502 -0.014278865805109748 0 -0.0055234568647039928 -0.013824400901140729 0 -0.0063611044260506767 -0.014708910263467287 0 -0.0055249972187831403 -0.014577730865052818 0 -0.0059590681804737502 -0.014278865805109748 0 -0.0059036310537292696 -0.013465385827014478 0 -0.0055234568647039928 -0.013824400901140729 0 -0.0055296301970666258 -0.013130616329112109 0 -0.0062479231672926197 -0.013874906770368494 0 -0.0059590681804737502 -0.014278865805109748 0 -0.0059036310537292696 -0.013465385827014478 0 -0.0059590681804737502 -0.014278865805109748 0 -0.0059036310537292696 -0.013465385827014478 0 -0.0055234568647039928 -0.013824400901140729 0 -0.0055234568647039928 -0.013824400901140729 0 -0.0051277502420407463 -0.013519290566439735 0 -0.0055296301970666258 -0.013130616329112109 0 -0.0055234568647039928 -0.013824400901140729 0 -0.0051062530115394021 -0.014040287162212535 0 -0.0051277502420407463 -0.013519290566439735 0 -0.0055296301970666258 -0.013130616329112109 0 -0.0049462921340358143 -0.013081828342644271 0 -0.005253531804407352 -0.012530624150780986 0 -0.0051277502420407463 -0.013519290566439735 0 -0.0055296301970666258 -0.013130616329112109 0 -0.0049462921340358143 -0.013081828342644271 0 -0.0061463551214642354 -0.013031092010922875 0 -0.0055296301970666258 -0.013130616329112109 0 -0.0057519810459734436 -0.012529635802757427 0 -0.0061463551214642354 -0.013031092010922875 0 -0.0059036310537292696 -0.013465385827014478 0 -0.0055296301970666258 -0.013130616329112109 0 -0.012077912996797635 -0.011736219518512421 0 -0.011631109446378834 -0.010965821451195549 0 -0.012473414211055753 -0.010845229332448175 0 -0.011631109446378834 -0.010965821451195549 0 -0.012473414211055753 -0.010845229332448175 0 -0.011881248649130339 -0.010367224888715004 0 -0.015748355124104493 -0.014909876471670582 0 -0.0082559984588427299 -0.012481817129442921 0 -0.0051062530115394021 -0.014040287162212535 0 -0.0051277502420407463 -0.013519290566439735 0 -0.0046902229465587619 -0.013615787324231762 0 -0.0082559984588427299 -0.012481817129442921 0 -0.0086053311715148708 -0.011506532938300918 0 -0.012473414211055753 -0.010845229332448175 0 -0.012352434773981872 -0.01001424348022821 0 -0.011881248649130339 -0.010367224888715004 0 -0.0050293645147114928 -0.012999556343486563 0 -0.0051131282930465486 -0.012770896313015385 0 -0.0049364808606702374 -0.012657285513561259 0 -0.0051277502420407463 -0.013519290566439735 0 -0.0046902229465587619 -0.013615787324231762 0 -0.0049462921340358143 -0.013081828342644271 0 -0.0082559984588427299 -0.012481817129442921 0 -0.0049797293797434611 -0.013282404726203288 0 -0.01118324637252812 -0.010278785515577865 0 -0.011631109446378834 -0.010965821451195549 0 -0.011881248649130339 -0.010367224888715004 0 -0.012352434773981872 -0.01001424348022821 0 -0.011881248649130339 -0.010367224888715004 0 -0.011743671852357307 -0.0097656839046429099 0 -0.01118324637252812 -0.010278785515577865 0 -0.011881248649130339 -0.010367224888715004 0 -0.011743671852357307 -0.0097656839046429099 0 -0.012352434773981872 -0.01001424348022821 0 -0.011743671852357307 -0.0097656839046429099 0 -0.012248243535789918 -0.0092368665120739785 0 -0.01193629985974657 -0.009535224899522866 0 -0.010198352321161614 -0.0091047831913513826 0 -0.0051131282930465486 -0.012770896313015385 0 -0.0049364808606702374 -0.012657285513561259 0 -0.005253531804407352 -0.012530624150780986 0 -0.0086053311715148708 -0.011506532938300918 0 -0.010198352321161614 -0.0091047831913513826 0 -0.0049364808606702374 -0.012657285513561259 0 -0.004840518013889108 -0.012162518431084766 0 -0.005253531804407352 -0.012530624150780986 0 -0.010198352321161614 -0.0091047831913513826 0 -0.0075454879918749277 -0.0086350536355401502 0 -0.01169207476575479 -0.0096039092801184795 0 -0.012263419325767317 -0.0089540059101881897 0 -0.011345123839903663 -0.0088756192630971131 0 -0.012263419325767317 -0.0089540059101881897 0 -0.011696515082664376 -0.0082261141534237109 0 -0.011345123839903663 -0.0088756192630971131 0 -0.0055296301970666258 -0.013130616329112109 0 -0.0057519810459734436 -0.012529635802757427 0 -0.005253531804407352 -0.012530624150780986 0 -0.0057519810459734436 -0.012529635802757427 0 -0.005253531804407352 -0.012530624150780986 0 -0.005433526856651767 -0.012130828341709348 0 -0.0049797293797434611 -0.013282404726203288 0 -0.0052723366091479854 -0.012498552034999442 0 -0.005433526856651767 -0.012130828341709348 0 -0.0059487165508653158 -0.01207769466823906 0 -0.0052857065813898749 -0.011610892259366028 0 -0.004840518013889108 -0.012162518431084766 0 -0.005433526856651767 -0.012130828341709348 0 -0.0052857065813898749 -0.011610892259366028 0 -0.004840518013889108 -0.012162518431084766 0 -0.005253531804407352 -0.012530624150780986 0 -0.005433526856651767 -0.012130828341709348 0 -0.0057519810459734436 -0.012529635802757427 0 -0.005433526856651767 -0.012130828341709348 0 -0.0059487165508653158 -0.01207769466823906 0 -0.0052857065813898749 -0.011610892259366028 0 -0.0057680074013893527 -0.011053553701444519 0 -0.0061093139362749672 -0.011516568235358172 0 -0.0059487165508653158 -0.01207769466823906 0 -0.0052857065813898749 -0.011610892259366028 0 -0.0061093139362749672 -0.011516568235358172 0 -0.0075454879918749277 -0.0086350536355401502 0 -0.0085426576801739089 -0.0084656827538646985 0 -0.010724404053620001 -0.0054968057509183288 0 -0.01051875597439276 -0.0064345348589588342 0 -0.011418221950013562 -0.0062166593175626466 0 -0.010724404053620001 -0.0054968057509183288 0 -0.01051875597439276 -0.0064345348589588342 0 -0.0096346865100171656 -0.0062157040579849257 0 -0.011696515082664376 -0.0082261141534237109 0 -0.012029982282614683 -0.0075446475446053138 0 -0.010943846572831078 -0.0073234501528547189 0 -0.011696515082664376 -0.0082261141534237109 0 -0.011345123839903663 -0.0088756192630971131 0 -0.010943846572831078 -0.0073234501528547189 0 -0.012263419325767317 -0.0089540059101881897 0 -0.011696515082664376 -0.0082261141534237109 0 -0.012029982282614683 -0.0075446475446053138 0 -0.010198352321161614 -0.0091047831913513826 0 -0.011937775230245052 -0.0062323883409704751 0 -0.011414367050276103 -0.0049018767549362796 0 -0.010724404053620001 -0.0054968057509183288 0 -0.011558786486222808 -0.0058866610668900105 0 -0.011558786486222808 -0.0058866610668900105 0 -0.011418221950013562 -0.0062166593175626466 0 -0.011506803733260504 -0.0062049895290837379 0 -0.010724404053620001 -0.0054968057509183288 0 -0.011558786486222808 -0.0058866610668900105 0 -0.011418221950013562 -0.0062166593175626466 0 -0.011937775230245052 -0.0062323883409704751 0 -0.011530656512119167 -0.0064490744780626302 0 -0.012029982282614683 -0.0075446475446053138 0 -0.011287079851042211 -0.0066955984005246001 0 -0.010943846572831078 -0.0073234501528547189 0 -0.012029982282614683 -0.0075446475446053138 0 -0.011287079851042211 -0.0066955984005246001 0 -0.011506803733260504 -0.0062049895290837379 0 -0.011287079851042211 -0.0066955984005246001 0 -0.011225750522441189 -0.0061772150318083049 0 -0.010853213643883445 -0.0059582330703618937 0 -0.011287079851042211 -0.0066955984005246001 0 -0.011506803733260504 -0.0062049895290837379 0 -0.011225750522441189 -0.0061772150318083049 0 -0.011506803733260504 -0.0062049895290837379 0 -0.011225750522441189 -0.0061772150318083049 0 -0.011224332668672999 -0.0058701136991546523 0 -0.011225750522441189 -0.0061772150318083049 0 -0.011224332668672999 -0.0058701136991546523 0 -0.010853213643883445 -0.0059582330703618937 0 -0.011506803733260504 -0.0062049895290837379 0 -0.011224332668672999 -0.0058701136991546523 0 -0.011488763624626246 -0.005637478894165656 0 -0.011224332668672999 -0.0058701136991546523 0 -0.011081713636605263 -0.0055085285343036789 0 -0.010853213643883445 -0.0059582330703618937 0 -0.011224332668672999 -0.0058701136991546523 0 -0.011488763624626246 -0.005637478894165656 0 -0.011081713636605263 -0.0055085285343036789 0 -0.011506803733260504 -0.0062049895290837379 0 -0.011488763624626246 -0.005637478894165656 0 -0.011892385250108026 -0.0060404139054674438 0 -0.011488763624626246 -0.005637478894165656 0 -0.011892385250108026 -0.0060404139054674438 0 -0.011899492632311107 -0.0053355839771023926 0 -0.0114977868130178 -0.0061855378102587703 0 -0.011183593270505485 -0.0068354620862654441 0 -0.011418221950013562 -0.0062166593175626466 0 -0.011506803733260504 -0.0062049895290837379 0 -0.011892385250108026 -0.0060404139054674438 0 -0.01051875597439276 -0.0064345348589588342 0 -0.011418221950013562 -0.0062166593175626466 0 -0.010785966959738878 -0.0073216511809070907 0 -0.01051875597439276 -0.0064345348589588342 0 -0.010785966959738878 -0.0073216511809070907 0 -0.0097277199718695528 -0.007321733513409005 0 -0.01051875597439276 -0.0064345348589588342 0 -0.0096346865100171656 -0.0062157040579849257 0 -0.0097277199718695528 -0.007321733513409005 0 -0.0096346865100171656 -0.0062157040579849257 0 -0.0097277199718695528 -0.007321733513409005 0 -0.0084202148507055534 -0.0072770545059646511 0 -0.0097277199718695528 -0.007321733513409005 0 -0.010079064980491614 -0.0083738699041507655 0 -0.0088933523093282629 -0.0083504810501329012 0 -0.011183593270505485 -0.0068354620862654441 0 -0.012213898150546493 -0.0061499805769945175 0 -0.010785966959738878 -0.0073216511809070907 0 -0.0097277199718695528 -0.007321733513409005 0 -0.010079064980491614 -0.0083738699041507655 0 -0.011892385250108026 -0.0060404139054674438 0 -0.012327377242039266 -0.0054363465520419155 0 -0.011899492632311107 -0.0053355839771023926 0 -0.012327377242039266 -0.0054363465520419155 0 -0.011899492632311107 -0.0053355839771023926 0 -0.012276825301490352 -0.0050758032653183361 0 -0.012276825301490352 -0.0050758032653183361 0 -0.012410658930779044 -0.0048284528818541006 0 -0.012179037969231766 -0.0047971559035801621 0 -0.012276825301490352 -0.0050758032653183361 0 -0.01200364843533511 -0.0049974188350167155 0 -0.012179037969231766 -0.0047971559035801621 0 -0.011899492632311107 -0.0053355839771023926 0 -0.01200364843533511 -0.0049974188350167155 0 -0.011758482904578267 -0.0048986632487916055 0 -0.011899492632311107 -0.0053355839771023926 0 -0.012276825301490352 -0.0050758032653183361 0 -0.01200364843533511 -0.0049974188350167155 0 -0.012327377242039266 -0.0054363465520419155 0 -0.012276825301490352 -0.0050758032653183361 0 -0.012600147383827396 -0.0048464406626637655 0 -0.010079064980491614 -0.0083738699041507655 0 -0.0093360926112099427 -0.0094237236023460604 0 -0.0088933523093282629 -0.0083504810501329012 0 -0.00065879260553616597 -0.0077776867660303744 0 0.00019385030100571964 -0.0089738262361597227 0 -0.012213898150546493 -0.0061499805769945175 0 -0.00065879260553616597 -0.0077776867660303744 0 -0.012276825301490352 -0.0050758032653183361 0 -0.012600147383827396 -0.0048464406626637655 0 -0.012410658930779044 -0.0048284528818541006 0 0.0081253349423689517 -0.0082442988728201744 0 0.0083069015774215119 -0.0083563291149641641 0 0.0082444645016244555 -0.008363387038076972 0 -0.012600147383827396 -0.0048464406626637655 0 -0.012410658930779044 -0.0048284528818541006 0 -0.012361592805477715 -0.0044878371115210187 0 -0.011780786841060896 -0.00434917285721981 0 -0.0071540844867894601 -0.0053293625409765065 0 -0.00065879260553616597 -0.0077776867660303744 0 -0.0071540844867894601 -0.0053293625409765065 0 -0.012410658930779044 -0.0048284528818541006 0 -0.012286600898286277 -0.0045758512236769057 0 -0.012483812596441001 -0.0042473645972277724 0 -0.01200364843533511 -0.0049974188350167155 0 -0.011938813626541148 -0.0046832343982892632 0 -0.011758482904578267 -0.0048986632487916055 0 -0.011938813626541148 -0.0046832343982892632 0 -0.012179037969231766 -0.0047971559035801621 0 -0.012107660596334962 -0.004518716032470874 0 -0.01200364843533511 -0.0049974188350167155 0 -0.011938813626541148 -0.0046832343982892632 0 -0.012179037969231766 -0.0047971559035801621 0 -0.012410658930779044 -0.0048284528818541006 0 -0.012179037969231766 -0.0047971559035801621 0 -0.012286600898286277 -0.0045758512236769057 0 -0.012179037969231766 -0.0047971559035801621 0 -0.012286600898286277 -0.0045758512236769057 0 -0.012107660596334962 -0.004518716032470874 0 -0.012271721351312903 -0.0043137192754139769 0 -0.012107660596334962 -0.004518716032470874 0 -0.012125434288403875 -0.0041931985316158941 0 -0.012286600898286277 -0.0045758512236769057 0 -0.012271721351312903 -0.0043137192754139769 0 -0.012107660596334962 -0.004518716032470874 0 -0.012286600898286277 -0.0045758512236769057 0 -0.012271721351312903 -0.0043137192754139769 0 -0.012483812596441001 -0.0042473645972277724 0 -0.011938813626541148 -0.0046832343982892632 0 -0.011923660632646672 -0.0043517521688641956 0 -0.012107660596334962 -0.004518716032470874 0 -0.011923660632646672 -0.0043517521688641956 0 -0.012107660596334962 -0.004518716032470874 0 -0.012125434288403875 -0.0041931985316158941 0 -0.011728867584188193 -0.0045238891139096748 0 -0.011529355522502666 -0.0043105154475520683 0 -0.011729866243319863 -0.0041664834965559807 0 -0.011923660632646672 -0.0043517521688641956 0 -0.011728867584188193 -0.0045238891139096748 0 -0.011729866243319863 -0.0041664834965559807 0 -0.011938813626541148 -0.0046832343982892632 0 -0.011923660632646672 -0.0043517521688641956 0 -0.011728867584188193 -0.0045238891139096748 0 -0.011728867584188193 -0.0045238891139096748 0 -0.011532006393718283 -0.0046778793871416887 0 -0.011758482904578267 -0.0048986632487916055 0 -0.011938813626541148 -0.0046832343982892632 0 -0.011728867584188193 -0.0045238891139096748 0 -0.011758482904578267 -0.0048986632487916055 0 -0.011532006393718283 -0.0046778793871416887 0 -0.011305359920303142 -0.0047864233995850167 0 -0.011556883977605247 -0.0051480574525889743 0 -0.011728867584188193 -0.0045238891139096748 0 -0.011532006393718283 -0.0046778793871416887 0 -0.011529355522502666 -0.0043105154475520683 0 -0.011532006393718283 -0.0046778793871416887 0 -0.011529355522502666 -0.0043105154475520683 0 -0.011324525600233171 -0.004433564716856883 0 -0.011324525600233171 -0.004433564716856883 0 -0.011080243035380634 -0.0044940222091241835 0 -0.011198192180980343 -0.00399623801039228 0 -0.011080243035380634 -0.0044940222091241835 0 -0.011198192180980343 -0.00399623801039228 0 -0.010848771287221235 -0.0042579433587599065 0 -0.011080243035380634 -0.0044940222091241835 0 -0.010912968823162757 -0.0045744970078812853 0 -0.010848771287221235 -0.0042579433587599065 0 -0.010912968823162757 -0.0045744970078812853 0 -0.01101891085300339 -0.0047963961850729158 0 -0.010708394672957894 -0.0047625010275477771 0 -0.011080243035380634 -0.0044940222091241835 0 -0.01101891085300339 -0.0047963961850729158 0 -0.011305359920303142 -0.0047864233995850167 0 -0.011080243035380634 -0.0044940222091241835 0 -0.010912968823162757 -0.0045744970078812853 0 -0.01101891085300339 -0.0047963961850729158 0 -0.011324525600233171 -0.004433564716856883 0 -0.011080243035380634 -0.0044940222091241835 0 -0.011305359920303142 -0.0047864233995850167 0 -0.011532006393718283 -0.0046778793871416887 0 -0.011324525600233171 -0.004433564716856883 0 -0.011305359920303142 -0.0047864233995850167 0 -0.01101891085300339 -0.0047963961850729158 0 -0.011305359920303142 -0.0047864233995850167 0 -0.011267084227880702 -0.0051591191326063723 0 -0.011305359920303142 -0.0047864233995850167 0 -0.011267084227880702 -0.0051591191326063723 0 -0.011556883977605247 -0.0051480574525889743 0 -0.01101891085300339 -0.0047963961850729158 0 -0.011081713636605263 -0.0055085285343036789 0 -0.010651321972743327 -0.0047943510855265126 0 -0.01101891085300339 -0.0047963961850729158 0 -0.011267084227880702 -0.0051591191326063723 0 -0.011081713636605263 -0.0055085285343036789 0 -0.011488763624626246 -0.005637478894165656 0 -0.011267084227880702 -0.0051591191326063723 0 -0.011081713636605263 -0.0055085285343036789 0 -0.011488763624626246 -0.005637478894165656 0 -0.011267084227880702 -0.0051591191326063723 0 -0.011556883977605247 -0.0051480574525889743 0 -0.011488763624626246 -0.005637478894165656 0 -0.011899492632311107 -0.0053355839771023926 0 -0.011556883977605247 -0.0051480574525889743 0 -0.011899492632311107 -0.0053355839771023926 0 -0.011758482904578267 -0.0048986632487916055 0 -0.011556883977605247 -0.0051480574525889743 0 -0.011532006393718283 -0.0046778793871416887 0 -0.011758482904578267 -0.0048986632487916055 0 -0.011556883977605247 -0.0051480574525889743 0 0.0088317279679164199 -0.009283463267845073 0 0.0087252627580877463 -0.0091547021971359731 0 0.0088677503679339513 -0.0094556681597624103 0 0.0088317279679164199 -0.009283463267845073 0 0.0088488470100635871 -0.0093321675514058452 0 0.0088759640552008578 -0.0091976032715333049 0 0.0088317279679164199 -0.009283463267845073 0 0.0088488470100635871 -0.0093321675514058452 0 0.0088903927512823631 -0.0095604722172396937 0 0.0088488470100635871 -0.0093321675514058452 0 0.0088759640552008578 -0.0091976032715333049 0 0.0088414634453570957 -0.0092308643672236942 0 0.0088759640552008578 -0.0091976032715333049 0 0.0088414634453570957 -0.0092308643672236942 0 0.0088759808283753756 -0.0091273268660745591 0 0.0088317279679164199 -0.009283463267845073 0 0.0088759640552008578 -0.0091976032715333049 0 0.0087252627580877463 -0.0091547021971359731 0 0.0084816541148287298 -0.0089787920532326797 0 0.0087503093963642829 -0.0091440466311678952 0 0.0082132964067258337 -0.0087460688783922106 0 0.0087252627580877463 -0.0091547021971359731 0 0.0084823642289283668 -0.0086749830166272229 0 0.0087454722193938406 -0.0088483205952919614 0 0.0087252627580877463 -0.0091547021971359731 0 0.0086125150820531467 -0.0085526468798883312 0 0.0087252627580877463 -0.0091547021971359731 0 0.0086125150820531467 -0.0085526468798883312 0 0.0084823642289283668 -0.0086749830166272229 0 0.0087454722193938406 -0.0088483205952919614 0 0.0089255232232493889 -0.0091667874344858163 0 0.0087252627580877463 -0.0091547021971359731 0 -0.00065879260553616597 -0.0077776867660303744 0 0.011530106560108607 -0.0094523631414939729 0 0.0091665432034403072 -0.0090397799962493326 0 0.0087454722193938406 -0.0088483205952919614 0 0.0084661548386879403 -0.0084101043207282285 0 0.0091665432034403072 -0.0090397799962493326 0 0.0087454722193938406 -0.0088483205952919614 0 0.0089255232232493889 -0.0091667874344858163 0 0.0089255232232493889 -0.0091667874344858163 0 0.0087252627580877463 -0.0091547021971359731 0 0.0089195355121527483 -0.0094448088238995396 0 0.0089255232232493889 -0.0091667874344858163 0 0.0090106219156724215 -0.0093993552080949179 0 0.0089195355121527483 -0.0094448088238995396 0 0.0091665432034403072 -0.0090397799962493326 0 0.0089255232232493889 -0.0091667874344858163 0 0.0090106219156724215 -0.0093993552080949179 0 0.0087252627580877463 -0.0091547021971359731 0 0.0088677503679339513 -0.0094556681597624103 0 0.0089195355121527483 -0.0094448088238995396 0 0.0088677503679339513 -0.0094556681597624103 0 0.0089379474309853289 -0.009612788581901557 0 0.0089384460955581717 -0.00974180298549834 0 0.0088677503679339513 -0.0094556681597624103 0 0.0089195355121527483 -0.0094448088238995396 0 0.0089379474309853289 -0.009612788581901557 0 0.0089195355121527483 -0.0094448088238995396 0 0.0089964370358237636 -0.0096443686310770538 0 0.0089379474309853289 -0.009612788581901557 0 0.00019385030100571964 -0.0089738262361597227 0 -0.0023066232431341385 -0.0082896120478057663 0 -0.0097277199718695528 -0.007321733513409005 0 -0.0088933523093282629 -0.0083504810501329012 0 -0.0084202148507055534 -0.0072770545059646511 0 0.0090106219156724215 -0.0093993552080949179 0 0.0089195355121527483 -0.0094448088238995396 0 0.0089964370358237636 -0.0096443686310770538 0 -0.0085426576801739089 -0.0084656827538646985 0 -0.0023066232431341385 -0.0082896120478057663 0 0.0089964370358237636 -0.0096443686310770538 0 0.0089379474309853289 -0.009612788581901557 0 0.0089384460955581717 -0.00974180298549834 0 -0.0023066232431341385 -0.0082896120478057663 0 0.0015763929433648841 -0.010832195110403895 0 0.0089964370358237636 -0.0096443686310770538 0 0.0089384460955581717 -0.00974180298549834 0 0.0089819376776460926 -0.0099439182415229904 0 0.0089384460955581717 -0.00974180298549834 0 0.0089351148564809826 -0.0097969589282266116 0 0.0089506084499056168 -0.0099987130346438132 0 0.0089384460955581717 -0.00974180298549834 0 0.0089351148564809826 -0.0097969589282266116 0 0.0088903927512823631 -0.0095604722172396937 0 0.0088317279679164199 -0.009283463267845073 0 0.0088677503679339513 -0.0094556681597624103 0 0.0088903927512823631 -0.0095604722172396937 0 0.0088677503679339513 -0.0094556681597624103 0 0.0089384460955581717 -0.00974180298549834 0 0.0088903927512823631 -0.0095604722172396937 0 0.0088488470100635871 -0.0093321675514058452 0 0.0088903927512823631 -0.0095604722172396937 0 0.0088427197448468168 -0.009550942152599785 0 0.0089351148564809826 -0.0097969589282266116 0 0.0088903927512823631 -0.0095604722172396937 0 0.0089755201330517769 -0.0098612451427273484 0 0.0088903927512823631 -0.0095604722172396937 0 0.0088427197448468168 -0.009550942152599785 0 0.0089755201330517769 -0.0098612451427273484 0 0.0089755201330517769 -0.0098612451427273484 0 0.0089506084499056168 -0.0099987130346438132 0 0.0091696205488057594 -0.010249665767756554 0 0.0089351148564809826 -0.0097969589282266116 0 0.0089755201330517769 -0.0098612451427273484 0 0.0089506084499056168 -0.0099987130346438132 0 0.0089384460955581717 -0.00974180298549834 0 0.0089506084499056168 -0.0099987130346438132 0 0.0089819376776460926 -0.0099439182415229904 0 0.0089506084499056168 -0.0099987130346438132 0 0.0089819376776460926 -0.0099439182415229904 0 0.0089157479695851187 -0.010078614298140215 0 0.0089506084499056168 -0.0099987130346438132 0 0.0089627319978396649 -0.010070616636814576 0 0.0089157479695851187 -0.010078614298140215 0 0.0089627319978396649 -0.010070616636814576 0 0.0091696205488057594 -0.010249665767756554 0 0.0090417229550863454 -0.01007705865325154 0 0.0089506084499056168 -0.0099987130346438132 0 0.0089627319978396649 -0.010070616636814576 0 0.0091696205488057594 -0.010249665767756554 0 -0.0057680074013893527 -0.011053553701444519 0 -0.0065348471741183949 -0.011186535354033175 0 -0.0061093139362749672 -0.011516568235358172 0 -0.0057680074013893527 -0.011053553701444519 0 -0.0062247523220052446 -0.010504840727524141 0 -0.0065348471741183949 -0.011186535354033175 0 0.0015763929433648841 -0.010832195110403895 0 0.0011931186951569532 -0.01065984483536063 0 -0.0065348471741183949 -0.011186535354033175 0 -0.0061093139362749672 -0.011516568235358172 0 -0.0068386003456693241 -0.011890004716281042 0 -0.0057519810459734436 -0.012529635802757427 0 -0.0059487165508653158 -0.01207769466823906 0 -0.0064341843011560393 -0.012257364703203103 0 -0.0059487165508653158 -0.01207769466823906 0 -0.0061093139362749672 -0.011516568235358172 0 -0.0064341843011560393 -0.012257364703203103 0 -0.0064341843011560393 -0.012257364703203103 0 -0.0068386003456693241 -0.011890004716281042 0 -0.0071009906636547966 -0.012553832294463933 0 -0.0061093139362749672 -0.011516568235358172 0 -0.0064341843011560393 -0.012257364703203103 0 -0.0068386003456693241 -0.011890004716281042 0 -0.0064341843011560393 -0.012257364703203103 0 -0.0066231858668813004 -0.012741337785905565 0 -0.0071009906636547966 -0.012553832294463933 0 -0.0061463551214642354 -0.013031092010922875 0 -0.0064341843011560393 -0.012257364703203103 0 -0.0066231858668813004 -0.012741337785905565 0 -0.0061463551214642354 -0.013031092010922875 0 -0.0057519810459734436 -0.012529635802757427 0 -0.0064341843011560393 -0.012257364703203103 0 0.008936343848781881 -0.010071126424233764 0 0.0089753366411229104 -0.010065076181887659 0 0.0090417229550863454 -0.01007705865325154 0 0.0089627319978396649 -0.010070616636814576 0 0.008936343848781881 -0.010071126424233764 0 0.0090417229550863454 -0.01007705865325154 0 0.008936343848781881 -0.010071126424233764 0 0.0089157479695851187 -0.010078614298140215 0 0.0088663040015330794 -0.010067247138911392 0 0.0011931186951569532 -0.01065984483536063 0 -0.00023775125363128472 -0.012557543838373987 0 0.0089627319978396649 -0.010070616636814576 0 0.008936343848781881 -0.010071126424233764 0 0.0089157479695851187 -0.010078614298140215 0 -0.0080619116108003111 -0.012582232901546749 0 -0.00023775125363128472 -0.012557543838373987 0 -0.00023775125363128472 -0.012557543838373987 0 0.0078794798190268047 -0.013906912236868234 0 0.0024296458404285282 -0.015407616752915869 0 0.0020641980491029458 -0.015545804837281371 0 0.0018186295307808756 -0.015226158386412404 0 0.008936343848781881 -0.010071126424233764 0 0.0088663040015330794 -0.010067247138911392 0 0.0089753366411229104 -0.010065076181887659 0 0.0061081496765969827 -0.01637587878114927 0 0.0078794798190268047 -0.013906912236868234 0 0.010412605436467555 -0.016958429181204514 0 0.0089074028963551898 -0.015756872843336572 0 0.010473974309941032 -0.014560986854383692 0 0.0017781139480475831 -0.015684093889226064 0 0.0020641980491029458 -0.015545804837281371 0 0.0018186295307808756 -0.015226158386412404 0 0.0078794798190268047 -0.013906912236868234 0 0.009716829518170279 -0.014368394467095615 0 0.0089074028963551898 -0.015756872843336572 0 0.010473974309941032 -0.014560986854383692 0 0.0091636178525824064 -0.014169318282807901 0 0.010312468582495857 -0.014447419651849506 0 0.0091522442890605224 -0.012756159031288307 0 0.010102853059217765 -0.012091319900126102 0 0.0078794798190268047 -0.013906912236868234 0 0.0095500035545916968 -0.010827889823846665 0 0.010312468582495857 -0.014447419651849506 0 0.0091636178525824064 -0.014169318282807901 0 0.0091522442890605224 -0.012756159031288307 0 0.0091522442890605224 -0.012756159031288307 0 0.0080503255066347503 -0.012814979422377651 0 0.0088327369761148546 -0.011132188253400168 0 0.0091636178525824064 -0.014169318282807901 0 0.0091522442890605224 -0.012756159031288307 0 0.0080503255066347503 -0.012814979422377651 0 0.0091636178525824064 -0.014169318282807901 0 0.0080503255066347503 -0.012814979422377651 0 0.0077547128892106326 -0.014932622981858623 0 0.0080503255066347503 -0.012814979422377651 0 0.0077547128892106326 -0.014932622981858623 0 0.0067188986671864268 -0.01451764573011911 0 0.006142576618792567 -0.01703777029936417 0 0.0089074028963551898 -0.015756872843336572 0 0.0077547128892106326 -0.014932622981858623 0 0.0089074028963551898 -0.015756872843336572 0 0.0091636178525824064 -0.014169318282807901 0 0.0077547128892106326 -0.014932622981858623 0 0.006142576618792567 -0.01703777029936417 0 0.0051567584735479214 -0.014798496523386958 0 0.0067188986671864268 -0.01451764573011911 0 0.006142576618792567 -0.01703777029936417 0 0.0077547128892106326 -0.014932622981858623 0 0.0067188986671864268 -0.01451764573011911 0 0.006142576618792567 -0.01703777029936417 0 0.0051567584735479214 -0.014798496523386958 0 0.0041637063756774281 -0.016418843198127794 0 0.0051567584735479214 -0.014798496523386958 0 0.0042050879254467823 -0.011994578970212555 0 0.002778241583332623 -0.014132340297543108 0 0.0051567584735479214 -0.014798496523386958 0 0.0064094238316625869 -0.012992104284542333 0 0.0042050879254467823 -0.011994578970212555 0 0.0080503255066347503 -0.012814979422377651 0 0.0067188986671864268 -0.01451764573011911 0 0.0064094238316625869 -0.012992104284542333 0 0.0051567584735479214 -0.014798496523386958 0 0.0067188986671864268 -0.01451764573011911 0 0.0064094238316625869 -0.012992104284542333 0 0.0063112073937746866 -0.010638018389617932 0 0.0078191116736485052 -0.01048781898145246 0 0.0064094238316625869 -0.012992104284542333 0 0.0042050879254467823 -0.011994578970212555 0 0.0078250105812647901 -0.010538700410329034 0 0.0080503255066347503 -0.012814979422377651 0 0.0064094238316625869 -0.012992104284542333 0 0.0078250105812647901 -0.010538700410329034 0 0.0082409653613729154 -0.009254558763077729 0 0.0081635078443842487 -0.0097078881585563048 0 0.0078250105812647901 -0.010538700410329034 0 0.0081635078443842487 -0.0097078881585563048 0 0.0078250105812647901 -0.010538700410329034 0 0.0082299306807988911 -0.009733267199934682 0 0.0086258458669379052 -0.01000081921321185 0 0.0078250105812647901 -0.010538700410329034 0 0.0088327369761148546 -0.011132188253400168 0 0.0086258458669379052 -0.01000081921321185 0 0.0078250105812647901 -0.010538700410329034 0 0.0082299306807988911 -0.009733267199934682 0 0.0089755201330517769 -0.0098612451427273484 0 0.0086258458669379052 -0.01000081921321185 0 0.0091696205488057594 -0.010249665767756554 0 0.0086258458669379052 -0.01000081921321185 0 0.0091696205488057594 -0.010249665767756554 0 0.0088327369761148546 -0.011132188253400168 0 0.0091696205488057594 -0.010249665767756554 0 0.010102853059217765 -0.012091319900126102 0 0.0088327369761148546 -0.011132188253400168 0 0.0092958296084905342 -0.010524574033044637 0 0.0095500035545916968 -0.010827889823846665 0 0.0091522442890605224 -0.012756159031288307 0 0.010102853059217765 -0.012091319900126102 0 0.0088327369761148546 -0.011132188253400168 0 0.0080503255066347503 -0.012814979422377651 0 0.0078250105812647901 -0.010538700410329034 0 0.0088327369761148546 -0.011132188253400168 0 0.0048830666773563925 -0.011593777889671433 0 0.011383828516982246 -0.0089574331967528474 0 0.0099322616401294733 -0.0084665631146171698 0 0.010021986207208631 -0.0086192185046964388 0 0.010044423911373505 -0.0086364297110651054 0 0.0099322616401294733 -0.0084665631146171698 0 0.0098789780674059038 -0.0086484248758473981 0 0.010021986207208631 -0.0086192185046964388 0 0.00072988634386751368 -0.015953991227239443 0 0.00075854404168199671 -0.016615179922469702 0 0.0012854098556968417 -0.016337634555537862 0 0.00072988634386751368 -0.015953991227239443 0 0.00031130405885658029 -0.016649627694993622 0 0.00075854404168199671 -0.016615179922469702 0 0.00034098524607272353 -0.017106327992977916 0 0.00075854404168199671 -0.016615179922469702 0 0.0012283293977447803 -0.017092029713392076 0 0.00031130405885658029 -0.016649627694993622 0 0.00034098524607272353 -0.017106327992977916 0 0.00075854404168199671 -0.016615179922469702 0 0.0012283293977447803 -0.017092029713392076 0 0.0018038397795602909 -0.016394880945774792 0 0.0026063406310354743 -0.016615752156439224 0 0.0012854098556968417 -0.016337634555537862 0 0.0012283293977447803 -0.017092029713392076 0 0.0018038397795602909 -0.016394880945774792 0 0.00075854404168199671 -0.016615179922469702 0 0.0012854098556968417 -0.016337634555537862 0 0.0012283293977447803 -0.017092029713392076 0 0.0048830666773563925 -0.011593777889671433 0 0.00075967246742357324 -0.014807353324663977 0 0.0048830666773563925 -0.011593777889671433 0 0.00541190940730243 -0.010674063025058968 0 -6.5590296988852958e-05 -0.013479521064741779 0 0.0011411332502036268 -0.013631246106557767 0 0.0015906939041246168 -0.012966565449696722 0 0.0099322616401294733 -0.0084665631146171698 0 0.009150946317366758 -0.0085470816457438765 0 0.009591880281844524 -0.0086611412017713312 0 0.00072988634386751368 -0.015953991227239443 0 0.0012854098556968417 -0.016337634555537862 0 0.0019812327708341312 -0.015707226671282763 0 0.0012854098556968417 -0.016337634555537862 0 0.0018038397795602909 -0.016394880945774792 0 0.0019812327708341312 -0.015707226671282763 0 0.0011411332502036268 -0.013631246106557767 0 0.0015906939041246168 -0.012966565449696722 0 0.002778241583332623 -0.014132340297543108 0 0.00075967246742357324 -0.014807353324663977 0 0.0034188095141247927 -0.014776381303462533 0 0.0018038397795602909 -0.016394880945774792 0 0.0019812327708341312 -0.015707226671282763 0 0.0026063406310354743 -0.016615752156439224 0 0.0019812327708341312 -0.015707226671282763 0 0.0026063406310354743 -0.016615752156439224 0 0.0035025557024030503 -0.015418435417021601 0 0.0026063406310354743 -0.016615752156439224 0 0.0041637063756774281 -0.016418843198127794 0 0.0035025557024030503 -0.015418435417021601 0 0.0051567584735479214 -0.014798496523386958 0 0.0041637063756774281 -0.016418843198127794 0 0.0035025557024030503 -0.015418435417021601 0 0.0042050879254467823 -0.011994578970212555 0 0.0015906939041246168 -0.012966565449696722 0 0.002778241583332623 -0.014132340297543108 0 0.0049845266014555412 -0.014844029234633205 0 0.0034188095141247927 -0.014776381303462533 0 0.0063112073937746866 -0.010638018389617932 0 0.00541190940730243 -0.010674063025058968 0 0.0082409653613729154 -0.009254558763077729 0 0.009150946317366758 -0.0085470816457438765 0 0.0087509436864772402 -0.0091638676133463954 0 0.0082409653613729154 -0.009254558763077729 0 0.0081635078443842487 -0.0097078881585563048 0 0.0087509436864772402 -0.0091638676133463954 0 0.0081635078443842487 -0.0097078881585563048 0 0.0087509436864772402 -0.0091638676133463954 0 0.0085743352560592092 -0.0095120113024382124 0 0.0087509436864772402 -0.0091638676133463954 0 0.0085743352560592092 -0.0095120113024382124 0 0.0090909691741002212 -0.0093208450715261924 0 0.0092824718989384433 -0.0089204323223878758 0 0.009758804563461964 -0.009010540906175946 0 0.0090909691741002212 -0.0093208450715261924 0 0.0087509436864772402 -0.0091638676133463954 0 0.0092824718989384433 -0.0089204323223878758 0 0.0090909691741002212 -0.0093208450715261924 0 0.009150946317366758 -0.0085470816457438765 0 0.0087509436864772402 -0.0091638676133463954 0 0.0092824718989384433 -0.0089204323223878758 0 0.009150946317366758 -0.0085470816457438765 0 0.0092824718989384433 -0.0089204323223878758 0 0.009591880281844524 -0.0086611412017713312 0 0.0092824718989384433 -0.0089204323223878758 0 0.009591880281844524 -0.0086611412017713312 0 0.0097948472382743072 -0.0087964577818299694 0 0.009591880281844524 -0.0086611412017713312 0 0.0097948472382743072 -0.0087964577818299694 0 0.0098789780674059038 -0.0086484248758473981 0 0.0092824718989384433 -0.0089204323223878758 0 0.0097948472382743072 -0.0087964577818299694 0 0.009758804563461964 -0.009010540906175946 0 0.0097948472382743072 -0.0087964577818299694 0 0.009758804563461964 -0.009010540906175946 0 0.010151149431965779 -0.0088076519129099314 0 0.009758804563461964 -0.009010540906175946 0 0.010151149431965779 -0.0088076519129099314 0 0.010420039837801083 -0.0087235114345138726 0 0.010151149431965779 -0.0088076519129099314 0 0.010044985681043249 -0.008706828049137744 0 0.010111404096261573 -0.0087088457827096278 0 0.0097948472382743072 -0.0087964577818299694 0 0.010044985681043249 -0.008706828049137744 0 0.0098789780674059038 -0.0086484248758473981 0 0.0097948472382743072 -0.0087964577818299694 0 0.010151149431965779 -0.0088076519129099314 0 0.010044985681043249 -0.008706828049137744 0 0.0099322616401294733 -0.0084665631146171698 0 0.009591880281844524 -0.0086611412017713312 0 0.0098789780674059038 -0.0086484248758473981 0 0.010044985681043249 -0.008706828049137744 0 0.0098789780674059038 -0.0086484248758473981 0 0.010021986207208631 -0.0086192185046964388 0 0.010444578363157231 -0.010137293419803088 0 0.010420039837801083 -0.0087235114345138726 0 0.0095189658707162395 -0.0096009542348419585 0 0.010444578363157231 -0.010137293419803088 0 0.010420039837801083 -0.0087235114345138726 0 0.012020056248290369 -0.0089196819696882174 0 0.009758804563461964 -0.009010540906175946 0 0.010420039837801083 -0.0087235114345138726 0 0.0095189658707162395 -0.0096009542348419585 0 0.009758804563461964 -0.009010540906175946 0 0.0095189658707162395 -0.0096009542348419585 0 0.0090909691741002212 -0.0093208450715261924 0 0.010444578363157231 -0.010137293419803088 0 0.0095189658707162395 -0.0096009542348419585 0 0.0088215589871332295 -0.010434957252086782 0 0.0095189658707162395 -0.0096009542348419585 0 0.0087390853806413194 -0.0097134105083305083 0 0.0088215589871332295 -0.010434957252086782 0 0.0095189658707162395 -0.0096009542348419585 0 0.0090909691741002212 -0.0093208450715261924 0 0.0087390853806413194 -0.0097134105083305083 0 0.0085743352560592092 -0.0095120113024382124 0 0.0090909691741002212 -0.0093208450715261924 0 0.0087390853806413194 -0.0097134105083305083 0 0.0085743352560592092 -0.0095120113024382124 0 0.0087390853806413194 -0.0097134105083305083 0 0.0081721004279988983 -0.0097199404304102698 0 0.0080422133878298597 -0.0093505904909181644 0 0.0080115172127170672 -0.0094079872686366559 0 0.0081721004279988983 -0.0097199404304102698 0 0.0087390853806413194 -0.0097134105083305083 0 0.0088215589871332295 -0.010434957252086782 0 0.0081721004279988983 -0.0097199404304102698 0 0.0080973088725014315 -0.009705961247039702 0 0.0083478320936732509 -0.0098382489130045391 0 0.0080422133878298597 -0.0093505904909181644 0 0.0080888936540341842 -0.0090554675489864424 0 0.0079102029225829474 -0.0088391795730132956 0 0.0080422133878298597 -0.0093505904909181644 0 0.0075738576956294818 -0.0089287098244619414 0 0.0079102029225829474 -0.0088391795730132956 0 0.0062423074295443037 -0.0090451152581162118 0 0.012670335190867269 -0.0089648799671000496 0 0.0080422133878298597 -0.0093505904909181644 0 0.0080900170186695864 -0.0094576038112339812 0 0.0080115172127170672 -0.0094079872686366559 0 0.0080900170186695864 -0.0094576038112339812 0 0.0080115172127170672 -0.0094079872686366559 0 0.0081786902664632462 -0.0094425989377264902 0 0.0080973088725014315 -0.009705961247039702 0 0.010568902584722281 -0.011543781901017833 0 0.010444578363157231 -0.010137293419803088 0 0.0088215589871332295 -0.010434957252086782 0 0.010215934438053543 -0.011564937494413953 0 0.012670335190867269 -0.0089648799671000496 0 0.010568902584722281 -0.011543781901017833 0 0.013242986698425196 -0.013170586069787143 0 0.013731460455362537 -0.012860436836561483 0 0.013683280399447207 -0.013524014904978723 0 0.013731460455362537 -0.012860436836561483 0 0.013981348344263015 -0.01331879789835347 0 0.014389682616283671 -0.013229551482756782 0 0.010568902584722281 -0.011543781901017833 0 0.013968994616108479 -0.013457517006511384 0 0.013731460455362537 -0.012860436836561483 0 0.013981348344263015 -0.01331879789835347 0 0.013683280399447207 -0.013524014904978723 0 0.010568902584722281 -0.011543781901017833 0 0.012139851359603293 -0.010670863863762609 0 0.010444578363157231 -0.010137293419803088 0 0.010215934438053543 -0.011564937494413953 0 0.012352922742495203 -0.010540753642591589 0 0.008653845549353464 -0.0096288807279287444 0 0.0082299306807988911 -0.009733267199934682 0 0.0085188109874086929 -0.0094245175062936132 0 0.008653845549353464 -0.0096288807279287444 0 0.0085188109874086929 -0.0094245175062936132 0 0.0087494552981689025 -0.0093856852445530006 0 0.0088427197448468168 -0.009550942152599785 0 0.008653845549353464 -0.0096288807279287444 0 0.0087494552981689025 -0.0093856852445530006 0 0.0088488470100635871 -0.0093321675514058452 0 0.0088427197448468168 -0.009550942152599785 0 0.0087494552981689025 -0.0093856852445530006 0 0.0088427197448468168 -0.009550942152599785 0 0.0089755201330517769 -0.0098612451427273484 0 0.008653845549353464 -0.0096288807279287444 0 0.0089755201330517769 -0.0098612451427273484 0 0.0086258458669379052 -0.01000081921321185 0 0.008653845549353464 -0.0096288807279287444 0 0.0086258458669379052 -0.01000081921321185 0 0.008653845549353464 -0.0096288807279287444 0 0.0082299306807988911 -0.009733267199934682 0 0.0081635078443842487 -0.0097078881585563048 0 0.0082299306807988911 -0.009733267199934682 0 0.0081721004279988983 -0.0097199404304102698 0 0.0081635078443842487 -0.0097078881585563048 0 0.0085743352560592092 -0.0095120113024382124 0 0.0081721004279988983 -0.0097199404304102698 0 0.0080422133878298597 -0.0093505904909181644 0 0.0081721004279988983 -0.0097199404304102698 0 0.008306029117421166 -0.0095410901889968237 0 0.0082299306807988911 -0.009733267199934682 0 0.0081721004279988983 -0.0097199404304102698 0 0.008306029117421166 -0.0095410901889968237 0 0.0082299306807988911 -0.009733267199934682 0 0.008306029117421166 -0.0095410901889968237 0 0.0085188109874086929 -0.0094245175062936132 0 0.0083179351067650103 -0.0092257020953222611 0 0.0085476431808784829 -0.0091432317201510967 0 0.0085188109874086929 -0.0094245175062936132 0 0.008306029117421166 -0.0095410901889968237 0 0.0083179351067650103 -0.0092257020953222611 0 0.0085188109874086929 -0.0094245175062936132 0 0.0080422133878298597 -0.0093505904909181644 0 0.008306029117421166 -0.0095410901889968237 0 0.0083179351067650103 -0.0092257020953222611 0 0.0080422133878298597 -0.0093505904909181644 0 0.0083179351067650103 -0.0092257020953222611 0 0.0080888936540341842 -0.0090554675489864424 0 0.0083179351067650103 -0.0092257020953222611 0 0.0082552522236431069 -0.0090011269004646004 0 0.0084392570339255762 -0.0088875376155291563 0 0.0083179351067650103 -0.0092257020953222611 0 0.0082552522236431069 -0.0090011269004646004 0 0.0080888936540341842 -0.0090554675489864424 0 0.0082552522236431069 -0.0090011269004646004 0 0.0080888936540341842 -0.0090554675489864424 0 0.0081774760764682704 -0.0088174944578741938 0 0.0085476431808784829 -0.0091432317201510967 0 0.0086954033001674872 -0.0089360176833106035 0 0.0084392570339255762 -0.0088875376155291563 0 0.0083179351067650103 -0.0092257020953222611 0 0.0085476431808784829 -0.0091432317201510967 0 0.0084392570339255762 -0.0088875376155291563 0 0.0087291291759779462 -0.009176396666363237 0 0.008804664149858055 -0.0090157282087176323 0 0.0086954033001674872 -0.0089360176833106035 0 0.0085476431808784829 -0.0091432317201510967 0 0.0087291291759779462 -0.009176396666363237 0 0.0086954033001674872 -0.0089360176833106035 0 0.0087291291759779462 -0.009176396666363237 0 0.0085188109874086929 -0.0094245175062936132 0 0.0087494552981689025 -0.0093856852445530006 0 0.0085476431808784829 -0.0091432317201510967 0 0.0087291291759779462 -0.009176396666363237 0 0.0085188109874086929 -0.0094245175062936132 0 0.0088488470100635871 -0.0093321675514058452 0 0.0087494552981689025 -0.0093856852445530006 0 0.0088414634453570957 -0.0092308643672236942 0 0.0087291291759779462 -0.009176396666363237 0 0.0087494552981689025 -0.0093856852445530006 0 0.0088414634453570957 -0.0092308643672236942 0 0.0087291291759779462 -0.009176396666363237 0 0.0088414634453570957 -0.0092308643672236942 0 0.0088759808283753756 -0.0091273268660745591 0 0.0087291291759779462 -0.009176396666363237 0 0.008804664149858055 -0.0090157282087176323 0 0.0088759808283753756 -0.0091273268660745591 0 0.0089374479706019073 -0.0091541689594463304 0 0.0086919464533129279 -0.008720906255291698 0 0.0088759640552008578 -0.0091976032715333049 0 0.0088759808283753756 -0.0091273268660745591 0 0.0088727505881448631 -0.0090858320723449671 0 0.0078889655999715078 -0.0085578216516754655 0 0.0080118652565827255 -0.0084488286208939736 0 0.0081312292864621841 -0.0085678689306728072 0 0.008804664149858055 -0.0090157282087176323 0 0.0088759808283753756 -0.0091273268660745591 0 0.0089097397373759171 -0.0087885298119841047 0 0.0078889655999715078 -0.0085578216516754655 0 0.0080118652565827255 -0.0084488286208939736 0 0.0079380169045686049 -0.0083358677249945352 0 0.0080118652565827255 -0.0084488286208939736 0 0.0079380169045686049 -0.0083358677249945352 0 0.0080667041741805841 -0.0083302037896541264 0 0.0079380169045686049 -0.0083358677249945352 0 0.0079790974759374848 -0.0082192457925668073 0 0.0080667041741805841 -0.0083302037896541264 0 0.0079380169045686049 -0.0083358677249945352 0 0.0079790974759374848 -0.0082192457925668073 0 0.0077836348331002461 -0.0081247086382352784 0 0.0078889655999715078 -0.0085578216516754655 0 0.0079380169045686049 -0.0083358677249945352 0 0.0077836348331002461 -0.0081247086382352784 0 0.008002881265086954 -0.008145060104527849 0 0.0079790974759374848 -0.0082192457925668073 0 0.0077836348331002461 -0.0081247086382352784 0 0.008002881265086954 -0.008145060104527849 0 0.0077836348331002461 -0.0081247086382352784 0 0.008053862640685203 -0.0080611875692616353 0 0.008002881265086954 -0.008145060104527849 0 0.0079790974759374848 -0.0082192457925668073 0 0.0080830307122409534 -0.0081991309217294105 0 0.0079790974759374848 -0.0082192457925668073 0 0.0080667041741805841 -0.0083302037896541264 0 0.0080830307122409534 -0.0081991309217294105 0 0.0078889655999715078 -0.0085578216516754655 0 0.0077836348331002461 -0.0081247086382352784 0 0.0074385281244919027 -0.0078804532529393491 0 0.0094005683910807821 -0.0087464554709103318 0 0.0090297815450257717 -0.0081164611914486557 0 0.008802119006068216 -0.0084210483055123797 0 0.0086919464533129279 -0.008720906255291698 0 0.0082293698897191094 -0.0079697386217270072 0 0.0090297815450257717 -0.0081164611914486557 0 0.008802119006068216 -0.0084210483055123797 0 0.0087066391269761748 -0.0079800835170715234 0 0.0077836348331002461 -0.0081247086382352784 0 0.0074385281244919027 -0.0078804532529393491 0 0.0077564830946304794 -0.0074124429125019924 0 0.0086919464533129279 -0.008720906255291698 0 0.0089446666023355863 -0.0085271829991951618 0 0.0089097397373759171 -0.0087885298119841047 0 0.0086962185281451668 -0.0087072814625834601 0 0.0086954033001674872 -0.0089360176833106035 0 0.0089097397373759171 -0.0087885298119841047 0 0.008802119006068216 -0.0084210483055123797 0 0.0086962185281451668 -0.0087072814625834601 0 0.008804664149858055 -0.0090157282087176323 0 0.0089097397373759171 -0.0087885298119841047 0 0.0086954033001674872 -0.0089360176833106035 0 0.0086962185281451668 -0.0087072814625834601 0 0.0086954033001674872 -0.0089360176833106035 0 0.0084392570339255762 -0.0088875376155291563 0 0.0086962185281451668 -0.0087072814625834601 0 0.0084392570339255762 -0.0088875376155291563 0 0.0085117652747971218 -0.0085183839719291631 0 0.0084392570339255762 -0.0088875376155291563 0 0.0085117652747971218 -0.0085183839719291631 0 0.0083182193189324325 -0.0086277507288746499 0 0.008802119006068216 -0.0084210483055123797 0 0.0086962185281451668 -0.0087072814625834601 0 0.0085117652747971218 -0.0085183839719291631 0 0.0080888936540341842 -0.0090554675489864424 0 0.0081774760764682704 -0.0088174944578741938 0 0.0079905000673480466 -0.0087572238756543058 0 0.0082552522236431069 -0.0090011269004646004 0 0.0084392570339255762 -0.0088875376155291563 0 0.0081774760764682704 -0.0088174944578741938 0 0.0084392570339255762 -0.0088875376155291563 0 0.0081774760764682704 -0.0088174944578741938 0 0.0083182193189324325 -0.0086277507288746499 0 0.0081774760764682704 -0.0088174944578741938 0 0.0083182193189324325 -0.0086277507288746499 0 0.0080884136348022152 -0.0085666278224250901 0 0.0081774760764682704 -0.0088174944578741938 0 0.0080884136348022152 -0.0085666278224250901 0 0.0079905000673480466 -0.0087572238756543058 0 0.0083182193189324325 -0.0086277507288746499 0 0.0080884136348022152 -0.0085666278224250901 0 0.0082975110109539171 -0.0082829893331281945 0 0.0082975110109539171 -0.0082829893331281945 0 0.0084657778947584486 -0.0077686448030887222 0 0.0075964702053967466 -0.0079191756782981196 0 0.0080884136348022152 -0.0085666278224250901 0 0.0082975110109539171 -0.0082829893331281945 0 0.0075964702053967466 -0.0079191756782981196 0 0.0085117652747971218 -0.0085183839719291631 0 0.0083182193189324325 -0.0086277507288746499 0 0.0082975110109539171 -0.0082829893331281945 0 0.0085117652747971218 -0.0085183839719291631 0 0.0082975110109539171 -0.0082829893331281945 0 0.008507002103199629 -0.0081452983593684608 0 0.0082975110109539171 -0.0082829893331281945 0 0.008507002103199629 -0.0081452983593684608 0 0.0084657778947584486 -0.0077686448030887222 0 0.008802119006068216 -0.0084210483055123797 0 0.0085117652747971218 -0.0085183839719291631 0 0.008507002103199629 -0.0081452983593684608 0 0.008802119006068216 -0.0084210483055123797 0 0.008507002103199629 -0.0081452983593684608 0 0.0087066391269761748 -0.0079800835170715234 0 0.008507002103199629 -0.0081452983593684608 0 0.0087066391269761748 -0.0079800835170715234 0 0.0084657778947584486 -0.0077686448030887222 0 0.0087066391269761748 -0.0079800835170715234 0 0.0087715286503866063 -0.0076255337128514856 0 0.0084657778947584486 -0.0077686448030887222 0 0.0084657778947584486 -0.0077686448030887222 0 0.0081997848550364755 -0.0068741422032768621 0 0.0075964702053967466 -0.0079191756782981196 0 0.0084657778947584486 -0.0077686448030887222 0 0.0081997848550364755 -0.0068741422032768621 0 0.0093163342767785731 -0.0057327716010265725 0 0.0081997848550364755 -0.0068741422032768621 0 0.0085233784968478787 -0.0059108193569444431 0 0.0074205123888452639 -0.0066383630804631617 0 0.008308322036483809 -0.0083407173503825868 0 0.0094420969543231644 -0.0050630392276150328 0 0.0081997848550364755 -0.0068741422032768621 0 0.0085233784968478787 -0.0059108193569444431 0 0.0093163342767785731 -0.0057327716010265725 0 0.0075458053838055429 -0.0070986010029792535 0 0.0094420969543231644 -0.0050630392276150328 0 0.0087715286503866063 -0.0076255337128514856 0 0.0084657778947584486 -0.0077686448030887222 0 0.0085943347420954514 -0.0073031493878239883 0 0.0065793676896079567 -0.006475283129005787 0 0.0066571633660690351 -0.0053641505263645126 0 0.0058248506373656276 -0.0050976968139798042 0 0.0066571633660690351 -0.0053641505263645126 0 0.0075339675520829106 -0.0054226666114758158 0 0.0070130076966787355 -0.0049253101806614238 0 0.0066571633660690351 -0.0053641505263645126 0 0.0072049128011850531 -0.0061209263832039656 0 0.0075339675520829106 -0.0054226666114758158 0 0.0065793676896079567 -0.006475283129005787 0 0.0066571633660690351 -0.0053641505263645126 0 0.0072049128011850531 -0.0061209263832039656 0 0.0072049128011850531 -0.0061209263832039656 0 0.007765549236320929 -0.0063852627187489337 0 0.0075339675520829106 -0.0054226666114758158 0 0.007765549236320929 -0.0063852627187489337 0 0.0075339675520829106 -0.0054226666114758158 0 0.0083162428203626213 -0.0063317629211396935 0 0.007963279365806859 -0.005722555119793307 0 0.008530027149347575 -0.005991554431792015 0 0.0075339675520829106 -0.0054226666114758158 0 0.0083162428203626213 -0.0063317629211396935 0 0.0094213805427764818 -0.0067284022907495708 0 0.0075339675520829106 -0.0054226666114758158 0 0.008456843489671767 -0.0055222912273024402 0 0.0092752648931523525 -0.006460548143191803 0 0.0087177088370018405 -0.0035940165885072896 0 0.008530027149347575 -0.005991554431792015 0 0.007765549236320929 -0.0063852627187489337 0 0.008226962953456509 -0.0066734166669576564 0 0.0078628032252265005 -0.006906335771371821 0 0.0077836348331002461 -0.0081247086382352784 0 0.0085210815874342625 -0.0070800652060552683 0 0.00920685259585469 -0.0069398241592893636 0 0.0077836348331002461 -0.0081247086382352784 0 0.008053862640685203 -0.0080611875692616353 0 0.0080947904726897304 -0.0080320840212965983 0 0.0078896222294116171 -0.0082267363008994253 0 0.0083390135354396589 -0.0069577611157182412 0 0.007765549236320929 -0.0063852627187489337 0 0.0083162428203626213 -0.0063317629211396935 0 0.008226962953456509 -0.0066734166669576564 0 0.008226962953456509 -0.0066734166669576564 0 0.0086696925867234993 -0.0066365965822296974 0 0.0085179463781682001 -0.0067953902144791542 0 0.0083162428203626213 -0.0063317629211396935 0 0.008226962953456509 -0.0066734166669576564 0 0.0086696925867234993 -0.0066365965822296974 0 0.008226962953456509 -0.0066734166669576564 0 0.0085179463781682001 -0.0067953902144791542 0 0.0082470190463792507 -0.0071003987792815091 0 0.0085179463781682001 -0.0067953902144791542 0 0.0085210815874342625 -0.0070800652060552683 0 0.0082470190463792507 -0.0071003987792815091 0 0.008226962953456509 -0.0066734166669576564 0 0.0082470190463792507 -0.0071003987792815091 0 0.0078628032252265005 -0.006906335771371821 0 0.0085210815874342625 -0.0070800652060552683 0 0.0094213805427764818 -0.0067284022907495708 0 0.00920685259585469 -0.0069398241592893636 0 0.0083162428203626213 -0.0063317629211396935 0 0.0086696925867234993 -0.0066365965822296974 0 0.0094213805427764818 -0.0067284022907495708 0 0.0086696925867234993 -0.0066365965822296974 0 0.0085210815874342625 -0.0070800652060552683 0 0.0094213805427764818 -0.0067284022907495708 0 0.0086696925867234993 -0.0066365965822296974 0 0.0085179463781682001 -0.0067953902144791542 0 0.0085210815874342625 -0.0070800652060552683 0 0.008002881265086954 -0.008145060104527849 0 0.008053862640685203 -0.0080611875692616353 0 0.0080897956417873076 -0.0081084206971534199 0 0.0077836348331002461 -0.0081247086382352784 0 0.0082470190463792507 -0.0071003987792815091 0 0.0077564830946304794 -0.0074124429125019924 0 0.0077836348331002461 -0.0081247086382352784 0 0.0085210815874342625 -0.0070800652060552683 0 0.0082470190463792507 -0.0071003987792815091 0 0.0082470190463792507 -0.0071003987792815091 0 0.0077564830946304794 -0.0074124429125019924 0 0.0078628032252265005 -0.006906335771371821 0 0.0074385281244919027 -0.0078804532529393491 0 0.0077564830946304794 -0.0074124429125019924 0 0.0074005612051844197 -0.0069220837663265611 0 0.0082293698897191094 -0.0079697386217270072 0 0.0075458053838055429 -0.0070986010029792535 0 0.0090297815450257717 -0.0081164611914486557 0 0.0087066391269761748 -0.0079800835170715234 0 0.0087715286503866063 -0.0076255337128514856 0 0.0074385281244919027 -0.0078804532529393491 0 0.0065793676896079567 -0.006475283129005787 0 0.0074005612051844197 -0.0069220837663265611 0 0.0077564830946304794 -0.0074124429125019924 0 0.0078628032252265005 -0.006906335771371821 0 0.0074005612051844197 -0.0069220837663265611 0 0.0065793676896079567 -0.006475283129005787 0 0.0072049128011850531 -0.0061209263832039656 0 0.0074005612051844197 -0.0069220837663265611 0 0.0072049128011850531 -0.0061209263832039656 0 0.007765549236320929 -0.0063852627187489337 0 0.0074005612051844197 -0.0069220837663265611 0 0.007765549236320929 -0.0063852627187489337 0 0.0078628032252265005 -0.006906335771371821 0 0.0074005612051844197 -0.0069220837663265611 0 0.014094759511209943 -0.013691640465818512 0 0.013683280399447207 -0.013524014904978723 0 0.014171086506197739 -0.013655010142223241 0 0.016140979572903901 0.00083646423696995308 0 0.018666721385441277 0.0015377140160951919 0 0.0172587315200423 0.0023686639982451762 0 0.014673519421496705 -0.0060838787430070457 0 0.016591985571722648 -0.0074646828099386034 0 0.016140979572903901 0.00083646423696995308 0 0.018280094254816838 -0.00096925329647732001 0 0.018666721385441277 0.0015377140160951919 0 0.013981348344263015 -0.01331879789835347 0 0.013683280399447207 -0.013524014904978723 0 0.014171086506197739 -0.013655010142223241 0 0.012670335190867269 -0.0089648799671000496 0 0.016591985571722648 -0.0074646828099386034 0 0.020426819200119007 -0.0027732485153346559 0 0.018280094254816838 -0.00096925329647732001 0 0.020635536207910633 0.00019089182616525329 0 0.018280094254816838 -0.00096925329647732001 0 0.018666721385441277 0.0015377140160951919 0 0.020635536207910633 0.00019089182616525329 0 0.018666721385441277 0.0015377140160951919 0 0.020635536207910633 0.00019089182616525329 0 0.020625560026616533 0.0027821805988339707 0 0.020635536207910633 0.00019089182616525329 0 0.022931974151182491 0.001703311826113348 0 0.020625560026616533 0.0027821805988339707 0 0.012670335190867269 -0.0089648799671000496 0 0.013160234553628936 -0.0047517842276497586 0 0.020426819200119007 -0.0027732485153346559 0 0.020635536207910633 0.00019089182616525329 0 0.022900849908134412 -0.0011079823758452982 0 0.0075738576956294818 -0.0089287098244619414 0 0.0079262247826242058 -0.0086716633925034182 0 0.0079102029225829474 -0.0088391795730132956 0 0.013160234553628936 -0.0047517842276497586 0 0.010869039475580343 -0.0084717323869339702 0 0.0078217914570670143 -0.0086314706059137276 0 0.0079102029225829474 -0.0088391795730132956 0 0.0079905000673480466 -0.0087572238756543058 0 0.0080888936540341842 -0.0090554675489864424 0 0.0079102029225829474 -0.0088391795730132956 0 0.0079905000673480466 -0.0087572238756543058 0 0.0080884136348022152 -0.0085666278224250901 0 0.0079905000673480466 -0.0087572238756543058 0 0.0078478294941785667 -0.0085913033215972972 0 0.0078217914570670143 -0.0086314706059137276 0 0.0079905000673480466 -0.0087572238756543058 0 0.0078478294941785667 -0.0085913033215972972 0 0.013160234553628936 -0.0047517842276497586 0 0.011886821658445037 -0.0056274913878053669 0 0.0080884136348022152 -0.0085666278224250901 0 0.0078478294941785667 -0.0085913033215972972 0 0.0075964702053967466 -0.0079191756782981196 0 0.020635536207910633 0.00019089182616525329 0 0.022900849908134412 -0.0011079823758452982 0 0.022931974151182491 0.001703311826113348 0 0.0077862396687264556 -0.008638977694798702 0 0.0078478294941785667 -0.0085913033215972972 0 0.0075964702053967466 -0.0079191756782981196 0 0.013160234553628936 -0.0047517842276497586 0 0.015378615076162772 -0.0030351934167496763 0 0.0081997848550364755 -0.0068741422032768621 0 0.0075964702053967466 -0.0079191756782981196 0 0.0074205123888452639 -0.0066383630804631617 0 0.022931974151182491 0.001703311826113348 0 0.022948048987931083 0.0045571637332564906 0 0.020625560026616533 0.0027821805988339707 0 0.015378615076162772 -0.0030351934167496763 0 0.015127980820677431 -0.001400233492202263 0 0.022948048987931083 0.0045571637332564906 0 0.021004572067591321 0.005799098677628468 0 0.02295222750586139 0.0074242996279313463 0 0.015127980820677431 -0.001400233492202263 0 0.016238386138631808 0.0032086871167401484 0 0.0085233784968478787 -0.0059108193569444431 0 0.0074205123888452639 -0.0066383630804631617 0 0.0079047669550173106 -0.0054343993794235363 0 0.022948048987931083 0.0045571637332564906 0 0.021004572067591321 0.005799098677628468 0 0.020363931206074052 0.0045602547223771656 0 0.022948048987931083 0.0045571637332564906 0 0.020363931206074052 0.0045602547223771656 0 0.020625560026616533 0.0027821805988339707 0 0.021004572067591321 0.005799098677628468 0 0.020363931206074052 0.0045602547223771656 0 0.019097003086184641 0.0057165750053747681 0 0.021004572067591321 0.005799098677628468 0 0.019097003086184641 0.0057165750053747681 0 0.020472301842066921 0.0066692388710373404 0 0.018666721385441277 0.0015377140160951919 0 0.020625560026616533 0.0027821805988339707 0 0.018201553775105118 0.0039587129242964212 0 0.018666721385441277 0.0015377140160951919 0 0.018201553775105118 0.0039587129242964212 0 0.0172587315200423 0.0023686639982451762 0 0.020363931206074052 0.0045602547223771656 0 0.020625560026616533 0.0027821805988339707 0 0.018201553775105118 0.0039587129242964212 0 0.020363931206074052 0.0045602547223771656 0 0.018201553775105118 0.0039587129242964212 0 0.019097003086184641 0.0057165750053747681 0 0.018201553775105118 0.0039587129242964212 0 0.019097003086184641 0.0057165750053747681 0 0.017451418368744944 0.0057727874719882251 0 0.019097003086184641 0.0057165750053747681 0 0.017451418368744944 0.0057727874719882251 0 0.017975609950235033 0.0069218598700372556 0 0.018201553775105118 0.0039587129242964212 0 0.017451418368744944 0.0057727874719882251 0 0.016159789662832116 0.0048054879594479601 0 0.017451418368744944 0.0057727874719882251 0 0.016159789662832116 0.0048054879594479601 0 0.015378992290727124 0.007354907856381751 0 0.016140979572903901 0.00083646423696995308 0 0.0172587315200423 0.0023686639982451762 0 0.01603613040107426 0.0031473627844276924 0 0.018201553775105118 0.0039587129242964212 0 0.016159789662832116 0.0048054879594479601 0 0.01603613040107426 0.0031473627844276924 0 0.018201553775105118 0.0039587129242964212 0 0.0172587315200423 0.0023686639982451762 0 0.01603613040107426 0.0031473627844276924 0 0.019938587943232979 0.0073827691562153974 0 0.019100756561327942 0.0075576562284053184 0 0.020488567689443113 0.0088979083173619817 0 0.019100756561327942 0.0075576562284053184 0 0.018666594664162164 0.0079441038527805451 0 0.020488567689443113 0.0088979083173619817 0 0.018934002897163321 0.0080338402237014675 0 0.017203878051998581 0.0081775460298733563 0 0.017451418368744944 0.0057727874719882251 0 0.017975609950235033 0.0069218598700372556 0 0.015378992290727124 0.007354907856381751 0 0.017975609950235033 0.0069218598700372556 0 0.018666594664162164 0.0079441038527805451 0 0.015378992290727124 0.007354907856381751 0 0.017975609950235033 0.0069218598700372556 0 0.018666594664162164 0.0079441038527805451 0 0.018859871319023388 0.0077267788088976747 0 0.019097003086184641 0.0057165750053747681 0 0.017975609950235033 0.0069218598700372556 0 0.018859871319023388 0.0077267788088976747 0 0.019097003086184641 0.0057165750053747681 0 0.018859871319023388 0.0077267788088976747 0 0.020472301842066921 0.0066692388710373404 0 0.019100756561327942 0.0075576562284053184 0 0.018666594664162164 0.0079441038527805451 0 0.018593550847138703 0.0073967139707280137 0 0.018666594664162164 0.0079441038527805451 0 0.018859871319023388 0.0077267788088976747 0 0.018593550847138703 0.0073967139707280137 0 0.018859871319023388 0.0077267788088976747 0 0.018593550847138703 0.0073967139707280137 0 0.018686696180201915 0.0078288666315775163 0 0.018325371304223233 0.008138374960324055 0 0.018665719279216814 0.0080033581035843498 0 0.018673835617750285 0.0081435227677996245 0 0.018503027513384625 0.0077288506365522352 0 0.01864193129566942 0.0078048196588136349 0 0.018325371304223233 0.008138374960324055 0 0.018665719279216814 0.0080033581035843498 0 0.018686696180201915 0.0078288666315775163 0 0.018665719279216814 0.0080033581035843498 0 0.018686696180201915 0.0078288666315775163 0 0.018678780436654854 0.0080067748681161115 0 0.020875511866002606 0.0089344290056046181 0 0.016238386138631808 0.0032086871167401484 0 0.018859871319023388 0.0077267788088976747 0 0.018686696180201915 0.0078288666315775163 0 0.018585633274276932 0.0079604206336645819 0 0.018859871319023388 0.0077267788088976747 0 0.020472301842066921 0.0066692388710373404 0 0.02295222750586139 0.0074242996279313463 0 0.021004572067591321 0.005799098677628468 0 0.020472301842066921 0.0066692388710373404 0 0.02295222750586139 0.0074242996279313463 0 0.018686696180201915 0.0078288666315775163 0 0.018585633274276932 0.0079604206336645819 0 0.018678780436654854 0.0080067748681161115 0 0.0074205123888452639 -0.0066383630804631617 0 0.0073018497123364745 -0.0049579024118286234 0 0.0079047669550173106 -0.0054343993794235363 0 0.016238386138631808 0.0032086871167401484 0 0.017154538312162754 0.0073907364372220383 0 0.018591323800026198 0.0079121018747402277 0 0.018678780436654854 0.0080067748681161115 0 0.018925248529902256 0.008099888217014262 0 0.018437041534392722 0.0097268644971966241 0 0.017084684191398487 0.010109552276385428 0 0.018925248529902256 0.008099888217014262 0 0.017908099571464275 0.0091118261321116636 0 0.018887117769238224 0.0081451742605589822 0 0.018678780436654854 0.0080067748681161115 0 0.018673835617750285 0.0081435227677996245 0 0.018925248529902256 0.008099888217014262 0 0.018665719279216814 0.0080033581035843498 0 0.018678780436654854 0.0080067748681161115 0 0.018673835617750285 0.0081435227677996245 0 0.018153622305633613 0.011069002773634084 0 0.017086171258631523 0.011818077273245907 0 0.017084684191398487 0.010109552276385428 0 0.018437041534392722 0.0097268644971966241 0 0.018153622305633613 0.011069002773634084 0 0.017084684191398487 0.010109552276385428 0 0.018153622305633613 0.011069002773634084 0 0.017086171258631523 0.011818077273245907 0 0.018219721429722825 0.012880263095512278 0 0.017086171258631523 0.011818077273245907 0 0.016711665570770029 0.013034366065620001 0 0.018219721429722825 0.012880263095512278 0 0.017086171258631523 0.011818077273245907 0 0.015730086463410439 0.011888568291847553 0 0.016711665570770029 0.013034366065620001 0 0.018325371304223233 0.008138374960324055 0 0.018673835617750285 0.0081435227677996245 0 0.018357213667314787 0.0085373729078258038 0 0.017908099571464275 0.0091118261321116636 0 0.017105212369622046 0.010226277676631109 0 0.017086171258631523 0.011818077273245907 0 0.017084684191398487 0.010109552276385428 0 0.015730086463410439 0.011888568291847553 0 0.018325371304223233 0.008138374960324055 0 0.018357213667314787 0.0085373729078258038 0 0.018017635162503064 0.0084980766307508563 0 0.018503027513384625 0.0077288506365522352 0 0.018689288741542999 0.0073203291600143243 0 0.019100756561327942 0.0075576562284053184 0 0.018593550847138703 0.0073967139707280137 0 0.01938982728891353 0.0059891436137546137 0 0.017105212369622046 0.010226277676631109 0 0.015971648465211642 0.010853386200670414 0 0.015730086463410439 0.011888568291847553 0 0.01567393587773868 0.013228938990604667 0 0.016711665570770029 0.013034366065620001 0 0.015730086463410439 0.011888568291847553 0 0.014731871435719487 0.01326590838478014 0 0.01567393587773868 0.013228938990604667 0 0.018689288741542999 0.0073203291600143243 0 0.019129283120138452 0.0061472194491168771 0 0.018357213667314787 0.0085373729078258038 0 0.018017635162503064 0.0084980766307508563 0 0.017941357258561618 0.008997121773151635 0 0.01938982728891353 0.0059891436137546137 0 0.020688069379102541 0.0056970608122507644 0 0.020571169563878597 0.0043731050608343362 0 0.018017635162503064 0.0084980766307508563 0 0.017698713248464205 0.0089323266978248699 0 0.017941357258561618 0.008997121773151635 0 0.019938587943232979 0.0073827691562153974 0 0.01938982728891353 0.0059891436137546137 0 0.020602781413134361 0.0066285614223699305 0 0.019938587943232979 0.0073827691562153974 0 0.019100756561327942 0.0075576562284053184 0 0.01938982728891353 0.0059891436137546137 0 0.01938982728891353 0.0059891436137546137 0 0.020602781413134361 0.0066285614223699305 0 0.020688069379102541 0.0056970608122507644 0 0.016114687463813438 0.014721839036428458 0 0.016411903052932667 0.015445687824229714 0 0.017009762623466044 0.014703423858783801 0 0.012697670949712343 0.0068696492281888691 0 0.016810583554604103 0.012564844082425225 0 0.016114687463813438 0.014721839036428458 0 0.015591361713233221 0.015426016856813617 0 0.016411903052932667 0.015445687824229714 0 0.016114687463813438 0.014721839036428458 0 0.01519202735394566 0.014717849236008169 0 0.015591361713233221 0.015426016856813617 0 0.010334646217073869 0.0018971682275387954 0 0.0092029266842679862 0.0024562933243344092 0 0.0086914685998587451 -0.001430620020878699 0 0.0076488561776301379 -0.0001581883520804623 0 0.01029709185638843 -0.0001954919855912384 0 0.011155950971718625 0.0060956301165482939 0 0.01204785588047304 0.0064693629145852272 0 0.010112303180243573 0.0065083646897752612 0 0.014199050459169967 0.010774759194708118 0 0.012697670949712343 0.0068696492281888691 0 0.0087177088370018405 -0.0035940165885072896 0 0.010334646217073869 0.0018971682275387954 0 0.012697670949712343 0.0068696492281888691 0 0.010176227046268183 0.0016920589274040047 0 0.011155950971718625 0.0060956301165482939 0 0.01204785588047304 0.0064693629145852272 0 0.012224810589745793 0.0062644584277900643 0 0.011154718209867869 0.0026321202870052416 0 0.011056403133501178 0.0027496015017929973 0 0.010431242308573155 0.0026259942699658301 0 0.0077066454724822684 -0.0045625731079563204 0 0.0070130076966787355 -0.0049253101806614238 0 0.0063457708992555777 -0.0045181062466966137 0 0.010334646217073869 0.0018971682275387954 0 0.010176227046268183 0.0016920589274040047 0 0.0075339675520829106 -0.0054226666114758158 0 0.008456843489671767 -0.0055222912273024402 0 0.0077066454724822684 -0.0045625731079563204 0 0.0075339675520829106 -0.0054226666114758158 0 0.0077066454724822684 -0.0045625731079563204 0 0.0070130076966787355 -0.0049253101806614238 0 0.010334646217073869 0.0018971682275387954 0 0.012697670949712343 0.0068696492281888691 0 0.0066571633660690351 -0.0053641505263645126 0 0.0070130076966787355 -0.0049253101806614238 0 0.0062678315720178226 -0.0049181703689145087 0 0.0070130076966787355 -0.0049253101806614238 0 0.0062678315720178226 -0.0049181703689145087 0 0.0063457708992555777 -0.0045181062466966137 0 0.0066571633660690351 -0.0053641505263645126 0 0.0062678315720178226 -0.0049181703689145087 0 0.0058248506373656276 -0.0050976968139798042 0 0.0094420969543231644 -0.0050630392276150328 0 0.012596592783054214 0.0021336013469749671 0 0.010727886375516476 -0.0024017733938732932 0 0.011242883868109245 -0.00050869975513153623 0 0.0098532559423813414 -0.00096966941950479867 0 0.0094420969543231644 -0.0050630392276150328 0 0.011334692389053764 -0.0010815836191905115 0 0.0062678315720178226 -0.0049181703689145087 0 0.0059967510420799999 -0.0045052807748580627 0 0.0063457708992555777 -0.0045181062466966137 0 0.0062678315720178226 -0.0049181703689145087 0 0.0058248506373656276 -0.0050976968139798042 0 0.0059967510420799999 -0.0045052807748580627 0 0.012596592783054214 0.0021336013469749671 0 0.010176227046268183 0.0016920589274040047 0 0.012596592783054214 0.0021336013469749671 0 0.011334692389053764 -0.0010815836191905115 0 0.012596592783054214 0.0021336013469749671 0 0.013218379469963312 0.0018172841990999927 0 0.0073018497123364745 -0.0049579024118286234 0 0.0079047669550173106 -0.0054343993794235363 0 0.0094589901621738859 -0.0048531812853027127 0 0.0071698324496583931 -0.0055245635580063734 0 0.011334692389053764 -0.0010815836191905115 0 0.018591323800026198 0.0079121018747402277 0 0.019233731901851663 0.0079616341066161937 0 0.018925248529902256 0.008099888217014262 0 0.016238386138631808 0.0032086871167401484 0 0.013218379469963312 0.0018172841990999927 0 0.0079047669550173106 -0.0054343993794235363 0 0.009581666290105607 -0.0050457065723756968 0 0.0094589901621738859 -0.0048531812853027127 0 0.0079047669550173106 -0.0054343993794235363 0 0.008833690553135801 -0.0056666661094142961 0 0.0090429683936582607 -0.0053123907830005057 0 0.0085233784968478787 -0.0059108193569444431 0 0.0079047669550173106 -0.0054343993794235363 0 0.008833690553135801 -0.0056666661094142961 0 0.0085233784968478787 -0.0059108193569444431 0 0.0093163342767785731 -0.0057327716010265725 0 0.008833690553135801 -0.0056666661094142961 0 0.0093163342767785731 -0.0057327716010265725 0 0.008833690553135801 -0.0056666661094142961 0 0.0090429683936582607 -0.0053123907830005057 0 0.019233731901851663 0.0079616341066161937 0 0.019261463110374511 0.0081507792042724587 0 0.018925248529902256 0.008099888217014262 0 0.02021681899126581 0.0077035409029550476 0 0.019517302088793476 0.0077084403554285924 0 0.019261463110374511 0.0081507792042724587 0 0.0120634229169614 0.0019770987300541825 0 0.012815485649481552 0.0022197962628486322 0 0.012976722682012373 0.0019599514618629937 0 0.011334692389053764 -0.0010815836191905115 0 0.013218379469963312 0.0018172841990999927 0 0.013218379469963312 0.0018172841990999927 0 0.014109802914333603 0.0038937177242384592 0 0.02021681899126581 0.0077035409029550476 0 0.019261463110374511 0.0081507792042724587 0 0.01972666579897284 0.009404032521525784 0 0.019261463110374511 0.0081507792042724587 0 0.018925248529902256 0.008099888217014262 0 0.019054216223775268 0.0091258385008068793 0 0.018437041534392722 0.0097268644971966241 0 0.018925248529902256 0.008099888217014262 0 0.019054216223775268 0.0091258385008068793 0 0.019261463110374511 0.0081507792042724587 0 0.019054216223775268 0.0091258385008068793 0 0.01972666579897284 0.009404032521525784 0 0.019054216223775268 0.0091258385008068793 0 0.01972666579897284 0.009404032521525784 0 0.018968168192013576 0.0101349760758225 0 0.018437041534392722 0.0097268644971966241 0 0.019054216223775268 0.0091258385008068793 0 0.018968168192013576 0.0101349760758225 0 0.02021681899126581 0.0077035409029550476 0 0.01972666579897284 0.009404032521525784 0 0.020819864371836451 0.0097899442096938544 0 0.012596592783054214 0.0021336013469749671 0 0.016810583554604103 0.012564844082425225 0 0.015332707206911539 0.0062645224167043887 0 0.012690698451105672 0.0057968657413914543 0 0.012853662371364009 0.0092610786451209869 0 0.011901631014322119 0.0058041402476403207 0 0.012690698451105672 0.0057968657413914543 0 0.012853662371364009 0.0092610786451209869 0 0.016810583554604103 0.012564844082425225 0 0.01870951511062029 0.01260252054780113 0 0.01972666579897284 0.009404032521525784 0 0.020819864371836451 0.0097899442096938544 0 0.019504813912086097 0.011408455650785063 0 0.017010921612536332 0.014594691079144104 0 0.017359991964707347 0.014191019248773846 0 0.016873224289910026 0.014179053088388623 0 0.016810583554604103 0.012564844082425225 0 0.017054482107748573 0.014969384546824381 0 0.01972666579897284 0.009404032521525784 0 0.018968168192013576 0.0101349760758225 0 0.019504813912086097 0.011408455650785063 0 0.018437041534392722 0.0097268644971966241 0 0.018153622305633613 0.011069002773634084 0 0.018968168192013576 0.0101349760758225 0 0.018153622305633613 0.011069002773634084 0 0.018968168192013576 0.0101349760758225 0 0.019504813912086097 0.011408455650785063 0 0.018153622305633613 0.011069002773634084 0 0.019504813912086097 0.011408455650785063 0 0.018219721429722825 0.012880263095512278 0 0.01870951511062029 0.01260252054780113 0 0.01769520926582855 0.013494178295128258 0 0.017359991964707347 0.014191019248773846 0 0.017357335674749653 0.014000270818671074 0 0.01732295723902073 0.013976887245021158 0 0.017359991964707347 0.014191019248773846 0 0.017357335674749653 0.014000270818671074 0 0.01719230851633306 0.014055061390046324 0 0.017359991964707347 0.014191019248773846 0 0.016873224289910026 0.014179053088388623 0 0.01719230851633306 0.014055061390046324 0 0.017357335674749653 0.014000270818671074 0 0.01719230851633306 0.014055061390046324 0 0.017259755718450173 0.013971991517666179 0 0.01719230851633306 0.014055061390046324 0 0.017000034980644434 0.013962925120980966 0 0.017259755718450173 0.013971991517666179 0 0.016873224289910026 0.014179053088388623 0 0.01719230851633306 0.014055061390046324 0 0.017000034980644434 0.013962925120980966 0 0.016873224289910026 0.014179053088388623 0 0.017000034980644434 0.013962925120980966 0 0.016630562516483382 0.013934646060672871 0 0.017000034980644434 0.013962925120980966 0 0.016630562516483382 0.013934646060672871 0 0.016879545406798271 0.013791578069495962 0 0.016630562516483382 0.013934646060672871 0 0.016506606773202731 0.014167795838454782 0 0.016156599376011223 0.013831478009438902 0 0.016873224289910026 0.014179053088388623 0 0.016630562516483382 0.013934646060672871 0 0.016506606773202731 0.014167795838454782 0 0.016114687463813438 0.014721839036428458 0 0.017009762623466044 0.014703423858783801 0 0.016523374555007457 0.014419225473984951 0 0.016114687463813438 0.014721839036428458 0 0.016523374555007457 0.014419225473984951 0 0.016221173130106216 0.014270274622514893 0 0.017009762623466044 0.014703423858783801 0 0.016873224289910026 0.014179053088388623 0 0.016523374555007457 0.014419225473984951 0 0.016873224289910026 0.014179053088388623 0 0.016506606773202731 0.014167795838454782 0 0.016523374555007457 0.014419225473984951 0 0.016506606773202731 0.014167795838454782 0 0.016523374555007457 0.014419225473984951 0 0.016221173130106216 0.014270274622514893 0 0.016148510857444426 0.01481917913795208 0 0.015979295228540403 0.013447481120912435 0 0.01519202735394566 0.014717849236008169 0 0.015833056317125296 0.013556112827312318 0 0.014468630104597674 0.013977225136334809 0 0.016114687463813438 0.014721839036428458 0 0.01519202735394566 0.014717849236008169 0 0.015833056317125296 0.013556112827312318 0 0.015979295228540403 0.013447481120912435 0 0.013121056388639732 0.016376981201486417 0 0.016506606773202731 0.014167795838454782 0 0.016221173130106216 0.014270274622514893 0 0.016156599376011223 0.013831478009438902 0 0.015833056317125296 0.013556112827312318 0 0.015079707614879378 0.013117121180584418 0 0.015591214653331216 0.012469396594126325 0 0.0073705015523483812 0.012958268025504109 0 0.010299250954164493 0.01266466553438062 0 0.0057168489484262924 0.0095677415279683872 0 0.0052902381501152996 0.010214487242348864 0 0.0056191195053018851 0.010727902588932461 0 0.015079707614879378 0.013117121180584418 0 0.014350331207991162 0.012639569481392705 0 0.015591214653331216 0.012469396594126325 0 0.015079707614879378 0.013117121180584418 0 0.014350331207991162 0.012639569481392705 0 0.014468630104597674 0.013977225136334809 0 0.0073705015523483812 0.012958268025504109 0 0.013121056388639732 0.016376981201486417 0 0.0057168489484262924 0.0095677415279683872 0 0.0043969310894086582 0.0097417952464972091 0 0.0050264019836177582 0.0097872382214146784 0 0.0054876223766297466 0.014840308692387828 0 0.0031264060227464284 0.01518130195289304 0 0.0043636724234645966 0.014315911756436945 0 0.0073705015523483812 0.012958268025504109 0 0.0037379533065369911 0.012443367899049526 0 0.0043969310894086582 0.0097417952464972091 0 0.0050264019836177582 0.0097872382214146784 0 0.003909232902695306 0.010148990138858855 0 0.0047541402354170266 0.0098671387716330518 0 0.004560668267711082 0.0099269671614862082 0 0.0057168489484262924 0.0095677415279683872 0 0.0050264019836177582 0.0097872382214146784 0 0.0052902381501152996 0.010214487242348864 0 0.0050264019836177582 0.0097872382214146784 0 0.0052902381501152996 0.010214487242348864 0 0.0048645394191261975 0.010401987964406299 0 0.0050264019836177582 0.0097872382214146784 0 0.0046451816943707414 0.010135975549618642 0 0.0048645394191261975 0.010401987964406299 0 0.0050264019836177582 0.0097872382214146784 0 0.0046451816943707414 0.010135975549618642 0 0.004281980124821597 0.0099640393947030351 0 0.0046451816943707414 0.010135975549618642 0 0.0048645394191261975 0.010401987964406299 0 0.0043956575466073304 0.010408304924103986 0 0.0048645394191261975 0.010401987964406299 0 0.004640927553373822 0.011059726548881025 0 0.0043956575466073304 0.010408304924103986 0 0.0048645394191261975 0.010401987964406299 0 0.005229159364766838 0.010507051164150818 0 0.004640927553373822 0.011059726548881025 0 0.0052902381501152996 0.010214487242348864 0 0.0048645394191261975 0.010401987964406299 0 0.005229159364766838 0.010507051164150818 0 0.0052902381501152996 0.010214487242348864 0 0.005229159364766838 0.010507051164150818 0 0.0056191195053018851 0.010727902588932461 0 0.0053984657969658144 0.010751561158474919 0 0.0054770998636227307 0.010743981318028541 0 0.0054990562491096205 0.010814434349950313 0 0.005229159364766838 0.010507051164150818 0 0.004640927553373822 0.011059726548881025 0 0.0054770998636227307 0.010743981318028541 0 0.0048722947120948597 0.010833362816093988 0 0.0054425823782390109 0.010749774285927369 0 0.015833056317125296 0.013556112827312318 0 0.015079707614879378 0.013117121180584418 0 0.014468630104597674 0.013977225136334809 0 0.005229159364766838 0.010507051164150818 0 0.0056191195053018851 0.010727902588932461 0 0.0054770998636227307 0.010743981318028541 0 0.0056191195053018851 0.010727902588932461 0 0.0054770998636227307 0.010743981318028541 0 0.0054990562491096205 0.010814434349950313 0 0.01519202735394566 0.014717849236008169 0 0.014468630104597674 0.013977225136334809 0 0.01457380788539062 0.015291712160795499 0 0.01519202735394566 0.014717849236008169 0 0.015591361713233221 0.015426016856813617 0 0.01457380788539062 0.015291712160795499 0 0.010299250954164493 0.01266466553438062 0 0.0093237247277901305 0.0095911100336208751 0 0.0056191195053018851 0.010727902588932461 0 0.0055698204589964585 0.010892591175970519 0 0.0054990562491096205 0.010814434349950313 0 0.0053984657969658144 0.010751561158474919 0 0.0054990562491096205 0.010814434349950313 0 0.0054424907300240346 0.010844171707395546 0 0.0055698204589964585 0.010892591175970519 0 0.0054990562491096205 0.010814434349950313 0 0.0054424907300240346 0.010844171707395546 0 0.0093237247277901305 0.0095911100336208751 0 0.0062546027727412258 0.0065525760514714001 0 0.0065129418886787638 0.0022392207230062088 0 0.0077519442249029775 0.0024370596780929313 0 0.0070047167477210884 0.0014860592388482342 0 0.0077519442249029775 0.0024370596780929313 0 0.0077145226072018337 0.001190295080707765 0 0.008959690104395221 0.0026554392103916554 0 0.0077519442249029775 0.0024370596780929313 0 0.0070047167477210884 0.0014860592388482342 0 0.0077145226072018337 0.001190295080707765 0 0.014199050459169967 0.010774759194708118 0 0.0093237247277901305 0.0095911100336208751 0 0.0070047167477210884 0.0014860592388482342 0 0.0064139218426555143 0.0014920635987516245 0 0.0063284845429858877 -0.00042832113271904404 0 0.011155950971718625 0.0060956301165482939 0 0.01008327198726894 0.0059263825424040132 0 0.010112303180243573 0.0065083646897752612 0 0.0093237247277901305 0.0095911100336208751 0 0.0092029266842679862 0.0024562933243344092 0 0.0065129418886787638 0.0022392207230062088 0 0.0070047167477210884 0.0014860592388482342 0 0.0064780938907334495 0.0015101065818893967 0 0.0072696196756779829 0.0021406879798646157 0 0.0092029266842679862 0.0024562933243344092 0 0.007146195499604378 -0.0042848818085879344 0 0.0075132851589170685 -0.0046551560157536264 0 0.0070070221035664522 -0.0047386005148823997 0 0.007146195499604378 -0.0042848818085879344 0 0.0076176149409801141 -0.0043363103437873115 0 0.0075132851589170685 -0.0046551560157536264 0 0.0076176149409801141 -0.0043363103437873115 0 0.0075132851589170685 -0.0046551560157536264 0 0.0078034102158012538 -0.0046413484563045202 0 0.0075132851589170685 -0.0046551560157536264 0 0.0078034102158012538 -0.0046413484563045202 0 0.0077523894976265634 -0.0049118384500522003 0 0.0075132851589170685 -0.0046551560157536264 0 0.0077523894976265634 -0.0049118384500522003 0 0.0075764480737224738 -0.0050577614735475536 0 0.0075132851589170685 -0.0046551560157536264 0 0.007275420006802205 -0.0050321279262470634 0 0.0075764480737224738 -0.0050577614735475536 0 0.0075132851589170685 -0.0046551560157536264 0 0.0070070221035664522 -0.0047386005148823997 0 0.007275420006802205 -0.0050321279262470634 0 0.0070070221035664522 -0.0047386005148823997 0 0.0065075462232067746 -0.0049364303929149266 0 0.0066138499310210526 -0.0044676446515084399 0 0.0070070221035664522 -0.0047386005148823997 0 0.0065075462232067746 -0.0049364303929149266 0 0.0069267752489338488 -0.0053097424253588134 0 0.0056969051893483013 -0.0047522627232676612 0 0.0066138499310210526 -0.0044676446515084399 0 0.0066013026195339691 -0.003820335427837029 0 0.0064698921659077343 -0.0023370747562874109 0 0.006332063638911303 0.0032263071964659562 0 0.0056969051893483013 -0.0047522627232676612 0 0.0065075462232067746 -0.0049364303929149266 0 0.0066138499310210526 -0.0044676446515084399 0 0.007146195499604378 -0.0042848818085879344 0 0.0070070221035664522 -0.0047386005148823997 0 0.0066138499310210526 -0.0044676446515084399 0 0.007146195499604378 -0.0042848818085879344 0 0.0066138499310210526 -0.0044676446515084399 0 0.0066013026195339691 -0.003820335427837029 0 0.0062546027727412258 0.0065525760514714001 0 0.006332063638911303 0.0032263071964659562 0 0.0053984657969658144 0.010751561158474919 0 0.0054424907300240346 0.010844171707395546 0 0.0053221733303971319 0.010792795303948768 0 0.0048722947120948597 0.010833362816093988 0 0.0042967050542116296 0.0078234056523958928 0 0.0053984657969658144 0.010751561158474919 0 0.0053221733303971319 0.010792795303948768 0 0.0052856373193711078 0.010750831037717054 0 0.0058624336496553584 0.0039765969682529663 0 0.0052979541552007946 0.0033670331195437011 0 0.0042845264830756076 0.0037035733314166562 0 0.006332063638911303 0.0032263071964659562 0 0.0042967050542116296 0.0078234056523958928 0 0.0042967050542116296 0.0078234056523958928 0 0.0042129168366524484 0.002644130681193227 0 0.0023377325880614744 0.0076044945506036337 0 0.00093575893324195764 0.008069757173117368 0 0.00068619298772502359 0.0064058252772434881 0 0.006332063638911303 0.0032263071964659562 0 0.0042129168366524484 0.002644130681193227 0 0.007146195499604378 -0.0042848818085879344 0 0.0066013026195339691 -0.003820335427837029 0 0.0072592843396069159 -0.0037738835357476489 0 0.0076176149409801141 -0.0043363103437873115 0 0.0072592843396069159 -0.0037738835357476489 0 0.0078674968852341307 -0.0041345588090134881 0 0.007146195499604378 -0.0042848818085879344 0 0.0076176149409801141 -0.0043363103437873115 0 0.0072592843396069159 -0.0037738835357476489 0 0.0042129168366524484 0.002644130681193227 0 0.0062498655205049823 -0.0016337233670923211 0 0.00093575893324195764 0.008069757173117368 0 0.00068619298772502359 0.0064058252772434881 0 -0.001287818504796845 0.006417667437069458 0 -0.00016690824140179334 0.0058599867597102116 0 0.00068619298772502359 0.0064058252772434881 0 -0.001287818504796845 0.006417667437069458 0 -0.00016690824140179334 0.0058599867597102116 0 0.00068619298772502359 0.0064058252772434881 0 0.00078728213658472361 0.0059572484118150457 0 0.00075210773186722818 0.0082023597557690127 0 0.00063553358518496936 0.0088666873408607527 0 0.0038226047029198567 0.01132228113274155 0 0.0037187435278518083 0.010916489382263302 0 0.0033098684338689153 0.010779965823349428 0 0.0023377325880614744 0.0076044945506036337 0 0.00068619298772502359 0.0064058252772434881 0 0.00079274567283110927 0.0059536107448202973 0 0.0042967050542116296 0.0078234056523958928 0 0.00063553358518496936 0.0088666873408607527 0 0.0037187435278518083 0.010916489382263302 0 0.0033098684338689153 0.010779965823349428 0 0.003685776977881534 0.010564273972533294 0 0.0033098684338689153 0.010779965823349428 0 0.003685776977881534 0.010564273972533294 0 0.003453464626781185 0.010170597331690295 0 0.003685776977881534 0.010564273972533294 0 0.0039696367565646377 0.010369627706806571 0 0.003453464626781185 0.010170597331690295 0 0.00063553358518496936 0.0088666873408607527 0 3.0060883202958153e-05 0.011207032305591957 0 -0.00016690824140179334 0.0058599867597102116 0 0.00078728213658472361 0.0059572484118150457 0 -0.00051118757460327216 0.0045690923311302416 0 0.00063553358518496936 0.0088666873408607527 0 -0.0035515089654222141 0.010252439940981512 0 -0.0007428254518358049 0.010328842079185952 0 -0.00093216071483879582 0.010137456978958612 0 -0.00068282146362916827 0.010073587327038775 0 0.004640927553373822 0.011059726548881025 0 0.0040240345093689811 0.010737913330576538 0 0.0043956575466073304 0.010408304924103986 0 0.004640927553373822 0.011059726548881025 0 0.0038226047029198567 0.01132228113274155 0 0.0040240345093689811 0.010737913330576538 0 0.0038226047029198567 0.01132228113274155 0 0.0037187435278518083 0.010916489382263302 0 0.0040240345093689811 0.010737913330576538 0 0.0037187435278518083 0.010916489382263302 0 0.003685776977881534 0.010564273972533294 0 0.0040240345093689811 0.010737913330576538 0 0.003685776977881534 0.010564273972533294 0 0.0040240345093689811 0.010737913330576538 0 0.0039696367565646377 0.010369627706806571 0 0.0040240345093689811 0.010737913330576538 0 0.0039696367565646377 0.010369627706806571 0 0.0043956575466073304 0.010408304924103986 0 0.0043969310894086582 0.0097417952464972091 0 0.003909232902695306 0.010148990138858855 0 0.0027540337328449144 0.009994423507783453 0 0.0031264060227464284 0.01518130195289304 0 0.00079724865614252646 0.015511745233421633 0 0.0021813322444176764 0.01425349597373698 0 0.0037379533065369911 0.012443367899049526 0 0.00018268426092337025 0.012623040733729224 0 0.0046451816943707414 0.010135975549618642 0 0.0043956575466073304 0.010408304924103986 0 0.004281980124821597 0.0099640393947030351 0 0.0039696367565646377 0.010369627706806571 0 0.0043956575466073304 0.010408304924103986 0 0.004281980124821597 0.0099640393947030351 0 0.004560668267711082 0.0099269671614862082 0 3.0060883202958153e-05 0.011207032305591957 0 0.003909232902695306 0.010148990138858855 0 0.0026195658747943224 0.010522224406951348 0 0.0027540337328449144 0.009994423507783453 0 0.0039696367565646377 0.010369627706806571 0 0.004281980124821597 0.0099640393947030351 0 0.003453464626781185 0.010170597331690295 0 -0.0035515089654222141 0.010252439940981512 0 3.0060883202958153e-05 0.011207032305591957 0 -0.0063269552360858058 0.012895856928604506 0 -0.006328219974194995 0.012940689704274269 0 -0.00628632068999678 0.01287966083463437 0 -0.0062974342592576034 0.012852546998323661 0 -0.0063269552360858058 0.012895856928604506 0 -0.00628632068999678 0.01287966083463437 0 -0.0063269552360858058 0.012895856928604506 0 -0.006387839080052222 0.01294670903799163 0 -0.006328219974194995 0.012940689704274269 0 -0.0062974342592576034 0.012852546998323661 0 -0.0063269552360858058 0.012895856928604506 0 -0.0063645935785575786 0.012875691467789951 0 -0.0063269552360858058 0.012895856928604506 0 -0.0063645935785575786 0.012875691467789951 0 -0.006387839080052222 0.01294670903799163 0 3.0060883202958153e-05 0.011207032305591957 0 0.00018268426092337025 0.012623040733729224 0 -0.006387839080052222 0.01294670903799163 0 -0.006328219974194995 0.012940689704274269 0 -0.0063609008594233823 0.013032853321534534 0 -0.006328219974194995 0.012940689704274269 0 -0.0063374965576403573 0.012985540290790624 0 -0.0063609008594233823 0.013032853321534534 0 -0.006328219974194995 0.012940689704274269 0 -0.0063035410269531534 0.012920612014433973 0 -0.0063374965576403573 0.012985540290790624 0 -0.006328219974194995 0.012940689704274269 0 -0.0063035410269531534 0.012920612014433973 0 -0.00628632068999678 0.01287966083463437 0 -0.0063035410269531534 0.012920612014433973 0 -0.00628632068999678 0.01287966083463437 0 -0.0062962158433334933 0.012881786949916601 0 -0.0062680147900993719 0.012876946778958223 0 -0.00628632068999678 0.01287966083463437 0 -0.0063077355791050071 0.012870507696343642 0 -0.0035515089654222141 0.010252439940981512 0 -0.004488033682660264 0.011206416107572533 0 -0.00628632068999678 0.01287966083463437 0 -0.0063077355791050071 0.012870507696343642 0 -0.0062962158433334933 0.012881786949916601 0 -0.0063077355791050071 0.012870507696343642 0 -0.0062962158433334933 0.012881786949916601 0 -0.0063014257330261322 0.012881907731885116 0 -0.0063035410269531534 0.012920612014433973 0 -0.0063014257330261322 0.012881907731885116 0 -0.0062993661564991667 0.012910709635662758 0 -0.0063035410269531534 0.012920612014433973 0 -0.0062962158433334933 0.012881786949916601 0 -0.0063014257330261322 0.012881907731885116 0 -0.0063077355791050071 0.012870507696343642 0 -0.0063738895477328389 0.012816094481531065 0 -0.0063142326807500539 0.012854596837262301 0 -0.0063738895477328389 0.012816094481531065 0 -0.0063298979659329553 0.012876949302460831 0 -0.0064755014457246515 0.012810472905736125 0 -0.0063077355791050071 0.012870507696343642 0 -0.0063738895477328389 0.012816094481531065 0 -0.0063298979659329553 0.012876949302460831 0 -0.0063077355791050071 0.012870507696343642 0 -0.0063014257330261322 0.012881907731885116 0 -0.0063142326807500539 0.012854596837262301 0 -0.0087984553914063311 0.0028779474660121647 0 -0.0021364863944216671 0.003671112353053957 0 -0.0041012974761498646 0.0055120977719765847 0 -0.0077187223499759735 0.0064497638009253918 0 -0.0033242071351165677 0.0073327698813277012 0 -0.0041012974761498646 0.0055120977719765847 0 -0.0023050476566797351 0.0059556866502133649 0 -0.0033242071351165677 0.0073327698813277012 0 -0.0035515089654222141 0.010252439940981512 0 -0.00502923133156061 0.0095901611650965873 0 -0.0062680147900993719 0.012876946778958223 0 -0.0063077355791050071 0.012870507696343642 0 -0.0063298979659329553 0.012876949302460831 0 -0.00051118757460327216 0.0045690923311302416 0 -0.0041012974761498646 0.0055120977719765847 0 -0.0023050476566797351 0.0059556866502133649 0 -0.0023050476566797351 0.0059556866502133649 0 -0.001287818504796845 0.006417667437069458 0 -0.0033242071351165677 0.0073327698813277012 0 -0.00051118757460327216 0.0045690923311302416 0 -0.0023050476566797351 0.0059556866502133649 0 -0.001287818504796845 0.006417667437069458 0 -0.00016690824140179334 0.0058599867597102116 0 -0.00051118757460327216 0.0045690923311302416 0 -0.001287818504796845 0.006417667437069458 0 -0.0066159743991479752 0.012803095616496772 0 -0.0064930256553831205 0.012708781826561648 0 -0.0067646935902598033 0.012674801011474179 0 -0.0066159743991479752 0.012803095616496772 0 -0.0064755014457246515 0.012810472905736125 0 -0.0064930256553831205 0.012708781826561648 0 -0.0063738895477328389 0.012816094481531065 0 -0.0064755014457246515 0.012810472905736125 0 -0.0064930256553831205 0.012708781826561648 0 -0.00502923133156061 0.0095901611650965873 0 -0.0087984553914063311 0.0028779474660121647 0 -0.0063298979659329553 0.012876949302460831 0 -0.0064755014457246515 0.012810472905736125 0 -0.0064898769158059878 0.01286796663416441 0 -0.0087984553914063311 0.0028779474660121647 0 -0.009908568709968469 0.0023541992730276321 0 -0.0087984553914063311 0.0028779474660121647 0 -0.010927039602798392 0.0017416498750197486 0 -0.011697408251445357 -0.00081450420263313528 0 -0.011569415083242964 -0.00083549571114264944 0 -0.011529138457539553 -0.0010026143980665567 0 -0.011699603329350106 -0.00078513908335562765 0 -0.011528858094423153 -0.00076743984194322084 0 -0.011569415083242964 -0.00083549571114264944 0 -0.0066159743991479752 0.012803095616496772 0 -0.0064755014457246515 0.012810472905736125 0 -0.0064898769158059878 0.01286796663416441 0 -0.0091140144275120138 0.0061086003187876946 0 -0.0087984553914063311 0.0028779474660121647 0 -0.011528858094423153 -0.00076743984194322084 0 -0.011252912396363697 -0.00070649876353525473 0 -0.011433253707664471 -0.00088254360775765156 0 -0.011259479741401054 -0.00027807352165575927 0 -0.011709322841566391 -0.00078500451324340194 0 -0.011528858094423153 -0.00076743984194322084 0 -0.011528858094423153 -0.00076743984194322084 0 -0.011569415083242964 -0.00083549571114264944 0 -0.011433253707664471 -0.00088254360775765156 0 -0.011252912396363697 -0.00070649876353525473 0 -0.011271060695636555 -0.0010200611647671991 0 -0.011433253707664471 -0.00088254360775765156 0 -0.011252912396363697 -0.00070649876353525473 0 -0.011271060695636555 -0.0010200611647671991 0 -0.010903068043039529 -0.00073103324679646647 0 -0.011259479741401054 -0.00027807352165575927 0 -0.011252912396363697 -0.00070649876353525473 0 -0.010903068043039529 -0.00073103324679646647 0 -0.011259479741401054 -0.00027807352165575927 0 -0.011528858094423153 -0.00076743984194322084 0 -0.011252912396363697 -0.00070649876353525473 0 -0.011271060695636555 -0.0010200611647671991 0 -0.011365587208760658 -0.0013854807532764231 0 -0.01094635477420444 -0.0013301224466616762 0 -0.011271060695636555 -0.0010200611647671991 0 -0.011529138457539553 -0.0010026143980665567 0 -0.011365587208760658 -0.0013854807532764231 0 -0.011271060695636555 -0.0010200611647671991 0 -0.011433253707664471 -0.00088254360775765156 0 -0.011529138457539553 -0.0010026143980665567 0 -0.011569415083242964 -0.00083549571114264944 0 -0.011433253707664471 -0.00088254360775765156 0 -0.011529138457539553 -0.0010026143980665567 0 -0.011529138457539553 -0.0010026143980665567 0 -0.011365587208760658 -0.0013854807532764231 0 -0.011639969535047933 -0.0012728415056991514 0 -0.011697408251445357 -0.00081450420263313528 0 -0.011639969535047933 -0.0012728415056991514 0 -0.01228026092608305 -0.0014490961236950275 0 -0.0087984553914063311 0.0028779474660121647 0 -0.0058371936355636565 -0.0021462141972480699 0 -0.011697408251445357 -0.00081450420263313528 0 -0.011529138457539553 -0.0010026143980665567 0 -0.011639969535047933 -0.0012728415056991514 0 -0.011639969535047933 -0.0012728415056991514 0 -0.011730884201275719 -0.0016830085726302721 0 -0.01228026092608305 -0.0014490961236950275 0 -0.01288436000138936 -0.0015546875077905888 0 -0.0058371936355636565 -0.0021462141972480699 0 -0.011365587208760658 -0.0013854807532764231 0 -0.01094635477420444 -0.0013301224466616762 0 -0.011027508610816588 -0.0020573488195934761 0 -0.011365587208760658 -0.0013854807532764231 0 -0.011730884201275719 -0.0016830085726302721 0 -0.011027508610816588 -0.0020573488195934761 0 -0.01288436000138936 -0.0015546875077905888 0 -0.010564258452949029 -0.0021944308647672719 0 -0.011365587208760658 -0.0013854807532764231 0 -0.011639969535047933 -0.0012728415056991514 0 -0.011730884201275719 -0.0016830085726302721 0 0.0051301847425597883 0.00078270643569775303 0 0.0015156461476833944 0.001983218854323334 0 -0.0010445033788585387 -0.00027867132733573054 0 0.00093575893324195764 0.008069757173117368 0 -0.001287818504796845 0.006417667437069458 0 -0.0033242071351165677 0.0073327698813277012 0 0.0042129168366524484 0.002644130681193227 0 -0.0021364863944216671 0.003671112353053957 0 0.0062498655205049823 -0.0016337233670923211 0 -0.0058371936355636565 -0.0021462141972480699 0 0.0015156461476833944 0.001983218854323334 0 -0.0010445033788585387 -0.00027867132733573054 0 -0.0021169841410311032 0.0031888942174103639 0 -0.0073978430119386153 -0.0014320671109981657 0 -0.0010445033788585387 -0.00027867132733573054 0 -0.0021169841410311032 0.0031888942174103639 0 -0.011526119505342726 -0.0020227357512384672 0 -0.011980425692010051 -0.0018982611585326979 0 -0.011953463220446763 -0.0022969910869292663 0 -0.011980425692010051 -0.0018982611585326979 0 -0.012278629947176262 -0.0021754488622721391 0 -0.011953463220446763 -0.0022969910869292663 0 0.0026124406292828621 -0.0044417389715350241 0 0.0041616537515464323 -0.0046744908303219474 0 -0.0058371936355636565 -0.0021462141972480699 0 0.0026124406292828621 -0.0044417389715350241 0 0.0080338744930754293 -0.0043278919209660521 0 0.0079325598199650321 -0.004525447952287349 0 0.0079432054522810651 -0.0044556505425310386 0 0.0078674968852341307 -0.0041345588090134881 0 0.0080338744930754293 -0.0043278919209660521 0 0.0079432054522810651 -0.0044556505425310386 0 0.0076176149409801141 -0.0043363103437873115 0 0.0078674968852341307 -0.0041345588090134881 0 0.0079432054522810651 -0.0044556505425310386 0 0.0076176149409801141 -0.0043363103437873115 0 0.0079432054522810651 -0.0044556505425310386 0 0.0078034102158012538 -0.0046413484563045202 0 0.0080790770591665784 -0.0047834255654931714 0 0.0079432054522810651 -0.0044556505425310386 0 0.0078034102158012538 -0.0046413484563045202 0 0.0080790770591665784 -0.0047834255654931714 0 0.0078034102158012538 -0.0046413484563045202 0 0.0080061710465487053 -0.0049463272295873105 0 0.0026124406292828621 -0.0044417389715350241 0 0.0043336702383017746 -0.0037213332178544258 0 0.0078034102158012538 -0.0046413484563045202 0 0.0080061710465487053 -0.0049463272295873105 0 0.0077523894976265634 -0.0049118384500522003 0 0.0026124406292828621 -0.0044417389715350241 0 -0.002300326458546326 -0.0041769194795870145 0 -0.012278629947176262 -0.0021754488622721391 0 -0.011953463220446763 -0.0022969910869292663 0 -0.012348510617901234 -0.0027525127346327513 0 0.0080061710465487053 -0.0049463272295873105 0 0.0078275142972252937 -0.0054070312313557814 0 0.0084519472059499615 -0.0061149493760678745 0 0.0081761216260014206 -0.0047708684424618182 0 0.0080061710465487053 -0.0049463272295873105 0 0.0084519472059499615 -0.0061149493760678745 0 0.0080061710465487053 -0.0049463272295873105 0 0.0077523894976265634 -0.0049118384500522003 0 0.0078275142972252937 -0.0054070312313557814 0 0.0078275142972252937 -0.0054070312313557814 0 0.0084519472059499615 -0.0061149493760678745 0 0.0077052501399518473 -0.006081574028824744 0 -0.011953463220446763 -0.0022969910869292663 0 -0.012348510617901234 -0.0027525127346327513 0 -0.011705184149588956 -0.0026608727008320555 0 -0.012348510617901234 -0.0027525127346327513 0 -0.011705184149588956 -0.0026608727008320555 0 -0.011976880490075417 -0.0031649216439114999 0 -0.012348510617901234 -0.0027525127346327513 0 -0.012421991795070772 -0.0034492784559042949 0 -0.011976880490075417 -0.0031649216439114999 0 -0.002300326458546326 -0.0041769194795870145 0 -0.0015618024598881722 -0.0057757836048039054 0 0.0084519472059499615 -0.0061149493760678745 0 0.0085999178389267062 -0.0075694601877701329 0 0.0078573308327714465 -0.0070113367560847737 0 0.0084519472059499615 -0.0061149493760678745 0 0.0078573308327714465 -0.0070113367560847737 0 0.0077052501399518473 -0.006081574028824744 0 -0.011526119505342726 -0.0020227357512384672 0 -0.01133390600162947 -0.0024164887630551035 0 -0.011027508610816588 -0.0020573488195934761 0 -0.01133390600162947 -0.0024164887630551035 0 -0.010872374538300623 -0.0024458999665143938 0 -0.011027508610816588 -0.0020573488195934761 0 -0.011526119505342726 -0.0020227357512384672 0 -0.01133390600162947 -0.0024164887630551035 0 -0.011705184149588956 -0.0026608727008320555 0 -0.011526119505342726 -0.0020227357512384672 0 -0.011953463220446763 -0.0022969910869292663 0 -0.011705184149588956 -0.0026608727008320555 0 -0.011705184149588956 -0.0026608727008320555 0 -0.011511459483064437 -0.0030026391287230731 0 -0.011976880490075417 -0.0031649216439114999 0 -0.01133390600162947 -0.0024164887630551035 0 -0.011705184149588956 -0.0026608727008320555 0 -0.011511459483064437 -0.0030026391287230731 0 -0.01133390600162947 -0.0024164887630551035 0 -0.011511459483064437 -0.0030026391287230731 0 -0.011083194745490913 -0.0029550442139594118 0 -0.01133390600162947 -0.0024164887630551035 0 -0.011083194745490913 -0.0029550442139594118 0 -0.010872374538300623 -0.0024458999665143938 0 -0.011287452303542736 -0.0034254639093654004 0 -0.011198192180980343 -0.00399623801039228 0 -0.010818413575027514 -0.003445554179663874 0 -0.011083194745490913 -0.0029550442139594118 0 -0.011287452303542736 -0.0034254639093654004 0 -0.010818413575027514 -0.003445554179663874 0 -0.011511459483064437 -0.0030026391287230731 0 -0.011083194745490913 -0.0029550442139594118 0 -0.011287452303542736 -0.0034254639093654004 0 -0.011511459483064437 -0.0030026391287230731 0 -0.011692124786301269 -0.0034579232567361041 0 -0.011976880490075417 -0.0031649216439114999 0 -0.011287452303542736 -0.0034254639093654004 0 -0.011692124786301269 -0.0034579232567361041 0 -0.011475237909814071 -0.0037141643861215846 0 -0.011511459483064437 -0.0030026391287230731 0 -0.011287452303542736 -0.0034254639093654004 0 -0.011692124786301269 -0.0034579232567361041 0 -0.011692124786301269 -0.0034579232567361041 0 -0.011721928262803384 -0.0038196352175097694 0 -0.011475237909814071 -0.0037141643861215846 0 -0.011692124786301269 -0.0034579232567361041 0 -0.011721928262803384 -0.0038196352175097694 0 -0.012140491518187611 -0.0036613284672256689 0 -0.011721928262803384 -0.0038196352175097694 0 -0.011729866243319863 -0.0041664834965559807 0 -0.011947715543203563 -0.0040030655054774742 0 -0.011721928262803384 -0.0038196352175097694 0 -0.011729866243319863 -0.0041664834965559807 0 -0.01152851160398578 -0.0040008426203991272 0 -0.011923660632646672 -0.0043517521688641956 0 -0.011729866243319863 -0.0041664834965559807 0 -0.011947715543203563 -0.0040030655054774742 0 -0.011529355522502666 -0.0043105154475520683 0 -0.01152851160398578 -0.0040008426203991272 0 -0.011198192180980343 -0.00399623801039228 0 -0.011529355522502666 -0.0043105154475520683 0 -0.011729866243319863 -0.0041664834965559807 0 -0.01152851160398578 -0.0040008426203991272 0 -0.01152851160398578 -0.0040008426203991272 0 -0.011475237909814071 -0.0037141643861215846 0 -0.011198192180980343 -0.00399623801039228 0 -0.011721928262803384 -0.0038196352175097694 0 -0.01152851160398578 -0.0040008426203991272 0 -0.011475237909814071 -0.0037141643861215846 0 -0.011287452303542736 -0.0034254639093654004 0 -0.011475237909814071 -0.0037141643861215846 0 -0.011198192180980343 -0.00399623801039228 0 -0.011529355522502666 -0.0043105154475520683 0 -0.011324525600233171 -0.004433564716856883 0 -0.011198192180980343 -0.00399623801039228 0 -0.011198192180980343 -0.00399623801039228 0 -0.010848771287221235 -0.0042579433587599065 0 -0.010818154943386834 -0.0038861738567553673 0 -0.011198192180980343 -0.00399623801039228 0 -0.010818413575027514 -0.003445554179663874 0 -0.010818154943386834 -0.0038861738567553673 0 0.0085999178389267062 -0.0075694601877701329 0 0.0082550287608745346 -0.0079004071104811155 0 0.0078573308327714465 -0.0070113367560847737 0 -0.011692124786301269 -0.0034579232567361041 0 -0.011976880490075417 -0.0031649216439114999 0 -0.012140491518187611 -0.0036613284672256689 0 -0.012421991795070772 -0.0034492784559042949 0 -0.011976880490075417 -0.0031649216439114999 0 -0.012140491518187611 -0.0036613284672256689 0 -0.012421991795070772 -0.0034492784559042949 0 -0.012140491518187611 -0.0036613284672256689 0 -0.012366613734303611 -0.0040307525245685373 0 -0.012140491518187611 -0.0036613284672256689 0 -0.012148479758799664 -0.0039561808622341323 0 -0.012366613734303611 -0.0040307525245685373 0 -0.012140491518187611 -0.0036613284672256689 0 -0.012148479758799664 -0.0039561808622341323 0 -0.011947715543203563 -0.0040030655054774742 0 -0.011721928262803384 -0.0038196352175097694 0 -0.012140491518187611 -0.0036613284672256689 0 -0.011947715543203563 -0.0040030655054774742 0 -0.011923660632646672 -0.0043517521688641956 0 -0.011947715543203563 -0.0040030655054774742 0 -0.012125434288403875 -0.0041931985316158941 0 -0.012148479758799664 -0.0039561808622341323 0 -0.011947715543203563 -0.0040030655054774742 0 -0.012125434288403875 -0.0041931985316158941 0 -0.012148479758799664 -0.0039561808622341323 0 -0.012125434288403875 -0.0041931985316158941 0 -0.012366613734303611 -0.0040307525245685373 0 -0.012271721351312903 -0.0043137192754139769 0 -0.012125434288403875 -0.0041931985316158941 0 -0.012366613734303611 -0.0040307525245685373 0 -0.0071540844867894601 -0.0053293625409765065 0 -0.00877205570704917 -0.0054085537979375962 0 -0.0015618024598881722 -0.0057757836048039054 0 -0.0071540844867894601 -0.0053293625409765065 0 0.0085999178389267062 -0.0075694601877701329 0 0.0082550287608745346 -0.0079004071104811155 0 0.0083069015774215119 -0.0083563291149641641 0 -0.012271721351312903 -0.0043137192754139769 0 -0.012483812596441001 -0.0042473645972277724 0 -0.012366613734303611 -0.0040307525245685373 0 -0.012421991795070772 -0.0034492784559042949 0 -0.012456124833059284 -0.0042204005366257551 0 -0.012366613734303611 -0.0040307525245685373 0 0.0082550287608745346 -0.0079004071104811155 0 0.0083069015774215119 -0.0083563291149641641 0 0.0082444645016244555 -0.008363387038076972 0 0.008172427533644739 -0.0083381154353854518 0 0.0077616797819832738 -0.0080934827830233761 0 0.0082444645016244555 -0.008363387038076972 0 0.0084661548386879403 -0.0084101043207282285 0 0.0086784889780364294 -0.0085071018903400911 0 0.0087454722193938406 -0.0088483205952919614 0 0.0084661548386879403 -0.0084101043207282285 0 0.0086125150820531467 -0.0085526468798883312 0 0.0082444645016244555 -0.008363387038076972 0 0.0076784597424568802 -0.0076258563915924029 0 0.0068013778823484425 -0.0077142191568768462 0 0.0081253349423689517 -0.0082442988728201744 0 0.0082444645016244555 -0.008363387038076972 0 0.0084661548386879403 -0.0084101043207282285 0 0.0082550287608745346 -0.0079004071104811155 0 0.0082444645016244555 -0.008363387038076972 0 0.0076784597424568802 -0.0076258563915924029 0 0.0082550287608745346 -0.0079004071104811155 0 0.0076784597424568802 -0.0076258563915924029 0 0.0078573308327714465 -0.0070113367560847737 0 0.0076784597424568802 -0.0076258563915924029 0 0.0071594987976699876 -0.0071217998601066099 0 0.0068013778823484425 -0.0077142191568768462 0 0.0076784597424568802 -0.0076258563915924029 0 0.0071594987976699876 -0.0071217998601066099 0 0.0078573308327714465 -0.0070113367560847737 0 0.0086784889780364294 -0.0085071018903400911 0 0.0084996229780857704 -0.0084650860351141357 0 0.008446166532209632 -0.0082149977355042217 0 0.0068013778823484425 -0.0077142191568768462 0 0.0057293768318064263 -0.0069441782811344062 0 0.0065336593732145658 -0.0068282411191275278 0 0.0077616797819832738 -0.0080934827830233761 0 0.0069491337964571933 -0.0075947177438422343 0 0.0071594987976699876 -0.0071217998601066099 0 0.0068013778823484425 -0.0077142191568768462 0 0.0065336593732145658 -0.0068282411191275278 0 0.0086784889780364294 -0.0085071018903400911 0 0.0086125150820531467 -0.0085526468798883312 0 0.0084996229780857704 -0.0084650860351141357 0 0.0086125150820531467 -0.0085526468798883312 0 0.0084823642289283668 -0.0086749830166272229 0 0.0084996229780857704 -0.0084650860351141357 0 0.0084661548386879403 -0.0084101043207282285 0 0.0086784889780364294 -0.0085071018903400911 0 0.0086125150820531467 -0.0085526468798883312 0 0.0082132964067258337 -0.0087460688783922106 0 0.0084823642289283668 -0.0086749830166272229 0 0.0083372295764794144 -0.0085960029729428081 0 0.0083372295764794144 -0.0085960029729428081 0 0.0084996229780857704 -0.0084650860351141357 0 0.0083048159360031362 -0.0084454040920681275 0 0.0084823642289283668 -0.0086749830166272229 0 0.0083372295764794144 -0.0085960029729428081 0 0.0084996229780857704 -0.0084650860351141357 0 0.0082132964067258337 -0.0087460688783922106 0 0.0078889655999715078 -0.0085578216516754655 0 0.0081312292864621841 -0.0085678689306728072 0 0.0084816541148287298 -0.0089787920532326797 0 0.0086919464533129279 -0.008720906255291698 0 0.0082132964067258337 -0.0087460688783922106 0 0.0083372295764794144 -0.0085960029729428081 0 0.0081312292864621841 -0.0085678689306728072 0 0.0083372295764794144 -0.0085960029729428081 0 0.0081312292864621841 -0.0085678689306728072 0 0.0083048159360031362 -0.0084454040920681275 0 0.0080118652565827255 -0.0084488286208939736 0 0.0081312292864621841 -0.0085678689306728072 0 0.0080667041741805841 -0.0083302037896541264 0 0.0081312292864621841 -0.0085678689306728072 0 0.0080667041741805841 -0.0083302037896541264 0 0.0082030331737539576 -0.0082981638905789482 0 0.0082030331737539576 -0.0082981638905789482 0 0.0083048159360031362 -0.0084454040920681275 0 0.0083366636782417295 -0.0083061045564703437 0 0.0081312292864621841 -0.0085678689306728072 0 0.0082030331737539576 -0.0082981638905789482 0 0.0083048159360031362 -0.0084454040920681275 0 0.0082030331737539576 -0.0082981638905789482 0 0.0081598991565735822 -0.0081731517987113575 0 0.0082481936161513496 -0.0081459021137818156 0 0.0082030331737539576 -0.0082981638905789482 0 0.0083366636782417295 -0.0083061045564703437 0 0.0082481936161513496 -0.0081459021137818156 0 0.0080667041741805841 -0.0083302037896541264 0 0.0082030331737539576 -0.0082981638905789482 0 0.0080830307122409534 -0.0081991309217294105 0 0.0082030331737539576 -0.0082981638905789482 0 0.0081598991565735822 -0.0081731517987113575 0 0.0080830307122409534 -0.0081991309217294105 0 0.0081598991565735822 -0.0081731517987113575 0 0.0080830307122409534 -0.0081991309217294105 0 0.0080897956417873076 -0.0081084206971534199 0 0.008002881265086954 -0.008145060104527849 0 0.0080830307122409534 -0.0081991309217294105 0 0.0080897956417873076 -0.0081084206971534199 0 0.0084996229780857704 -0.0084650860351141357 0 0.0083048159360031362 -0.0084454040920681275 0 0.0083366636782417295 -0.0083061045564703437 0 0.0083366636782417295 -0.0083061045564703437 0 0.008446166532209632 -0.0082149977355042217 0 0.0082481936161513496 -0.0081459021137818156 0 0.0084996229780857704 -0.0084650860351141357 0 0.0083366636782417295 -0.0083061045564703437 0 0.008446166532209632 -0.0082149977355042217 0 0.0069491337964571933 -0.0075947177438422343 0 0.0076171977122860765 -0.0062981878223880338 0 0.0057293768318064263 -0.0069441782811344062 0 0.0060706402717512235 -0.0065441853640853809 0 0.0055592458508539611 -0.0060677162162868789 0 0.0057293768318064263 -0.0069441782811344062 0 0.0055592458508539611 -0.0060677162162868789 0 0.0047366527667679114 -0.0062591789987767529 0 0.0060706402717512235 -0.0065441853640853809 0 0.0055592458508539611 -0.0060677162162868789 0 0.0063455148378844346 -0.0061435770700280171 0 0.008446166532209632 -0.0082149977355042217 0 0.0082481936161513496 -0.0081459021137818156 0 0.0081485699988188397 -0.0079658604086516628 0 0.0080887574695330342 -0.0080551807598125812 0 0.0080897956417873076 -0.0081084206971534199 0 0.0081151915257369929 -0.0080638217949159235 0 0.008053862640685203 -0.0080611875692616353 0 0.0080887574695330342 -0.0080551807598125812 0 0.0080897956417873076 -0.0081084206971534199 0 0.008053862640685203 -0.0080611875692616353 0 0.0080887574695330342 -0.0080551807598125812 0 0.0080947904726897304 -0.0080320840212965983 0 0.0080887574695330342 -0.0080551807598125812 0 0.0081151915257369929 -0.0080638217949159235 0 0.0081116265394934276 -0.008039481275848975 0 0.0081598991565735822 -0.0081731517987113575 0 0.0080897956417873076 -0.0081084206971534199 0 0.0081578081545709575 -0.0080898489784604812 0 0.0080897956417873076 -0.0081084206971534199 0 0.0081578081545709575 -0.0080898489784604812 0 0.0081151915257369929 -0.0080638217949159235 0 0.0080230102066725199 -0.0075199507290554784 0 0.0080182394068299932 -0.0070531403639569508 0 0.0081578081545709575 -0.0080898489784604812 0 0.0081332647338477511 -0.0080481427395272913 0 0.008156345458558702 -0.0080375175742101145 0 0.0081578081545709575 -0.0080898489784604812 0 0.0081151915257369929 -0.0080638217949159235 0 0.0081332647338477511 -0.0080481427395272913 0 0.0081151915257369929 -0.0080638217949159235 0 0.0081332647338477511 -0.0080481427395272913 0 0.0081116265394934276 -0.008039481275848975 0 0.0082481936161513496 -0.0081459021137818156 0 0.0081451765626707508 -0.0080018553140261562 0 0.0081485699988188397 -0.0079658604086516628 0 0.0084237030389489771 -0.0079702007665112765 0 0.0080182394068299932 -0.0070531403639569508 0 0.0081578081545709575 -0.0080898489784604812 0 0.0082481936161513496 -0.0081459021137818156 0 0.0081621452134872721 -0.0080212331472837104 0 0.0081598991565735822 -0.0081731517987113575 0 0.0081578081545709575 -0.0080898489784604812 0 0.0082481936161513496 -0.0081459021137818156 0 0.0055592458508539611 -0.0060677162162868789 0 0.0047366527667679114 -0.0062591789987767529 0 0.004762472158237034 -0.005775350529785203 0 0.0076171977122860765 -0.0062981878223880338 0 0.0072830019409299033 -0.0034625173233184879 0 0.0076736022784801503 -0.0059795858599568938 0 0.0069966042584692287 -0.0055528995261665852 0 0.0077565452076657458 -0.0043495149997037127 0 0.0081332647338477511 -0.0080481427395272913 0 0.008156345458558702 -0.0080375175742101145 0 0.0081122826589273313 -0.0080153846804812603 0 0.0080182394068299932 -0.0070531403639569508 0 0.008530027149347575 -0.005991554431792015 0 0.0080984579011511293 -0.0061070164261089049 0 0.0080950271328742752 -0.0061842893492521402 0 0.0082470288522731635 -0.0062758135361397367 0 0.008156345458558702 -0.0080375175742101145 0 0.0081193156436637735 -0.007996689075952048 0 0.0081122826589273313 -0.0080153846804812603 0 0.0080182394068299932 -0.0070531403639569508 0 0.0076171977122860765 -0.0062981878223880338 0 0.0081332647338477511 -0.0080481427395272913 0 0.0081122826589273313 -0.0080153846804812603 0 0.0081116265394934276 -0.008039481275848975 0 0.0076171977122860765 -0.0062981878223880338 0 0.008530027149347575 -0.005991554431792015 0 0.008530027149347575 -0.005991554431792015 0 0.0072830019409299033 -0.0034625173233184879 0 0.0081193156436637735 -0.007996689075952048 0 0.0081122826589273313 -0.0080153846804812603 0 0.0080947904726897304 -0.0080320840212965983 0 0.008530027149347575 -0.005991554431792015 0 0.0083390135354396589 -0.0069577611157182412 0 0.0080887574695330342 -0.0080551807598125812 0 0.0081116265394934276 -0.008039481275848975 0 0.0080947904726897304 -0.0080320840212965983 0 0.0081122826589273313 -0.0080153846804812603 0 0.0081116265394934276 -0.008039481275848975 0 0.0080947904726897304 -0.0080320840212965983 0 0.0086914685998587451 -0.001430620020878699 0 0.0098192318315525762 -0.0028155593805956414 0 0.010191728971522603 -0.0022225794005404009 0 0.0086914685998587451 -0.001430620020878699 0 0.01029709185638843 -0.0001954919855912384 0 0.010191728971522603 -0.0022225794005404009 0 0.0092029266842679862 0.0024562933243344092 0 0.0072830019409299033 -0.0034625173233184879 0 0.0064698921659077343 -0.0023370747562874109 0 0.0072830019409299033 -0.0034625173233184879 0 0.0056969051893483013 -0.0047522627232676612 0 0.0055592458508539611 -0.0060677162162868789 0 0.0062376726590820152 -0.0055214696964597651 0 0.0070047167477210884 0.0014860592388482342 0 0.0077145226072018337 0.001190295080707765 0 0.0063284845429858877 -0.00042832113271904404 0 0.0056969051893483013 -0.0047522627232676612 0 0.0055592458508539611 -0.0060677162162868789 0 0.004762472158237034 -0.005775350529785203 0 0.0055592458508539611 -0.0060677162162868789 0 0.0062376726590820152 -0.0055214696964597651 0 0.0063455148378844346 -0.0061435770700280171 0 0.0056969051893483013 -0.0047522627232676612 0 0.0065075462232067746 -0.0049364303929149266 0 0.0062376726590820152 -0.0055214696964597651 0 0.0062376726590820152 -0.0055214696964597651 0 0.0068122346098327081 -0.0058653393581500797 0 0.0063455148378844346 -0.0061435770700280171 0 0.0062376726590820152 -0.0055214696964597651 0 0.0068122346098327081 -0.0058653393581500797 0 0.0069267752489338488 -0.0053097424253588134 0 0.0065075462232067746 -0.0049364303929149266 0 0.0062376726590820152 -0.0055214696964597651 0 0.0069267752489338488 -0.0053097424253588134 0 0.0069267752489338488 -0.0053097424253588134 0 0.007275420006802205 -0.0050321279262470634 0 0.0074507230801602424 -0.0053966458929112738 0 0.0070070221035664522 -0.0047386005148823997 0 0.0069267752489338488 -0.0053097424253588134 0 0.007275420006802205 -0.0050321279262470634 0 0.0077523894976265634 -0.0049118384500522003 0 0.0078275142972252937 -0.0054070312313557814 0 0.0075764480737224738 -0.0050577614735475536 0 0.007275420006802205 -0.0050321279262470634 0 0.0075764480737224738 -0.0050577614735475536 0 0.0074507230801602424 -0.0053966458929112738 0 0.0078275142972252937 -0.0054070312313557814 0 0.0075764480737224738 -0.0050577614735475536 0 0.0074507230801602424 -0.0053966458929112738 0 0.0074507230801602424 -0.0053966458929112738 0 0.0072340315845076473 -0.0058135993853932096 0 0.0077052501399518473 -0.006081574028824744 0 0.0078275142972252937 -0.0054070312313557814 0 0.0074507230801602424 -0.0053966458929112738 0 0.0077052501399518473 -0.006081574028824744 0 0.0069267752489338488 -0.0053097424253588134 0 0.0074507230801602424 -0.0053966458929112738 0 0.0072340315845076473 -0.0058135993853932096 0 0.0068122346098327081 -0.0058653393581500797 0 0.0069267752489338488 -0.0053097424253588134 0 0.0072340315845076473 -0.0058135993853932096 0 0.0072340315845076473 -0.0058135993853932096 0 0.0070968125470986321 -0.0064062271620539384 0 0.0077052501399518473 -0.006081574028824744 0 0.0068122346098327081 -0.0058653393581500797 0 0.0072340315845076473 -0.0058135993853932096 0 0.0070968125470986321 -0.0064062271620539384 0 0.0078573308327714465 -0.0070113367560847737 0 0.0070968125470986321 -0.0064062271620539384 0 0.0077052501399518473 -0.006081574028824744 0 0.0071594987976699876 -0.0071217998601066099 0 0.0078573308327714465 -0.0070113367560847737 0 0.0070968125470986321 -0.0064062271620539384 0 0.0070968125470986321 -0.0064062271620539384 0 0.0065336593732145658 -0.0068282411191275278 0 0.0063455148378844346 -0.0061435770700280171 0 0.0071594987976699876 -0.0071217998601066099 0 0.0070968125470986321 -0.0064062271620539384 0 0.0065336593732145658 -0.0068282411191275278 0 0.0060706402717512235 -0.0065441853640853809 0 0.0065336593732145658 -0.0068282411191275278 0 0.0063455148378844346 -0.0061435770700280171 0 0.0057293768318064263 -0.0069441782811344062 0 0.0060706402717512235 -0.0065441853640853809 0 0.0065336593732145658 -0.0068282411191275278 0 0.0068122346098327081 -0.0058653393581500797 0 0.0070968125470986321 -0.0064062271620539384 0 0.0063455148378844346 -0.0061435770700280171 0 0.035983795871910224 0.0070194123403851541 0 0.037174788609733007 0.0084009044481628166 0 0.036991226388360818 0.0051701738070823143 0 0.035983795871910224 0.0070194123403851541 0 0.03499970881319614 0.0083689431761444118 0 0.034999797388555798 0.0063584011573486806 0 0.035983795871910224 0.0070194123403851541 0 0.03499970881319614 0.0083689431761444118 0 0.036016549075525393 0.0094222716407653118 0 0.035983795871910224 0.0070194123403851541 0 0.037174788609733007 0.0084009044481628166 0 0.036016549075525393 0.0094222716407653118 0 0.037597417332213369 0.0034152800371269219 0 0.036372631393543728 0.0035386114988441072 0 0.036991226388360818 0.0051701738070823143 0 0.036372631393543728 0.0035386114988441072 0 0.036991226388360818 0.0051701738070823143 0 0.036116422468170852 0.0043250998624847362 0 0.037617032283918744 0.0053983721296038296 0 0.036969362626005177 0.0054769722405918876 0 0.036991226388360818 0.0051701738070823143 0 0.036749722816850065 0.0045729939417359349 0 0.036146681772689919 0.0050758611661617476 0 0.036991226388360818 0.0051701738070823143 0 0.036749722816850065 0.0045729939417359349 0 0.036116422468170852 0.0043250998624847362 0 0.036278711108020986 0.004196163394905781 0 0.036749722816850065 0.0045729939417359349 0 0.036116422468170852 0.0043250998624847362 0 0.036278711108020986 0.004196163394905781 0 0.036749722816850065 0.0045729939417359349 0 0.036915693246705003 0.003739622975300734 0 0.036749722816850065 0.0045729939417359349 0 0.036146681772689919 0.0050758611661617476 0 0.036473217464117497 0.0038986171814122169 0 0.036146681772689919 0.0050758611661617476 0 0.035000013284029935 0.0043486688951436918 0 0.036473217464117497 0.0038986171814122169 0 0.035983795871910224 0.0070194123403851541 0 0.036991226388360818 0.0051701738070823143 0 0.036146681772689919 0.0050758611661617476 0 0.035983795871910224 0.0070194123403851541 0 0.036146681772689919 0.0050758611661617476 0 0.034999797388555798 0.0063584011573486806 0 0.036146681772689919 0.0050758611661617476 0 0.034999797388555798 0.0063584011573486806 0 0.035000013284029935 0.0043486688951436918 0 0.035000013284029935 0.0043486688951436918 0 0.036473217464117497 0.0038986171814122169 0 0.036011712640398728 0.0028377809419771814 0 0.036011712640398728 0.0028377809419771814 0 0.036609907060666753 0.0020521276910262869 0 0.036815154073544548 0.0029057687071585825 0 0.036473217464117497 0.0038986171814122169 0 0.036011712640398728 0.0028377809419771814 0 0.036815154073544548 0.0029057687071585825 0 0.035000013284029935 0.0043486688951436918 0 0.036011712640398728 0.0028377809419771814 0 0.034999711265630451 0.0023389083474810702 0 0.034999711265630451 0.0023389083474810702 0 0.035967551440717262 0.0012444863668123432 0 0.03499981556223055 0.00032851220766545123 0 0.036011712640398728 0.0028377809419771814 0 0.034999711265630451 0.0023389083474810702 0 0.035967551440717262 0.0012444863668123432 0 0.036609907060666753 0.0020521276910262869 0 0.035967551440717262 0.0012444863668123432 0 0.036952697761608096 0.0011994788750820285 0 0.036011712640398728 0.0028377809419771814 0 0.036609907060666753 0.0020521276910262869 0 0.035967551440717262 0.0012444863668123432 0 0.035967551440717262 0.0012444863668123432 0 0.036657954029308409 0.00035135213538871704 0 0.036952697761608096 0.0011994788750820285 0 0.035906332251006368 -0.00036371122541253381 0 0.035967551440717262 0.0012444863668123432 0 0.036657954029308409 0.00035135213538871704 0 0.035906332251006368 -0.00036371122541253381 0 0.035967551440717262 0.0012444863668123432 0 0.03499981556223055 0.00032851220766545123 0 0.035238637098272532 0.0026848216103504364 0 0.0353041519939057 0.0028431329621832879 0 0.035218812080001438 0.0030302577064061633 0 0.036348564039693693 0.0023474104997791125 0 0.036822420864397125 0.0024622530541683822 0 0.037166153671109078 0.0025855765539959967 0 0.035794518078628934 0.0025705878698532424 0 0.03617730327070455 0.0028442580577842983 0 0.037032337388677596 0.00065590665073823125 0 0.037331026633137636 0.0018114204376737011 0 0.0353041519939057 0.0028431329621832879 0 0.035218812080001438 0.0030302577064061633 0 0.035333909805532589 0.002957274866929063 0 0.035238637098272532 0.0026848216103504364 0 0.035338890917660015 0.0027345143644014673 0 0.0353041519939057 0.0028431329621832879 0 0.038067744340469979 -0.0005882881478486596 0 0.037934858119165082 0.0011593410452627321 0 0.037364727700149536 0.00032148675327067837 0 0.036657954029308409 0.00035135213538871704 0 0.037364727700149536 0.00032148675327067837 0 0.036952697761608096 0.0011994788750820285 0 0.037934858119165082 0.0011593410452627321 0 0.037364727700149536 0.00032148675327067837 0 0.036952697761608096 0.0011994788750820285 0 0.037934858119165082 0.0011593410452627321 0 0.036952697761608096 0.0011994788750820285 0 0.037126710859060004 0.0020737178271870572 0 0.036609907060666753 0.0020521276910262869 0 0.036952697761608096 0.0011994788750820285 0 0.037126710859060004 0.0020737178271870572 0 0.036609907060666753 0.0020521276910262869 0 0.037126710859060004 0.0020737178271870572 0 0.036815154073544548 0.0029057687071585825 0 0.037331026633137636 0.0018114204376737011 0 0.037331436964662068 0.0027561667918005522 0 0.037934858119165082 0.0011593410452627321 0 0.037126710859060004 0.0020737178271870572 0 0.037300237424289388 0.0029235998952803705 0 0.036822420864397125 0.0024622530541683822 0 0.037166153671109078 0.0025855765539959967 0 0.037300237424289388 0.0029235998952803705 0 0.035218812080001438 0.0030302577064061633 0 0.035353453217720356 0.0030846087965235099 0 0.035333909805532589 0.002957274866929063 0 0.035218812080001438 0.0030302577064061633 0 0.035418023473728702 0.0032438748785085137 0 0.035353453217720356 0.0030846087965235099 0 0.037300237424289388 0.0029235998952803705 0 0.037349862313686769 0.0033642859163760066 0 0.036915693246705003 0.003739622975300734 0 0.037166153671109078 0.0025855765539959967 0 0.037300237424289388 0.0029235998952803705 0 0.037349862313686769 0.0033642859163760066 0 0.035218812080001438 0.0030302577064061633 0 0.035437188514037404 0.0035036754669174356 0 0.035418023473728702 0.0032438748785085137 0 0.03617730327070455 0.0028442580577842983 0 0.036353148104293548 0.0033966824288300911 0 0.037300237424289388 0.0029235998952803705 0 0.036815154073544548 0.0029057687071585825 0 0.036915693246705003 0.003739622975300734 0 0.037126710859060004 0.0020737178271870572 0 0.037300237424289388 0.0029235998952803705 0 0.036815154073544548 0.0029057687071585825 0 0.036749722816850065 0.0045729939417359349 0 0.036473217464117497 0.0038986171814122169 0 0.036915693246705003 0.003739622975300734 0 0.036473217464117497 0.0038986171814122169 0 0.036815154073544548 0.0029057687071585825 0 0.036915693246705003 0.003739622975300734 0 0.036278711108020986 0.004196163394905781 0 0.037349862313686769 0.0033642859163760066 0 0.036915693246705003 0.003739622975300734 0 0.03630684586054328 0.0040276215723343148 0 0.036353148104293548 0.0033966824288300911 0 0.036278711108020986 0.004196163394905781 0 0.035437188514037404 0.0035036754669174356 0 0.035611052271906599 0.0034832777584265519 0 0.036278711108020986 0.004196163394905781 0 0.035687411765928122 0.0036930990259002009 0 0.035611052271906599 0.0034832777584265519 0 0.035687411765928122 0.0036930990259002009 0 0.035530323551409754 0.0032232294994510085 0 0.035611052271906599 0.0034832777584265519 0 0.035687411765928122 0.0036930990259002009 0 0.035530323551409754 0.0032232294994510085 0 0.035527120839101471 0.0035016558500407598 0 0.035530323551409754 0.0032232294994510085 0 0.035611052271906599 0.0034832777584265519 0 0.035516508246331013 0.0031674838406437669 0 0.035437188514037404 0.0035036754669174356 0 0.035611052271906599 0.0034832777584265519 0 0.035418023473728702 0.0032438748785085137 0 0.035611052271906599 0.0034832777584265519 0 0.035418023473728702 0.0032438748785085137 0 0.035516508246331013 0.0031674838406437669 0 0.035418023473728702 0.0032438748785085137 0 0.035353453217720356 0.0030846087965235099 0 0.035405782426963836 0.0030049233497148461 0 0.035353453217720356 0.0030846087965235099 0 0.035405782426963836 0.0030049233497148461 0 0.035333909805532589 0.002957274866929063 0 0.035405782426963836 0.0030049233497148461 0 0.035516508246331013 0.0031674838406437669 0 0.035460763040791848 0.0029645005818970047 0 0.035418023473728702 0.0032438748785085137 0 0.035405782426963836 0.0030049233497148461 0 0.035516508246331013 0.0031674838406437669 0 0.035530323551409754 0.0032232294994510085 0 0.035516508246331013 0.0031674838406437669 0 0.035481159408195927 0.0030247443327402496 0 0.035516508246331013 0.0031674838406437669 0 0.035460763040791848 0.0029645005818970047 0 0.035481159408195927 0.0030247443327402496 0 0.035460763040791848 0.0029645005818970047 0 0.035436249972856625 0.0028159111040930869 0 0.035422218460621838 0.0028106711888152935 0 0.035460763040791848 0.0029645005818970047 0 0.035436249972856625 0.0028159111040930869 0 0.035481159408195927 0.0030247443327402496 0 0.035421579601395747 0.0027233208415535703 0 0.035436249972856625 0.0028159111040930869 0 0.035422218460621838 0.0028106711888152935 0 0.035386553289601365 0.0026986191789479651 0 0.035422218460621838 0.0028106711888152935 0 0.035366088430567037 0.0028364721959751927 0 0.035338890917660015 0.0027345143644014673 0 0.0353041519939057 0.0028431329621832879 0 0.035366088430567037 0.0028364721959751927 0 0.035386553289601365 0.0026986191789479651 0 0.035338890917660015 0.0027345143644014673 0 0.035366088430567037 0.0028364721959751927 0 0.0353041519939057 0.0028431329621832879 0 0.035333909805532589 0.002957274866929063 0 0.035366088430567037 0.0028364721959751927 0 0.035405782426963836 0.0030049233497148461 0 0.035333909805532589 0.002957274866929063 0 0.035366088430567037 0.0028364721959751927 0 0.035405782426963836 0.0030049233497148461 0 0.035422218460621838 0.0028106711888152935 0 0.035366088430567037 0.0028364721959751927 0 0.035405782426963836 0.0030049233497148461 0 0.035460763040791848 0.0029645005818970047 0 0.035422218460621838 0.0028106711888152935 0 0.034539868598741683 0.0011737536839768266 0 0.035217257642812118 0.0013876305425509598 0 0.034992894622069615 0.00076096867759790888 0 0.034782488868150149 0.00049424071454057738 0 0.034539868598741683 0.0011737536839768266 0 0.034992894622069615 0.00076096867759790888 0 0.035494385486374375 0.0029669316065265455 0 0.035404051975902476 0.0027422599081000074 0 0.035481159408195927 0.0030247443327402496 0 0.035436249972856625 0.0028159111040930869 0 0.035404051975902476 0.0027422599081000074 0 0.035481159408195927 0.0030247443327402496 0 0.03531643265059882 0.0024648978382734704 0 0.035494385486374375 0.0029669316065265455 0 0.035404051975902476 0.0027422599081000074 0 0.035408139123089252 0.0026431408164777261 0 0.035436249972856625 0.0028159111040930869 0 0.035404051975902476 0.0027422599081000074 0 0.035494385486374375 0.0029669316065265455 0 0.035481159408195927 0.0030247443327402496 0 0.035264810602318862 0.0029573071395249972 0 0.034539868598741683 0.0011737536839768266 0 0.03516089846262558 0.0020379366149892528 0 0.035217257642812118 0.0013876305425509598 0 0.035041451411152821 0.002061346795814629 0 0.035216455831880017 0.0028445222157136639 0 0.034539868598741683 0.0011737536839768266 0 0.03516089846262558 0.0020379366149892528 0 0.035264810602318862 0.0029573071395249972 0 0.035264810602318862 0.0029573071395249972 0 0.03560982945677816 0.00344687604317697 0 0.035576713031504198 0.0025328675169954537 0 0.03516089846262558 0.0020379366149892528 0 0.035264810602318862 0.0029573071395249972 0 0.035576713031504198 0.0025328675169954537 0 0.035530323551409754 0.0032232294994510085 0 0.035481159408195927 0.0030247443327402496 0 0.035264810602318862 0.0029573071395249972 0 0.035530323551409754 0.0032232294994510085 0 0.035264810602318862 0.0029573071395249972 0 0.035527120839101471 0.0035016558500407598 0 0.035264810602318862 0.0029573071395249972 0 0.035527120839101471 0.0035016558500407598 0 0.03560982945677816 0.00344687604317697 0 0.033467854625596365 0.0052736252505313549 0 0.033891883041092648 0.0049346560677889454 0 0.031300465112584344 0.0070844490303756174 0 0.031112876558169144 0.0062599927241460884 0 0.032163480680012513 0.0060243089966079471 0 0.031112876558169144 0.0062599927241460884 0 0.032163480680012513 0.0060243089966079471 0 0.03069168848293579 0.0053420516462175322 0 0.033891883041092648 0.0049346560677889454 0 0.034339833433650935 0.0043500744154131386 0 0.035635537384649738 0.0038749514216292759 0 0.035735537378833081 0.0039751947443647656 0 0.035502643150007639 0.0039478544881443919 0 0.035527120839101471 0.0035016558500407598 0 0.035635537384649738 0.0038749514216292759 0 0.035735537378833081 0.0039751947443647656 0 0.035527120839101471 0.0035016558500407598 0 0.03560982945677816 0.00344687604317697 0 0.035635537384649738 0.0038749514216292759 0 0.035687411765928122 0.0036930990259002009 0 0.035527120839101471 0.0035016558500407598 0 0.035735537378833081 0.0039751947443647656 0 0.036278711108020986 0.004196163394905781 0 0.035687411765928122 0.0036930990259002009 0 0.035735537378833081 0.0039751947443647656 0 0.036278711108020986 0.004196163394905781 0 0.035735537378833081 0.0039751947443647656 0 0.036116422468170852 0.0043250998624847362 0 0.035735537378833081 0.0039751947443647656 0 0.035502643150007639 0.0039478544881443919 0 0.036116422468170852 0.0043250998624847362 0 0.035502643150007639 0.0039478544881443919 0 0.036116422468170852 0.0043250998624847362 0 0.035435987286114898 0.0033523432061307854 0 0.036372631393543728 0.0035386114988441072 0 0.036116422468170852 0.0043250998624847362 0 0.035435987286114898 0.0033523432061307854 0 0.033162258744186227 0.0048095633025815755 0 0.032845896889956032 0.0036270565915304627 0 0.034304304016949852 0.0034741878180270858 0 0.034339833433650935 0.0043500744154131386 0 0.034898145102995472 0.0033493621291362293 0 0.033162258744186227 0.0048095633025815755 0 0.032845896889956032 0.0036270565915304627 0 0.031784477657270105 0.0045926033296893425 0 0.031784477657270105 0.0045926033296893425 0 0.030469354609440006 0.0038535402094306407 0 0.031675636959241867 0.0029673565731127521 0 0.032845896889956032 0.0036270565915304627 0 0.031784477657270105 0.0045926033296893425 0 0.031675636959241867 0.0029673565731127521 0 0.032163480680012513 0.0060243089966079471 0 0.031784477657270105 0.0045926033296893425 0 0.03069168848293579 0.0053420516462175322 0 0.032163480680012513 0.0060243089966079471 0 0.033162258744186227 0.0048095633025815755 0 0.031784477657270105 0.0045926033296893425 0 0.029231185337424023 0.0044736967661336297 0 0.029298241570602269 0.0058530916852679946 0 0.03069168848293579 0.0053420516462175322 0 0.028656170480509256 0.0034353553608845845 0 0.028474276732518757 0.0057588276545441934 0 0.031784477657270105 0.0045926033296893425 0 0.030469354609440006 0.0038535402094306407 0 0.03069168848293579 0.0053420516462175322 0 0.029231185337424023 0.0044736967661336297 0 0.030469354609440006 0.0038535402094306407 0 0.03069168848293579 0.0053420516462175322 0 0.029231185337424023 0.0044736967661336297 0 0.030469354609440006 0.0038535402094306407 0 0.029085029336967771 0.0028628125512280144 0 0.028656170480509256 0.0034353553608845845 0 0.028740090427060414 0.0023766696331129749 0 0.028045606155244106 0.0028789304266132005 0 0.027190972738986772 0.0022260032759734197 0 0.027390887994036352 0.0031525844683898459 0 0.028045606155244106 0.0028789304266132005 0 0.027190972738986772 0.0022260032759734197 0 0.028367509477855466 0.0019185827025017918 0 0.027190972738986772 0.0022260032759734197 0 0.027390887994036352 0.0031525844683898459 0 0.026579776604863787 0.0030772400921417939 0 0.027390887994036352 0.0031525844683898459 0 0.02725816438334577 0.0037260975152625313 0 0.026579776604863787 0.0030772400921417939 0 0.028045606155244106 0.0028789304266132005 0 0.027390887994036352 0.0031525844683898459 0 0.027799136507650726 0.0036578429261659596 0 0.027390887994036352 0.0031525844683898459 0 0.02725816438334577 0.0037260975152625313 0 0.027799136507650726 0.0036578429261659596 0 0.020669686845940605 -0.0091087505467199303 0 0.017234665783037437 -0.0084108217805023179 0 0.018402772046429032 -0.011437866047604049 0 0.023381303745054035 -0.0031836249145750597 0 0.022600507054597464 -0.0040589147918755931 0 0.020669686845940605 -0.0091087505467199303 0 0.020077356056015808 -0.0071716629579266335 0 0.017234665783037437 -0.0084108217805023179 0 0.020669686845940605 -0.0091087505467199303 0 0.020077356056015808 -0.0071716629579266335 0 0.023158884206692123 -0.0063594421913698183 0 0.02725816438334577 0.0037260975152625313 0 0.027799136507650726 0.0036578429261659596 0 0.027712834467342191 0.0042431730155521969 0 0.028474276732518757 0.0057588276545441934 0 0.028776709245742611 0.00084930556928564582 0 0.023381303745054035 -0.0031836249145750597 0 0.028776709245742611 0.00084930556928564582 0 0.029298241570602269 0.0058530916852679946 0 0.030271222101072522 0.0065822855376050145 0 0.029308204699610187 0.0070574497662870272 0 0.029298241570602269 0.0058530916852679946 0 0.03069168848293579 0.0053420516462175322 0 0.030271222101072522 0.0065822855376050145 0 0.031112876558169144 0.0062599927241460884 0 0.03069168848293579 0.0053420516462175322 0 0.030271222101072522 0.0065822855376050145 0 0.031300465112584344 0.0070844490303756174 0 0.031112876558169144 0.0062599927241460884 0 0.030271222101072522 0.0065822855376050145 0 0.031300465112584344 0.0070844490303756174 0 0.030271222101072522 0.0065822855376050145 0 0.030513512233449364 0.0073296993868285495 0 0.031300465112584344 0.0070844490303756174 0 0.030513512233449364 0.0073296993868285495 0 0.030602640167357267 0.0080423738584459049 0 0.033467854625596365 0.0052736252505313549 0 0.032892313713267521 0.0052208656898847057 0 0.030271222101072522 0.0065822855376050145 0 0.030513512233449364 0.0073296993868285495 0 0.029993062930162875 0.0072451462004166356 0 0.030513512233449364 0.0073296993868285495 0 0.029993062930162875 0.0072451462004166356 0 0.030329448385521304 0.0077173213499321181 0 0.035158550933865426 0.0001724873011095702 0 0.034886398753570642 0.00033696103621422464 0 0.034854407293585819 -0.00015998071639239313 0 0.030271222101072522 0.0065822855376050145 0 0.029993062930162875 0.0072451462004166356 0 0.029308204699610187 0.0070574497662870272 0 0.029993062930162875 0.0072451462004166356 0 0.029882903719854647 0.0077484485446049824 0 0.030329448385521304 0.0077173213499321181 0 0.033014775067276611 0.0046621181945518068 0 0.028776709245742611 0.00084930556928564582 0 0.029993062930162875 0.0072451462004166356 0 0.029882903719854647 0.0077484485446049824 0 0.029308204699610187 0.0070574497662870272 0 0.035158550933865426 0.0001724873011095702 0 0.035180335828738953 0.00041561669558532236 0 0.034886398753570642 0.00033696103621422464 0 0.029882903719854647 0.0077484485446049824 0 0.030329448385521304 0.0077173213499321181 0 0.030400741122971985 0.0083755498690411025 0 0.033014775067276611 0.0046621181945518068 0 0.0333593002834736 0.0027907980248667035 0 0.035158550933865426 0.0001724873011095702 0 0.035180335828738953 0.00041561669558532236 0 0.035459885294459238 0.00050667376385227811 0 0.035180335828738953 0.00041561669558532236 0 0.03502799543442961 0.00054790981833004767 0 0.034886398753570642 0.00033696103621422464 0 0.030513512233449364 0.0073296993868285495 0 0.030329448385521304 0.0077173213499321181 0 0.030602640167357267 0.0080423738584459049 0 0.030329448385521304 0.0077173213499321181 0 0.030602640167357267 0.0080423738584459049 0 0.030400741122971985 0.0083755498690411025 0 0.032892313713267521 0.0052208656898847057 0 0.0333593002834736 0.0027907980248667035 0 0.03516089846262558 0.0020379366149892528 0 0.035576713031504198 0.0025328675169954537 0 0.035217257642812118 0.0013876305425509598 0 0.035576713031504198 0.0025328675169954537 0 0.035217257642812118 0.0013876305425509598 0 0.035585746476553673 0.00198374421472734 0 0.035217257642812118 0.0013876305425509598 0 0.035585746476553673 0.00198374421472734 0 0.035300489093383479 0.00089808893919611358 0 0.0333593002834736 0.0027907980248667035 0 0.035700883468509276 0.000390623008037718 0 0.035180335828738953 0.00041561669558532236 0 0.03502799543442961 0.00054790981833004767 0 0.035300489093383479 0.00089808893919611358 0 0.035180335828738953 0.00041561669558532236 0 0.035459885294459238 0.00050667376385227811 0 0.035300489093383479 0.00089808893919611358 0 0.03504042928351795 0.00066869615026109196 0 0.035300489093383479 0.00089808893919611358 0 0.035089123874774759 0.00069017234470408978 0 0.03502799543442961 0.00054790981833004767 0 0.03504042928351795 0.00066869615026109196 0 0.035300489093383479 0.00089808893919611358 0 0.03504042928351795 0.00066869615026109196 0 0.035089123874774759 0.00069017234470408978 0 0.034975993290522943 0.00061576645783705626 0 0.035300489093383479 0.00089808893919611358 0 0.035100011128696991 0.0006120674028925353 0 0.035187510160913996 0.00086167424157936805 0 0.035089123874774759 0.00069017234470408978 0 0.035100011128696991 0.0006120674028925353 0 0.035010781913503444 0.00053311276177796707 0 0.035300489093383479 0.00089808893919611358 0 0.035089123874774759 0.00069017234470408978 0 0.035100011128696991 0.0006120674028925353 0 0.035100011128696991 0.0006120674028925353 0 0.034958354088020074 0.00044127026028984974 0 0.035010781913503444 0.00053311276177796707 0 0.035059483950068672 0.00046071656823354156 0 0.035100011128696991 0.0006120674028925353 0 0.035099922434725268 0.00063431809323547092 0 0.035100011128696991 0.0006120674028925353 0 0.035099922434725268 0.00063431809323547092 0 0.035187510160913996 0.00086167424157936805 0 0.035217257642812118 0.0013876305425509598 0 0.034992894622069615 0.00076096867759790888 0 0.035187510160913996 0.00086167424157936805 0 0.035099922434725268 0.00063431809323547092 0 0.034992894622069615 0.00076096867759790888 0 0.035187510160913996 0.00086167424157936805 0 0.035217257642812118 0.0013876305425509598 0 0.035300489093383479 0.00089808893919611358 0 0.035187510160913996 0.00086167424157936805 0 0.021447353122918632 -0.003080954613627293 0 0.026089171635406219 -0.0059591867045061088 0 0.020968520396031025 -0.0059841362597527368 0 0.028266685422614724 -0.0034525787826746395 0 0.028541662774326359 -0.0020720743696680936 0 0.021447353122918632 -0.003080954613627293 0 0.020968520396031025 -0.0059841362597527368 0 0.01866007573638688 -0.003736969206134309 0 0.028266685422614724 -0.0034525787826746395 0 0.036541634517169859 0.0004186754271710948 0 0.034555271491960388 0.00020069424378748148 0 0.034384308004059283 -5.9665318416523544e-06 0 0.034736220436710263 0.00032436180375155214 0 0.034448575294922471 0.00024454925573025017 0 0.034736220436710263 0.00032436180375155214 0 0.034684323466389423 9.0910810151624506e-05 0 0.034736220436710263 0.00032436180375155214 0 0.034958354088020074 0.00044127026028984974 0 0.034883921135105564 0.00032896198358036799 0 0.034952435031232312 0.00040806003623011387 0 0.034736220436710263 0.00032436180375155214 0 0.034958354088020074 0.00044127026028984974 0 0.034952435031232312 0.00040806003623011387 0 0.035100011128696991 0.0006120674028925353 0 0.034958354088020074 0.00044127026028984974 0 0.034883921135105564 0.00032896198358036799 0 0.034706644416408097 0.00010898255303334524 0 0.034684323466389423 9.0910810151624506e-05 0 0.034958354088020074 0.00044127026028984974 0 0.035010781913503444 0.00053311276177796707 0 0.034883921135105564 0.00032896198358036799 0 0.034883921135105564 0.00032896198358036799 0 0.034975993290522943 0.00061576645783705626 0 0.035041173431324846 0.00065200288209365056 0 0.032173232343999873 0.00018916639575291386 0 0.03054484980057369 0.00025270736117402593 0 0.035089123874774759 0.00069017234470408978 0 0.035010781913503444 0.00053311276177796707 0 0.034975993290522943 0.00061576645783705626 0 0.035010781913503444 0.00053311276177796707 0 0.034883921135105564 0.00032896198358036799 0 0.034975993290522943 0.00061576645783705626 0 0.034736220436710263 0.00032436180375155214 0 0.034883921135105564 0.00032896198358036799 0 0.034684323466389423 9.0910810151624506e-05 0 0.028541662774326359 -0.0020720743696680936 0 0.020735213316442697 -0.0048893584394899808 0 0.03054484980057369 0.00025270736117402593 0 0.029022812097489435 -0.0021272715152759717 0 0.023350570930073249 0.00054849503023388817 0 0.0229472807771215 0.00034532848296912178 0 0.023203882310843464 -0.0032585551213252556 0 0.0229472807771215 0.00034532848296912178 0 0.02205607062419648 -0.0015238176949362405 0 0.019975081351222661 -0.0013390142150337314 0 0.03502799543442961 0.00054790981833004767 0 0.034949698789145153 0.00067324860809786426 0 0.034886398753570642 0.00033696103621422464 0 0.0229472807771215 0.00034532848296912178 0 0.02205607062419648 -0.0015238176949362405 0 0.023203882310843464 -0.0032585551213252556 0 0.03502799543442961 0.00054790981833004767 0 0.03504042928351795 0.00066869615026109196 0 0.034949698789145153 0.00067324860809786426 0 0.03504042928351795 0.00066869615026109196 0 0.034975993290522943 0.00061576645783705626 0 0.034949698789145153 0.00067324860809786426 0 0.031865793998692618 0.0007548820387917874 0 0.03054484980057369 0.00025270736117402593 0 0.03054484980057369 0.00025270736117402593 0 0.028541662774326359 -0.0020720743696680936 0 0.02205607062419648 -0.0015238176949362405 0 0.019975081351222661 -0.0013390142150337314 0 0.021013200331914141 -0.003033609522987962 0 0.026089171635406219 -0.0059591867045061088 0 0.020968520396031025 -0.0059841362597527368 0 0.022183033221957738 -0.0080625040514600739 0 0.020968520396031025 -0.0059841362597527368 0 0.022183033221957738 -0.0080625040514600739 0 0.018304315492286102 -0.010123686997155499 0 0.019975081351222661 -0.0013390142150337314 0 0.019274279091967675 -0.0037263622444161648 0 0.017562867930294775 -0.0028843607982041689 0 0.019975081351222661 -0.0013390142150337314 0 0.021013200331914141 -0.003033609522987962 0 0.019274279091967675 -0.0037263622444161648 0 0.021013200331914141 -0.003033609522987962 0 0.019274279091967675 -0.0037263622444161648 0 0.020571137488500976 -0.0051094040482310091 0 0.021013200331914141 -0.003033609522987962 0 0.023203882310843464 -0.0032585551213252556 0 0.020571137488500976 -0.0051094040482310091 0 0.02205607062419648 -0.0015238176949362405 0 0.021013200331914141 -0.003033609522987962 0 0.023203882310843464 -0.0032585551213252556 0 0.029022812097489435 -0.0021272715152759717 0 0.028776709245742611 0.00084930556928564582 0 0.023203882310843464 -0.0032585551213252556 0 0.023158884206692123 -0.0063594421913698183 0 0.020571137488500976 -0.0051094040482310091 0 0.020077356056015808 -0.0071716629579266335 0 0.023158884206692123 -0.0063594421913698183 0 0.020571137488500976 -0.0051094040482310091 0 0.020571137488500976 -0.0051094040482310091 0 0.018369554483487125 -0.0064294424110210632 0 0.018793792512339511 -0.0050611356433191415 0 0.019274279091967675 -0.0037263622444161648 0 0.020571137488500976 -0.0051094040482310091 0 0.018793792512339511 -0.0050611356433191415 0 0.020077356056015808 -0.0071716629579266335 0 0.020571137488500976 -0.0051094040482310091 0 0.018369554483487125 -0.0064294424110210632 0 0.018369554483487125 -0.0064294424110210632 0 0.016714988955345424 -0.0059603509549197064 0 0.018793792512339511 -0.0050611356433191415 0 0.016714988955345424 -0.0059603509549197064 0 0.018793792512339511 -0.0050611356433191415 0 0.017571543191532864 -0.0042361324647671285 0 0.016714988955345424 -0.0059603509549197064 0 0.015125213453263701 -0.0069492112491914776 0 0.015050158906999471 -0.0048611539282496074 0 0.016714988955345424 -0.0059603509549197064 0 0.015050158906999471 -0.0048611539282496074 0 0.017571543191532864 -0.0042361324647671285 0 0.010234007622925178 -0.0087223741539000296 0 0.010343970573499461 -0.0086715236415300101 0 0.010246679555222014 -0.0086528416844131803 0 0.012271999542521887 -0.0068379333192473829 0 0.016322896560678261 -0.0065392642300066053 0 0.010234007622925178 -0.0087223741539000296 0 0.010246679555222014 -0.0086528416844131803 0 0.010183759792289976 -0.0086617862531460175 0 0.015050158906999471 -0.0048611539282496074 0 0.017571543191532864 -0.0042361324647671285 0 0.017619545750676126 -0.0031929245226021748 0 0.020735213316442697 -0.0048893584394899808 0 0.016322896560678261 -0.0065392642300066053 0 0.019274279091967675 -0.0037263622444161648 0 0.017571543191532864 -0.0042361324647671285 0 0.017562867930294775 -0.0028843607982041689 0 0.019274279091967675 -0.0037263622444161648 0 0.018793792512339511 -0.0050611356433191415 0 0.017571543191532864 -0.0042361324647671285 0 0.016974300658220608 -0.0039110893001991385 0 0.016322896560678261 -0.0065392642300066053 0 0.016322896560678261 -0.0065392642300066053 0 0.011070867100531788 -0.0099623082748819206 0 0.020968520396031025 -0.0059841362597527368 0 0.018304315492286102 -0.010123686997155499 0 0.01866007573638688 -0.003736969206134309 0 0.010343970573499461 -0.0086715236415300101 0 0.010276691517666341 -0.0086251093893361906 0 0.010321803315363243 -0.0085770469910295133 0 0.010246679555222014 -0.0086528416844131803 0 0.010192521637249412 -0.0085969249625165601 0 0.010183759792289976 -0.0086617862531460175 0 0.010343970573499461 -0.0086715236415300101 0 0.010246679555222014 -0.0086528416844131803 0 0.010276691517666341 -0.0086251093893361906 0 0.010246679555222014 -0.0086528416844131803 0 0.010276691517666341 -0.0086251093893361906 0 0.010192521637249412 -0.0085969249625165601 0 0.010276691517666341 -0.0086251093893361906 0 0.010192521637249412 -0.0085969249625165601 0 0.010321803315363243 -0.0085770469910295133 0 -0.00035626536270873808 -0.017233319917787818 0 -0.0004085599313426437 -0.016961926322849825 0 -0.00044163209880999059 -0.017111626930285475 0 0.0035925894571954809 -0.013171301258994532 0 0.011070867100531788 -0.0099623082748819206 0 -0.0004085599313426437 -0.016961926322849825 0 -0.00044163209880999059 -0.017111626930285475 0 -0.00042862956277181383 -0.017048008282578447 0 -0.00043551452587129298 -0.017081851628907071 0 -0.00044163209880999059 -0.017111626930285475 0 -0.00042862956277181383 -0.017048008282578447 0 0.016778827475763439 -0.004102854474484296 0 0.022083226904495597 -0.0074185435730772147 0 0.016525022713245043 -0.0087042569333796258 0 0.015507914971643414 -0.0084191715951082245 0 0.011070867100531788 -0.0099623082748819206 0 0.015507914971643414 -0.0084191715951082245 0 0.028266685422614724 -0.0034525787826746395 0 0.028266685422614724 -0.0034525787826746395 0 0.011070867100531788 -0.0099623082748819206 0 -1.3501129856335923e-05 -0.016966994726178086 0 -0.00025188085930891169 -0.017004067858029541 0 -0.00010719280192161939 -0.016587041105177495 0 0.00031130405885658029 -0.016649627694993622 0 -1.3501129856335923e-05 -0.016966994726178086 0 -0.00010719280192161939 -0.016587041105177495 0 0.00031130405885658029 -0.016649627694993622 0 0.00034098524607272353 -0.017106327992977916 0 -1.3501129856335923e-05 -0.016966994726178086 0 1.7033250087004726e-05 -0.017459725127563486 0 0.00034098524607272353 -0.017106327992977916 0 -1.3501129856335923e-05 -0.016966994726178086 0 1.7033250087004726e-05 -0.017459725127563486 0 -1.3501129856335923e-05 -0.016966994726178086 0 -0.00018936184255413795 -0.017225667155813487 0 -1.3501129856335923e-05 -0.016966994726178086 0 -0.00018936184255413795 -0.017225667155813487 0 -0.00025188085930891169 -0.017004067858029541 0 -0.0004085599313426437 -0.016961926322849825 0 -0.00025188085930891169 -0.017004067858029541 0 -0.00010719280192161939 -0.016587041105177495 0 -0.00035626536270873808 -0.017233319917787818 0 -0.00018936184255413795 -0.017225667155813487 0 -0.00025188085930891169 -0.017004067858029541 0 -0.00035626536270873808 -0.017233319917787818 0 -0.0004085599313426437 -0.016961926322849825 0 -0.00025188085930891169 -0.017004067858029541 0 0.0035925894571954809 -0.013171301258994532 0 0.0053343287230388217 -0.012551300730328998 0 0.010192521637249412 -0.0085969249625165601 0 0.010133130321980448 -0.0086328419698270108 0 0.010093443622866839 -0.0085838776161264712 0 0.010192521637249412 -0.0085969249625165601 0 0.010133130321980448 -0.0086328419698270108 0 0.010183759792289976 -0.0086617862531460175 0 0.00072988634386751368 -0.015953991227239443 0 0.00031130405885658029 -0.016649627694993622 0 -0.00010719280192161939 -0.016587041105177495 0 0.010133130321980448 -0.0086328419698270108 0 0.010044423911373505 -0.0086364297110651054 0 0.010111404096261573 -0.0087088457827096278 0 0.010133130321980448 -0.0086328419698270108 0 0.010093443622866839 -0.0085838776161264712 0 0.010044423911373505 -0.0086364297110651054 0 0.0048830666773563925 -0.011593777889671433 0 0.0053343287230388217 -0.012551300730328998 0 0.0097770088117183802 -0.0086121819004901044 0 0.010093443622866839 -0.0085838776161264712 0 0.010044423911373505 -0.0086364297110651054 0 0.010021986207208631 -0.0086192185046964388 0 0.010044423911373505 -0.0086364297110651054 0 0.010111404096261573 -0.0087088457827096278 0 0.010044985681043249 -0.008706828049137744 0 0.010021986207208631 -0.0086192185046964388 0 0.010111404096261573 -0.0087088457827096278 0 0.010133130321980448 -0.0086328419698270108 0 0.010111404096261573 -0.0087088457827096278 0 0.010183759792289976 -0.0086617862531460175 0 0.010234007622925178 -0.0087223741539000296 0 0.010111404096261573 -0.0087088457827096278 0 0.010183759792289976 -0.0086617862531460175 0 0.010234007622925178 -0.0087223741539000296 0 0.010111404096261573 -0.0087088457827096278 0 0.010141528798110228 -0.0087710286025873239 0 0.015125213453263701 -0.0069492112491914776 0 0.015050158906999471 -0.0048611539282496074 0 0.012658880772504141 -0.0066181528804666913 0 0.012271999542521887 -0.0068379333192473829 0 0.011507519899633478 -0.0076893063974808867 0 0.010151149431965779 -0.0088076519129099314 0 0.010420039837801083 -0.0087235114345138726 0 0.010141528798110228 -0.0087710286025873239 0 0.010151149431965779 -0.0088076519129099314 0 0.010111404096261573 -0.0087088457827096278 0 0.010141528798110228 -0.0087710286025873239 0 0.012658880772504141 -0.0066181528804666913 0 0.012020056248290369 -0.0089196819696882174 0 0.014071923525795978 -0.0088507556354616088 0 0.010461113673724562 -0.0085824334664960488 0 0.011507519899633478 -0.0076893063974808867 0 0.010420039837801083 -0.0087235114345138726 0 0.012658880772504141 -0.0066181528804666913 0 0.012020056248290369 -0.0089196819696882174 0 0.012020056248290369 -0.0089196819696882174 0 0.012352922742495203 -0.010540753642591589 0 0.014071923525795978 -0.0088507556354616088 0 0.010444578363157231 -0.010137293419803088 0 0.012020056248290369 -0.0089196819696882174 0 0.012352922742495203 -0.010540753642591589 0 0.012352922742495203 -0.010540753642591589 0 0.014071923525795978 -0.0088507556354616088 0 0.015111749437641148 -0.010591204429060329 0 0.015125213453263701 -0.0069492112491914776 0 0.012658880772504141 -0.0066181528804666913 0 0.014071923525795978 -0.0088507556354616088 0 0.015125213453263701 -0.0069492112491914776 0 0.014071923525795978 -0.0088507556354616088 0 0.017234665783037437 -0.0084108217805023179 0 0.016714988955345424 -0.0059603509549197064 0 0.015125213453263701 -0.0069492112491914776 0 0.017234665783037437 -0.0084108217805023179 0 0.018369554483487125 -0.0064294424110210632 0 0.016714988955345424 -0.0059603509549197064 0 0.017234665783037437 -0.0084108217805023179 0 0.020077356056015808 -0.0071716629579266335 0 0.018369554483487125 -0.0064294424110210632 0 0.017234665783037437 -0.0084108217805023179 0 0.017234665783037437 -0.0084108217805023179 0 0.015111749437641148 -0.010591204429060329 0 0.018402772046429032 -0.011437866047604049 0 0.014071923525795978 -0.0088507556354616088 0 0.017234665783037437 -0.0084108217805023179 0 0.015111749437641148 -0.010591204429060329 0 0.015111749437641148 -0.010591204429060329 0 0.018402772046429032 -0.011437866047604049 0 0.015777082396711054 -0.012157097404688313 0 0.027190972738986772 0.0022260032759734197 0 0.026579776604863787 0.0030772400921417939 0 0.025717480085432953 0.0021981529534649889 0 0.018402772046429032 -0.011437866047604049 0 0.016343455901921652 -0.013268398804956836 0 0.015777082396711054 -0.012157097404688313 0 0.022600507054597464 -0.0040589147918755931 0 0.021061977519724932 -0.0054282870290945466 0 0.016343455901921652 -0.013268398804956836 0 0.015777082396711054 -0.012157097404688313 0 0.015493252116982936 -0.01315277798264625 0 0.015777082396711054 -0.012157097404688313 0 0.015493252116982936 -0.01315277798264625 0 0.014551826407209017 -0.013008904657575497 0 0.010313520794542733 -0.012015643482124192 0 0.012818322903299548 -0.013315510503639176 0 0.013315815963781496 -0.011903508042962783 0 0.010313520794542733 -0.012015643482124192 0 0.012352922742495203 -0.010540753642591589 0 0.013315815963781496 -0.011903508042962783 0 0.015777082396711054 -0.012157097404688313 0 0.014551826407209017 -0.013008904657575497 0 0.013315815963781496 -0.011903508042962783 0 0.014551826407209017 -0.013008904657575497 0 0.012818322903299548 -0.013315510503639176 0 0.013315815963781496 -0.011903508042962783 0 0.012352922742495203 -0.010540753642591589 0 0.015111749437641148 -0.010591204429060329 0 0.013315815963781496 -0.011903508042962783 0 0.015111749437641148 -0.010591204429060329 0 0.015777082396711054 -0.012157097404688313 0 0.013315815963781496 -0.011903508042962783 0 0.019981344138960709 -0.0071078620628032257 0 0.018066972019379551 -0.0035982951040913207 0 0.014688566678377517 -0.014069566874642251 0 0.015136677614765821 -0.014153729786523704 0 0.014722741850896214 -0.014502346757327061 0 0.014688566678377517 -0.014069566874642251 0 0.014819108723980897 -0.013821739968830203 0 0.015136677614765821 -0.014153729786523704 0 0.014673519421496705 -0.0060838787430070457 0 0.015720312069026965 -0.0070732302375983158 0 0.014688566678377517 -0.014069566874642251 0 0.014171086506197739 -0.013655010142223241 0 0.014610135656548832 -0.01444697215267611 0 0.014094759511209943 -0.013691640465818512 0 0.014171086506197739 -0.013655010142223241 0 0.014122363898329004 -0.013614967689654811 0 0.014258925401925049 -0.016361040200596141 0 0.015720312069026965 -0.0070732302375983158 0 0.014688566678377517 -0.014069566874642251 0 0.014517833268922791 -0.013701630749936281 0 0.014171086506197739 -0.013655010142223241 0 0.013981348344263015 -0.01331879789835347 0 0.014389682616283671 -0.013229551482756782 0 0.014171086506197739 -0.013655010142223241 0 0.014389682616283671 -0.013229551482756782 0 0.014517833268922791 -0.013701630749936281 0 0.014819108723980897 -0.013821739968830203 0 0.014389682616283671 -0.013229551482756782 0 0.014517833268922791 -0.013701630749936281 0 0.014171086506197739 -0.013655010142223241 0 0.014389682616283671 -0.013229551482756782 0 0.014819108723980897 -0.013821739968830203 0 0.015334693991309085 -0.013896901179401582 0 0.014551826407209017 -0.013008904657575497 0 0.012818322903299548 -0.013315510503639176 0 0.015334693991309085 -0.013896901179401582 0 0.013968994616108479 -0.013457517006511384 0 0.015039078922858664 -0.013790146786039232 0 0.014688566678377517 -0.014069566874642251 0 0.014517833268922791 -0.013701630749936281 0 0.014819108723980897 -0.013821739968830203 0 0.014819108723980897 -0.013821739968830203 0 0.015334693991309085 -0.013896901179401582 0 0.015136677614765821 -0.014153729786523704 0 0.021061977519724932 -0.0054282870290945466 0 0.019981344138960709 -0.0071078620628032257 0 0.015493252116982936 -0.01315277798264625 0 0.014551826407209017 -0.013008904657575497 0 0.015334693991309085 -0.013896901179401582 0 0.025717480085432953 0.0021981529534649889 0 0.02587146179615132 0.0011992409850331289 0 0.024764758483422859 0.0011460104318885562 0 0.016343455901921652 -0.013268398804956836 0 0.015334693991309085 -0.013896901179401582 0 0.015136677614765821 -0.014153729786523704 0 0.016343455901921652 -0.013268398804956836 0 0.015493252116982936 -0.01315277798264625 0 0.015334693991309085 -0.013896901179401582 0 0.027190972738986772 0.0022260032759734197 0 0.025717480085432953 0.0021981529534649889 0 0.02587146179615132 0.0011992409850331289 0 0.02587146179615132 0.0011992409850331289 0 0.025887770433000938 0.00020512301670772037 0 0.026913480069962286 0.001130059024665217 0 0.02587146179615132 0.0011992409850331289 0 0.024834245903987525 0.00024399112726391963 0 0.025887770433000938 0.00020512301670772037 0 0.02587146179615132 0.0011992409850331289 0 0.024764758483422859 0.0011460104318885562 0 0.024834245903987525 0.00024399112726391963 0 0.024834245903987525 0.00024399112726391963 0 0.025887770433000938 0.00020512301670772037 0 0.024779688016720206 -0.00066989119178698705 0 0.025887770433000938 0.00020512301670772037 0 0.026013253759713587 -0.0011497010349287744 0 0.027191006484170836 0.00024488586035399901 0 0.025887770433000938 0.00020512301670772037 0 0.026013253759713587 -0.0011497010349287744 0 0.024779688016720206 -0.00066989119178698705 0 0.026013253759713587 -0.0011497010349287744 0 0.024779688016720206 -0.00066989119178698705 0 0.024241871775429493 -0.0015162954883799738 0 0.016535199209849596 -0.00044906640874358626 0 0.021306583160445088 0.0061542850526022617 0 0.024779688016720206 -0.00066989119178698705 0 0.023431415283441982 8.5143460362949538e-05 0 0.024241871775429493 -0.0015162954883799738 0 0.013766369771810331 0.0034708314649214496 0 0.014589595455081391 0.0046873959041937195 0 0.012451421349125167 0.0066803851728820113 0 0.025851512569420872 -0.00047225743358827088 0 0.018066972019379551 -0.0035982951040913207 0 0.024779688016720206 -0.00066989119178698705 0 0.023431415283441982 8.5143460362949538e-05 0 0.023548427988027695 0.00025408921405079595 0 0.024834245903987525 0.00024399112726391963 0 0.024779688016720206 -0.00066989119178698705 0 0.023873110926616894 1.6329738226651864e-06 0 0.024764758483422859 0.0011460104318885562 0 0.024834245903987525 0.00024399112726391963 0 0.023873110926616894 1.6329738226651864e-06 0 0.014688566678377517 -0.014069566874642251 0 0.014722741850896214 -0.014502346757327061 0 0.014610135656548832 -0.01444697215267611 0 0.015772562609736512 -0.0038650242216414759 0 0.015375755811687987 -0.0044321962095962373 0 0.016334461376103133 -0.005200663332231386 0 0.016535199209849596 -0.00044906640874358626 0 0.018066972019379551 -0.0035982951040913207 0 0.018066972019379551 -0.0035982951040913207 0 0.015720312069026965 -0.0070732302375983158 0 0.016140979572903901 0.00083646423696995308 0 0.01603613040107426 0.0031473627844276924 0 0.013999187420225089 0.0026024762397958766 0 0.013670337274346564 0.0033799505193272484 0 0.013999187420225089 0.0026024762397958766 0 0.014896641257696011 0.003724851646780439 0 0.013670337274346564 0.0033799505193272484 0 0.014896641257696011 0.003724851646780439 0 0.014589595455081391 0.0046873959041937195 0 0.016535199209849596 -0.00044906640874358626 0 0.015720312069026965 -0.0070732302375983158 0 0.016159789662832116 0.0048054879594479601 0 0.01603613040107426 0.0031473627844276924 0 0.014896641257696011 0.003724851646780439 0 0.01603613040107426 0.0031473627844276924 0 0.013999187420225089 0.0026024762397958766 0 0.014896641257696011 0.003724851646780439 0 0.016159789662832116 0.0048054879594479601 0 0.014589595455081391 0.0046873959041937195 0 0.015378992290727124 0.007354907856381751 0 0.016159789662832116 0.0048054879594479601 0 0.014896641257696011 0.003724851646780439 0 0.014589595455081391 0.0046873959041937195 0 0.016535199209849596 -0.00044906640874358626 0 0.015677111867866626 0.0038003179545523973 0 0.014589595455081391 0.0046873959041937195 0 0.015378992290727124 0.007354907856381751 0 0.012451421349125167 0.0066803851728820113 0 0.020488567689443113 0.0088979083173619817 0 0.022472885075496128 0.0094300166192829299 0 0.021416950830793827 0.0077140299115274463 0 0.017203878051998581 0.0081775460298733563 0 0.021306583160445088 0.0061542850526022617 0 0.022472885075496128 0.0094300166192829299 0 0.021416950830793827 0.0077140299115274463 0 0.023606041030703368 0.0074841393573019093 0 0.019938587943232979 0.0073827691562153974 0 0.020488567689443113 0.0088979083173619817 0 0.021416950830793827 0.0077140299115274463 0 0.019938587943232979 0.0073827691562153974 0 0.021416950830793827 0.0077140299115274463 0 0.020602781413134361 0.0066285614223699305 0 0.021416950830793827 0.0077140299115274463 0 0.020602781413134361 0.0066285614223699305 0 0.021693827771304863 0.0064085698366476568 0 0.020602781413134361 0.0066285614223699305 0 0.021693827771304863 0.0064085698366476568 0 0.020688069379102541 0.0056970608122507644 0 0.021416950830793827 0.0077140299115274463 0 0.021693827771304863 0.0064085698366476568 0 0.023606041030703368 0.0074841393573019093 0 0.021693827771304863 0.0064085698366476568 0 0.022949179697067158 0.0055473443124640165 0 0.023606041030703368 0.0074841393573019093 0 0.021693827771304863 0.0064085698366476568 0 0.02163261999346431 0.0052892327722990611 0 0.022949179697067158 0.0055473443124640165 0 0.02163261999346431 0.0052892327722990611 0 0.022949179697067158 0.0055473443124640165 0 0.022290604077412082 0.0044042393182403775 0 0.02163261999346431 0.0052892327722990611 0 0.020688069379102541 0.0056970608122507644 0 0.020571169563878597 0.0043731050608343362 0 0.02163261999346431 0.0052892327722990611 0 0.020571169563878597 0.0043731050608343362 0 0.022290604077412082 0.0044042393182403775 0 0.021693827771304863 0.0064085698366476568 0 0.02163261999346431 0.0052892327722990611 0 0.020688069379102541 0.0056970608122507644 0 0.026795408018296597 0.0081527199077581335 0 0.02481256071219334 0.0072888973061251243 0 0.024591232249840084 0.0059947389356377273 0 0.026493484067848048 0.0056170219688699849 0 0.024066541916890276 0.0041373289864674381 0 0.022949179697067158 0.0055473443124640165 0 0.024591232249840084 0.0059947389356377273 0 0.024066541916890276 0.0041373289864674381 0 0.022949179697067158 0.0055473443124640165 0 0.024066541916890276 0.0041373289864674381 0 0.022290604077412082 0.0044042393182403775 0 0.022949179697067158 0.0055473443124640165 0 0.024591232249840084 0.0059947389356377273 0 0.023606041030703368 0.0074841393573019093 0 0.024591232249840084 0.0059947389356377273 0 0.025911391128754131 0.0073246682357202128 0 0.026493484067848048 0.0056170219688699849 0 0.024591232249840084 0.0059947389356377273 0 0.025911391128754131 0.0073246682357202128 0 0.023606041030703368 0.0074841393573019093 0 0.026148544918508002 0.0074066608498829485 0 0.026795408018296597 0.0081527199077581335 0 0.026216374855780305 0.0080461342354218712 0 0.025364331171942055 0.0093766196720264372 0 0.026809760212250129 0.0091384018380728828 0 0.025911391128754131 0.0073246682357202128 0 0.025364331171942055 0.0093766196720264372 0 0.023606041030703368 0.0074841393573019093 0 0.026148544918508002 0.0074066608498829485 0 0.025379264938287443 0.0093517400710328245 0 0.022348409790478974 0.010657490314248919 0 0.025364331171942055 0.0093766196720264372 0 0.023606041030703368 0.0074841393573019093 0 0.021306583160445088 0.0061542850526022617 0 0.023632110580253374 0.009086231445428616 0 0.026295594878735253 0.0048442556048632589 0 0.021306583160445088 0.0061542850526022617 0 0.025760821019550673 0.011247035539923287 0 0.022348409790478974 0.010657490314248919 0 0.025364331171942055 0.0093766196720264372 0 0.025760821019550673 0.011247035539923287 0 0.025364331171942055 0.0093766196720264372 0 0.026932562529029373 0.010226256832229929 0 0.025364331171942055 0.0093766196720264372 0 0.026932562529029373 0.010226256832229929 0 0.026809760212250129 0.0091384018380728828 0 0.028039078571378218 0.0098035036203792253 0 0.026932562529029373 0.010226256832229929 0 0.028622518448535167 0.011459540061528418 0 0.025760821019550673 0.011247035539923287 0 0.026932562529029373 0.010226256832229929 0 0.028622518448535167 0.011459540061528418 0 0.028039078571378218 0.0098035036203792253 0 0.026932562529029373 0.010226256832229929 0 0.026809760212250129 0.0091384018380728828 0 0.028039078571378218 0.0098035036203792253 0 0.029656513644278987 0.010257300117250913 0 0.028622518448535167 0.011459540061528418 0 0.028900921931646964 0.0091300251028584387 0 0.028554377464175783 0.0077013372373019038 0 0.030182283392533635 0.0093043777389523984 0 0.028039078571378218 0.0098035036203792253 0 0.028900921931646964 0.0091300251028584387 0 0.027464321036610985 0.0083686244301990967 0 0.028039078571378218 0.0098035036203792253 0 0.028900921931646964 0.0091300251028584387 0 0.029656513644278987 0.010257300117250913 0 0.028900921931646964 0.0091300251028584387 0 0.027464321036610985 0.0083686244301990967 0 0.028554377464175783 0.0077013372373019038 0 0.028039078571378218 0.0098035036203792253 0 0.026809760212250129 0.0091384018380728828 0 0.027464321036610985 0.0083686244301990967 0 0.026216374855780305 0.0080461342354218712 0 0.026809760212250129 0.0091384018380728828 0 0.027464321036610985 0.0083686244301990967 0 0.027464321036610985 0.0083686244301990967 0 0.028554377464175783 0.0077013372373019038 0 0.026862162952918898 0.0065209208731597844 0 0.026216374855780305 0.0080461342354218712 0 0.027464321036610985 0.0083686244301990967 0 0.026862162952918898 0.0065209208731597844 0 0.029533528952161367 0.008563648896744866 0 0.026795408018296597 0.0081527199077581335 0 0.030092532301329054 0.0092606945211909254 0 0.029981980307773673 0.0090829170442032914 0 0.029717232744897792 0.0090888601010066048 0 0.029533528952161367 0.008563648896744866 0 0.030035324565346095 0.0091557874884824735 0 0.030092532301329054 0.0092606945211909254 0 0.030183400917554545 0.0091832030374584747 0 0.030182283392533635 0.0093043777389523984 0 0.030092532301329054 0.0092606945211909254 0 0.030113125920071 0.0091730139753506308 0 0.030183400917554545 0.0091832030374584747 0 0.030113125920071 0.0091730139753506308 0 0.030183400917554545 0.0091832030374584747 0 0.030258400120484908 0.0091582588511838169 0 0.030092532301329054 0.0092606945211909254 0 0.030113125920071 0.0091730139753506308 0 0.029981980307773673 0.0090829170442032914 0 0.030258400120484908 0.0091582588511838169 0 0.030317174753193191 0.0089593558052356841 0 0.030138423652340575 0.0088840308176620919 0 0.03070360819725583 0.0088127189713920438 0 0.028215499927887553 0.01032904242503995 0 0.030258400120484908 0.0091582588511838169 0 0.029884692110721953 0.0089139051184912079 0 0.030138423652340575 0.0088840308176620919 0 0.029981980307773673 0.0090829170442032914 0 0.030258400120484908 0.0091582588511838169 0 0.029829307833702939 0.0087993042839699422 0 0.030113125920071 0.0091730139753506308 0 0.029981980307773673 0.0090829170442032914 0 0.030258400120484908 0.0091582588511838169 0 0.029981980307773673 0.0090829170442032914 0 0.029717232744897792 0.0090888601010066048 0 0.029829307833702939 0.0087993042839699422 0 0.026795408018296597 0.0081527199077581335 0 0.028215499927887553 0.01032904242503995 0 0.030945703393601288 0.0093173455649208769 0 0.030576571471396471 0.0089996426349523827 0 0.031155656326749739 0.0087082023776868488 0 0.030249608857772049 0.0091734842845756816 0 0.030873612616357932 0.0090814426926116073 0 0.030258400120484908 0.0091582588511838169 0 0.030945703393601288 0.0093173455649208769 0 0.030576571471396471 0.0089996426349523827 0 0.030183400917554545 0.0091832030374584747 0 0.030258400120484908 0.0091582588511838169 0 0.030945703393601288 0.0093173455649208769 0 0.030258400120484908 0.0091582588511838169 0 0.030576571471396471 0.0089996426349523827 0 0.030317174753193191 0.0089593558052356841 0 0.030183400917554545 0.0091832030374584747 0 0.030456972602834326 0.0091795308745597579 0 0.030182283392533635 0.0093043777389523984 0 0.030183400917554545 0.0091832030374584747 0 0.030781721766180402 0.008833375257656078 0 0.030456972602834326 0.0091795308745597579 0 0.030781721766180402 0.008833375257656078 0 0.030456972602834326 0.0091795308745597579 0 0.030918713543776434 0.0094858632889719581 0 0.030781721766180402 0.008833375257656078 0 0.030918713543776434 0.0094858632889719581 0 0.031482544315801761 0.0092633029282984825 0 0.030918713543776434 0.0094858632889719581 0 0.030825409106404363 0.010142305200928219 0 0.031615062059283577 0.0098676418399798686 0 0.030456972602834326 0.0091795308745597579 0 0.030918713543776434 0.0094858632889719581 0 0.030182283392533635 0.0093043777389523984 0 0.030918713543776434 0.0094858632889719581 0 0.030182283392533635 0.0093043777389523984 0 0.030825409106404363 0.010142305200928219 0 0.030182283392533635 0.0093043777389523984 0 0.029656513644278987 0.010257300117250913 0 0.030825409106404363 0.010142305200928219 0 0.028900921931646964 0.0091300251028584387 0 0.030182283392533635 0.0093043777389523984 0 0.029656513644278987 0.010257300117250913 0 0.029656513644278987 0.010257300117250913 0 0.030825409106404363 0.010142305200928219 0 0.030568527782264897 0.011384292196269843 0 0.030825409106404363 0.010142305200928219 0 0.030568527782264897 0.011384292196269843 0 0.031516883987491501 0.010619269529831251 0 0.029762155644210319 -0.00054351216249870092 0 0.030894423885621351 0.001291374911104123 0 0.028938153765937755 0.00087077162991397016 0 0.029762155644210319 -0.00054351216249870092 0 0.02771367715891208 -0.00086950091299590115 0 0.028938153765937755 0.00087077162991397016 0 0.030162960937831735 0.0054268313203392395 0 0.02805829912226886 0.0053060539363804851 0 0.029656513644278987 0.010257300117250913 0 0.030568527782264897 0.011384292196269843 0 0.028622518448535167 0.011459540061528418 0 0.026013253759713587 -0.0011497010349287744 0 0.02771367715891208 -0.00086950091299590115 0 0.027191006484170836 0.00024488586035399901 0 0.026295594878735253 0.0048442556048632589 0 0.02805829912226886 0.0053060539363804851 0 0.025887770433000938 0.00020512301670772037 0 0.027191006484170836 0.00024488586035399901 0 0.026913480069962286 0.001130059024665217 0 0.02771367715891208 -0.00086950091299590115 0 0.027191006484170836 0.00024488586035399901 0 0.028938153765937755 0.00087077162991397016 0 0.027191006484170836 0.00024488586035399901 0 0.027881136788933142 0.0013241527214355891 0 0.028938153765937755 0.00087077162991397016 0 0.027191006484170836 0.00024488586035399901 0 0.027881136788933142 0.0013241527214355891 0 0.026913480069962286 0.001130059024665217 0 0.027190972738986772 0.0022260032759734197 0 0.02587146179615132 0.0011992409850331289 0 0.026913480069962286 0.001130059024665217 0 0.027190972738986772 0.0022260032759734197 0 0.027881136788933142 0.0013241527214355891 0 0.026913480069962286 0.001130059024665217 0 0.027190972738986772 0.0022260032759734197 0 0.027881136788933142 0.0013241527214355891 0 0.028367509477855466 0.0019185827025017918 0 0.030469354609440006 0.0038535402094306407 0 0.029085029336967771 0.0028628125512280144 0 0.030372229295306693 0.0025573022419907929 0 0.030469354609440006 0.0038535402094306407 0 0.030372229295306693 0.0025573022419907929 0 0.031675636959241867 0.0029673565731127521 0 0.030372229295306693 0.0025573022419907929 0 0.030894423885621351 0.001291374911104123 0 0.028938153765937755 0.00087077162991397016 0 0.027881136788933142 0.0013241527214355891 0 0.028367509477855466 0.0019185827025017918 0 0.028938153765937755 0.00087077162991397016 0 0.029085029336967771 0.0028628125512280144 0 0.030372229295306693 0.0025573022419907929 0 0.028938153765937755 0.00087077162991397016 0 0.028740090427060414 0.0023766696331129749 0 0.028918779479456858 0.00090976048775328277 0 0.030894423885621351 0.001291374911104123 0 0.033147622843246669 0.0020516222912629724 0 0.03209730399802764 -2.0078460692023818e-06 0 0.030894423885621351 0.001291374911104123 0 0.033147622843246669 0.0020516222912629724 0 0.031675636959241867 0.0029673565731127521 0 0.030372229295306693 0.0025573022419907929 0 0.030894423885621351 0.001291374911104123 0 0.031675636959241867 0.0029673565731127521 0 0.032845896889956032 0.0036270565915304627 0 0.033147622843246669 0.0020516222912629724 0 0.031675636959241867 0.0029673565731127521 0 0.032845896889956032 0.0036270565915304627 0 0.033147622843246669 0.0020516222912629724 0 0.034304304016949852 0.0034741878180270858 0 0.033147622843246669 0.0020516222912629724 0 0.034304304016949852 0.0034741878180270858 0 0.035532876982096187 0.0020914445185613146 0 0.034898145102995472 0.0033493621291362293 0 0.035529056382123551 0.0021447398061051975 0 0.036372631393543728 0.0035386114988441072 0 0.035435987286114898 0.0033523432061307854 0 0.035532876982096187 0.0020914445185613146 0 0.033147622843246669 0.0020516222912629724 0 0.035532876982096187 0.0020914445185613146 0 0.034381965217077114 0.00060228203377781701 0 0.032804584695440488 0.011362501542506941 0 0.033611064593376164 0.010827859935545286 0 0.033743263599067187 0.011446339268086447 0 0.035532876982096187 0.0020914445185613146 0 0.034381965217077114 0.00060228203377781701 0 0.036436237897543446 0.0013395022237240016 0 0.033555055742148607 0.006013986040937779 0 0.035176501984034082 0.0061826920575090366 0 0.032804584695440488 0.011362501542506941 0 0.032995082794208437 0.01071189226632358 0 0.033611064593376164 0.010827859935545286 0 0.032995082794208437 0.01071189226632358 0 0.033350696169462055 0.010289914489147168 0 0.033611064593376164 0.010827859935545286 0 0.032804584695440488 0.011362501542506941 0 0.032995082794208437 0.01071189226632358 0 0.032354591584189372 0.010488585890357803 0 0.032804584695440488 0.011362501542506941 0 0.031797785781717755 0.011314937758964574 0 0.032354591584189372 0.010488585890357803 0 0.031797785781717755 0.011314937758964574 0 0.031516883987491501 0.010619269529831251 0 0.032354591584189372 0.010488585890357803 0 0.033555055742148607 0.006013986040937779 0 0.031930596634415616 0.0056558152176080971 0 0.033147622843246669 0.0020516222912629724 0 0.034381965217077114 0.00060228203377781701 0 0.03209730399802764 -2.0078460692023818e-06 0 0.029762155644210319 -0.00054351216249870092 0 0.030894423885621351 0.001291374911104123 0 0.03209730399802764 -2.0078460692023818e-06 0 0.030162960937831735 0.0054268313203392395 0 0.031930596634415616 0.0056558152176080971 0 0.030568527782264897 0.011384292196269843 0 0.031797785781717755 0.011314937758964574 0 0.031516883987491501 0.010619269529831251 0 0.030825409106404363 0.010142305200928219 0 0.031516883987491501 0.010619269529831251 0 0.031615062059283577 0.0098676418399798686 0 0.031516883987491501 0.010619269529831251 0 0.032354591584189372 0.010488585890357803 0 0.031615062059283577 0.0098676418399798686 0 0.032354591584189372 0.010488585890357803 0 0.031615062059283577 0.0098676418399798686 0 0.032312842361335317 0.0095017666141035111 0 0.030918713543776434 0.0094858632889719581 0 0.031615062059283577 0.0098676418399798686 0 0.031482544315801761 0.0092633029282984825 0 0.031482544315801761 0.0092633029282984825 0 0.032312842361335317 0.0095017666141035111 0 0.031865010277769709 0.0087949231958803099 0 0.031615062059283577 0.0098676418399798686 0 0.031482544315801761 0.0092633029282984825 0 0.032312842361335317 0.0095017666141035111 0 0.032312842361335317 0.0095017666141035111 0 0.031865010277769709 0.0087949231958803099 0 0.032744085241660913 0.0089448760583325342 0 0.031843066089192039 0.0090046034954274091 0 0.032670260918354413 0.0089368115287007215 0 0.030945703393601288 0.0093173455649208769 0 0.031833305590459583 0.009208665075106176 0 0.031155656326749739 0.0087082023776868488 0 0.030781721766180402 0.008833375257656078 0 0.031482544315801761 0.0092633029282984825 0 0.031865010277769709 0.0087949231958803099 0 0.030873612616357932 0.0090814426926116073 0 0.031843066089192039 0.0090046034954274091 0 0.032744085241660913 0.0089448760583325342 0 0.033101285733857309 0.0095244908918323372 0 0.033592784149872532 0.0089786069346139072 0 0.032312842361335317 0.0095017666141035111 0 0.032744085241660913 0.0089448760583325342 0 0.033101285733857309 0.0095244908918323372 0 0.033101285733857309 0.0095244908918323372 0 0.032845625807127923 0.0099918207442607904 0 0.033350696169462055 0.010289914489147168 0 0.033101285733857309 0.0095244908918323372 0 0.033350696169462055 0.010289914489147168 0 0.033625371056207012 0.0096696830532270531 0 0.032312842361335317 0.0095017666141035111 0 0.033101285733857309 0.0095244908918323372 0 0.032845625807127923 0.0099918207442607904 0 0.032354591584189372 0.010488585890357803 0 0.032312842361335317 0.0095017666141035111 0 0.032845625807127923 0.0099918207442607904 0 0.032995082794208437 0.01071189226632358 0 0.032354591584189372 0.010488585890357803 0 0.032845625807127923 0.0099918207442607904 0 0.032995082794208437 0.01071189226632358 0 0.032845625807127923 0.0099918207442607904 0 0.033350696169462055 0.010289914489147168 0 0.033350696169462055 0.010289914489147168 0 0.033920642304125524 0.010322960175537041 0 0.033724128067554107 0.01005789418980539 0 0.033350696169462055 0.010289914489147168 0 0.033920642304125524 0.010322960175537041 0 0.033611064593376164 0.010827859935545286 0 0.034288761534104636 0.010375864460080108 0 0.034572890798004199 0.010612111726334011 0 0.03414575655771071 0.010641032778492305 0 0.033920642304125524 0.010322960175537041 0 0.034288761534104636 0.010375864460080108 0 0.03414575655771071 0.010641032778492305 0 0.033920642304125524 0.010322960175537041 0 0.034197892196713854 0.010189547246341125 0 0.034047065981055911 0.009917721579188991 0 0.033920642304125524 0.010322960175537041 0 0.034288761534104636 0.010375864460080108 0 0.034197892196713854 0.010189547246341125 0 0.034288761534104636 0.010375864460080108 0 0.034197892196713854 0.010189547246341125 0 0.034536516837736134 0.010141460793886477 0 0.034047065981055911 0.009917721579188991 0 0.033625371056207012 0.0096696830532270531 0 0.033980093491745932 0.0094855002384675972 0 0.034151983323349476 0.010021388734667886 0 0.034893020039080666 0.011129565731430986 0 0.034047065981055911 0.009917721579188991 0 0.033980093491745932 0.0094855002384675972 0 0.034536516837736134 0.010141460793886477 0 0.034197892196713854 0.010189547246341125 0 0.034047065981055911 0.009917721579188991 0 0.034536516837736134 0.010141460793886477 0 0.033350696169462055 0.010289914489147168 0 0.033724128067554107 0.01005789418980539 0 0.033625371056207012 0.0096696830532270531 0 0.033920642304125524 0.010322960175537041 0 0.034047065981055911 0.009917721579188991 0 0.033724128067554107 0.01005789418980539 0 0.034047065981055911 0.009917721579188991 0 0.033724128067554107 0.01005789418980539 0 0.033625371056207012 0.0096696830532270531 0 0.033101285733857309 0.0095244908918323372 0 0.033625371056207012 0.0096696830532270531 0 0.033592784149872532 0.0089786069346139072 0 0.033625371056207012 0.0096696830532270531 0 0.033980093491745932 0.0094855002384675972 0 0.033592784149872532 0.0089786069346139072 0 0.03429827106851125 0.010563340446137491 0 0.034929985573779895 0.0089954229313068141 0 0.033592784149872532 0.0089786069346139072 0 0.03429827106851125 0.010563340446137491 0 0.035306173322091725 0.010452096733871451 0 0.034929985573779895 0.0089954229313068141 0 0.034151983323349476 0.010021388734667886 0 0.033617821782203537 0.0090407188389409199 0 0.03670920477083691 0.01601136947190562 0 0.034999989979074185 0.015644499176999411 0 0.034999991740402088 0.017608842503611177 0 0.036037346761551646 0.013431528183852568 0 0.0359856151962697 0.012643268534801433 0 0.03670920477083691 0.01601136947190562 0 0.03698963579120515 0.017734638491636326 0 0.034999991740402088 0.017608842503611177 0 0.03429827106851125 0.010563340446137491 0 0.035306173322091725 0.010452096733871451 0 0.035440423110511064 0.011767035881857712 0 0.03670920477083691 0.01601136947190562 0 0.034999989979074185 0.015644499176999411 0 0.035706562513482101 0.014842483921753179 0 0.034999989979074185 0.015644499176999411 0 0.035706562513482101 0.014842483921753179 0 0.034999992956828929 0.013680177304094175 0 0.035706562513482101 0.014842483921753179 0 0.036446873393319382 0.014270689587264546 0 0.035733444065114577 0.013933246041246407 0 0.03670920477083691 0.01601136947190562 0 0.035706562513482101 0.014842483921753179 0 0.036446873393319382 0.014270689587264546 0 0.035306173322091725 0.010452096733871451 0 0.035621469528995274 0.012061926018671759 0 0.035440423110511064 0.011767035881857712 0 0.036037346761551646 0.013431528183852568 0 0.035869177623849294 0.012934387909941468 0 0.03429827106851125 0.010563340446137491 0 0.035440423110511064 0.011767035881857712 0 0.035261561680358343 0.012146944556838605 0 0.035869177623849294 0.012934387909941468 0 0.03553910542295767 0.012268317631279616 0 0.035441637456628074 0.012042678239311502 0 0.035440423110511064 0.011767035881857712 0 0.035261561680358343 0.012146944556838605 0 0.035261561680358343 0.012146944556838605 0 0.035526812676847652 0.012239821279333825 0 0.035574728779626662 0.01213508925685251 0 0.034288761534104636 0.010375864460080108 0 0.034536516837736134 0.010141460793886477 0 0.034572890798004199 0.010612111726334011 0 0.035869177623849294 0.012934387909941468 0 0.035667629365066712 0.012711848369657828 0 0.034893020039080666 0.011129565731430986 0 0.035265210045905375 0.011466930693393761 0 0.035441637456628074 0.012042678239311502 0 0.035261561680358343 0.012146944556838605 0 0.035526812676847652 0.012239821279333825 0 0.034536516837736134 0.010141460793886477 0 0.034993331587569891 0.010864875341353341 0 0.034572890798004199 0.010612111726334011 0 0.035706562513482101 0.014842483921753179 0 0.034999992956828929 0.013680177304094175 0 0.035733444065114577 0.013933246041246407 0 0.036446873393319382 0.014270689587264546 0 0.035733444065114577 0.013933246041246407 0 0.035817191249762008 0.013157750100113032 0 0.034999992956828929 0.013680177304094175 0 0.035733444065114577 0.013933246041246407 0 0.035817191249762008 0.013157750100113032 0 0.035526812676847652 0.012239821279333825 0 0.035574728779626662 0.01213508925685251 0 0.034999466748747203 0.011714557198091646 0 0.035667629365066712 0.012711848369657828 0 0.035000129904350551 0.011715975864971955 0 0.034999992956828929 0.013680177304094175 0 0.035817191249762008 0.013157750100113032 0 0.034999998360372792 0.011715843137223412 0 0.034993331587569891 0.010864875341353341 0 0.035020565824583828 0.01077303016794514 0 0.03499913441207108 0.010656652430592125 0 0.035574728779626662 0.01213508925685251 0 0.034999466748747203 0.011714557198091646 0 0.035000467351520001 0.010659872376200447 0 0.035265210045905375 0.011466930693393761 0 0.035000042549635894 0.010658864793268913 0 0.034718144192286915 0.011946258090739213 0 0.035781571760011496 0.0081961584694397755 0 0.034993331587569891 0.010864875341353341 0 0.035020565824583828 0.01077303016794514 0 0.034907444440621917 0.010936556167212331 0 0.034907444440621917 0.010936556167212331 0 0.034404470005173257 0.011250196538620201 0 0.034754081180193457 0.011604134917859296 0 0.035020565824583828 0.01077303016794514 0 0.034907444440621917 0.010936556167212331 0 0.035112661529523144 0.010753068951025334 0 0.034756030124151419 0.010806483728490699 0 0.034572890798004199 0.010612111726334011 0 0.034269652078126649 0.010976973996225485 0 0.034907444440621917 0.010936556167212331 0 0.034756030124151419 0.010806483728490699 0 0.034269652078126649 0.010976973996225485 0 0.034993331587569891 0.010864875341353341 0 0.034907444440621917 0.010936556167212331 0 0.034756030124151419 0.010806483728490699 0 0.034993331587569891 0.010864875341353341 0 0.034756030124151419 0.010806483728490699 0 0.034572890798004199 0.010612111726334011 0 0.034572890798004199 0.010612111726334011 0 0.03414575655771071 0.010641032778492305 0 0.034269652078126649 0.010976973996225485 0 0.03414575655771071 0.010641032778492305 0 0.034269652078126649 0.010976973996225485 0 0.033611064593376164 0.010827859935545286 0 0.033920642304125524 0.010322960175537041 0 0.03414575655771071 0.010641032778492305 0 0.033611064593376164 0.010827859935545286 0 0.034269652078126649 0.010976973996225485 0 0.033611064593376164 0.010827859935545286 0 0.033743263599067187 0.011446339268086447 0 0.034907444440621917 0.010936556167212331 0 0.034269652078126649 0.010976973996225485 0 0.034404470005173257 0.011250196538620201 0 0.034269652078126649 0.010976973996225485 0 0.033743263599067187 0.011446339268086447 0 0.034404470005173257 0.011250196538620201 0 0.033743263599067187 0.011446339268086447 0 0.034404470005173257 0.011250196538620201 0 0.034754081180193457 0.011604134917859296 0 0.036436237897543446 0.0013395022237240016 0 0.036982260732901749 0.0024198895847033016 0 0.037978616125595409 0.0018026825166567683 0 0.035176501984034082 0.0061826920575090366 0 0.035781571760011496 0.0081961584694397755 0 0.035532876982096187 0.0020914445185613146 0 0.036436237897543446 0.0013395022237240016 0 0.036982260732901749 0.0024198895847033016 0 0.036372631393543728 0.0035386114988441072 0 0.035532876982096187 0.0020914445185613146 0 0.036982260732901749 0.0024198895847033016 0 0.037597417332213369 0.0034152800371269219 0 0.036982260732901749 0.0024198895847033016 0 0.037978616125595409 0.0018026825166567683 0 0.037597417332213369 0.0034152800371269219 0 0.036372631393543728 0.0035386114988441072 0 0.036982260732901749 0.0024198895847033016 0 0.037617032283918744 0.0053983721296038296 0 0.035781571760011496 0.0081961584694397755 0 0.037174788609733007 0.0084009044481628166 0 0.036016549075525393 0.0094222716407653118 0 0.036721931868644635 0.010681463310368336 0 0.03499970881319614 0.0083689431761444118 0 0.036016549075525393 0.0094222716407653118 0 0.034999960476894978 0.010379919597228017 0 0.03500078101427849 0.01038129375980705 0 0.035781571760011496 0.0081961584694397755 0 0.035020565824583828 0.01077303016794514 0 0.035000610266875953 0.010382111565852201 0 0.035112661529523144 0.010753068951025334 0 0.036016549075525393 0.0094222716407653118 0 0.034999960476894978 0.010379919597228017 0 0.036721931868644635 0.010681463310368336 0 0.035020565824583828 0.01077303016794514 0 0.035000610266875953 0.010382111565852201 0 0.03499913441207108 0.010656652430592125 0 0.035490553749490394 0.025912783080079271 0 0.035348174099815076 0.025142746569025907 0 0.035461237070931378 0.025470854798854421 0 0.035348174099815076 0.025142746569025907 0 0.034999622081941774 0.025829328664546475 0 0.03499962844474775 0.023889729053319229 0 0.035490553749490394 0.025912783080079271 0 0.035348174099815076 0.025142746569025907 0 0.034999622081941774 0.025829328664546475 0 0.035490553749490394 0.025912783080079271 0 0.034999622081941774 0.025829328664546475 0 0.035562000769812571 0.026839456883906564 0 0.035490553749490394 0.025912783080079271 0 0.035440945456313898 0.026821546643237191 0 0.035562000769812571 0.026839456883906564 0 0.035267807926171235 0.02696509015797037 0 0.034437037892948691 0.027486746720620066 0 0.035440945456313898 0.026821546643237191 0 0.034228457818620543 0.028875051336301773 0 0.034933751057261431 0.02743140050942109 0 0.035440945456313898 0.026821546643237191 0 0.03533602943944298 0.026027086773552765 0 0.034939477111606686 0.02619194098372336 0 0.035490553749490394 0.025912783080079271 0 0.03533602943944298 0.026027086773552765 0 0.035461237070931378 0.025470854798854421 0 0.035490553749490394 0.025912783080079271 0 0.035440945456313898 0.026821546643237191 0 0.03533602943944298 0.026027086773552765 0 0.03533602943944298 0.026027086773552765 0 0.035249377196398056 0.026242628152200624 0 0.035461237070931378 0.025470854798854421 0 0.03602666507180842 0.024379879033856078 0 0.035828521937370607 0.024293659948589025 0 0.035249377196398056 0.026242628152200624 0 0.034554192294053709 0.02657585716327731 0 0.034939477111606686 0.02619194098372336 0 0.03533602943944298 0.026027086773552765 0 0.035249377196398056 0.026242628152200624 0 0.034939477111606686 0.02619194098372336 0 0.03602666507180842 0.024379879033856078 0 0.035318082937260242 0.024546795569203257 0 0.036917530018945197 0.022493603804915503 0 0.036693604886871879 0.022623714996415221 0 0.036056399048250261 0.022551718718806756 0 0.036917530018945197 0.022493603804915503 0 0.036693604886871879 0.022623714996415221 0 0.036913361991878085 0.022408448348223003 0 0.036917530018945197 0.022493603804915503 0 0.036913361991878085 0.022408448348223003 0 0.036453479387023931 0.023157658953376074 0 0.036913361991878085 0.022408448348223003 0 0.036453479387023931 0.023157658953376074 0 0.036171330019864147 0.021925146321026805 0 0.036453479387023931 0.023157658953376074 0 0.03499982885756988 0.023885639343604378 0 0.035000160342053943 0.022448618879298259 0 0.035828521937370607 0.024293659948589025 0 0.034999944782615304 0.023886393761099318 0 0.035348174099815076 0.025142746569025907 0 0.035461237070931378 0.025470854798854421 0 0.03499962844474775 0.023889729053319229 0 0.036453479387023931 0.023157658953376074 0 0.035000160342053943 0.022448618879298259 0 0.036171330019864147 0.021925146321026805 0 0.034999839005827191 0.021011206792585623 0 0.036171330019864147 0.021925146321026805 0 0.035735245270816576 0.020733604718087731 0 0.035000160342053943 0.022448618879298259 0 0.034999839005827191 0.021011206792585623 0 0.036171330019864147 0.021925146321026805 0 0.036913361991878085 0.022408448348223003 0 0.036171330019864147 0.021925146321026805 0 0.037097650499699833 0.022211725291376088 0 0.036171330019864147 0.021925146321026805 0 0.036495418861197289 0.021173210476901169 0 0.035735245270816576 0.020733604718087731 0 0.036171330019864147 0.021925146321026805 0 0.036495418861197289 0.021173210476901169 0 0.037097650499699833 0.022211725291376088 0 0.036495418861197289 0.021173210476901169 0 0.036156686896578034 0.020465749057362304 0 0.035735245270816576 0.020733604718087731 0 0.036156686896578034 0.020465749057362304 0 0.035735245270816576 0.020733604718087731 0 0.03594882588059238 0.019937201776073797 0 0.036156686896578034 0.020465749057362304 0 0.03594882588059238 0.019937201776073797 0 0.03615366885561043 0.020082079654444217 0 0.036156686896578034 0.020465749057362304 0 0.036575243286421311 0.020485851329611674 0 0.03615366885561043 0.020082079654444217 0 0.036575243286421311 0.020485851329611674 0 0.03615366885561043 0.020082079654444217 0 0.037169034075398462 0.020203035367396666 0 0.036495418861197289 0.021173210476901169 0 0.036575243286421311 0.020485851329611674 0 0.037169034075398462 0.020203035367396666 0 0.036402715718730279 0.020332119752950413 0 0.036400206273321682 0.021272418450002144 0 0.036495418861197289 0.021173210476901169 0 0.036156686896578034 0.020465749057362304 0 0.036575243286421311 0.020485851329611674 0 0.034999839005827191 0.021011206792585623 0 0.035735245270816576 0.020733604718087731 0 0.034999917122940941 0.019573874507497341 0 0.035735245270816576 0.020733604718087731 0 0.034999917122940941 0.019573874507497341 0 0.03594882588059238 0.019937201776073797 0 0.034999974870863378 0.019573108187505271 0 0.036138797911262607 0.019508273623750284 0 0.034999991740402088 0.017608842503611177 0 0.034999993155941052 0.019573313979324016 0 0.036309737397906501 0.019654221291049379 0 0.036138797911262607 0.019508273623750284 0 0.03698963579120515 0.017734638491636326 0 0.037265075132702823 0.019452845527770882 0 0.03594882588059238 0.019937201776073797 0 0.03615366885561043 0.020082079654444217 0 0.036800415317356915 0.019996150312760197 0 0.0359856151962697 0.012643268534801433 0 0.035124197304214407 0.017171044101378156 0 0.036309737397906501 0.019654221291049379 0 0.035124197304214407 0.017171044101378156 0 0.03615366885561043 0.020082079654444217 0 0.036800415317356915 0.019996150312760197 0 0.036828264407183474 0.02016968283441304 0 0.036138797911262607 0.019508273623750284 0 0.03698963579120515 0.017734638491636326 0 0.034999991740402088 0.017608842503611177 0 0.033592784149872532 0.0089786069346139072 0 0.034164465446002788 0.0085238676871101024 0 0.033458879806694777 0.0080658916359027423 0 0.034929985573779895 0.0089954229313068141 0 0.033592784149872532 0.0089786069346139072 0 0.034164465446002788 0.0085238676871101024 0 0.035339554486820579 0.023998416226961986 0 0.035009826405377462 0.024191784112333071 0 0.035332902973363244 0.023966304444412841 0 0.035124197304214407 0.017171044101378156 0 0.034190350972907541 0.015984560235617562 0 0.034164465446002788 0.0085238676871101024 0 0.034602257368055965 0.0079901517603613165 0 0.033458879806694777 0.0080658916359027423 0 0.034929985573779895 0.0089954229313068141 0 0.034164465446002788 0.0085238676871101024 0 0.034602257368055965 0.0079901517603613165 0 0.035124197304214407 0.017171044101378156 0 0.036400206273321682 0.021272418450002144 0 0.035009826405377462 0.024191784112333071 0 0.035332902973363244 0.023966304444412841 0 0.034975277878200865 0.024156012181210686 0 0.036753940760698468 0.023043799736734979 0 0.037371530136993847 0.023390294145947437 0 0.036214767674940002 0.023633740211928812 0 0.036400206273321682 0.021272418450002144 0 0.035587592759899471 0.024259721785532894 0 0.036753940760698468 0.023043799736734979 0 0.036416939079006241 0.023147263936203186 0 0.036214767674940002 0.023633740211928812 0 0.036495418861197289 0.021173210476901169 0 0.037169034075398462 0.020203035367396666 0 0.037097650499699833 0.022211725291376088 0 0.036400206273321682 0.021272418450002144 0 0.037246418898049458 0.022364296307468647 0 0.036753940760698468 0.023043799736734979 0 0.037371530136993847 0.023390294145947437 0 0.037097650499699833 0.022211725291376088 0 0.036693604886871879 0.022623714996415221 0 0.036913361991878085 0.022408448348223003 0 0.036777500976981237 0.022659096843078527 0 0.036753940760698468 0.023043799736734979 0 0.037097650499699833 0.022211725291376088 0 0.036777500976981237 0.022659096843078527 0 0.036913361991878085 0.022408448348223003 0 0.037097650499699833 0.022211725291376088 0 0.036777500976981237 0.022659096843078527 0 0.036416939079006241 0.023147263936203186 0 0.036777500976981237 0.022659096843078527 0 0.03632888140178666 0.022985521854440173 0 0.036753940760698468 0.023043799736734979 0 0.036416939079006241 0.023147263936203186 0 0.036777500976981237 0.022659096843078527 0 0.036693604886871879 0.022623714996415221 0 0.036777500976981237 0.022659096843078527 0 0.03632888140178666 0.022985521854440173 0 0.036693604886871879 0.022623714996415221 0 0.03632888140178666 0.022985521854440173 0 0.036056399048250261 0.022551718718806756 0 0.035786738479061532 0.023252753852047729 0 0.03632888140178666 0.022985521854440173 0 0.036056399048250261 0.022551718718806756 0 0.035786738479061532 0.023252753852047729 0 0.035509919433287206 0.023668375537291966 0 0.036016352802017926 0.02339778671943896 0 0.035786738479061532 0.023252753852047729 0 0.03632888140178666 0.022985521854440173 0 0.036016352802017926 0.02339778671943896 0 0.036416939079006241 0.023147263936203186 0 0.03632888140178666 0.022985521854440173 0 0.036016352802017926 0.02339778671943896 0 0.035786738479061532 0.023252753852047729 0 0.03497602993342009 0.02334795661003616 0 0.036056399048250261 0.022551718718806756 0 0.035786738479061532 0.023252753852047729 0 0.035509919433287206 0.023668375537291966 0 0.03497602993342009 0.02334795661003616 0 0.035509919433287206 0.023668375537291966 0 0.034925815203341197 0.023933091384401105 0 0.03497602993342009 0.02334795661003616 0 0.034820257636125479 0.024303988335444327 0 0.035587592759899471 0.024259721785532894 0 0.035509919433287206 0.023668375537291966 0 0.03503954163054674 0.024279098508976103 0 0.036214767674940002 0.023633740211928812 0 0.034645193834066376 0.02443919667198681 0 0.034975277878200865 0.024156012181210686 0 0.034705250517557053 0.024468539791045064 0 0.035509919433287206 0.023668375537291966 0 0.03503954163054674 0.024279098508976103 0 0.034925815203341197 0.023933091384401105 0 0.035509919433287206 0.023668375537291966 0 0.036016352802017926 0.02339778671943896 0 0.036214767674940002 0.023633740211928812 0 0.036416939079006241 0.023147263936203186 0 0.036016352802017926 0.02339778671943896 0 0.036214767674940002 0.023633740211928812 0 0.032744085241660913 0.0089448760583325342 0 0.033458879806694777 0.0080658916359027423 0 0.032562959788795615 0.0080916980170509713 0 0.034190350972907541 0.015984560235617562 0 0.033651998533272824 0.016293353949597914 0 0.035009826405377462 0.024191784112333071 0 0.034975277878200865 0.024156012181210686 0 0.034705250517557053 0.024468539791045064 0 0.032744085241660913 0.0089448760583325342 0 0.032562959788795615 0.0080916980170509713 0 0.032054077201738633 0.008593449112512962 0 0.032744085241660913 0.0089448760583325342 0 0.033592784149872532 0.0089786069346139072 0 0.033458879806694777 0.0080658916359027423 0 0.031833305590459583 0.009208665075106176 0 0.032054077201738633 0.008593449112512962 0 0.031155656326749739 0.0087082023776868488 0 0.031833305590459583 0.009208665075106176 0 0.032744085241660913 0.0089448760583325342 0 0.032054077201738633 0.008593449112512962 0 0.033651998533272824 0.016293353949597914 0 0.032855750027749459 0.016551897480350318 0 0.032562959788795615 0.0080916980170509713 0 0.032054077201738633 0.008593449112512962 0 0.031609235201738355 0.008151516359064654 0 0.034645193834066376 0.02443919667198681 0 0.034705250517557053 0.024468539791045064 0 0.034365282149882159 0.024810602785783641 0 0.032054077201738633 0.008593449112512962 0 0.031609235201738355 0.008151516359064654 0 0.031155656326749739 0.0087082023776868488 0 0.034365282149882159 0.024810602785783641 0 0.034220974278717356 0.024722097486350521 0 0.033968063243042738 0.02488249112933786 0 0.034645193834066376 0.02443919667198681 0 0.034365282149882159 0.024810602785783641 0 0.034220974278717356 0.024722097486350521 0 0.034220974278717356 0.024722097486350521 0 0.034584025672665733 0.024397964592734661 0 0.03427103039920848 0.024751083846116104 0 0.03503954163054674 0.024279098508976103 0 0.034220974278717356 0.024722097486350521 0 0.034584025672665733 0.024397964592734661 0 0.034820257636125479 0.024303988335444327 0 0.034248641317115455 0.024679283170979432 0 0.03503954163054674 0.024279098508976103 0 0.034584025672665733 0.024397964592734661 0 0.034925815203341197 0.023933091384401105 0 0.034525863416529683 0.024663661488394505 0 0.034381211454592962 0.024706675935753944 0 0.034925815203341197 0.023933091384401105 0 0.03497602993342009 0.02334795661003616 0 0.03427103039920848 0.024751083846116104 0 0.034584025672665733 0.024397964592734661 0 0.034925815203341197 0.023933091384401105 0 0.03427103039920848 0.024751083846116104 0 0.033847521283107709 0.026007968095973361 0 0.03427103039920848 0.024751083846116104 0 0.034413329671242436 0.025410069505495642 0 0.033292634514759216 0.02661273035806256 0 0.033761870492881846 0.026727256370384669 0 0.032194059248472261 0.027910164735567112 0 0.032278269355796189 0.027348094130384082 0 0.033839707011024081 0.026751503497622158 0 0.032278269355796189 0.027348094130384082 0 0.033839707011024081 0.026751503497622158 0 0.032670070758932433 0.026182892917478124 0 0.033847521283107709 0.026007968095973361 0 0.034413329671242436 0.025410069505495642 0 0.033839707011024081 0.026751503497622158 0 0.033847521283107709 0.026007968095973361 0 0.033839707011024081 0.026751503497622158 0 0.034202473796477881 0.026455986669888704 0 0.034525863416529683 0.024663661488394505 0 0.035318082937260242 0.024546795569203257 0 0.033847521283107709 0.026007968095973361 0 0.034554192294053709 0.02657585716327731 0 0.034202473796477881 0.026455986669888704 0 0.034554192294053709 0.02657585716327731 0 0.034939477111606686 0.02619194098372336 0 0.034202473796477881 0.026455986669888704 0 0.033839707011024081 0.026751503497622158 0 0.034202473796477881 0.026455986669888704 0 0.034390817822376102 0.026285253197646335 0 0.034939477111606686 0.02619194098372336 0 0.034202473796477881 0.026455986669888704 0 0.034390817822376102 0.026285253197646335 0 0.034390817822376102 0.026285253197646335 0 0.034854024313699439 0.026137351976385424 0 0.033990270856671077 0.025894352065360358 0 0.034939477111606686 0.02619194098372336 0 0.034390817822376102 0.026285253197646335 0 0.034854024313699439 0.026137351976385424 0 0.035440945456313898 0.026821546643237191 0 0.034939477111606686 0.02619194098372336 0 0.034854024313699439 0.026137351976385424 0 0.034228457818620543 0.028875051336301773 0 0.032136283701103878 0.030072827433971161 0 0.033177792491752012 0.028369592092031635 0 0.034437037892948691 0.027486746720620066 0 0.033027256344060514 0.027986109881451879 0 0.032136283701103878 0.030072827433971161 0 0.031430295191933383 0.029060538764822553 0 0.029824221457045021 0.030652260454329554 0 0.032136283701103878 0.030072827433971161 0 0.031430295191933383 0.029060538764822553 0 0.033177792491752012 0.028369592092031635 0 0.029824221457045021 0.030652260454329554 0 0.028924591383151673 0.029597531398252826 0 0.03010676399146665 0.028994432930579139 0 0.031430295191933383 0.029060538764822553 0 0.029824221457045021 0.030652260454329554 0 0.03010676399146665 0.028994432930579139 0 0.033027256344060514 0.027986109881451879 0 0.031261934032525758 0.028395986863389063 0 0.033839707011024081 0.026751503497622158 0 0.033990270856671077 0.025894352065360358 0 0.032670070758932433 0.026182892917478124 0 0.033839707011024081 0.026751503497622158 0 0.034390817822376102 0.026285253197646335 0 0.033990270856671077 0.025894352065360358 0 0.027744769274678286 0.030127413678416006 0 0.027768073581918101 0.030524487152987369 0 0.028368513955161039 0.030137393742716428 0 0.027744769274678286 0.030127413678416006 0 0.027768073581918101 0.030524487152987369 0 0.027300639336364372 0.029998677796317961 0 0.027744769274678286 0.030127413678416006 0 0.027836490740702418 0.029830166819443761 0 0.027300639336364372 0.029998677796317961 0 0.029824221457045021 0.030652260454329554 0 0.027768073581918101 0.030524487152987369 0 0.028368513955161039 0.030137393742716428 0 0.032670070758932433 0.026182892917478124 0 0.030616291964936749 0.027010740857868615 0 0.031168938534040427 0.027815337404016031 0 0.031261934032525758 0.028395986863389063 0 0.029264952529660004 0.02879850661553713 0 0.028368513955161039 0.030137393742716428 0 0.028924591383151673 0.029597531398252826 0 0.027836490740702418 0.029830166819443761 0 0.029824221457045021 0.030652260454329554 0 0.028368513955161039 0.030137393742716428 0 0.028924591383151673 0.029597531398252826 0 0.028924591383151673 0.029597531398252826 0 0.02917630968355359 0.028766904791419457 0 0.03010676399146665 0.028994432930579139 0 0.028924591383151673 0.029597531398252826 0 0.027836490740702418 0.029830166819443761 0 0.028386547363204829 0.029070599112678099 0 0.027836490740702418 0.029830166819443761 0 0.027625305069076612 0.02940316532260312 0 0.028386547363204829 0.029070599112678099 0 0.027744769274678286 0.030127413678416006 0 0.028368513955161039 0.030137393742716428 0 0.027836490740702418 0.029830166819443761 0 0.027836490740702418 0.029830166819443761 0 0.02705912533492915 0.029735634533082887 0 0.027300639336364372 0.029998677796317961 0 0.027836490740702418 0.029830166819443761 0 0.027625305069076612 0.02940316532260312 0 0.02705912533492915 0.029735634533082887 0 0.02705912533492915 0.029735634533082887 0 0.02668882581908907 0.029792801266078594 0 0.027300639336364372 0.029998677796317961 0 0.02705912533492915 0.029735634533082887 0 0.02668882581908907 0.029792801266078594 0 0.02650888953038999 0.029656232363237122 0 0.026136294544721217 0.029849320432765832 0 0.02668882581908907 0.029792801266078594 0 0.026224823762408027 0.029872429847266159 0 0.026136294544721217 0.029849320432765832 0 0.02668882581908907 0.029792801266078594 0 0.02650888953038999 0.029656232363237122 0 0.02668882581908907 0.029792801266078594 0 0.027120687286429166 0.029521332300565167 0 0.026344407880907899 0.029902799746734474 0 0.02668882581908907 0.029792801266078594 0 0.027300639336364372 0.029998677796317961 0 0.027120687286429166 0.029521332300565167 0 0.029264952529660004 0.02879850661553713 0 0.027399157671109155 0.029393052818518062 0 0.027768073581918101 0.030524487152987369 0 0.027300639336364372 0.029998677796317961 0 0.027120687286429166 0.029521332300565167 0 0.027613851061251537 0.030167764703305559 0 0.029039387950520773 0.030905173813122969 0 0.028930254857891028 0.028978081296692906 0 0.030616291964936749 0.027010740857868615 0 0.027120687286429166 0.029521332300565167 0 0.028930254857891028 0.028978081296692906 0 0.027120687286429166 0.029521332300565167 0 0.027613851061251537 0.030167764703305559 0 0.028930254857891028 0.028978081296692906 0 0.027120687286429166 0.029521332300565167 0 0.027613851061251537 0.030167764703305559 0 0.026344407880907899 0.029902799746734474 0 0.02713269918099185 0.030744604060337705 0 0.027613851061251537 0.030167764703305559 0 0.026344407880907899 0.029902799746734474 0 0.027114370775805953 0.030694232175986616 0 0.026384794447490936 0.030101507823994501 0 0.027075119141682223 0.030592613037894935 0 0.026862564690983859 0.031097677399060348 0 0.026540101593803357 0.030633422459381023 0 0.02713269918099185 0.030744604060337705 0 0.027613851061251537 0.030167764703305559 0 0.027943875931225978 0.031060213768901456 0 0.027613851061251537 0.030167764703305559 0 0.027943875931225978 0.031060213768901456 0 0.029039387950520773 0.030905173813122969 0 0.032380830064673918 0.027754382716093255 0 0.032068605512387369 0.027509660448263171 0 0.032435708994836367 0.027153248215465296 0 0.032380830064673918 0.027754382716093255 0 0.031858300944931923 0.027748235019975653 0 0.032068605512387369 0.027509660448263171 0 0.029039387950520773 0.030905173813122969 0 0.031168938534040427 0.027815337404016031 0 0.028930254857891028 0.028978081296692906 0 0.032380830064673918 0.027754382716093255 0 0.031168938534040427 0.027815337404016031 0 0.031858300944931923 0.027748235019975653 0 0.030843755267396033 0.028843269324959987 0 0.031147227882033168 0.027979569203739351 0 0.030616291964936749 0.027010740857868615 0 0.031168938534040427 0.027815337404016031 0 0.028930254857891028 0.028978081296692906 0 0.032278269355796189 0.027348094130384082 0 0.031168938534040427 0.027815337404016031 0 0.031858300944931923 0.027748235019975653 0 0.032278269355796189 0.027348094130384082 0 0.032670070758932433 0.026182892917478124 0 0.031168938534040427 0.027815337404016031 0 0.032194059248472261 0.027910164735567112 0 0.031858300944931923 0.027748235019975653 0 0.032068605512387369 0.027509660448263171 0 0.032194059248472261 0.027910164735567112 0 0.032278269355796189 0.027348094130384082 0 0.031858300944931923 0.027748235019975653 0 0.034220974278717356 0.024722097486350521 0 0.03427103039920848 0.024751083846116104 0 0.034034294942383379 0.024623669226924261 0 0.033292634514759216 0.02661273035806256 0 0.033076576595512129 0.025758422681482287 0 0.03427103039920848 0.024751083846116104 0 0.034413329671242436 0.025410069505495642 0 0.034034294942383379 0.024623669226924261 0 0.032194059248472261 0.027910164735567112 0 0.032068605512387369 0.027509660448263171 0 0.031980936610614151 0.026781162277324484 0 0.032380830064673918 0.027754382716093255 0 0.032435708994836367 0.027153248215465296 0 0.033404941328386943 0.0265241516289519 0 0.030843755267396033 0.028843269324959987 0 0.030441703373462359 0.030527273916615326 0 0.031980936610614151 0.026781162277324484 0 0.032435708994836367 0.027153248215465296 0 0.033404941328386943 0.0265241516289519 0 0.032068605512387369 0.027509660448263171 0 0.031980936610614151 0.026781162277324484 0 0.032435708994836367 0.027153248215465296 0 0.033076576595512129 0.025758422681482287 0 0.033363681679401756 0.025319496657526998 0 0.034034294942383379 0.024623669226924261 0 0.033968063243042738 0.02488249112933786 0 0.033401646909089977 0.025312489864067689 0 0.031980936610614151 0.026781162277324484 0 0.033401646909089977 0.025312489864067689 0 0.033404941328386943 0.0265241516289519 0 0.034220974278717356 0.024722097486350521 0 0.034034294942383379 0.024623669226924261 0 0.033968063243042738 0.02488249112933786 0 0.034365282149882159 0.024810602785783641 0 0.033968063243042738 0.02488249112933786 0 0.033673160299096082 0.025222137321926477 0 0.032855750027749459 0.016551897480350318 0 0.0326856385896174 0.016228132597732415 0 0.031609235201738355 0.008151516359064654 0 0.030720230255771457 0.0082898254060290982 0 0.031155656326749739 0.0087082023776868488 0 0.033968063243042738 0.02488249112933786 0 0.033673160299096082 0.025222137321926477 0 0.033401646909089977 0.025312489864067689 0 0.033673160299096082 0.025222137321926477 0 0.033401646909089977 0.025312489864067689 0 0.033390193474921254 0.02528944219492156 0 0.030720230255771457 0.0082898254060290982 0 0.030367238459241601 0.0087450706456499595 0 0.030043279442744007 0.0084527392907433781 0 0.0326856385896174 0.016228132597732415 0 0.02960270572996852 0.02094641914887441 0 0.030720230255771457 0.0082898254060290982 0 0.030699663433303364 0.0086874433363046018 0 0.030367238459241601 0.0087450706456499595 0 0.030576571471396471 0.0089996426349523827 0 0.030317174753193191 0.0089593558052356841 0 0.030367238459241601 0.0087450706456499595 0 0.030576571471396471 0.0089996426349523827 0 0.030699663433303364 0.0086874433363046018 0 0.030367238459241601 0.0087450706456499595 0 0.030576571471396471 0.0089996426349523827 0 0.030699663433303364 0.0086874433363046018 0 0.031155656326749739 0.0087082023776868488 0 0.030720230255771457 0.0082898254060290982 0 0.030699663433303364 0.0086874433363046018 0 0.031155656326749739 0.0087082023776868488 0 0.02547783873805096 0.011267630972574749 0 0.025501081983856849 0.011224510738994053 0 0.025427528511842181 0.011203124949309761 0 0.026873443264675445 0.016330528075975629 0 0.027496310140736887 0.017895814645272051 0 0.027802877296974331 0.017109443485273632 0 0.028215499927887553 0.01032904242503995 0 0.02960270572996852 0.02094641914887441 0 0.028215499927887553 0.01032904242503995 0 0.026287543797368407 0.013889767265273266 0 0.029884692110721953 0.0089139051184912079 0 0.030138423652340575 0.0088840308176620919 0 0.030043279442744007 0.0084527392907433781 0 0.030367238459241601 0.0087450706456499595 0 0.030138423652340575 0.0088840308176620919 0 0.030043279442744007 0.0084527392907433781 0 0.030317174753193191 0.0089593558052356841 0 0.030367238459241601 0.0087450706456499595 0 0.030138423652340575 0.0088840308176620919 0 0.026873443264675445 0.016330528075975629 0 0.026257077127339247 0.017926439148552603 0 0.027496310140736887 0.017895814645272051 0 0.027542253913786945 0.032138722930098541 0 0.027290859589770882 0.031901877726614083 0 0.026817255463089568 0.032160953895888841 0 0.02960270572996852 0.02094641914887441 0 0.026778188429728577 0.025322605244165804 0 0.026837819795023289 0.031768893149632403 0 0.027290859589770882 0.031901877726614083 0 0.026817255463089568 0.032160953895888841 0 0.026837819795023289 0.031768893149632403 0 0.027290859589770882 0.031901877726614083 0 0.027184770868117315 0.031704947907514255 0 0.027290859589770882 0.031901877726614083 0 0.027437296760848384 0.031678239037284457 0 0.027636182949499231 0.031815014285412821 0 0.027290859589770882 0.031901877726614083 0 0.027184770868117315 0.031704947907514255 0 0.027437296760848384 0.031678239037284457 0 0.027184770868117315 0.031704947907514255 0 0.027437296760848384 0.031678239037284457 0 0.027202179229490919 0.031541920836011622 0 0.027437296760848384 0.031678239037284457 0 0.027202179229490919 0.031541920836011622 0 0.027364337436779101 0.031362333786842209 0 0.027184770868117315 0.031704947907514255 0 0.027202179229490919 0.031541920836011622 0 0.026898048078112836 0.031479985621197165 0 0.026837819795023289 0.031768893149632403 0 0.027184770868117315 0.031704947907514255 0 0.026898048078112836 0.031479985621197165 0 0.02960270572996852 0.02094641914887441 0 0.030441703373462359 0.030527273916615326 0 0.033401646909089977 0.025312489864067689 0 0.033390193474921254 0.02528944219492156 0 0.033404941328386943 0.0265241516289519 0 0.027542253913786945 0.032138722930098541 0 0.027636182949499231 0.031815014285412821 0 0.027993313413708341 0.031594723267727831 0 0.027542253913786945 0.032138722930098541 0 0.027290859589770882 0.031901877726614083 0 0.027636182949499231 0.031815014285412821 0 0.027636182949499231 0.031815014285412821 0 0.027801287218927054 0.031640193979050879 0 0.027993313413708341 0.031594723267727831 0 0.027437296760848384 0.031678239037284457 0 0.027652076233524066 0.031613928325280899 0 0.027364337436779101 0.031362333786842209 0 0.027437296760848384 0.031678239037284457 0 0.027636182949499231 0.031815014285412821 0 0.027652076233524066 0.031613928325280899 0 0.027801287218927054 0.031640193979050879 0 0.027652076233524066 0.031613928325280899 0 0.027927125638310842 0.031531356351352652 0 0.027636182949499231 0.031815014285412821 0 0.027801287218927054 0.031640193979050879 0 0.027652076233524066 0.031613928325280899 0 0.027114370775805953 0.030694232175986616 0 0.027860261125907573 0.031476715740934386 0 0.027943875931225978 0.031060213768901456 0 0.029039387950520773 0.030905173813122969 0 0.027993313413708341 0.031594723267727831 0 0.02713269918099185 0.030744604060337705 0 0.027943875931225978 0.031060213768901456 0 0.027927125638310842 0.031531356351352652 0 0.027075119141682223 0.030592613037894935 0 0.027927125638310842 0.031531356351352652 0 0.027364337436779101 0.031362333786842209 0 0.027943875931225978 0.031060213768901456 0 0.027993313413708341 0.031594723267727831 0 0.027927125638310842 0.031531356351352652 0 0.027801287218927054 0.031640193979050879 0 0.027993313413708341 0.031594723267727831 0 0.027927125638310842 0.031531356351352652 0 0.027652076233524066 0.031613928325280899 0 0.027927125638310842 0.031531356351352652 0 0.027364337436779101 0.031362333786842209 0 0.027075119141682223 0.030592613037894935 0 0.027364337436779101 0.031362333786842209 0 0.026862564690983859 0.031097677399060348 0 0.027202179229490919 0.031541920836011622 0 0.026898048078112836 0.031479985621197165 0 0.026862564690983859 0.031097677399060348 0 0.026898048078112836 0.031479985621197165 0 0.026862564690983859 0.031097677399060348 0 0.026601847985702368 0.031235262253776576 0 0.027202179229490919 0.031541920836011622 0 0.027364337436779101 0.031362333786842209 0 0.026862564690983859 0.031097677399060348 0 0.026862564690983859 0.031097677399060348 0 0.026493289639843164 0.030933844633928901 0 0.026540101593803357 0.030633422459381023 0 0.026493289639843164 0.030933844633928901 0 0.026256055092950585 0.030878168719114425 0 0.026313955229734069 0.03071121987589329 0 0.026256055092950585 0.030878168719114425 0 0.026379790332388908 0.03110217950749113 0 0.026163093558380323 0.031097964814725876 0 0.026493289639843164 0.030933844633928901 0 0.026256055092950585 0.030878168719114425 0 0.026379790332388908 0.03110217950749113 0 0.026379790332388908 0.03110217950749113 0 0.026163093558380323 0.031097964814725876 0 0.026310224120244367 0.031369919575190697 0 0.026379790332388908 0.03110217950749113 0 0.026601847985702368 0.031235262253776576 0 0.026310224120244367 0.031369919575190697 0 0.026862564690983859 0.031097677399060348 0 0.026493289639843164 0.030933844633928901 0 0.026601847985702368 0.031235262253776576 0 0.026493289639843164 0.030933844633928901 0 0.026379790332388908 0.03110217950749113 0 0.026601847985702368 0.031235262253776576 0 0.026072716357626102 0.030782883707406332 0 0.025925015952354843 0.030787736887136735 0 0.025980465816142238 0.030667872397580714 0 0.026072716357626102 0.030782883707406332 0 0.025980465816142238 0.030667872397580714 0 0.026140098140442342 0.030676690805095799 0 0.026256055092950585 0.030878168719114425 0 0.026072716357626102 0.030782883707406332 0 0.026140098140442342 0.030676690805095799 0 0.026256055092950585 0.030878168719114425 0 0.026072716357626102 0.030782883707406332 0 0.026080571774018443 0.030854928725693207 0 0.026256055092950585 0.030878168719114425 0 0.026163093558380323 0.031097964814725876 0 0.025922745023668661 0.031333101868959906 0 0.025957034044715929 0.03066173796735033 0 0.024915034095233712 0.030380284267705688 0 0.026163093558380323 0.031097964814725876 0 0.025978707557435133 0.031278763133088756 0 0.026310224120244367 0.031369919575190697 0 0.025496222693181126 0.030573755269882555 0 0.024915034095233712 0.030380284267705688 0 0.026072716357626102 0.030782883707406332 0 0.026080571774018443 0.030854928725693207 0 0.025925015952354843 0.030787736887136735 0 0.026080571774018443 0.030854928725693207 0 0.025896636654042234 0.030901294439101536 0 0.025925015952354843 0.030787736887136735 0 0.02256962307907559 0.028219757225059511 0 0.025511158707751409 0.025469782732659985 0 0.025025921381863513 0.02508928394775508 0 0.025978707557435133 0.031278763133088756 0 0.026073967408407124 0.031647683418620703 0 0.025583384063697579 0.031722979477508052 0 0.024915034095233712 0.030380284267705688 0 0.02417813477557474 0.024739500809993778 0 0.024915034095233712 0.030380284267705688 0 0.022039459929189903 0.022864056685230175 0 0.025978707557435133 0.031278763133088756 0 0.026073967408407124 0.031647683418620703 0 0.026310224120244367 0.031369919575190697 0 0.026073967408407124 0.031647683418620703 0 0.02645780536602986 0.031757096254501148 0 0.026051922119006216 0.032107570349751403 0 0.026073967408407124 0.031647683418620703 0 0.026051922119006216 0.032107570349751403 0 0.025583384063697579 0.031722979477508052 0 0.026601847985702368 0.031235262253776576 0 0.026641257241985263 0.03151469039717264 0 0.026310224120244367 0.031369919575190697 0 0.026837819795023289 0.031768893149632403 0 0.026898048078112836 0.031479985621197165 0 0.026641257241985263 0.03151469039717264 0 0.026898048078112836 0.031479985621197165 0 0.026601847985702368 0.031235262253776576 0 0.026641257241985263 0.03151469039717264 0 0.026073967408407124 0.031647683418620703 0 0.026310224120244367 0.031369919575190697 0 0.02645780536602986 0.031757096254501148 0 0.026641257241985263 0.03151469039717264 0 0.026310224120244367 0.031369919575190697 0 0.02645780536602986 0.031757096254501148 0 0.026837819795023289 0.031768893149632403 0 0.026641257241985263 0.03151469039717264 0 0.02645780536602986 0.031757096254501148 0 0.026837819795023289 0.031768893149632403 0 0.02645780536602986 0.031757096254501148 0 0.026817255463089568 0.032160953895888841 0 0.026778188429728577 0.025322605244165804 0 0.026620174485791348 0.019802670077255037 0 0.027496310140736887 0.017895814645272051 0 0.028708178377108994 0.017876783194597883 0 0.027802877296974331 0.017109443485273632 0 0.02645780536602986 0.031757096254501148 0 0.026817255463089568 0.032160953895888841 0 0.026051922119006216 0.032107570349751403 0 0.026620174485791348 0.019802670077255037 0 0.026287543797368407 0.013889767265273266 0 0.025338188499552147 0.011162704665176137 0 0.025338512876916901 0.011244245244545561 0 0.025167587577813479 0.011160119706882769 0 0.026620174485791348 0.019802670077255037 0 0.022966736135960425 0.014932414847589278 0 0.025233616324778271 0.019497248835116381 0 0.0241357860787654 0.019499845434732488 0 0.024573187978515699 0.018989957181272204 0 0.026620174485791348 0.019802670077255037 0 0.02417813477557474 0.024739500809993778 0 0.02547783873805096 0.011267630972574749 0 0.025338512876916901 0.011244245244545561 0 0.025427528511842181 0.011203124949309761 0 0.025338188499552147 0.011162704665176137 0 0.025338512876916901 0.011244245244545561 0 0.025427528511842181 0.011203124949309761 0 0.017963828595295248 0.01405807056993749 0 0.015971648465211642 0.010853386200670414 0 0.020571169563878597 0.0043731050608343362 0 0.022290604077412082 0.0044042393182403775 0 0.02185690320363139 0.0027953458268709101 0 0.017698713248464205 0.0089323266978248699 0 0.017462322908326285 0.0095320732090776149 0 0.017941357258561618 0.008997121773151635 0 0.019129283120138452 0.0061472194491168771 0 0.02157434952280933 0.010075165634943936 0 0.024066541916890276 0.0041373289864674381 0 0.022290604077412082 0.0044042393182403775 0 0.02185690320363139 0.0027953458268709101 0 0.02481256071219334 0.0072888973061251243 0 0.02157434952280933 0.010075165634943936 0 0.025338512876916901 0.011244245244545561 0 0.025137071724061624 0.011184102425100699 0 0.025167587577813479 0.011160119706882769 0 0.02157434952280933 0.010075165634943936 0 0.022966736135960425 0.014932414847589278 0 0.02157434952280933 0.010075165634943936 0 0.017963828595295248 0.01405807056993749 0 0.021004519808083825 0.014775319927983185 0 0.02179232423119307 0.013813814310627889 0 0.020236880735073383 0.013844974129397204 0 0.022966736135960425 0.014932414847589278 0 0.02417813477557474 0.024739500809993778 0 0.017963828595295248 0.01405807056993749 0 0.022039459929189903 0.022864056685230175 0 0.021609171635919546 0.017818980913035035 0 0.022900437575968428 0.01777236119789647 0 0.020487982853473866 0.020053271707165761 0 0.022966736135960425 0.014932414847589278 0 0.017963828595295248 0.01405807056993749 0 0.013661529953673226 0.014413046662233569 0 0.014228361588787307 0.01439355680617518 0 0.015262990042074657 0.01543853972363184 0 0.017698713248464205 0.0089323266978248699 0 0.017375885058432673 0.0094174656053459069 0 0.017462322908326285 0.0095320732090776149 0 0.014979695163992446 0.015498687205682109 0 0.014971321278732285 0.015502243836054823 0 0.014989828907086731 0.015572069818132193 0 0.013629863822917383 0.014417969417259011 0 0.014641371643890878 0.014000060282456487 0 0.014731871435719487 0.01326590838478014 0 0.015254125778790342 0.014399145985961825 0 0.014071566673086006 0.014412467322089759 0 0.013775393630289708 0.014410689227672266 0 0.013629863822917383 0.014417969417259011 0 0.014641371643890878 0.014000060282456487 0 0.013775393630289708 0.014410689227672266 0 0.014228361588787307 0.01439355680617518 0 0.014641371643890878 0.014000060282456487 0 0.015254125778790342 0.014399145985961825 0 0.017963828595295248 0.01405807056993749 0 0.014979695163992446 0.015498687205682109 0 0.014989828907086731 0.015572069818132193 0 0.015262990042074657 0.01543853972363184 0 0.014989828907086731 0.015572069818132193 0 0.014944835090782564 0.015800519450634407 0 0.015262990042074657 0.01543853972363184 0 0.015254125778790342 0.014399145985961825 0 0.014908565550705473 0.015541059842811428 0 0.025896636654042234 0.030901294439101536 0 0.025925015952354843 0.030787736887136735 0 0.025694663660798041 0.03073664209601356 0 0.022039459929189903 0.022864056685230175 0 0.020105446229105695 0.023257454146535093 0 0.014989828907086731 0.015572069818132193 0 0.014899341476402983 0.01563438215103384 0 0.014944835090782564 0.015800519450634407 0 0.014971321278732285 0.015502243836054823 0 0.014989828907086731 0.015572069818132193 0 0.014899341476402983 0.01563438215103384 0 0.021609171635919546 0.017818980913035035 0 0.020487982853473866 0.020053271707165761 0 0.020104218450711898 0.019752214748179297 0 0.022039459929189903 0.022864056685230175 0 0.02417813477557474 0.024739500809993778 0 0.025925015952354843 0.030787736887136735 0 0.025839279806861987 0.030670627588355103 0 0.025694663660798041 0.03073664209601356 0 0.025925015952354843 0.030787736887136735 0 0.025839279806861987 0.030670627588355103 0 0.025980465816142238 0.030667872397580714 0 0.025694663660798041 0.03073664209601356 0 0.02573830441431783 0.030584219910747893 0 0.025509930776793744 0.030567825497306821 0 0.020105446229105695 0.023257454146535093 0 0.020476880879052913 0.023230384567760366 0 0.025839279806861987 0.030670627588355103 0 0.025694663660798041 0.03073664209601356 0 0.02573830441431783 0.030584219910747893 0 0.02573830441431783 0.030584219910747893 0 0.025682760023447226 0.030460568678258762 0 0.025509930776793744 0.030567825497306821 0 0.02573830441431783 0.030584219910747893 0 0.025682760023447226 0.030460568678258762 0 0.02580199411202817 0.030470662108791881 0 0.025682760023447226 0.030460568678258762 0 0.025697257809686208 0.030371917476871495 0 0.025570419826654086 0.030410411730458106 0 0.025682760023447226 0.030460568678258762 0 0.025697257809686208 0.030371917476871495 0 0.025775247425258708 0.030384255200514711 0 0.025682760023447226 0.030460568678258762 0 0.025775247425258708 0.030384255200514711 0 0.02580199411202817 0.030470662108791881 0 0.025775247425258708 0.030384255200514711 0 0.025823460219742033 0.030332280914850615 0 0.025880164545726808 0.030369114618832637 0 0.025775247425258708 0.030384255200514711 0 0.025823460219742033 0.030332280914850615 0 0.025762941638530941 0.030331637868631928 0 0.025697257809686208 0.030371917476871495 0 0.025762941638530941 0.030331637868631928 0 0.025695883475903465 0.030288977718784763 0 0.025697257809686208 0.030371917476871495 0 0.025775247425258708 0.030384255200514711 0 0.025762941638530941 0.030331637868631928 0 0.025880164545726808 0.030369114618832637 0 0.02599085669478712 0.030311741341705657 0 0.025882032488207793 0.030305273811166326 0 0.025880164545726808 0.030369114618832637 0 0.026001390967941088 0.03040724924030986 0 0.02599085669478712 0.030311741341705657 0 0.025823460219742033 0.030332280914850615 0 0.025880164545726808 0.030369114618832637 0 0.025882032488207793 0.030305273811166326 0 0.025880164545726808 0.030369114618832637 0 0.02590630886253377 0.030460072657585751 0 0.02580199411202817 0.030470662108791881 0 0.025775247425258708 0.030384255200514711 0 0.025880164545726808 0.030369114618832637 0 0.02580199411202817 0.030470662108791881 0 0.025880164545726808 0.030369114618832637 0 0.02590630886253377 0.030460072657585751 0 0.026001390967941088 0.03040724924030986 0 0.02590630886253377 0.030460072657585751 0 0.026022722750597804 0.030532303276053024 0 0.026001390967941088 0.03040724924030986 0 0.02590630886253377 0.030460072657585751 0 0.025936794812147279 0.030547876884006547 0 0.025863810998347579 0.030580705241113244 0 0.02590630886253377 0.030460072657585751 0 0.025936794812147279 0.030547876884006547 0 0.026022722750597804 0.030532303276053024 0 0.02590630886253377 0.030460072657585751 0 0.02580199411202817 0.030470662108791881 0 0.025863810998347579 0.030580705241113244 0 0.025839279806861987 0.030670627588355103 0 0.02573830441431783 0.030584219910747893 0 0.025863810998347579 0.030580705241113244 0 0.02573830441431783 0.030584219910747893 0 0.02580199411202817 0.030470662108791881 0 0.025863810998347579 0.030580705241113244 0 0.025839279806861987 0.030670627588355103 0 0.025863810998347579 0.030580705241113244 0 0.025980465816142238 0.030667872397580714 0 0.025936794812147279 0.030547876884006547 0 0.025863810998347579 0.030580705241113244 0 0.025980465816142238 0.030667872397580714 0 0.025936794812147279 0.030547876884006547 0 0.025980465816142238 0.030667872397580714 0 0.026022722750597804 0.030532303276053024 0 0.025980465816142238 0.030667872397580714 0 0.026140098140442342 0.030676690805095799 0 0.026022722750597804 0.030532303276053024 0 0.026140098140442342 0.030676690805095799 0 0.026213495562042756 0.030504775852258234 0 0.026313955229734069 0.03071121987589329 0 0.026140098140442342 0.030676690805095799 0 0.026213495562042756 0.030504775852258234 0 0.026022722750597804 0.030532303276053024 0 0.026213495562042756 0.030504775852258234 0 0.026022722750597804 0.030532303276053024 0 0.026001390967941088 0.03040724924030986 0 0.026213495562042756 0.030504775852258234 0 0.026540101593803357 0.030633422459381023 0 0.026398644936058629 0.030255058161087797 0 0.027075119141682223 0.030592613037894935 0 0.026540101593803357 0.030633422459381023 0 0.026398644936058629 0.030255058161087797 0 0.026213495562042756 0.030504775852258234 0 0.026540101593803357 0.030633422459381023 0 0.026313955229734069 0.03071121987589329 0 0.026493289639843164 0.030933844633928901 0 0.026540101593803357 0.030633422459381023 0 0.026313955229734069 0.03071121987589329 0 0.026256055092950585 0.030878168719114425 0 0.026140098140442342 0.030676690805095799 0 0.026313955229734069 0.03071121987589329 0 0.026213495562042756 0.030504775852258234 0 0.026398644936058629 0.030255058161087797 0 0.026119804853014041 0.030318264186341464 0 0.026213495562042756 0.030504775852258234 0 0.026001390967941088 0.03040724924030986 0 0.026119804853014041 0.030318264186341464 0 0.026001390967941088 0.03040724924030986 0 0.026119804853014041 0.030318264186341464 0 0.02599085669478712 0.030311741341705657 0 0.02599085669478712 0.030311741341705657 0 0.026024216478092714 0.030237639619212692 0 0.025960500351746383 0.030286188899486626 0 0.026119804853014041 0.030318264186341464 0 0.02599085669478712 0.030311741341705657 0 0.026024216478092714 0.030237639619212692 0 0.026398644936058629 0.030255058161087797 0 0.026119804853014041 0.030318264186341464 0 0.026024216478092714 0.030237639619212692 0 0.026024216478092714 0.030237639619212692 0 0.025945747651550954 0.030323460965250893 0 0.025960500351746383 0.030286188899486626 0 0.02668882581908907 0.029792801266078594 0 0.026344407880907899 0.029902799746734474 0 0.026224823762408027 0.029872429847266159 0 0.026384794447490936 0.030101507823994501 0 0.02605971068179953 0.030093291386876251 0 0.026344407880907899 0.029902799746734474 0 0.026095782867587139 0.029938653680082139 0 0.026224823762408027 0.029872429847266159 0 0.026136294544721217 0.029849320432765832 0 0.026224823762408027 0.029872429847266159 0 0.02597971619014653 0.030086821680380797 0 0.026095782867587139 0.029938653680082139 0 0.026224823762408027 0.029872429847266159 0 0.02597971619014653 0.030086821680380797 0 0.026095782867587139 0.029938653680082139 0 0.02597971619014653 0.030086821680380797 0 0.025967960441283126 0.030352364538304859 0 0.02605971068179953 0.030093291386876251 0 0.02598794362881399 0.030300310680358159 0 0.025945747651550954 0.030323460965250893 0 0.025936652915607532 0.030383966137977503 0 0.025967960441283126 0.030352364538304859 0 0.026024216478092714 0.030237639619212692 0 0.025945747651550954 0.030323460965250893 0 0.025967960441283126 0.030352364538304859 0 0.025945747651550954 0.030323460965250893 0 0.025914503348340705 0.030350808004521116 0 0.025893525378674502 0.030310780625126661 0 0.025914503348340705 0.030350808004521116 0 0.025974373814474892 0.030500435073440333 0 0.025861505750448158 0.030327866835483334 0 0.025914503348340705 0.030350808004521116 0 0.025861505750448158 0.030327866835483334 0 0.025893525378674502 0.030310780625126661 0 0.025945747651550954 0.030323460965250893 0 0.025914503348340705 0.030350808004521116 0 0.025936652915607532 0.030383966137977503 0 0.025914503348340705 0.030350808004521116 0 0.025936652915607532 0.030383966137977503 0 0.025974373814474892 0.030500435073440333 0 0.025936652915607532 0.030383966137977503 0 0.025974373814474892 0.030500435073440333 0 0.025967960441283126 0.030352364538304859 0 0.025974373814474892 0.030500435073440333 0 0.025436076658754719 0.031125436426772058 0 0.025268818797625815 0.031745809082856243 0 0.02591355800253823 0.030442043109652844 0 0.025608082833848193 0.031305181900555999 0 0.025974373814474892 0.030500435073440333 0 0.025861505750448158 0.030327866835483334 0 0.025740932836590263 0.030219947180830219 0 0.025974373814474892 0.030500435073440333 0 0.025551556352847123 0.030857943153232523 0 0.025692451575758033 0.030634079568679917 0 0.025974373814474892 0.030500435073440333 0 0.025551556352847123 0.030857943153232523 0 0.025436076658754719 0.031125436426772058 0 0.025551556352847123 0.030857943153232523 0 0.025310757529426988 0.031020546269900067 0 0.02537510519924227 0.030772745051832789 0 0.025551556352847123 0.030857943153232523 0 0.025310757529426988 0.031020546269900067 0 0.025436076658754719 0.031125436426772058 0 0.025310757529426988 0.031020546269900067 0 0.025436076658754719 0.031125436426772058 0 0.025135487711738441 0.031292125901229761 0 0.025861505750448158 0.030327866835483334 0 0.025813481977011589 0.030287960324575224 0 0.025893525378674502 0.030310780625126661 0 0.025861505750448158 0.030327866835483334 0 0.025813481977011589 0.030287960324575224 0 0.025740932836590263 0.030219947180830219 0 0.025762941638530941 0.030331637868631928 0 0.025813481977011589 0.030287960324575224 0 0.025695883475903465 0.030288977718784763 0 0.025813481977011589 0.030287960324575224 0 0.025740932836590263 0.030219947180830219 0 0.025695883475903465 0.030288977718784763 0 0.025823460219742033 0.030332280914850615 0 0.025813481977011589 0.030287960324575224 0 0.025882032488207793 0.030305273811166326 0 0.025823460219742033 0.030332280914850615 0 0.025762941638530941 0.030331637868631928 0 0.025813481977011589 0.030287960324575224 0 0.025813481977011589 0.030287960324575224 0 0.025882032488207793 0.030305273811166326 0 0.025893525378674502 0.030310780625126661 0 0.02599085669478712 0.030311741341705657 0 0.025882032488207793 0.030305273811166326 0 0.025960500351746383 0.030286188899486626 0 0.025945747651550954 0.030323460965250893 0 0.025960500351746383 0.030286188899486626 0 0.025893525378674502 0.030310780625126661 0 0.025882032488207793 0.030305273811166326 0 0.025960500351746383 0.030286188899486626 0 0.025893525378674502 0.030310780625126661 0 0.025779657264480973 0.03038064863360827 0 0.025979900198558094 0.030453385805251955 0 0.026189352284741004 0.030629959122287085 0 0.025979900198558094 0.030453385805251955 0 0.02601862800562486 0.030541573007661752 0 0.026189352284741004 0.030629959122287085 0 0.025779657264480973 0.03038064863360827 0 0.025533627205249956 0.02999982949692909 0 0.02539393973033735 0.030393899763485669 0 0.025779657264480973 0.03038064863360827 0 0.026189352284741004 0.030629959122287085 0 0.025533627205249956 0.02999982949692909 0 0.025779657264480973 0.03038064863360827 0 0.025592330318753728 0.030547672047471774 0 0.02539393973033735 0.030393899763485669 0 0.025779657264480973 0.03038064863360827 0 0.025852357846349826 0.030502306349271049 0 0.025592330318753728 0.030547672047471774 0 0.025592330318753728 0.030547672047471774 0 0.02539393973033735 0.030393899763485669 0 0.025287834601365744 0.030594883605013831 0 0.025592330318753728 0.030547672047471774 0 0.02537510519924227 0.030772745051832789 0 0.025287834601365744 0.030594883605013831 0 0.025592330318753728 0.030547672047471774 0 0.02537510519924227 0.030772745051832789 0 0.025692451575758033 0.030634079568679917 0 0.025551556352847123 0.030857943153232523 0 0.02537510519924227 0.030772745051832789 0 0.025692451575758033 0.030634079568679917 0 0.025974373814474892 0.030500435073440333 0 0.025852357846349826 0.030502306349271049 0 0.025692451575758033 0.030634079568679917 0 0.025852357846349826 0.030502306349271049 0 0.025592330318753728 0.030547672047471774 0 0.025692451575758033 0.030634079568679917 0 0.025974373814474892 0.030500435073440333 0 0.025852357846349826 0.030502306349271049 0 0.025969110050466197 0.030437022432224431 0 0.025974373814474892 0.030500435073440333 0 0.025969110050466197 0.030437022432224431 0 0.025967960441283126 0.030352364538304859 0 0.025852357846349826 0.030502306349271049 0 0.025969110050466197 0.030437022432224431 0 0.025979900198558094 0.030453385805251955 0 0.025779657264480973 0.03038064863360827 0 0.025852357846349826 0.030502306349271049 0 0.025979900198558094 0.030453385805251955 0 0.025979900198558094 0.030453385805251955 0 0.025992670877756061 0.030365185823632696 0 0.02601862800562486 0.030541573007661752 0 0.025969110050466197 0.030437022432224431 0 0.025979900198558094 0.030453385805251955 0 0.025992670877756061 0.030365185823632696 0 0.025969110050466197 0.030437022432224431 0 0.025992670877756061 0.030365185823632696 0 0.025967960441283126 0.030352364538304859 0 0.025992670877756061 0.030365185823632696 0 0.025967960441283126 0.030352364538304859 0 0.025968274008595953 0.03026040376681171 0 0.02597971619014653 0.030086821680380797 0 0.025967960441283126 0.030352364538304859 0 0.025968274008595953 0.03026040376681171 0 0.02597971619014653 0.030086821680380797 0 0.025968274008595953 0.03026040376681171 0 0.025893815922382615 0.030278906755716713 0 0.02597971619014653 0.030086821680380797 0 0.025893815922382615 0.030278906755716713 0 0.025767561506501935 0.030031763445357164 0 0.025992670877756061 0.030365185823632696 0 0.025968274008595953 0.03026040376681171 0 0.025893815922382615 0.030278906755716713 0 0.025992670877756061 0.030365185823632696 0 0.025893815922382615 0.030278906755716713 0 0.02601862800562486 0.030541573007661752 0 0.026136294544721217 0.029849320432765832 0 0.02597971619014653 0.030086821680380797 0 0.025767561506501935 0.030031763445357164 0 0.025893815922382615 0.030278906755716713 0 0.025767561506501935 0.030031763445357164 0 0.025678041451991155 0.030398602797851369 0 0.025767561506501935 0.030031763445357164 0 0.025211125067056733 0.030652227943230435 0 0.026011050324974364 0.029603412911136544 0 0.025678041451991155 0.030398602797851369 0 0.025211125067056733 0.030652227943230435 0 0.02578624114105485 0.03077007595556204 0 0.025767561506501935 0.030031763445357164 0 0.025678041451991155 0.030398602797851369 0 0.025211125067056733 0.030652227943230435 0 0.025211125067056733 0.030652227943230435 0 0.02578624114105485 0.03077007595556204 0 0.025243136076918981 0.032050252307302574 0 0.02601862800562486 0.030541573007661752 0 0.02578624114105485 0.03077007595556204 0 0.026189352284741004 0.030629959122287085 0 0.025893815922382615 0.030278906755716713 0 0.02601862800562486 0.030541573007661752 0 0.02578624114105485 0.03077007595556204 0 0.025893815922382615 0.030278906755716713 0 0.025678041451991155 0.030398602797851369 0 0.02578624114105485 0.03077007595556204 0 0.025243136076918981 0.032050252307302574 0 0.024712434516322147 0.033241969920565516 0 0.025197392264965278 0.032931964862060431 0 0.025243136076918981 0.032050252307302574 0 0.025197392264965278 0.032931964862060431 0 0.025418303442741375 0.032594849843087526 0 0.025212084906391829 0.031957304182677643 0 0.025610038469909838 0.031657027365109648 0 0.02578624114105485 0.03077007595556204 0 0.025243136076918981 0.032050252307302574 0 0.026189352284741004 0.030629959122287085 0 0.024524024546346175 0.032978999660273449 0 0.025243136076918981 0.032050252307302574 0 0.02423850582849664 0.032888955846726367 0 0.024524024546346175 0.032978999660273449 0 0.025243136076918981 0.032050252307302574 0 0.024712434516322147 0.033241969920565516 0 0.025211125067056733 0.030652227943230435 0 0.025243136076918981 0.032050252307302574 0 0.02423850582849664 0.032888955846726367 0 0.024712434516322147 0.033241969920565516 0 0.024214555579419556 0.033846881182050384 0 0.024087480547346055 0.033532368683876844 0 0.024524024546346175 0.032978999660273449 0 0.024712434516322147 0.033241969920565516 0 0.024087480547346055 0.033532368683876844 0 0.024712434516322147 0.033241969920565516 0 0.025197392264965278 0.032931964862060431 0 0.024931350818286332 0.033619704810263204 0 0.025197392264965278 0.032931964862060431 0 0.025480729376492532 0.033171103076755158 0 0.025418303442741375 0.032594849843087526 0 0.025197392264965278 0.032931964862060431 0 0.025480729376492532 0.033171103076755158 0 0.024931350818286332 0.033619704810263204 0 0.025480729376492532 0.033171103076755158 0 0.025418303442741375 0.032594849843087526 0 0.025809185543194047 0.032977307718950362 0 0.025942610929827001 0.032659330563678243 0 0.025809185543194047 0.032977307718950362 0 0.026182644091302491 0.033018234725482071 0 0.025610038469909838 0.031657027365109648 0 0.026138373330114338 0.031155270489767052 0 0.025418303442741375 0.032594849843087526 0 0.025942610929827001 0.032659330563678243 0 0.025809185543194047 0.032977307718950362 0 0.025480729376492532 0.033171103076755158 0 0.025809185543194047 0.032977307718950362 0 0.025916947865429144 0.033502536827545878 0 0.025809185543194047 0.032977307718950362 0 0.025916947865429144 0.033502536827545878 0 0.026182644091302491 0.033018234725482071 0 0.025480729376492532 0.033171103076755158 0 0.025916947865429144 0.033502536827545878 0 0.025532511006525371 0.034073012069827928 0 0.016394130998072066 0.037763123725294105 0 0.016963370584580102 0.037114361428603672 0 0.016075296984170574 0.037216333598680179 0 0.020962793641969998 0.035567248953599279 0 0.021290734026828496 0.036028312863039626 0 0.021290734026828496 0.036028312863039626 0 0.026009558437639128 0.033693237318274553 0 0.025535166377496005 0.034304343898965382 0 0.024299125355836341 0.034285637555064148 0 0.024931350818286332 0.033619704810263204 0 0.025480729376492532 0.033171103076755158 0 0.025532511006525371 0.034073012069827928 0 0.024931350818286332 0.033619704810263204 0 0.025535166377496005 0.034304343898965382 0 0.024650000994971819 0.034995323334076699 0 0.024299125355836341 0.034285637555064148 0 0.021290734026828496 0.036028312863039626 0 0.019169030034649811 0.037967879573643622 0 0.018734181783408341 0.037943322440269947 0 0.019125853291318804 0.037456286863732022 0 0.019761324131020871 0.037035276054034116 0 0.021290734026828496 0.036028312863039626 0 0.022283074274779595 0.035977332180043391 0 0.018716786936974879 0.037973985362183771 0 0.019125853291318804 0.037456286863732022 0 0.017458537158101819 0.036994545303948904 0 0.016963370584580102 0.037114361428603672 0 0.016075296984170574 0.037216333598680179 0 0.016208754335953774 0.036514554799310157 0 0.021290734026828496 0.036028312863039626 0 0.016384358783031558 0.036741197084196847 0 0.018400217887409188 0.036144044743631656 0 0.01741288085091041 0.035828281774783415 0 0.017458537158101819 0.036994545303948904 0 0.019125853291318804 0.037456286863732022 0 0.01886629069484758 0.036730206237061871 0 0.017458537158101819 0.036994545303948904 0 0.018400217887409188 0.036144044743631656 0 0.01886629069484758 0.036730206237061871 0 0.017458537158101819 0.036994545303948904 0 0.018400217887409188 0.036144044743631656 0 0.01886629069484758 0.036730206237061871 0 0.019559400098701957 0.036023058844103929 0 0.019125853291318804 0.037456286863732022 0 0.01886629069484758 0.036730206237061871 0 0.019761324131020871 0.037035276054034116 0 0.01886629069484758 0.036730206237061871 0 0.019559400098701957 0.036023058844103929 0 0.019761324131020871 0.037035276054034116 0 0.018400217887409188 0.036144044743631656 0 0.019559400098701957 0.036023058844103929 0 0.018341632500949619 0.034999985803959292 0 0.019559400098701957 0.036023058844103929 0 0.018341632500949619 0.034999985803959292 0 0.02003060046253792 0.03499998604930657 0 0.018400217887409188 0.036144044743631656 0 0.018341632500949619 0.034999985803959292 0 0.01741288085091041 0.035828281774783415 0 0.0217237684809575 0.035000678582771616 0 0.023225567752409641 0.035533134556351799 0 0.022767534998096851 0.035593520271582239 0 0.021719565346686211 0.034999995842407483 0 0.02003060046253792 0.03499998604930657 0 0.020734812743414991 0.036023652571431648 0 0.02171996454751637 0.035000123872926975 0 0.02200328844201541 0.03567585381850092 0 0.019559400098701957 0.036023058844103929 0 0.02003060046253792 0.03499998604930657 0 0.020734812743414991 0.036023652571431648 0 0.02200328844201541 0.03567585381850092 0 0.022283074274779595 0.035977332180043391 0 0.019559400098701957 0.036023058844103929 0 0.020734812743414991 0.036023652571431648 0 0.019761324131020871 0.037035276054034116 0 0.023225567752409641 0.035533134556351799 0 0.024650000994971819 0.034995323334076699 0 0.023590536050213978 0.035109583998166861 0 0.023590536050213978 0.035109583998166861 0 0.023024782263314343 0.036028626933188722 0 0.022767534998096851 0.035593520271582239 0 0.023225567752409641 0.035533134556351799 0 0.023590536050213978 0.035109583998166861 0 0.022767534998096851 0.035593520271582239 0 0.024299125355836341 0.034285637555064148 0 0.024214555579419556 0.033846881182050384 0 0.023749660332417488 0.034211439642723232 0 0.023590536050213978 0.035109583998166861 0 0.024299125355836341 0.034285637555064148 0 0.023749660332417488 0.034211439642723232 0 0.023650321873347688 0.035177258048845389 0 0.023486094855789782 0.035146953607175867 0 0.024650000994971819 0.034995323334076699 0 0.023590536050213978 0.035109583998166861 0 0.024299125355836341 0.034285637555064148 0 0.024299125355836341 0.034285637555064148 0 0.024931350818286332 0.033619704810263204 0 0.024214555579419556 0.033846881182050384 0 0.024712434516322147 0.033241969920565516 0 0.024931350818286332 0.033619704810263204 0 0.024214555579419556 0.033846881182050384 0 0.023878047608015512 0.033843045367477127 0 0.023872592303675881 0.033662252601808856 0 0.023749660332417488 0.034211439642723232 0 0.024214555579419556 0.033846881182050384 0 0.023878047608015512 0.033843045367477127 0 0.023749660332417488 0.034211439642723232 0 0.024214555579419556 0.033846881182050384 0 0.023878047608015512 0.033843045367477127 0 0.024087480547346055 0.033532368683876844 0 0.023878047608015512 0.033843045367477127 0 0.023853627159387551 0.033762331716190273 0 0.024087480547346055 0.033532368683876844 0 0.023878047608015512 0.033843045367477127 0 0.023872592303675881 0.033662252601808856 0 0.023853627159387551 0.033762331716190273 0 0.023872592303675881 0.033662252601808856 0 0.02400919430167282 0.03391270175253306 0 0.023853627159387551 0.033762331716190273 0 0.023871122204805324 0.036226941569430182 0 0.023860776739200007 0.035802297917973111 0 0.024761609747999683 0.036464010903191117 0 0.024384141905435967 0.03704672723251614 0 0.023871122204805324 0.036226941569430182 0 0.023024782263314343 0.036028626933188722 0 0.023871122204805324 0.036226941569430182 0 0.023024782263314343 0.036028626933188722 0 0.023860776739200007 0.035802297917973111 0 0.024158237253261636 0.035333302357831595 0 0.023486094855789782 0.035146953607175867 0 0.024384141905435967 0.03704672723251614 0 0.023871122204805324 0.036226941569430182 0 0.024761609747999683 0.036464010903191117 0 0.023024782263314343 0.036028626933188722 0 0.022767534998096851 0.035593520271582239 0 0.023860776739200007 0.035802297917973111 0 0.022767534998096851 0.035593520271582239 0 0.023860776739200007 0.035802297917973111 0 0.023737827747378759 0.034999399778836038 0 0.0217237684809575 0.035000678582771616 0 0.022767534998096851 0.035593520271582239 0 0.023737827747378759 0.034999399778836038 0 0.025757258320498102 0.035000002013573214 0 0.025260431754202367 0.035751679581070929 0 0.025758807948587308 0.034999554499598615 0 0.025683232807264807 0.035638415188156997 0 0.026583869268091816 0.035748870302263418 0 0.023860776739200007 0.035802297917973111 0 0.023737827747378759 0.034999399778836038 0 0.024847840307414767 0.035870381730952985 0 0.023737827747378759 0.034999399778836038 0 0.025756941557439548 0.034999895610904212 0 0.024847840307414767 0.035870381730952985 0 0.023860776739200007 0.035802297917973111 0 0.024847840307414767 0.035870381730952985 0 0.024761609747999683 0.036464010903191117 0 0.025683232807264807 0.035638415188156997 0 0.025988398995063489 0.036212235907888038 0 0.026583869268091816 0.035748870302263418 0 0.025988398995063489 0.036212235907888038 0 0.026814821212038667 0.036422631961927347 0 0.026583869268091816 0.035748870302263418 0 0.025988398995063489 0.036212235907888038 0 0.025809013826609939 0.036809954353177979 0 0.026814821212038667 0.036422631961927347 0 0.025683232807264807 0.035638415188156997 0 0.025988398995063489 0.036212235907888038 0 0.024761609747999683 0.036464010903191117 0 0.025988398995063489 0.036212235907888038 0 0.024761609747999683 0.036464010903191117 0 0.025809013826609939 0.036809954353177979 0 0.025260431754202367 0.035751679581070929 0 0.024788538279565824 0.036472303235496994 0 0.024384141905435967 0.03704672723251614 0 0.024761609747999683 0.036464010903191117 0 0.025809013826609939 0.036809954353177979 0 0.023872592303675881 0.033662252601808856 0 0.024884662447938955 0.033912112727030201 0 0.02400919430167282 0.03391270175253306 0 0.024158237253261636 0.035333302357831595 0 0.025447339048051441 0.03564667737734506 0 0.024384141905435967 0.03704672723251614 0 0.025809013826609939 0.036809954353177979 0 0.026133636543852739 0.037309148781476086 0 0.025809013826609939 0.036809954353177979 0 0.026921944334932977 0.036951641836858264 0 0.026814821212038667 0.036422631961927347 0 0.025809013826609939 0.036809954353177979 0 0.026133636543852739 0.037309148781476086 0 0.026921944334932977 0.036951641836858264 0 0.025447339048051441 0.03564667737734506 0 0.026744842068790797 0.036417041443070966 0 0.024884662447938955 0.033912112727030201 0 0.025467910889329134 0.035513559863340372 0 0.024219456734559167 0.034443584259241898 0 0.024884662447938955 0.033912112727030201 0 0.025467910889329134 0.035513559863340372 0 0.026938494409494831 0.036568274259711292 0 0.025467910889329134 0.035513559863340372 0 0.02495035197062221 0.035651022059053177 0 0.026480395381662341 0.036706599472860535 0 0.025467910889329134 0.035513559863340372 0 0.02495035197062221 0.035651022059053177 0 0.024219456734559167 0.034443584259241898 0 0.028569698827460081 0.026966763558435608 0 0.030568115704960014 0.027151775556852543 0 0.030050436051889735 0.02635357698432066 0 0.026900132444272366 0.031275745113556325 0 0.028350666703327254 0.031512831368262446 0 0.02495035197062221 0.035651022059053177 0 0.024219456734559167 0.034443584259241898 0 0.023637772234321942 0.033480425957028437 0 0.024884662447938955 0.033912112727030201 0 0.024219456734559167 0.034443584259241898 0 0.02400919430167282 0.03391270175253306 0 0.024219456734559167 0.034443584259241898 0 0.02400919430167282 0.03391270175253306 0 0.023838689655622348 0.033722009235825343 0 0.02400919430167282 0.03391270175253306 0 0.023853627159387551 0.033762331716190273 0 0.023838689655622348 0.033722009235825343 0 0.024524024546346175 0.032978999660273449 0 0.024087480547346055 0.033532368683876844 0 0.02423850582849664 0.032888955846726367 0 0.023838689655622348 0.033722009235825343 0 0.024087480547346055 0.033532368683876844 0 0.02423850582849664 0.032888955846726367 0 0.023853627159387551 0.033762331716190273 0 0.023838689655622348 0.033722009235825343 0 0.024087480547346055 0.033532368683876844 0 0.023838689655622348 0.033722009235825343 0 0.02423850582849664 0.032888955846726367 0 0.023637772234321942 0.033480425957028437 0 0.024219456734559167 0.034443584259241898 0 0.023838689655622348 0.033722009235825343 0 0.023637772234321942 0.033480425957028437 0 0.026642592359860925 0.028247312522658222 0 0.026011050324974364 0.029603412911136544 0 0.027315975865240569 0.0289634335987989 0 0.025211125067056733 0.030652227943230435 0 0.02423850582849664 0.032888955846726367 0 0.023637772234321942 0.033480425957028437 0 0.025211125067056733 0.030652227943230435 0 0.026642592359860925 0.028247312522658222 0 0.026011050324974364 0.029603412911136544 0 0.025410879215855418 0.030641359769899314 0 0.025359362379001035 0.030867031431126624 0 0.026136294544721217 0.029849320432765832 0 0.026011050324974364 0.029603412911136544 0 0.02650888953038999 0.029656232363237122 0 0.026136294544721217 0.029849320432765832 0 0.025767561506501935 0.030031763445357164 0 0.026011050324974364 0.029603412911136544 0 0.02705912533492915 0.029735634533082887 0 0.02650888953038999 0.029656232363237122 0 0.027315975865240569 0.0289634335987989 0 0.026011050324974364 0.029603412911136544 0 0.02650888953038999 0.029656232363237122 0 0.027315975865240569 0.0289634335987989 0 0.027315975865240569 0.0289634335987989 0 0.028386547363204829 0.029070599112678099 0 0.028673008830605275 0.028245743637444379 0 0.027625305069076612 0.02940316532260312 0 0.02705912533492915 0.029735634533082887 0 0.027315975865240569 0.0289634335987989 0 0.027625305069076612 0.02940316532260312 0 0.027315975865240569 0.0289634335987989 0 0.028386547363204829 0.029070599112678099 0 0.028924591383151673 0.029597531398252826 0 0.028386547363204829 0.029070599112678099 0 0.02917630968355359 0.028766904791419457 0 0.02917630968355359 0.028766904791419457 0 0.028673008830605275 0.028245743637444379 0 0.029857790560203112 0.027886923737741872 0 0.028386547363204829 0.029070599112678099 0 0.02917630968355359 0.028766904791419457 0 0.028673008830605275 0.028245743637444379 0 0.028569698827460081 0.026966763558435608 0 0.028673008830605275 0.028245743637444379 0 0.029857790560203112 0.027886923737741872 0 0.028569698827460081 0.026966763558435608 0 0.030568115704960014 0.027151775556852543 0 0.029857790560203112 0.027886923737741872 0 0.026900132444272366 0.031275745113556325 0 0.025359362379001035 0.030867031431126624 0 0.028569698827460081 0.026966763558435608 0 0.026642592359860925 0.028247312522658222 0 0.027315975865240569 0.0289634335987989 0 0.028569698827460081 0.026966763558435608 0 0.027315975865240569 0.0289634335987989 0 0.028673008830605275 0.028245743637444379 0 0.031958424411999024 0.026918307461157927 0 0.030568115704960014 0.027151775556852543 0 0.031459735137047237 0.02798566330603584 0 0.031958424411999024 0.026918307461157927 0 0.031459735137047237 0.02798566330603584 0 0.032786312875160512 0.027484930897218967 0 0.031958424411999024 0.026918307461157927 0 0.030568115704960014 0.027151775556852543 0 0.031081069251787712 0.026057350008412701 0 0.030568115704960014 0.027151775556852543 0 0.029857790560203112 0.027886923737741872 0 0.031459735137047237 0.02798566330603584 0 0.02917630968355359 0.028766904791419457 0 0.029857790560203112 0.027886923737741872 0 0.03010676399146665 0.028994432930579139 0 0.029857790560203112 0.027886923737741872 0 0.03010676399146665 0.028994432930579139 0 0.031459735137047237 0.02798566330603584 0 0.031430295191933383 0.029060538764822553 0 0.03010676399146665 0.028994432930579139 0 0.031459735137047237 0.02798566330603584 0 0.031430295191933383 0.029060538764822553 0 0.031459735137047237 0.02798566330603584 0 0.033177792491752012 0.028369592092031635 0 0.031459735137047237 0.02798566330603584 0 0.033177792491752012 0.028369592092031635 0 0.032786312875160512 0.027484930897218967 0 0.033177792491752012 0.028369592092031635 0 0.033981185988933321 0.027374292721261743 0 0.032786312875160512 0.027484930897218967 0 0.033177792491752012 0.028369592092031635 0 0.034933751057261431 0.02743140050942109 0 0.033981185988933321 0.027374292721261743 0 0.034228457818620543 0.028875051336301773 0 0.033177792491752012 0.028369592092031635 0 0.034933751057261431 0.02743140050942109 0 0.034933751057261431 0.02743140050942109 0 0.03472880625594247 0.026935364245947165 0 0.033981185988933321 0.027374292721261743 0 0.03472880625594247 0.026935364245947165 0 0.033981185988933321 0.027374292721261743 0 0.033197968699502256 0.026786324098105219 0 0.033981185988933321 0.027374292721261743 0 0.032786312875160512 0.027484930897218967 0 0.033197968699502256 0.026786324098105219 0 0.031958424411999024 0.026918307461157927 0 0.032786312875160512 0.027484930897218967 0 0.033197968699502256 0.026786324098105219 0 0.031582715026094429 0.032102199222292196 0 0.029989433145080947 0.031805569108467255 0 0.033197968699502256 0.026786324098105219 0 0.033968671175288366 0.026088026735457126 0 0.032130485640387917 0.025941868970604343 0 0.029168054618429883 0.038140061311499843 0 0.028154153167084091 0.037357517916695185 0 0.027785272359352572 0.037648314949105512 0 0.03472880625594247 0.026935364245947165 0 0.033968671175288366 0.026088026735457126 0 0.035175050779418147 0.026601418199541087 0 0.031582715026094429 0.032102199222292196 0 0.03269128291570432 0.032499777641522051 0 0.03472880625594247 0.026935364245947165 0 0.033197968699502256 0.026786324098105219 0 0.033968671175288366 0.026088026735457126 0 0.029168054618429883 0.038140061311499843 0 0.029865453995020042 0.037265294550999188 0 0.030552038362132987 0.038247306133254971 0 0.029168054618429883 0.038140061311499843 0 0.028775334509505836 0.037117761188608954 0 0.029865453995020042 0.037265294550999188 0 0.028154153167084091 0.037357517916695185 0 0.027785136580084684 0.037018413953249077 0 0.028775334509505836 0.037117761188608954 0 0.029168054618429883 0.038140061311499843 0 0.028154153167084091 0.037357517916695185 0 0.028775334509505836 0.037117761188608954 0 0.028154153167084091 0.037357517916695185 0 0.027785136580084684 0.037018413953249077 0 0.027448938706218826 0.037046434611236918 0 0.027785136580084684 0.037018413953249077 0 0.027448938706218826 0.037046434611236918 0 0.026921944334932977 0.036951641836858264 0 0.028154153167084091 0.037357517916695185 0 0.027448938706218826 0.037046434611236918 0 0.027785272359352572 0.037648314949105512 0 0.027448938706218826 0.037046434611236918 0 0.027785272359352572 0.037648314949105512 0 0.026938494409494831 0.036568274259711292 0 0.027785272359352572 0.037648314949105512 0 0.027244547664155769 0.037174855189010481 0 0.026938494409494831 0.036568274259711292 0 0.031958424411999024 0.026918307461157927 0 0.032130485640387917 0.025941868970604343 0 0.031081069251787712 0.026057350008412701 0 0.029989433145080947 0.031805569108467255 0 0.029283641706077782 0.031728263910940344 0 0.031958424411999024 0.026918307461157927 0 0.033197968699502256 0.026786324098105219 0 0.032130485640387917 0.025941868970604343 0 0.025467910889329134 0.035513559863340372 0 0.026480395381662341 0.036706599472860535 0 0.026938494409494831 0.036568274259711292 0 0.028350666703327254 0.031512831368262446 0 0.029283641706077782 0.031728263910940344 0 0.030568115704960014 0.027151775556852543 0 0.030050436051889735 0.02635357698432066 0 0.031081069251787712 0.026057350008412701 0 0.026480395381662341 0.036706599472860535 0 0.027244547664155769 0.037174855189010481 0 0.026938494409494831 0.036568274259711292 0 0.027448938706218826 0.037046434611236918 0 0.026938494409494831 0.036568274259711292 0 0.026921944334932977 0.036951641836858264 0 0.026133636543852739 0.037309148781476086 0 0.026938494409494831 0.036568274259711292 0 0.026921944334932977 0.036951641836858264 0 0.026921944334932977 0.036951641836858264 0 0.027571343858932128 0.036621793701703778 0 0.026814821212038667 0.036422631961927347 0 0.027785136580084684 0.037018413953249077 0 0.027571343858932128 0.036621793701703778 0 0.028433667603070624 0.036585291039506126 0 0.027785136580084684 0.037018413953249077 0 0.026921944334932977 0.036951641836858264 0 0.027571343858932128 0.036621793701703778 0 0.027571343858932128 0.036621793701703778 0 0.026814821212038667 0.036422631961927347 0 0.027944614508085712 0.035991770980037398 0 0.027571343858932128 0.036621793701703778 0 0.027944614508085712 0.035991770980037398 0 0.028433667603070624 0.036585291039506126 0 0.026814821212038667 0.036422631961927347 0 0.026583869268091816 0.035748870302263418 0 0.027944614508085712 0.035991770980037398 0 0.026583869268091816 0.035748870302263418 0 0.027944614508085712 0.035991770980037398 0 0.027668048402901806 0.034999598442596917 0 0.027944614508085712 0.035991770980037398 0 0.027668048402901806 0.034999598442596917 0 0.029579149518787665 0.034999677060620869 0 0.025758807948587308 0.034999554499598615 0 0.026583869268091816 0.035748870302263418 0 0.027668048402901806 0.034999598442596917 0 0.030433899514613724 0.035605055767990224 0 0.029579149518787665 0.034999677060620869 0 0.031490161342484647 0.0349995932965666 0 0.030433899514613724 0.035605055767990224 0 0.029579149518787665 0.034999677060620869 0 0.029382240727362487 0.036053824940726488 0 0.027944614508085712 0.035991770980037398 0 0.029579149518787665 0.034999677060620869 0 0.029382240727362487 0.036053824940726488 0 0.030433899514613724 0.035605055767990224 0 0.029382240727362487 0.036053824940726488 0 0.030434330658820837 0.036462099544062883 0 0.029382240727362487 0.036053824940726488 0 0.029390335540664014 0.036675196217575222 0 0.030434330658820837 0.036462099544062883 0 0.027944614508085712 0.035991770980037398 0 0.029382240727362487 0.036053824940726488 0 0.028433667603070624 0.036585291039506126 0 0.029382240727362487 0.036053824940726488 0 0.029390335540664014 0.036675196217575222 0 0.028433667603070624 0.036585291039506126 0 0.029390335540664014 0.036675196217575222 0 0.028433667603070624 0.036585291039506126 0 0.028775334509505836 0.037117761188608954 0 0.027785136580084684 0.037018413953249077 0 0.028433667603070624 0.036585291039506126 0 0.028775334509505836 0.037117761188608954 0 0.029390335540664014 0.036675196217575222 0 0.029865453995020042 0.037265294550999188 0 0.030434330658820837 0.036462099544062883 0 0.029390335540664014 0.036675196217575222 0 0.028775334509505836 0.037117761188608954 0 0.029865453995020042 0.037265294550999188 0 0.029865453995020042 0.037265294550999188 0 0.031039341234382994 0.037316157277978199 0 0.030434330658820837 0.036462099544062883 0 0.031039341234382994 0.037316157277978199 0 0.031528653356522794 0.036524130076470908 0 0.031913395349374811 0.037044207270716202 0 0.031528653356522794 0.036524130076470908 0 0.032452172801036898 0.036118925402864897 0 0.031913395349374811 0.037044207270716202 0 0.031039341234382994 0.037316157277978199 0 0.031528653356522794 0.036524130076470908 0 0.030434330658820837 0.036462099544062883 0 0.031528653356522794 0.036524130076470908 0 0.030434330658820837 0.036462099544062883 0 0.031500864752367908 0.035860096267061256 0 0.030433899514613724 0.035605055767990224 0 0.030434330658820837 0.036462099544062883 0 0.031500864752367908 0.035860096267061256 0 0.031528653356522794 0.036524130076470908 0 0.031500864752367908 0.035860096267061256 0 0.032452172801036898 0.036118925402864897 0 0.031500864752367908 0.035860096267061256 0 0.031490161342484647 0.0349995932965666 0 0.033400100096783659 0.034999856310359435 0 0.030433899514613724 0.035605055767990224 0 0.031500864752367908 0.035860096267061256 0 0.031490161342484647 0.0349995932965666 0 0.034997533553121463 0.034999768019815303 0 0.034988179666882918 0.034069921559668211 0 0.03499940689104674 0.03195243678426455 0 0.034997533553121463 0.034999768019815303 0 0.033407442209188683 0.03499861743970481 0 0.034988179666882918 0.034069921559668211 0 0.03340182121699746 0.034999567095717207 0 0.034167608422682488 0.034527972772975424 0 0.033407442209188683 0.03499861743970481 0 0.035975496726119251 0.033444543520632593 0 0.034988179666882918 0.034069921559668211 0 0.031500864752367908 0.035860096267061256 0 0.033400100096783659 0.034999856310359435 0 0.032452172801036898 0.036118925402864897 0 0.035975496726119251 0.033444543520632593 0 0.034988179666882918 0.034069921559668211 0 0.03499940689104674 0.03195243678426455 0 0.03499940689104674 0.03195243678426455 0 0.035555516418218969 0.030893724548746275 0 0.035000022918494945 0.029716136357797587 0 0.035975496726119251 0.033444543520632593 0 0.03499940689104674 0.03195243678426455 0 0.03660223880676039 0.031446280253543984 0 0.034167608422682488 0.034527972772975424 0 0.034237314551522673 0.034744285441658508 0 0.03499940689104674 0.03195243678426455 0 0.03660223880676039 0.031446280253543984 0 0.035555516418218969 0.030893724548746275 0 0.034999745748312897 0.029715842241910758 0 0.035987091857404216 0.029373080493449204 0 0.035555516418218969 0.030893724548746275 0 0.035000022918494945 0.029716136357797587 0 0.035912302667826725 0.029787470863227843 0 0.034999653259814592 0.029713994834591383 0 0.035571944547198121 0.027914446731186905 0 0.034999596247996631 0.027772464123588091 0 0.034999653259814592 0.029713994834591383 0 0.035571944547198121 0.027914446731186905 0 0.035469258978970908 0.028842088638791095 0 0.035571944547198121 0.027914446731186905 0 0.035674021906921295 0.028158113500345874 0 0.035469258978970908 0.028842088638791095 0 0.035674021906921295 0.028158113500345874 0 0.035469258978970908 0.028842088638791095 0 0.035979748220503857 0.028314151530544281 0 0.035571944547198121 0.027914446731186905 0 0.035674021906921295 0.028158113500345874 0 0.035845409766160193 0.02754071216785281 0 0.035674021906921295 0.028158113500345874 0 0.035979748220503857 0.028314151530544281 0 0.035845409766160193 0.02754071216785281 0 0.034237314551522673 0.034744285441658508 0 0.034326056761885861 0.03168733037687653 0 0.035987091857404216 0.029373080493449204 0 0.034326056761885861 0.03168733037687653 0 0.03660223880676039 0.031446280253543984 0 0.035912302667826725 0.029787470863227843 0 0.036870588657559926 0.02972323060899593 0 0.03660223880676039 0.031446280253543984 0 0.035555516418218969 0.030893724548746275 0 0.035912302667826725 0.029787470863227843 0 0.031039341234382994 0.037316157277978199 0 0.031913395349374811 0.037044207270716202 0 0.031713598095073701 0.038140794792786641 0 0.031039341234382994 0.037316157277978199 0 0.030552038362132987 0.038247306133254971 0 0.031713598095073701 0.038140794792786641 0 0.029865453995020042 0.037265294550999188 0 0.031039341234382994 0.037316157277978199 0 0.030552038362132987 0.038247306133254971 0 0.03472880625594247 0.026935364245947165 0 0.035175050779418147 0.026601418199541087 0 0.0354755206772185 0.027143238685245225 0 0.03269128291570432 0.032499777641522051 0 0.034326056761885861 0.03168733037687653 0 0.035175050779418147 0.026601418199541087 0 0.035860890222389745 0.027139655147007766 0 0.0354755206772185 0.027143238685245225 0 0.034326056761885861 0.03168733037687653 0 0.035465214900033216 0.027246355689636466 0 0.035860890222389745 0.027139655147007766 0 0.0354755206772185 0.027143238685245225 0 0.035845409766160193 0.02754071216785281 0 0.0354755206772185 0.027143238685245225 0 0.035679986606783967 0.027276923695828591 0 0.035343057055465962 0.027224326512925473 0 0.0354755206772185 0.027143238685245225 0 0.035845409766160193 0.02754071216785281 0 0.035679986606783967 0.027276923695828591 0 0.03472880625594247 0.026935364245947165 0 0.0354755206772185 0.027143238685245225 0 0.035343057055465962 0.027224326512925473 0 0.034933751057261431 0.02743140050942109 0 0.03472880625594247 0.026935364245947165 0 0.035343057055465962 0.027224326512925473 0 0.035440945456313898 0.026821546643237191 0 0.034933751057261431 0.02743140050942109 0 0.035343057055465962 0.027224326512925473 0 0.035440945456313898 0.026821546643237191 0 0.035679986606783967 0.027276923695828591 0 0.035343057055465962 0.027224326512925473 0 0.035440945456313898 0.026821546643237191 0 0.035679986606783967 0.027276923695828591 0 0.035562000769812571 0.026839456883906564 0 0.034999622081941774 0.025829328664546475 0 0.035562000769812571 0.026839456883906564 0 0.034999596247996631 0.027772464123588091 0 0.035571944547198121 0.027914446731186905 0 0.035562000769812571 0.026839456883906564 0 0.034999596247996631 0.027772464123588091 0 0.035571944547198121 0.027914446731186905 0 0.035679986606783967 0.027276923695828591 0 0.035562000769812571 0.026839456883906564 0 0.035571944547198121 0.027914446731186905 0 0.035845409766160193 0.02754071216785281 0 0.035679986606783967 0.027276923695828591 0 -0.0015051397990734823 0.021800161677888005 0 -0.0014566703455181562 0.021866775114817397 0 -0.0013874668816858497 0.021864054472457119 0 -0.0015051397990734823 0.021800161677888005 0 -0.0013874668816858497 0.021864054472457119 0 -0.0014166914693353545 0.021827589785674718 0 -0.0015051397990734823 0.021800161677888005 0 -0.0015330676573894163 0.02184739252284847 0 -0.001631941812631233 0.021642996276592615 0 -0.0022778633862913025 0.021515944292041907 0 -0.0015892020961969008 0.021653939481458186 0 -0.0015051397990734823 0.021800161677888005 0 -0.0015330676573894163 0.02184739252284847 0 -0.0014566703455181562 0.021866775114817397 0 -0.0015330676573894163 0.02184739252284847 0 -0.0014566703455181562 0.021866775114817397 0 -0.0014190017581184613 0.021934319020327532 0 -0.0022778633862913025 0.021515944292041907 0 -0.00015373485089301419 0.019546322177822366 0 -0.0014566703455181562 0.021866775114817397 0 -0.0013874668816858497 0.021864054472457119 0 -0.0014190017581184613 0.021934319020327532 0 -0.0013874668816858497 0.021864054472457119 0 -0.0013036324190744447 0.021858832015634214 0 -0.0013196405728745264 0.021930737564228271 0 -0.0013874668816858497 0.021864054472457119 0 -0.0014190017581184613 0.021934319020327532 0 -0.0013196405728745264 0.021930737564228271 0 0.0022364020981056375 0.023359751236336483 0 0.0058297165230007855 0.022250411798061039 0 -0.0013036324190744447 0.021858832015634214 0 -0.0012051679032107577 0.021956674423974726 0 -0.0013196405728745264 0.021930737564228271 0 -0.0013874668816858497 0.021864054472457119 0 -0.0013036324190744447 0.021858832015634214 0 -0.0014166914693353545 0.021827589785674718 0 0.0067121257451900167 0.024611059472411163 0 0.0069698002749525936 0.026158114527842596 0 0.0056945077815742581 0.025650124287699853 0 -0.0013036324190744447 0.021858832015634214 0 -0.0014166914693353545 0.021827589785674718 0 -0.0013922334671642451 0.021848127410765791 0 0.0022364020981056375 0.023359751236336483 0 0.0030790419430640902 0.023491398425935173 0 0.0030790419430640902 0.023491398425935173 0 0.0010176915605722386 0.027269077663244049 0 0.0069698002749525936 0.026158114527842596 0 0.0062199207964193891 0.026837646925784872 0 0.0072307910439223608 0.027777168525859729 0 -0.0014166914693353545 0.021827589785674718 0 -0.0013922334671642451 0.021848127410765791 0 -0.0014601171610968088 0.021850813890509115 0 -0.0013922334671642451 0.021848127410765791 0 -0.0014601171610968088 0.021850813890509115 0 -0.0014092201485475654 0.021904170206385264 0 -0.0015051397990734823 0.021800161677888005 0 -0.0014601171610968088 0.021850813890509115 0 -0.0015628829706768681 0.021856922771897661 0 -0.0015051397990734823 0.021800161677888005 0 -0.0014166914693353545 0.021827589785674718 0 -0.0014601171610968088 0.021850813890509115 0 -0.0015051397990734823 0.021800161677888005 0 -0.0015628829706768681 0.021856922771897661 0 -0.001631941812631233 0.021642996276592615 0 -0.0025488245405082071 0.024970886882393697 0 -0.0021449927757878091 0.025170217662277887 0 -0.0027867684017424828 0.028548581259442551 0 -0.0030200063504129009 0.028414030693816972 0 -0.0032426884456170538 0.028747133898615065 0 -0.0027867684017424828 0.028548581259442551 0 -0.0030200063504129009 0.028414030693816972 0 -0.002615171463540547 0.028373786143673901 0 -0.0030200063504129009 0.028414030693816972 0 -0.0032426884456170538 0.028747133898615065 0 -0.0033917128650393681 0.02842906875007175 0 -0.0015628829706768681 0.021856922771897661 0 -0.0013125347675434671 0.021875935776824212 0 -0.001631941812631233 0.021642996276592615 0 -0.0021449927757878091 0.025170217662277887 0 -0.0018357058946038385 0.025696509349162108 0 -0.0038327778316675216 0.028501288025668224 0 -0.0039930747942982531 0.028358486944966566 0 -0.0039897091364771396 0.028495348002044792 0 -0.0038327778316675216 0.028501288025668224 0 -0.0039897091364771396 0.028495348002044792 0 -0.0039920456947479472 0.028582765611604912 0 -0.0037405668928557263 0.028312458486970969 0 -0.0038327778316675216 0.028501288025668224 0 -0.0039930747942982531 0.028358486944966566 0 -0.0037405668928557263 0.028312458486970969 0 -0.0038327778316675216 0.028501288025668224 0 -0.0036625434230451149 0.028495625072060462 0 -0.0038327778316675216 0.028501288025668224 0 -0.0036625434230451149 0.028495625072060462 0 -0.0037604954535771112 0.028601218034539876 0 -0.0037405668928557263 0.028312458486970969 0 -0.0036625434230451149 0.028495625072060462 0 -0.0033917128650393681 0.02842906875007175 0 -0.0036625434230451149 0.028495625072060462 0 -0.0033917128650393681 0.02842906875007175 0 -0.0035852632016992814 0.028618319368282342 0 -0.0032426884456170538 0.028747133898615065 0 -0.0033917128650393681 0.02842906875007175 0 -0.0035852632016992814 0.028618319368282342 0 -0.0032426884456170538 0.028747133898615065 0 -0.0035852632016992814 0.028618319368282342 0 -0.0036570002674012835 0.028755041729785175 0 -0.0035852632016992814 0.028618319368282342 0 -0.003735596160025579 0.028682815199016536 0 -0.0036570002674012835 0.028755041729785175 0 -0.0036625434230451149 0.028495625072060462 0 -0.0035852632016992814 0.028618319368282342 0 -0.0037604954535771112 0.028601218034539876 0 -0.0035852632016992814 0.028618319368282342 0 -0.0037604954535771112 0.028601218034539876 0 -0.003735596160025579 0.028682815199016536 0 -0.0038327778316675216 0.028501288025668224 0 -0.0037604954535771112 0.028601218034539876 0 -0.0038806246442334514 0.028613138126525522 0 -0.0037604954535771112 0.028601218034539876 0 -0.0038568678165295462 0.028682757146477361 0 -0.0038806246442334514 0.028613138126525522 0 -0.0037604954535771112 0.028601218034539876 0 -0.003735596160025579 0.028682815199016536 0 -0.0038568678165295462 0.028682757146477361 0 -0.003735596160025579 0.028682815199016536 0 -0.0038568678165295462 0.028682757146477361 0 -0.003807958464528464 0.028757004191185792 0 -0.003735596160025579 0.028682815199016536 0 -0.003807958464528464 0.028757004191185792 0 -0.0036570002674012835 0.028755041729785175 0 -0.0038568678165295462 0.028682757146477361 0 -0.0039011327661750044 0.028725405739415334 0 -0.003807958464528464 0.028757004191185792 0 -0.0038568678165295462 0.028682757146477361 0 -0.0039862316833729232 0.028681625270586417 0 -0.0038806246442334514 0.028613138126525522 0 -0.0038568678165295462 0.028682757146477361 0 -0.0039862316833729232 0.028681625270586417 0 -0.0039011327661750044 0.028725405739415334 0 -0.0038327778316675216 0.028501288025668224 0 -0.0038806246442334514 0.028613138126525522 0 -0.0039920456947479472 0.028582765611604912 0 -0.0039862316833729232 0.028681625270586417 0 -0.0038806246442334514 0.028613138126525522 0 -0.0039920456947479472 0.028582765611604912 0 -0.0039497283243898965 0.028778216102057018 0 -0.0037696663164745537 0.02885424432018531 0 -0.0042072688486911947 0.028821039333213672 0 -0.0039862316833729232 0.028681625270586417 0 -0.0039011327661750044 0.028725405739415334 0 -0.0039497283243898965 0.028778216102057018 0 -0.0039011327661750044 0.028725405739415334 0 -0.0039497283243898965 0.028778216102057018 0 -0.003807958464528464 0.028757004191185792 0 -0.0039497283243898965 0.028778216102057018 0 -0.003807958464528464 0.028757004191185792 0 -0.0037696663164745537 0.02885424432018531 0 -0.003807958464528464 0.028757004191185792 0 -0.0037696663164745537 0.02885424432018531 0 -0.0036570002674012835 0.028755041729785175 0 -0.0018357058946038385 0.025696509349162108 0 -0.0051755769834194486 0.02157238759397969 0 -0.0013125347675434671 0.021875935776824212 0 -0.00051856205348666819 0.021501722544253352 0 -0.0011327148011675116 0.021230554137899663 0 -0.0032426884456170538 0.028747133898615065 0 -0.0037696663164745537 0.02885424432018531 0 -0.0036570002674012835 0.028755041729785175 0 -0.00059806662560789206 0.020802176089762214 0 -0.0011327148011675116 0.021230554137899663 0 -0.0011132552013998907 0.02052721167300426 0 -0.00051856205348666819 0.021501722544253352 0 -0.00059806662560789206 0.020802176089762214 0 -0.0011327148011675116 0.021230554137899663 0 -0.0051755769834194486 0.02157238759397969 0 -0.0042634435964397878 0.017173782536778922 0 -0.0077123354574519191 0.015158029939875892 0 -0.0078090103578992405 0.014751926730972243 0 -0.0075644025678948358 0.014746345940470452 0 -0.0051755769834194486 0.02157238759397969 0 -0.0045611357277794036 0.022074268056912885 0 -0.0077123354574519191 0.015158029939875892 0 -0.0075644025678948358 0.014746345940470452 0 -0.0073342350480428767 0.014822096820382626 0 -0.0013125347675434671 0.021875935776824212 0 -0.001631941812631233 0.021642996276592615 0 -0.0011327148011675116 0.021230554137899663 0 -0.0011327148011675116 0.021230554137899663 0 -0.0016785460383720455 0.020754341259554374 0 -0.0011132552013998907 0.02052721167300426 0 -0.001631941812631233 0.021642996276592615 0 -0.0011327148011675116 0.021230554137899663 0 -0.0016785460383720455 0.020754341259554374 0 -0.0025208893678226557 0.021047622286638097 0 -0.001631941812631233 0.021642996276592615 0 -0.0016785460383720455 0.020754341259554374 0 -0.0016785460383720455 0.020754341259554374 0 -0.0015342685275792087 0.019831934683157477 0 -0.0023857043836009741 0.020174493156392553 0 -0.0011132552013998907 0.02052721167300426 0 -0.0015342685275792087 0.019831934683157477 0 -0.00073561461773930252 0.01999115289782839 0 -0.0016785460383720455 0.020754341259554374 0 -0.0011132552013998907 0.02052721167300426 0 -0.0015342685275792087 0.019831934683157477 0 -0.0015342685275792087 0.019831934683157477 0 -0.00073561461773930252 0.01999115289782839 0 -0.00093578791499243825 0.019185620858957187 0 -0.0015342685275792087 0.019831934683157477 0 -0.0023661994884711839 0.019473479913696645 0 -0.0023857043836009741 0.020174493156392553 0 -0.0075644025678948358 0.014746345940470452 0 -0.0076062638310053473 0.014454330390128931 0 -0.0073957942109323304 0.014576888725218281 0 -0.0078090103578992405 0.014751926730972243 0 -0.0075644025678948358 0.014746345940470452 0 -0.0076062638310053473 0.014454330390128931 0 -0.0078090103578992405 0.014751926730972243 0 -0.0076062638310053473 0.014454330390128931 0 -0.0078327703872488798 0.014359861041116175 0 -0.0042634435964397878 0.017173782536778922 0 -0.0041895095430160697 0.01745779891223433 0 -0.00059806662560789206 0.020802176089762214 0 -0.0011132552013998907 0.02052721167300426 0 -0.00073561461773930252 0.01999115289782839 0 -0.0078327703872488798 0.014359861041116175 0 -0.0076858181692858922 0.013984431515913087 0 -0.007778159218469945 0.013964155656555613 0 -0.0041895095430160697 0.01745779891223433 0 -0.0051298380355582866 0.015784289346720815 0 -0.0078327703872488798 0.014359861041116175 0 -0.007664300174028151 0.014179886401227759 0 -0.0076858181692858922 0.013984431515913087 0 -0.0076062638310053473 0.014454330390128931 0 -0.0078327703872488798 0.014359861041116175 0 -0.007664300174028151 0.014179886401227759 0 -0.0076062638310053473 0.014454330390128931 0 -0.007664300174028151 0.014179886401227759 0 -0.007568425590304264 0.014228963557763898 0 -0.007568425590304264 0.014228963557763898 0 -0.0076155565727069035 0.014033205283887839 0 -0.0074526629326168367 0.014190695651113005 0 -0.007664300174028151 0.014179886401227759 0 -0.007568425590304264 0.014228963557763898 0 -0.0076155565727069035 0.014033205283887839 0 -0.0076062638310053473 0.014454330390128931 0 -0.007568425590304264 0.014228963557763898 0 -0.0074730956328651144 0.014370818677861594 0 -0.0076639796662048339 0.013924708150183505 0 -0.0076155565727069035 0.014033205283887839 0 -0.0075812872511252126 0.013994053408951776 0 -0.0076155565727069035 0.014033205283887839 0 -0.0076511958151785318 0.014026504330847761 0 -0.0076379902518641241 0.013926763110613203 0 -0.007664300174028151 0.014179886401227759 0 -0.0076155565727069035 0.014033205283887839 0 -0.0076511958151785318 0.014026504330847761 0 -0.0076639796662048339 0.013924708150183505 0 -0.0076155565727069035 0.014033205283887839 0 -0.0076379902518641241 0.013926763110613203 0 -0.0076379902518641241 0.013926763110613203 0 -0.0076858181692858922 0.013984431515913087 0 -0.007567947226607712 0.013891526188776889 0 -0.0076511958151785318 0.014026504330847761 0 -0.0076379902518641241 0.013926763110613203 0 -0.0076858181692858922 0.013984431515913087 0 -0.007664300174028151 0.014179886401227759 0 -0.0076511958151785318 0.014026504330847761 0 -0.0076858181692858922 0.013984431515913087 0 -0.0069960210206226059 0.015028017828905319 0 -0.0051298380355582866 0.015784289346720815 0 -0.0076293748336702738 0.013938473842724279 0 -0.007567947226607712 0.013891526188776889 0 -0.0073761770796464347 0.013831342693749743 0 -0.0076858181692858922 0.013984431515913087 0 -0.0076293748336702738 0.013938473842724279 0 -0.007567947226607712 0.013891526188776889 0 -0.007567947226607712 0.013891526188776889 0 -0.0076201130328275345 0.01397461933250113 0 -0.0073761770796464347 0.013831342693749743 0 -0.0069551534516897086 0.013747335639946172 0 -0.0067452874341687582 0.013275619257588765 0 -0.0076379902518641241 0.013926763110613203 0 -0.007567947226607712 0.013891526188776889 0 -0.0076201130328275345 0.01397461933250113 0 -0.0069551534516897086 0.013747335639946172 0 -0.0080527676413818042 0.010392546207372174 0 -0.0076201130328275345 0.01397461933250113 0 -0.007740633321037629 0.01387822979502587 0 -0.0079155889480881508 0.014091453373284024 0 -0.0076639796662048339 0.013924708150183505 0 -0.0076201130328275345 0.01397461933250113 0 -0.007740633321037629 0.01387822979502587 0 -0.0076639796662048339 0.013924708150183505 0 -0.0076379902518641241 0.013926763110613203 0 -0.0076201130328275345 0.01397461933250113 0 -0.0076639796662048339 0.013924708150183505 0 -0.007740633321037629 0.01387822979502587 0 -0.0075812872511252126 0.013994053408951776 0 -0.0015342685275792087 0.019831934683157477 0 -0.0018989468486933429 0.018946023249339788 0 -0.0023661994884711839 0.019473479913696645 0 -0.0074827412086908825 0.013435292292903321 0 -0.0068247946631298092 0.013410755103749551 0 -0.0071308223747267776 0.013817119572485017 0 -0.0051298380355582866 0.015784289346720815 0 -0.0047307516466085497 0.016207069175597767 0 -0.0015342685275792087 0.019831934683157477 0 -0.00093578791499243825 0.019185620858957187 0 -0.0018989468486933429 0.018946023249339788 0 -0.0051298380355582866 0.015784289346720815 0 -0.0074659320953604971 0.01306131663315932 0 -0.0063738895477328389 0.012816094481531065 0 -0.0064930256553831205 0.012708781826561648 0 -0.0062806107010558755 0.012862614287497432 0 -0.0074827412086908825 0.013435292292903321 0 -0.0071308223747267776 0.013817119572485017 0 -0.0073761770796464347 0.013831342693749743 0 -0.0076201130328275345 0.01397461933250113 0 -0.0071308223747267776 0.013817119572485017 0 -0.0073761770796464347 0.013831342693749743 0 -0.0063738895477328389 0.012816094481531065 0 -0.0062806107010558755 0.012862614287497432 0 -0.0063142326807500539 0.012854596837262301 0 -0.0062806107010558755 0.012862614287497432 0 -0.0063142326807500539 0.012854596837262301 0 -0.0062993661564991667 0.012910709635662758 0 -0.0062806107010558755 0.012862614287497432 0 -0.0063458812207054533 0.013027295296512352 0 -0.0064068858716115123 0.013198836495123364 0 -0.0068247946631298092 0.013410755103749551 0 -0.0071308223747267776 0.013817119572485017 0 -0.0064068858716115123 0.013198836495123364 0 -0.0067452874341687582 0.013275619257588765 0 -0.0064517614843837166 0.013239595877791123 0 -0.0063014257330261322 0.012881907731885116 0 -0.0063142326807500539 0.012854596837262301 0 -0.0062993661564991667 0.012910709635662758 0 -0.0062806107010558755 0.012862614287497432 0 -0.0062993661564991667 0.012910709635662758 0 -0.0063458812207054533 0.013027295296512352 0 -0.0063035410269531534 0.012920612014433973 0 -0.0062993661564991667 0.012910709635662758 0 -0.0063235324583004382 0.012967404054185071 0 -0.0062993661564991667 0.012910709635662758 0 -0.0063235324583004382 0.012967404054185071 0 -0.0063458812207054533 0.013027295296512352 0 -0.0063035410269531534 0.012920612014433973 0 -0.0063235324583004382 0.012967404054185071 0 -0.0063374965576403573 0.012985540290790624 0 0.00018268426092337025 0.012623040733729224 0 -0.0016633062596350561 0.015731460716532177 0 -0.0063458812207054533 0.013027295296512352 0 -0.0063609008594233823 0.013032853321534534 0 -0.0063735870371789387 0.013095561422040866 0 -0.006387839080052222 0.01294670903799163 0 -0.0063609008594233823 0.013032853321534534 0 -0.006257050866824561 0.013112325653365097 0 -0.0063235324583004382 0.012967404054185071 0 -0.0063374965576403573 0.012985540290790624 0 -0.0063458812207054533 0.013027295296512352 0 -0.0063374965576403573 0.012985540290790624 0 -0.0063458812207054533 0.013027295296512352 0 -0.0063609008594233823 0.013032853321534534 0 -0.0063609008594233823 0.013032853321534534 0 -0.0063735870371789387 0.013095561422040866 0 -0.006257050866824561 0.013112325653365097 0 -0.0063735870371789387 0.013095561422040866 0 -0.0064068858716115123 0.013198836495123364 0 -0.006257050866824561 0.013112325653365097 0 -0.0063458812207054533 0.013027295296512352 0 -0.0063735870371789387 0.013095561422040866 0 -0.0064068858716115123 0.013198836495123364 0 0.00079724865614252646 0.015511745233421633 0 0.0021813322444176764 0.01425349597373698 0 0.0014018246208762669 0.012929622380952329 0 0.0021813322444176764 0.01425349597373698 0 0.0014018246208762669 0.012929622380952329 0 0.0034096936883156385 0.013386520844736188 0 -0.0016633062596350561 0.015731460716532177 0 0.0040051322059674894 0.015869397335190407 0 0.0026540883911735183 0.017687013021497274 0 0.0030298288574118915 0.017605977427306085 0 0.0034574971800403389 0.01806815317786398 0 0.0031264060227464284 0.01518130195289304 0 0.0021813322444176764 0.01425349597373698 0 0.0034096936883156385 0.013386520844736188 0 0.0030298288574118915 0.017605977427306085 0 0.0029163522704568467 0.017318600182180344 0 0.0031061963971200511 0.017415169114143005 0 -0.0016633062596350561 0.015731460716532177 0 -4.335328651132086e-06 0.018744870027429621 0 0.0026540883911735183 0.017687013021497274 0 0.0030298288574118915 0.017605977427306085 0 0.0029163522704568467 0.017318600182180344 0 -0.0047307516466085497 0.016207069175597767 0 -0.0016633062596350561 0.015731460716532177 0 -0.0018989468486933429 0.018946023249339788 0 -0.0028644352244419314 0.01868845235771098 0 -0.0023661994884711839 0.019473479913696645 0 -0.0028644352244419314 0.01868845235771098 0 -0.0023661994884711839 0.019473479913696645 0 -0.0030654207178884918 0.01957919505543939 0 -0.0068247946631298092 0.013410755103749551 0 -0.0064068858716115123 0.013198836495123364 0 -0.006257050866824561 0.013112325653365097 0 -0.0023661994884711839 0.019473479913696645 0 -0.0030654207178884918 0.01957919505543939 0 -0.0023857043836009741 0.020174493156392553 0 -4.335328651132086e-06 0.018744870027429621 0 -0.00015373485089301419 0.019546322177822366 0 -0.0030654207178884918 0.01957919505543939 0 -0.003267728629573227 0.020479576016353283 0 -0.0023857043836009741 0.020174493156392553 0 -0.0025208893678226557 0.021047622286638097 0 -0.0016785460383720455 0.020754341259554374 0 -0.0023857043836009741 0.020174493156392553 0 -0.0025208893678226557 0.021047622286638097 0 -0.003267728629573227 0.020479576016353283 0 -0.0023857043836009741 0.020174493156392553 0 -0.0012051679032107577 0.021956674423974726 0 -0.0013196405728745264 0.021930737564228271 0 -0.001255632690631712 0.022004892561636628 0 0.0058297165230007855 0.022250411798061039 0 0.0026163163714840896 0.018789548287360961 0 -0.00015373485089301419 0.019546322177822366 0 0.0026163163714840896 0.018789548287360961 0 -0.0014190017581184613 0.021934319020327532 0 -0.0013196405728745264 0.021930737564228271 0 -0.001255632690631712 0.022004892561636628 0 0.0029163522704568467 0.017318600182180344 0 0.0031975586190104732 0.01729744653254274 0 0.0031061963971200511 0.017415169114143005 0 0.0029163522704568467 0.017318600182180344 0 0.0029489376709599881 0.017154515930889878 0 0.0031975586190104732 0.01729744653254274 0 0.0049417971422834554 0.015470059987261992 0 0.0039392580010893111 0.016502206026267674 0 0.0046452539413385091 0.016729985496760417 0 0.0026163163714840896 0.018789548287360961 0 0.0038470868737278895 0.016649419516669567 0 0.0049417971422834554 0.015470059987261992 0 0.0053023838434001543 0.016809088722499217 0 0.0062426934587259944 0.016387693053225856 0 0.0061533505583042979 0.020052347310780143 0 0.0061993974448112934 0.019987884644247861 0 0.0061567279699069038 0.019934222783443849 0 0.0026163163714840896 0.018789548287360961 0 0.0094174569087289682 0.018766229072338367 0 0.0053023838434001543 0.016809088722499217 0 0.0055906728271704394 0.017817066883987268 0 0.0062426934587259944 0.016387693053225856 0 0.0049417971422834554 0.015470059987261992 0 0.0053023838434001543 0.016809088722499217 0 0.0046452539413385091 0.016729985496760417 0 0.0053023838434001543 0.016809088722499217 0 0.0048627451109527443 0.017472009021815178 0 0.0046452539413385091 0.016729985496760417 0 0.0053023838434001543 0.016809088722499217 0 0.0048627451109527443 0.017472009021815178 0 0.0055906728271704394 0.017817066883987268 0 0.0039392580010893111 0.016502206026267674 0 0.0046452539413385091 0.016729985496760417 0 0.004174562002104522 0.017392336595916855 0 0.0048627451109527443 0.017472009021815178 0 0.0046452539413385091 0.016729985496760417 0 0.004174562002104522 0.017392336595916855 0 0.0048627451109527443 0.017472009021815178 0 0.004174562002104522 0.017392336595916855 0 0.0044816992633330832 0.017900885063861876 0 0.0029767822647583809 0.017618483635550339 0 0.0038470868737278895 0.016649419516669567 0 0.0030298288574118915 0.017605977427306085 0 0.0039392580010893111 0.016502206026267674 0 0.003650291322260676 0.017406855782071389 0 0.0039392580010893111 0.016502206026267674 0 0.004174562002104522 0.017392336595916855 0 0.003650291322260676 0.017406855782071389 0 0.004174562002104522 0.017392336595916855 0 0.003650291322260676 0.017406855782071389 0 0.0034574971800403389 0.01806815317786398 0 0.0040051322059674894 0.015869397335190407 0 0.0050711332284595796 0.017063695852240119 0 0.0034574971800403389 0.01806815317786398 0 0.0044816992633330832 0.017900885063861876 0 0.004970039482173211 0.01846670181161884 0 0.0034096936883156385 0.013386520844736188 0 0.0043636724234645966 0.014315911756436945 0 0.005432867093842453 0.013856230156076723 0 0.0030298288574118915 0.017605977427306085 0 0.003650291322260676 0.017406855782071389 0 0.0034574971800403389 0.01806815317786398 0 0.004174562002104522 0.017392336595916855 0 0.0034574971800403389 0.01806815317786398 0 0.0044816992633330832 0.017900885063861876 0 0.0031264060227464284 0.01518130195289304 0 0.0034096936883156385 0.013386520844736188 0 0.0043636724234645966 0.014315911756436945 0 0.0051142642238732024 0.019010300508801096 0 0.0059825754280074337 0.018614031541663422 0 0.006713576034130273 0.018823507242231158 0 0.0048627451109527443 0.017472009021815178 0 0.0044816992633330832 0.017900885063861876 0 0.0049561570247731923 0.018138922229209275 0 0.0048627451109527443 0.017472009021815178 0 0.0055906728271704394 0.017817066883987268 0 0.0049561570247731923 0.018138922229209275 0 0.0044816992633330832 0.017900885063861876 0 0.0049561570247731923 0.018138922229209275 0 0.004970039482173211 0.01846670181161884 0 0.0050742028806123546 0.017501313267359774 0 0.0050711332284595796 0.017063695852240119 0 0.0055906728271704394 0.017817066883987268 0 0.0049561570247731923 0.018138922229209275 0 0.0049792663845589242 0.018434336242019744 0 0.0054876223766297466 0.014840308692387828 0 0.0043636724234645966 0.014315911756436945 0 0.005432867093842453 0.013856230156076723 0 0.0073705015523483812 0.012958268025504109 0 0.0050711332284595796 0.017063695852240119 0 0.0051142642238732024 0.019010300508801096 0 0.0050800628689131964 0.018369719849781727 0 0.0059825754280074337 0.018614031541663422 0 0.0055906728271704394 0.017817066883987268 0 0.0049792663845589242 0.018434336242019744 0 0.0059825754280074337 0.018614031541663422 0 0.0050711332284595796 0.017063695852240119 0 0.005895665514550996 0.018206703464140578 0 0.0055906728271704394 0.017817066883987268 0 0.0059825754280074337 0.018614031541663422 0 0.006713576034130273 0.018823507242231158 0 0.0055906728271704394 0.017817066883987268 0 0.006713576034130273 0.018823507242231158 0 0.0062426934587259944 0.016387693053225856 0 0.013799655241071683 0.018792300919330353 0 0.014004527456341268 0.018386402251086315 0 0.013460823492030618 0.017122622893553159 0 0.0144053467527604 0.017760757181288372 0 0.015009711933621642 0.020159976834294629 0 0.014004527456341268 0.018386402251086315 0 0.01419609977480963 0.017633785935624615 0 0.013460823492030618 0.017122622893553159 0 0.013121056388639732 0.016376981201486417 0 0.0094174569087289682 0.018766229072338367 0 0.015009711933621642 0.020159976834294629 0 0.0094174569087289682 0.018766229072338367 0 0.019820882242534088 0.021217073596129777 0 0.018782467256104229 0.020460299017628157 0 0.018783480275063436 0.021854362705273064 0 0.016630562516483382 0.013934646060672871 0 0.016156599376011223 0.013831478009438902 0 0.016821487562921952 0.013745282619010039 0 0.015009711933621642 0.020159976834294629 0 0.017753853595902185 0.016894942196377598 0 0.013121056388639732 0.016376981201486417 0 0.016883152856344376 0.015719442687901649 0 0.013799655241071683 0.018792300919330353 0 0.014004527456341268 0.018386402251086315 0 0.015217488058396459 0.018595383000792002 0 0.014246911291828561 0.0175663712876768 0 0.015217488058396459 0.018595383000792002 0 0.01542221369300403 0.018383629758758249 0 0.014004527456341268 0.018386402251086315 0 0.014246911291828561 0.0175663712876768 0 0.015217488058396459 0.018595383000792002 0 0.017181364641511987 0.014209433542228304 0 0.016883152856344376 0.015719442687901649 0 0.017423462286968321 0.013999603215489653 0 0.017656413078696712 0.014034337226560611 0 0.017564412639871546 0.014428333415585765 0 0.017000034980644434 0.013962925120980966 0 0.016879545406798271 0.013791578069495962 0 0.017100728785161362 0.013822935871698659 0 0.017000034980644434 0.013962925120980966 0 0.017100728785161362 0.013822935871698659 0 0.017259755718450173 0.013971991517666179 0 0.016883152856344376 0.015719442687901649 0 0.017210975390041485 0.015473107989395347 0 0.017033772770013278 0.01574821088442175 0 0.017587505221355829 0.015671114101099223 0 0.017301625210475215 0.015466867271215589 0 0.016883152856344376 0.015719442687901649 0 0.017753853595902185 0.016894942196377598 0 0.017210975390041485 0.015473107989395347 0 0.017753853595902185 0.016894942196377598 0 0.017210975390041485 0.015473107989395347 0 0.01748769478159273 0.014622355105929645 0 0.01759159594939871 0.01398511388295458 0 0.017423462286968321 0.013999603215489653 0 0.017656413078696712 0.014034337226560611 0 0.017100728785161362 0.013822935871698659 0 0.017259755718450173 0.013971991517666179 0 0.017423462286968321 0.013999603215489653 0 0.017423462286968321 0.013999603215489653 0 0.017365201594108984 0.014133728294810645 0 0.017564412639871546 0.014428333415585765 0 0.017357335674749653 0.014000270818671074 0 0.017365201594108984 0.014133728294810645 0 0.01732295723902073 0.013976887245021158 0 0.017357335674749653 0.014000270818671074 0 0.017259755718450173 0.013971991517666179 0 0.017423462286968321 0.013999603215489653 0 0.017357335674749653 0.014000270818671074 0 0.017423462286968321 0.013999603215489653 0 0.017365201594108984 0.014133728294810645 0 0.017365201594108984 0.014133728294810645 0 0.017564412639871546 0.014428333415585765 0 0.017255328748370876 0.014561367172240059 0 0.017753853595902185 0.016894942196377598 0 0.017790929947082621 0.017983677848897338 0 0.018782467256104229 0.020460299017628157 0 0.017900499182801444 0.02147439056408806 0 0.018783480275063436 0.021854362705273064 0 0.017900499182801444 0.02147439056408806 0 0.018783480275063436 0.021854362705273064 0 0.01798025576817857 0.022455068080701066 0 0.018783480275063436 0.021854362705273064 0 0.01798025576817857 0.022455068080701066 0 0.018745823856857049 0.023029062830239529 0 0.017790929947082621 0.017983677848897338 0 0.01723727481489248 0.01890687126620904 0 0.017564412639871546 0.014428333415585765 0 0.017255328748370876 0.014561367172240059 0 0.017310266800898037 0.015244660314131559 0 0.017900499182801444 0.02147439056408806 0 0.01798025576817857 0.022455068080701066 0 0.01723882351352583 0.022364817033960743 0 0.01798025576817857 0.022455068080701066 0 0.016985989168891168 0.023234550721093067 0 0.018003170945968226 0.02364897919430314 0 0.01798025576817857 0.022455068080701066 0 0.01723882351352583 0.022364817033960743 0 0.017303993802848413 0.022751815269272561 0 0.017887536702397028 0.022507302672497249 0 0.017249768897160112 0.022944352913520937 0 0.016985989168891168 0.023234550721093067 0 0.017329898899018519 0.023887755774679293 0 0.018003170945968226 0.02364897919430314 0 0.018745823856857049 0.023029062830239529 0 0.019182711639131572 0.023910933704615608 0 0.018003170945968226 0.02364897919430314 0 0.01798025576817857 0.022455068080701066 0 0.018745823856857049 0.023029062830239529 0 0.018003170945968226 0.02364897919430314 0 0.011295340840477928 0.022011269189148856 0 0.011859472658058591 0.023174906057776088 0 0.010950739150253208 0.023286486268372354 0 0.015423431907980319 0.022494030388122938 0 0.015237368778336348 0.023224904090905763 0 0.018745823856857049 0.023029062830239529 0 0.019505496235953112 0.022528878692854731 0 0.019182711639131572 0.023910933704615608 0 0.012496483845857666 0.022456093052955546 0 0.012009463152371487 0.021919910001879352 0 0.011859472658058591 0.023174906057776088 0 0.012009463152371487 0.021919910001879352 0 0.011295340840477928 0.022011269189148856 0 0.011859472658058591 0.023174906057776088 0 0.0058297165230007855 0.022250411798061039 0 0.0090944168601628447 0.023232898358779695 0 0.0058297165230007855 0.022250411798061039 0 0.0094174569087289682 0.018766229072338367 0 0.011653405860931481 0.020749295755432006 0 0.012303377302323278 0.02123558589298357 0 0.012009463152371487 0.021919910001879352 0 0.012496483845857666 0.022456093052955546 0 0.012303377302323278 0.02123558589298357 0 0.012009463152371487 0.021919910001879352 0 0.011653405860931481 0.020749295755432006 0 0.012009463152371487 0.021919910001879352 0 0.011295340840477928 0.022011269189148856 0 0.019820882242534088 0.021217073596129777 0 0.018783480275063436 0.021854362705273064 0 0.019505496235953112 0.022528878692854731 0 0.015009711933621642 0.020159976834294629 0 0.015423431907980319 0.022494030388122938 0 0.018783480275063436 0.021854362705273064 0 0.018745823856857049 0.023029062830239529 0 0.019505496235953112 0.022528878692854731 0 0.014228361588787307 0.01439355680617518 0 0.015332007422557678 0.014463173375834871 0 0.015262990042074657 0.01543853972363184 0 0.014228361588787307 0.01439355680617518 0 0.015332007422557678 0.014463173375834871 0 0.014641371643890878 0.014000060282456487 0 0.015332007422557678 0.014463173375834871 0 0.014641371643890878 0.014000060282456487 0 0.015255155259283825 0.013762131138413222 0 0.014731871435719487 0.01326590838478014 0 0.015255155259283825 0.013762131138413222 0 0.01567393587773868 0.013228938990604667 0 0.014641371643890878 0.014000060282456487 0 0.014731871435719487 0.01326590838478014 0 0.015255155259283825 0.013762131138413222 0 0.01567393587773868 0.013228938990604667 0 0.016054308779646559 0.014058538998935086 0 0.016711665570770029 0.013034366065620001 0 0.015255155259283825 0.013762131138413222 0 0.01567393587773868 0.013228938990604667 0 0.016054308779646559 0.014058538998935086 0 0.015332007422557678 0.014463173375834871 0 0.016054308779646559 0.014058538998935086 0 0.016400360437942435 0.015048722226273563 0 0.015332007422557678 0.014463173375834871 0 0.015255155259283825 0.013762131138413222 0 0.016054308779646559 0.014058538998935086 0 0.01695783309151988 0.014147503679933705 0 0.017255328748370876 0.014561367172240059 0 0.016400360437942435 0.015048722226273563 0 0.016054308779646559 0.014058538998935086 0 0.01695783309151988 0.014147503679933705 0 0.016400360437942435 0.015048722226273563 0 0.016054308779646559 0.014058538998935086 0 0.01695783309151988 0.014147503679933705 0 0.016711665570770029 0.013034366065620001 0 0.017062286990292903 0.014085431341959127 0 0.01769520926582855 0.013494178295128258 0 0.017365201594108984 0.014133728294810645 0 0.01695783309151988 0.014147503679933705 0 0.01732295723902073 0.013976887245021158 0 0.01695783309151988 0.014147503679933705 0 0.016711665570770029 0.013034366065620001 0 0.018219721429722825 0.012880263095512278 0 0.017365201594108984 0.014133728294810645 0 0.01695783309151988 0.014147503679933705 0 0.017255328748370876 0.014561367172240059 0 0.017255328748370876 0.014561367172240059 0 0.017310266800898037 0.015244660314131559 0 0.016400360437942435 0.015048722226273563 0 0.017249768897160112 0.022944352913520937 0 0.016071458833559843 0.023545923993921854 0 0.01723882351352583 0.022364817033960743 0 0.017303993802848413 0.022751815269272561 0 0.016891405772165621 0.022859471252094296 0 0.017303993802848413 0.022751815269272561 0 0.016891405772165621 0.022859471252094296 0 0.016922209304117777 0.022995052646105966 0 0.01723727481489248 0.01890687126620904 0 0.016580710665887243 0.018763789475535 0 0.016632912526101783 0.016182067145491797 0 0.016400360437942435 0.015048722226273563 0 0.015834019884017975 0.015973557730070594 0 0.017310266800898037 0.015244660314131559 0 0.016632912526101783 0.016182067145491797 0 0.016400360437942435 0.015048722226273563 0 0.016400360437942435 0.015048722226273563 0 0.015834019884017975 0.015973557730070594 0 0.015262990042074657 0.01543853972363184 0 0.015332007422557678 0.014463173375834871 0 0.016400360437942435 0.015048722226273563 0 0.015262990042074657 0.01543853972363184 0 0.015834019884017975 0.015973557730070594 0 0.015262990042074657 0.01543853972363184 0 0.015254938790152786 0.016300192521040636 0 0.014944835090782564 0.015800519450634407 0 0.015262990042074657 0.01543853972363184 0 0.015254938790152786 0.016300192521040636 0 0.024386267228129428 0.032460149760486091 0 0.025268818797625815 0.031745809082856243 0 0.024641123239484485 0.031966687377412907 0 0.023777422842373493 0.029519323012599349 0 0.026109903234137633 0.030351527326473397 0 0.025570419826654086 0.030410411730458106 0 0.02533421278826363 0.030358137088438077 0 0.025695883475903465 0.030288977718784763 0 0.023777422842373493 0.029519323012599349 0 0.025608082833848193 0.031305181900555999 0 0.025355423985730645 0.030404639801538593 0 0.025740932836590263 0.030219947180830219 0 0.025695883475903465 0.030288977718784763 0 0.025697257809686208 0.030371917476871495 0 0.025570419826654086 0.030410411730458106 0 0.025695883475903465 0.030288977718784763 0 0.025570419826654086 0.030410411730458106 0 0.025509930776793744 0.030567825497306821 0 0.02533421278826363 0.030358137088438077 0 0.025682760023447226 0.030460568678258762 0 0.025570419826654086 0.030410411730458106 0 0.025509930776793744 0.030567825497306821 0 0.016632912526101783 0.016182067145491797 0 0.015834019884017975 0.015973557730070594 0 0.015974902025430116 0.017012935253253991 0 0.025509930776793744 0.030567825497306821 0 0.025264185121769669 0.030385421464178247 0 0.02533421278826363 0.030358137088438077 0 0.015834019884017975 0.015973557730070594 0 0.015254938790152786 0.016300192521040636 0 0.015974902025430116 0.017012935253253991 0 0.020476880879052913 0.023230384567760366 0 0.019612914441050847 0.025799395170930588 0 0.024222291057575927 0.032548921732765697 0 0.02431008786305559 0.032100429668453792 0 0.024021936820375622 0.0320075212186956 0 0.024222291057575927 0.032548921732765697 0 0.024386267228129428 0.032460149760486091 0 0.02431008786305559 0.032100429668453792 0 0.019612914441050847 0.025799395170930588 0 0.023777422842373493 0.029519323012599349 0 0.024386267228129428 0.032460149760486091 0 0.02431008786305559 0.032100429668453792 0 0.024641123239484485 0.031966687377412907 0 0.015941794908857745 0.024589620556066744 0 0.01646762872999178 0.024773367919879052 0 0.016365794987791733 0.025620444945094068 0 0.024222291057575927 0.032548921732765697 0 0.023479735555154257 0.031941276697413042 0 0.024021936820375622 0.0320075212186956 0 0.01518521150743864 0.024631696562980546 0 0.015941794908857745 0.024589620556066744 0 0.016365794987791733 0.025620444945094068 0 0.019612914441050847 0.025799395170930588 0 0.020447984720353703 0.028958840924899094 0 0.016580710665887243 0.018763789475535 0 0.019612914441050847 0.025799395170930588 0 0.019612914441050847 0.025799395170930588 0 0.016071458833559843 0.023545923993921854 0 0.016891405772165621 0.022859471252094296 0 0.016704875087151169 0.023245849513143478 0 0.016922209304117777 0.022995052646105966 0 0.01518521150743864 0.024631696562980546 0 0.016071505394240501 0.023968421068181107 0 0.015941794908857745 0.024589620556066744 0 0.015941794908857745 0.024589620556066744 0 0.016333803964642925 0.024358977751188164 0 0.01646762872999178 0.024773367919879052 0 0.016071505394240501 0.023968421068181107 0 0.015941794908857745 0.024589620556066744 0 0.016333803964642925 0.024358977751188164 0 0.016071505394240501 0.023968421068181107 0 0.016333803964642925 0.024358977751188164 0 0.016863205422421496 0.024102241772793603 0 0.016985989168891168 0.023234550721093067 0 0.016071505394240501 0.023968421068181107 0 0.016863205422421496 0.024102241772793603 0 0.016333803964642925 0.024358977751188164 0 0.016863205422421496 0.024102241772793603 0 0.01646762872999178 0.024773367919879052 0 0.016863205422421496 0.024102241772793603 0 0.01646762872999178 0.024773367919879052 0 0.017470259882185681 0.024560844130560078 0 0.016985989168891168 0.023234550721093067 0 0.016863205422421496 0.024102241772793603 0 0.017329898899018519 0.023887755774679293 0 0.01646762872999178 0.024773367919879052 0 0.017470259882185681 0.024560844130560078 0 0.017350668571707147 0.025465554196253525 0 0.01646762872999178 0.024773367919879052 0 0.016365794987791733 0.025620444945094068 0 0.017350668571707147 0.025465554196253525 0 0.020447984720353703 0.028958840924899094 0 0.017502660355562593 0.031457504126740747 0 0.023479735555154257 0.031941276697413042 0 0.023444300926011172 0.031372638256066676 0 0.022778388818811886 0.031386680454103907 0 0.016365794987791733 0.025620444945094068 0 0.017350668571707147 0.025465554196253525 0 0.017593722731306348 0.02665302382966591 0 0.023444300926011172 0.031372638256066676 0 0.022778388818811886 0.031386680454103907 0 0.023370114816008005 0.030922520636554471 0 0.016946532702797931 0.035749316199559913 0 0.015842642150722286 0.037331365464172296 0 0.015910792193038488 0.036941091969681213 0 0.017502660355562593 0.031457504126740747 0 0.019793085947176908 0.034060963488012824 0 0.023444300926011172 0.031372638256066676 0 0.023541448607943077 0.031095704391560296 0 0.023370114816008005 0.030922520636554471 0 0.023444300926011172 0.031372638256066676 0 0.023788001014821827 0.031275010450887153 0 0.023919866724106922 0.031607919844764409 0 0.023444300926011172 0.031372638256066676 0 0.023541448607943077 0.031095704391560296 0 0.023788001014821827 0.031275010450887153 0 0.023541448607943077 0.031095704391560296 0 0.023788001014821827 0.031275010450887153 0 0.023892430526645976 0.031026384995339957 0 0.023788001014821827 0.031275010450887153 0 0.024308855010811436 0.031254051193185695 0 0.023892430526645976 0.031026384995339957 0 0.023788001014821827 0.031275010450887153 0 0.023919866724106922 0.031607919844764409 0 0.024308855010811436 0.031254051193185695 0 0.023479735555154257 0.031941276697413042 0 0.023919866724106922 0.031607919844764409 0 0.024021936820375622 0.0320075212186956 0 0.023479735555154257 0.031941276697413042 0 0.023444300926011172 0.031372638256066676 0 0.023919866724106922 0.031607919844764409 0 0.02431008786305559 0.032100429668453792 0 0.024021936820375622 0.0320075212186956 0 0.024196781123541612 0.031818505866550065 0 0.023919866724106922 0.031607919844764409 0 0.024021936820375622 0.0320075212186956 0 0.024196781123541612 0.031818505866550065 0 0.02431008786305559 0.032100429668453792 0 0.024196781123541612 0.031818505866550065 0 0.024471360235990499 0.031804254641964992 0 0.02431008786305559 0.032100429668453792 0 0.024471360235990499 0.031804254641964992 0 0.024641123239484485 0.031966687377412907 0 0.024471360235990499 0.031804254641964992 0 0.024787070685095031 0.031721152867431809 0 0.024641123239484485 0.031966687377412907 0 0.024471360235990499 0.031804254641964992 0 0.024609288486304615 0.031526288685320827 0 0.024294463366813655 0.031597730693715791 0 0.024471360235990499 0.031804254641964992 0 0.024609288486304615 0.031526288685320827 0 0.024787070685095031 0.031721152867431809 0 0.023919866724106922 0.031607919844764409 0 0.024196781123541612 0.031818505866550065 0 0.024294463366813655 0.031597730693715791 0 0.024196781123541612 0.031818505866550065 0 0.024471360235990499 0.031804254641964992 0 0.024294463366813655 0.031597730693715791 0 0.023919866724106922 0.031607919844764409 0 0.024294463366813655 0.031597730693715791 0 0.024308855010811436 0.031254051193185695 0 0.024308855010811436 0.031254051193185695 0 0.024330366067556994 0.030866542840141245 0 0.023892430526645976 0.031026384995339957 0 0.024308855010811436 0.031254051193185695 0 0.024833253805968264 0.03122101683688136 0 0.024691937845005438 0.030965109987084256 0 0.024308855010811436 0.031254051193185695 0 0.024691937845005438 0.030965109987084256 0 0.024330366067556994 0.030866542840141245 0 0.024609288486304615 0.031526288685320827 0 0.024294463366813655 0.031597730693715791 0 0.024308855010811436 0.031254051193185695 0 0.024609288486304615 0.031526288685320827 0 0.024308855010811436 0.031254051193185695 0 0.024833253805968264 0.03122101683688136 0 0.024609288486304615 0.031526288685320827 0 0.024833253805968264 0.03122101683688136 0 0.024917360009826521 0.031491610078574747 0 0.024833253805968264 0.03122101683688136 0 0.025135487711738441 0.031292125901229761 0 0.024917360009826521 0.031491610078574747 0 0.024833253805968264 0.03122101683688136 0 0.024939740158044968 0.030936942588282643 0 0.024691937845005438 0.030965109987084256 0 0.024833253805968264 0.03122101683688136 0 0.024939740158044968 0.030936942588282643 0 0.025106118712721431 0.030999643823505466 0 0.025310757529426988 0.031020546269900067 0 0.025106118712721431 0.030999643823505466 0 0.025135487711738441 0.031292125901229761 0 0.025310757529426988 0.031020546269900067 0 0.02537510519924227 0.030772745051832789 0 0.025106118712721431 0.030999643823505466 0 0.025436076658754719 0.031125436426772058 0 0.025135487711738441 0.031292125901229761 0 0.025268818797625815 0.031745809082856243 0 0.024833253805968264 0.03122101683688136 0 0.025106118712721431 0.030999643823505466 0 0.025135487711738441 0.031292125901229761 0 0.025135487711738441 0.031292125901229761 0 0.025268818797625815 0.031745809082856243 0 0.024917360009826521 0.031491610078574747 0 0.025268818797625815 0.031745809082856243 0 0.024917360009826521 0.031491610078574747 0 0.024787070685095031 0.031721152867431809 0 0.024609288486304615 0.031526288685320827 0 0.024917360009826521 0.031491610078574747 0 0.024787070685095031 0.031721152867431809 0 0.025268818797625815 0.031745809082856243 0 0.024787070685095031 0.031721152867431809 0 0.024641123239484485 0.031966687377412907 0 0.010074591569246501 0.027718731307299439 0 0.0093557809767917492 0.02914585736769074 0 0.010853368697013052 0.029392353465206397 0 0.010074591569246501 0.027718731307299439 0 0.0092103653284613309 0.028664114599384737 0 0.0093557809767917492 0.02914585736769074 0 0.015237368778336348 0.023224904090905763 0 0.013495467542340895 0.026501211449231104 0 0.0093482014838111947 0.025280812619642583 0 0.0081068024284239558 0.027636266870153445 0 0.011237198423417782 0.023932562371450503 0 0.011077245326053489 0.02361285325350547 0 0.010616662987489487 0.024640685639094467 0 0.0093482014838111947 0.025280812619642583 0 0.013495467542340895 0.026501211449231104 0 0.0067121257451900167 0.024611059472411163 0 0.0058732740080706409 0.024620783482688497 0 0.0056945077815742581 0.025650124287699853 0 0.005174539752824202 0.024497261050601835 0 0.0058732740080706409 0.024620783482688497 0 0.0056945077815742581 0.025650124287699853 0 0.0067121257451900167 0.024611059472411163 0 0.0064554091624570717 0.023093147436288868 0 0.0058135144773014454 0.023793612988314151 0 0.005174539752824202 0.024497261050601835 0 0.0058732740080706409 0.024620783482688497 0 0.0058135144773014454 0.023793612988314151 0 0.0067121257451900167 0.024611059472411163 0 0.0058732740080706409 0.024620783482688497 0 0.0058135144773014454 0.023793612988314151 0 0.011859472658058591 0.023174906057776088 0 0.010950739150253208 0.023286486268372354 0 0.011077245326053489 0.02361285325350547 0 0.010950739150253208 0.023286486268372354 0 0.011077245326053489 0.02361285325350547 0 0.010616662987489487 0.024640685639094467 0 0.01121373168872471 0.023906933366033313 0 0.011859472658058591 0.023174906057776088 0 0.011077245326053489 0.02361285325350547 0 0.0093482014838111947 0.025280812619642583 0 0.0090944168601628447 0.023232898358779695 0 0.0093482014838111947 0.025280812619642583 0 0.0097454508361106695 0.024575067775446401 0 0.019182711639131572 0.023910933704615608 0 0.018296323027739637 0.024531570867425943 0 0.018003170945968226 0.02364897919430314 0 0.017329898899018519 0.023887755774679293 0 0.018003170945968226 0.02364897919430314 0 0.017470259882185681 0.024560844130560078 0 0.018296323027739637 0.024531570867425943 0 0.018003170945968226 0.02364897919430314 0 0.017470259882185681 0.024560844130560078 0 0.016863205422421496 0.024102241772793603 0 0.017329898899018519 0.023887755774679293 0 0.017470259882185681 0.024560844130560078 0 0.018296323027739637 0.024531570867425943 0 0.017470259882185681 0.024560844130560078 0 0.018025848452140621 0.025193683366681551 0 0.017470259882185681 0.024560844130560078 0 0.018025848452140621 0.025193683366681551 0 0.017350668571707147 0.025465554196253525 0 0.019182711639131572 0.023910933704615608 0 0.018296323027739637 0.024531570867425943 0 0.018805804873711859 0.025318261074380469 0 0.018296323027739637 0.024531570867425943 0 0.018025848452140621 0.025193683366681551 0 0.018805804873711859 0.025318261074380469 0 0.018025848452140621 0.025193683366681551 0 0.018805804873711859 0.025318261074380469 0 0.018198506804941967 0.025983365611743935 0 0.015403415819796148 0.028456142427779062 0 0.015187335028416951 0.029319380217520844 0 0.014613396105843416 0.029358751561244525 0 0.0092103653284613309 0.028664114599384737 0 0.0093557809767917492 0.02914585736769074 0 0.0089991970785221163 0.029506188271589066 0 0.013495467542340895 0.026501211449231104 0 0.011999717029204694 0.029678246989946193 0 0.01041870394527526 0.030098081494262522 0 0.011999717029204694 0.029678246989946193 0 0.013495467542340895 0.026501211449231104 0 0.016743079933132572 0.027341852486028551 0 0.015187335028416951 0.029319380217520844 0 0.014613396105843416 0.029358751561244525 0 0.014068828426853719 0.030457315687125182 0 0.011999717029204694 0.029678246989946193 0 0.014792919585543438 0.034202682594596572 0 0.0093557809767917492 0.02914585736769074 0 0.0089738192842252137 0.029525179837393108 0 0.0096399831464192842 0.030105212268106026 0 0.017350668571707147 0.025465554196253525 0 0.018198506804941967 0.025983365611743935 0 0.017593722731306348 0.02665302382966591 0 0.018025848452140621 0.025193683366681551 0 0.017350668571707147 0.025465554196253525 0 0.018198506804941967 0.025983365611743935 0 0.016743079933132572 0.027341852486028551 0 0.017502660355562593 0.031457504126740747 0 0.014792919585543438 0.034202682594596572 0 0.014906724706518245 0.038785372789923632 0 0.016946532702797931 0.035749316199559913 0 0.017189811813723085 0.03594156153062926 0 0.015842642150722286 0.037331365464172296 0 0.014613396105843416 0.029358751561244525 0 0.013821057935648272 0.030258365508464405 0 0.014068828426853719 0.030457315687125182 0 0.017502660355562593 0.031457504126740747 0 0.014792919585543438 0.034202682594596572 0 0.014792919585543438 0.034202682594596572 0 0.011969210688217448 0.035310997899950673 0 0.013522398877661681 0.039597381194077373 0 0.013169898904613932 0.039376285108027313 0 0.013473086762335378 0.039253845065211769 0 0.013522398877661681 0.039597381194077373 0 0.013845295403713837 0.039133580936520668 0 0.013473086762335378 0.039253845065211769 0 0.01357673096711255 0.031440097979769328 0 0.011708264876820352 0.033248497913971657 0 0.012834742301440494 0.034139374229530374 0 0.0089738192842252137 0.029525179837393108 0 0.0085377518842503011 0.031192513642269205 0 0.0096399831464192842 0.030105212268106026 0 0.011999717029204694 0.029678246989946193 0 0.011969210688217448 0.035310997899950673 0 0.0085377518842503011 0.031192513642269205 0 0.010330630650420496 0.031085964908731927 0 0.0096399831464192842 0.030105212268106026 0 0.010330630650420496 0.031085964908731927 0 0.0096399831464192842 0.030105212268106026 0 0.010853368697013052 0.029392353465206397 0 0.0093557809767917492 0.02914585736769074 0 0.0096399831464192842 0.030105212268106026 0 0.010853368697013052 0.029392353465206397 0 0.0069698002749525936 0.026158114527842596 0 0.0056945077815742581 0.025650124287699853 0 0.0062199207964193891 0.026837646925784872 0 0.0081068024284239558 0.027636266870153445 0 0.0090729935383691007 0.028677527234643802 0 0.010330630650420496 0.031085964908731927 0 0.010853368697013052 0.029392353465206397 0 0.011597029702247576 0.031039113712545304 0 0.011597029702247576 0.031039113712545304 0 0.011101874137234227 0.032104035659245043 0 0.012327355289971843 0.032649061977185916 0 0.010330630650420496 0.031085964908731927 0 0.011597029702247576 0.031039113712545304 0 0.011101874137234227 0.032104035659245043 0 0.011101874137234227 0.032104035659245043 0 0.011208565399176142 0.03331617468947462 0 0.012327355289971843 0.032649061977185916 0 0.011101874137234227 0.032104035659245043 0 0.011208565399176142 0.03331617468947462 0 0.0098895252996284086 0.032254879488763252 0 0.010124635598215442 0.038300161765427346 0 0.010894975249713935 0.035206875645635238 0 0.011353514026019706 0.038176200305144826 0 0.012197598394149585 0.038818273472413137 0 0.012449220863384564 0.037577747567224699 0 0.0085377518842503011 0.031192513642269205 0 0.010330630650420496 0.031085964908731927 0 0.0098895252996284086 0.032254879488763252 0 0.010330630650420496 0.031085964908731927 0 0.011101874137234227 0.032104035659245043 0 0.0098895252996284086 0.032254879488763252 0 0.011969210688217448 0.035310997899950673 0 0.010894975249713935 0.035206875645635238 0 0.013038871162721035 0.039443978352454369 0 0.012197598394149585 0.038818273472413137 0 0.013252746806689754 0.038781587093223283 0 0.011969210688217448 0.035310997899950673 0 0.012822020938767982 0.039897794212819367 0 0.013522398877661681 0.039597381194077373 0 0.013845295403713837 0.039133580936520668 0 0.014186197974543456 0.039099245825819272 0 0.013845295403713837 0.039133580936520668 0 0.013473086762335378 0.039253845065211769 0 0.013252746806689754 0.038781587093223283 0 0.013169898904613932 0.039376285108027313 0 0.013473086762335378 0.039253845065211769 0 0.013252746806689754 0.038781587093223283 0 0.013252746806689754 0.038781587093223283 0 0.013676887064159189 0.038038130479979573 0 0.012968761662203322 0.038152071235756958 0 0.013848071148093305 0.039142343047946941 0 0.013804236710412615 0.038196062923563062 0 0.013845295403713837 0.039133580936520668 0 0.013252746806689754 0.038781587093223283 0 0.013676887064159189 0.038038130479979573 0 0.013845295403713837 0.039133580936520668 0 0.013880684898104442 0.038610593470988545 0 0.014145050237236409 0.038718737567893735 0 0.012197598394149585 0.038818273472413137 0 0.012968761662203322 0.038152071235756958 0 0.012449220863384564 0.037577747567224699 0 0.012197598394149585 0.038818273472413137 0 0.013252746806689754 0.038781587093223283 0 0.012968761662203322 0.038152071235756958 0 0.012968761662203322 0.038152071235756958 0 0.013182282909263326 0.037652195789606074 0 0.012449220863384564 0.037577747567224699 0 0.013143650327043848 0.038332970861148036 0 0.011684912098554523 0.039170727240490713 0 0.013182282909263326 0.037652195789606074 0 0.013515834961933813 0.036991807378926857 0 0.012449220863384564 0.037577747567224699 0 0.013804236710412615 0.038196062923563062 0 0.013143650327043848 0.038332970861148036 0 0.013676887064159189 0.038038130479979573 0 0.013182282909263326 0.037652195789606074 0 0.013515834961933813 0.036991807378926857 0 0.013880684898104442 0.038610593470988545 0 0.013739668900884077 0.038281720145116438 0 0.013936119867200447 0.038374712560053884 0 0.013676887064159189 0.038038130479979573 0 0.012968761662203322 0.038152071235756958 0 0.013182282909263326 0.037652195789606074 0 0.013130419610734117 0.03858306947105429 0 0.013739765098838029 0.038204933137049674 0 0.012928286054737215 0.037869402943819991 0 0.012601628388870875 0.039538457242762351 0 0.011296442501108101 0.039136843898449694 0 0.012492123621446468 0.038490723660506279 0 0.013143650327043848 0.038332970861148036 0 0.012715029958411441 0.038246298947342564 0 0.013739668900884077 0.038281720145116438 0 0.013936119867200447 0.038374712560053884 0 0.013739765098838029 0.038204933137049674 0 0.013143650327043848 0.038332970861148036 0 0.013699515858701272 0.0381898187771023 0 0.012601628388870875 0.039538457242762351 0 0.011296442501108101 0.039136843898449694 0 0.010961306690577422 0.040394037852596369 0 0.011296442501108101 0.039136843898449694 0 0.0096781629498181414 0.039421809341541991 0 0.010961306690577422 0.040394037852596369 0 0.011296442501108101 0.039136843898449694 0 0.0096781629498181414 0.039421809341541991 0 0.010440206468809544 0.038274967449463619 0 0.0096781629498181414 0.039421809341541991 0 0.0094122484872754333 0.040251835177057174 0 0.008562160715745417 0.039706823077726869 0 0.0096781629498181414 0.039421809341541991 0 0.0084013920718641073 0.039009758210320399 0 0.008562160715745417 0.039706823077726869 0 0.0093671095706854678 0.041219746211167814 0 0.0094122484872754333 0.040251835177057174 0 0.010961306690577422 0.040394037852596369 0 0.0093671095706854678 0.041219746211167814 0 0.0094122484872754333 0.040251835177057174 0 0.0084955411078846202 0.040516524505450978 0 0.010124635598215442 0.038300161765427346 0 0.0082835864732789723 0.040089928415699153 0 0.0096781629498181414 0.039421809341541991 0 0.0094122484872754333 0.040251835177057174 0 0.010961306690577422 0.040394037852596369 0 0.010124635598215442 0.038300161765427346 0 0.011684912098554523 0.039170727240490713 0 0.025533627205249956 0.02999982949692909 0 0.02539393973033735 0.030393899763485669 0 0.025120686475230695 0.030261660196049842 0 0.025533627205249956 0.02999982949692909 0 0.024852462996831894 0.030087840731331566 0 0.025120686475230695 0.030261660196049842 0 0.025120686475230695 0.030261660196049842 0 0.025045543847767623 0.030505459656481933 0 0.024741433813848253 0.030365241303571582 0 0.024852462996831894 0.030087840731331566 0 0.025120686475230695 0.030261660196049842 0 0.024741433813848253 0.030365241303571582 0 0.02539393973033735 0.030393899763485669 0 0.025120686475230695 0.030261660196049842 0 0.025045543847767623 0.030505459656481933 0 0.025287834601365744 0.030594883605013831 0 0.025038735967981396 0.030750221182035749 0 0.025045543847767623 0.030505459656481933 0 0.02539393973033735 0.030393899763485669 0 0.025287834601365744 0.030594883605013831 0 0.025045543847767623 0.030505459656481933 0 0.02537510519924227 0.030772745051832789 0 0.025106118712721431 0.030999643823505466 0 0.025038735967981396 0.030750221182035749 0 0.024939740158044968 0.030936942588282643 0 0.025106118712721431 0.030999643823505466 0 0.025038735967981396 0.030750221182035749 0 0.02537510519924227 0.030772745051832789 0 0.025287834601365744 0.030594883605013831 0 0.025038735967981396 0.030750221182035749 0 0.025038735967981396 0.030750221182035749 0 0.024699924339880112 0.030671660989145713 0 0.024691937845005438 0.030965109987084256 0 0.024939740158044968 0.030936942588282643 0 0.025038735967981396 0.030750221182035749 0 0.024691937845005438 0.030965109987084256 0 0.025045543847767623 0.030505459656481933 0 0.024699924339880112 0.030671660989145713 0 0.024741433813848253 0.030365241303571582 0 0.025038735967981396 0.030750221182035749 0 0.025045543847767623 0.030505459656481933 0 0.024699924339880112 0.030671660989145713 0 0.024699924339880112 0.030671660989145713 0 0.024330366067556994 0.030866542840141245 0 0.024386133121567687 0.030499990079741319 0 0.024699924339880112 0.030671660989145713 0 0.024386133121567687 0.030499990079741319 0 0.024741433813848253 0.030365241303571582 0 0.024699924339880112 0.030671660989145713 0 0.024691937845005438 0.030965109987084256 0 0.024330366067556994 0.030866542840141245 0 0.024330366067556994 0.030866542840141245 0 0.024040180807709206 0.030732232432566259 0 0.023892430526645976 0.031026384995339957 0 0.024330366067556994 0.030866542840141245 0 0.024386133121567687 0.030499990079741319 0 0.024040180807709206 0.030732232432566259 0 0.024386133121567687 0.030499990079741319 0 0.024040180807709206 0.030732232432566259 0 0.02405968371567755 0.030244787148335155 0 0.024386133121567687 0.030499990079741319 0 0.024514861621405749 0.030193160316417594 0 0.02405968371567755 0.030244787148335155 0 0.024852462996831894 0.030087840731331566 0 0.024514861621405749 0.030193160316417594 0 0.024741433813848253 0.030365241303571582 0 0.024386133121567687 0.030499990079741319 0 0.024514861621405749 0.030193160316417594 0 0.024741433813848253 0.030365241303571582 0 0.024852462996831894 0.030087840731331566 0 0.024514861621405749 0.030193160316417594 0 0.024546804127309491 0.02980093831227278 0 0.023455634835070335 0.030879338682943163 0 0.023539680398658735 0.033181806209603266 0 0.014829011304533233 0.038508783735789247 0 0.014668760920378908 0.038803559671797036 0 0.014493914251434092 0.038875802441710391 0 0.022579139274761399 0.031654778347162425 0 0.022068867153232696 0.032966675054311917 0 0.0215425653158462 0.032989849700981545 0 0.024514861621405749 0.030193160316417594 0 0.02405968371567755 0.030244787148335155 0 0.024546804127309491 0.02980093831227278 0 0.014829011304533233 0.038508783735789247 0 0.015098603226524321 0.038022797835126181 0 0.015842642150722286 0.037331365464172296 0 0.014829011304533233 0.038508783735789247 0 0.014492591051454928 0.038603629180472714 0 0.014186197974543456 0.039099245825819272 0 0.014915465406358181 0.03830126349446706 0 0.014906724706518245 0.038785372789923632 0 0.01914271359545654 0.034775557439383181 0 0.018645465501857087 0.035717468612032434 0 0.014829011304533233 0.038508783735789247 0 0.014492591051454928 0.038603629180472714 0 0.014691915847295182 0.0386275074774763 0 0.023390793329367353 0.031412488641484236 0 0.022579139274761399 0.031654778347162425 0 0.022068867153232696 0.032966675054311917 0 0.014829011304533233 0.038508783735789247 0 0.015098603226524321 0.038022797835126181 0 0.014493914251434092 0.038875802441710391 0 0.014829011304533233 0.038508783735789247 0 0.014691915847295182 0.0386275074774763 0 0.014668760920378908 0.038803559671797036 0 0.023390793329367353 0.031412488641484236 0 0.022579139274761399 0.031654778347162425 0 0.023471345980072136 0.03094535969261859 0 0.023455634835070335 0.030879338682943163 0 0.023387965440072819 0.03098702949855137 0 0.024040180807709206 0.030732232432566259 0 0.02405968371567755 0.030244787148335155 0 0.023471345980072136 0.03094535969261859 0 0.024040180807709206 0.030732232432566259 0 0.023892430526645976 0.031026384995339957 0 0.023471345980072136 0.03094535969261859 0 0.023541448607943077 0.031095704391560296 0 0.023892430526645976 0.031026384995339957 0 0.023471345980072136 0.03094535969261859 0 0.023390793329367353 0.031412488641484236 0 0.023471345980072136 0.03094535969261859 0 0.023370114816008005 0.030922520636554471 0 0.013845295403713837 0.039133580936520668 0 0.014186197974543456 0.039099245825819272 0 0.014145050237236409 0.038718737567893735 0 0.015098603226524321 0.038022797835126181 0 0.015842642150722286 0.037331365464172296 0 0.015910792193038488 0.036941091969681213 0 0.01914271359545654 0.034775557439383181 0 0.019793085947176908 0.034060963488012824 0 0.023541448607943077 0.031095704391560296 0 0.023471345980072136 0.03094535969261859 0 0.023370114816008005 0.030922520636554471 0 0.014492591051454928 0.038603629180472714 0 0.014186197974543456 0.039099245825819272 0 0.014145050237236409 0.038718737567893735 0 0.014492591051454928 0.038603629180472714 0 0.014145050237236409 0.038718737567893735 0 0.014352438832144394 0.038556428162588065 0 0.014145050237236409 0.038718737567893735 0 0.014112382824741082 0.038540640328230312 0 0.014352438832144394 0.038556428162588065 0 0.013880684898104442 0.038610593470988545 0 0.014145050237236409 0.038718737567893735 0 0.014112382824741082 0.038540640328230312 0 0.013880684898104442 0.038610593470988545 0 0.014112382824741082 0.038540640328230312 0 0.013936119867200447 0.038374712560053884 0 0.014112382824741082 0.038540640328230312 0 0.014352438832144394 0.038556428162588065 0 0.014269011480897436 0.038451994873016801 0 0.014112382824741082 0.038540640328230312 0 0.014269011480897436 0.038451994873016801 0 0.013936119867200447 0.038374712560053884 0 0.013936119867200447 0.038374712560053884 0 0.013739765098838029 0.038204933137049674 0 0.014231507982204447 0.03821136564177053 0 0.013739765098838029 0.038204933137049674 0 0.014231507982204447 0.03821136564177053 0 0.01417991683471409 0.037779758740986429 0 0.014269011480897436 0.038451994873016801 0 0.013936119867200447 0.038374712560053884 0 0.014231507982204447 0.03821136564177053 0 0.014231507982204447 0.03821136564177053 0 0.014512712337778408 0.038401027449161608 0 0.014610305831548763 0.03802249826226875 0 0.014269011480897436 0.038451994873016801 0 0.014231507982204447 0.03821136564177053 0 0.014512712337778408 0.038401027449161608 0 0.014231507982204447 0.03821136564177053 0 0.014610305831548763 0.03802249826226875 0 0.01417991683471409 0.037779758740986429 0 0.014512712337778408 0.038401027449161608 0 0.014610305831548763 0.03802249826226875 0 0.014890277067847808 0.038362889328426561 0 0.014512712337778408 0.038401027449161608 0 0.014519285797504595 0.038563573275079623 0 0.0146582505244324 0.038616661009635851 0 0.014512712337778408 0.038401027449161608 0 0.0146582505244324 0.038616661009635851 0 0.014890277067847808 0.038362889328426561 0 0.014269011480897436 0.038451994873016801 0 0.014512712337778408 0.038401027449161608 0 0.014519285797504595 0.038563573275079623 0 0.014492591051454928 0.038603629180472714 0 0.014519285797504595 0.038563573275079623 0 0.014691915847295182 0.0386275074774763 0 0.014352438832144394 0.038556428162588065 0 0.014269011480897436 0.038451994873016801 0 0.014519285797504595 0.038563573275079623 0 0.014492591051454928 0.038603629180472714 0 0.014352438832144394 0.038556428162588065 0 0.014519285797504595 0.038563573275079623 0 0.014691915847295182 0.0386275074774763 0 0.0146582505244324 0.038616661009635851 0 0.014668760920378908 0.038803559671797036 0 0.014519285797504595 0.038563573275079623 0 0.014691915847295182 0.0386275074774763 0 0.0146582505244324 0.038616661009635851 0 0.018645465501857087 0.035717468612032434 0 0.017689135519320099 0.037326464772857809 0 0.021071525159116544 0.034982898181390269 0 0.021001156452660527 0.034989736345528787 0 0.020867660610140251 0.03527863533741344 0 0.014835606864155427 0.038806114048444806 0 0.014890277067847808 0.038362889328426561 0 0.01561723822542883 0.038382951922322529 0 0.0146582505244324 0.038616661009635851 0 0.014835606864155427 0.038806114048444806 0 0.014890277067847808 0.038362889328426561 0 0.017317656003229372 0.036053814592230234 0 0.018645465501857087 0.035717468612032434 0 0.0146582505244324 0.038616661009635851 0 0.014668760920378908 0.038803559671797036 0 0.014835606864155427 0.038806114048444806 0 0.018645465501857087 0.035717468612032434 0 0.023539680398658735 0.033181806209603266 0 0.014890277067847808 0.038362889328426561 0 0.01561723822542883 0.038382951922322529 0 0.015378869326305198 0.037772019445268326 0 0.014610305831548763 0.03802249826226875 0 0.014890277067847808 0.038362889328426561 0 0.015378869326305198 0.037772019445268326 0 0.020699288190609334 0.035580170271755404 0 0.020834310979036447 0.035282796323968794 0 0.020867660610140251 0.03527863533741344 0 0.016394130998072066 0.037763123725294105 0 0.01561723822542883 0.038382951922322529 0 0.015378869326305198 0.037772019445268326 0 0.020962793641969998 0.035567248953599279 0 0.017689135519320099 0.037326464772857809 0 0.020962793641969998 0.035567248953599279 0 0.023810006950770957 0.033940240963612228 0 0.025942610929827001 0.032659330563678243 0 0.026416787925628075 0.032669688239657997 0 0.026182644091302491 0.033018234725482071 0 0.026138373330114338 0.031155270489767052 0 0.023539680398658735 0.033181806209603266 0 0.021001156452660527 0.034989736345528787 0 0.020834310979036447 0.035282796323968794 0 0.020867660610140251 0.03527863533741344 0 0.023539680398658735 0.033181806209603266 0 0.023810006950770957 0.033940240963612228 0 0.025533627205249956 0.02999982949692909 0 0.024852462996831894 0.030087840731331566 0 0.024546804127309491 0.02980093831227278 0 0.016075296984170574 0.037216333598680179 0 0.015394735369754164 0.037197475859160188 0 0.016208754335953774 0.036514554799310157 0 0.016075296984170574 0.037216333598680179 0 0.015378869326305198 0.037772019445268326 0 0.015394735369754164 0.037197475859160188 0 0.016394130998072066 0.037763123725294105 0 0.016075296984170574 0.037216333598680179 0 0.015378869326305198 0.037772019445268326 0 0.015378869326305198 0.037772019445268326 0 0.015394735369754164 0.037197475859160188 0 0.014798717787909439 0.037407059250293029 0 0.014610305831548763 0.03802249826226875 0 0.015378869326305198 0.037772019445268326 0 0.014798717787909439 0.037407059250293029 0 0.015394735369754164 0.037197475859160188 0 0.014798717787909439 0.037407059250293029 0 0.015110943085364335 0.036557488736424198 0 0.015394735369754164 0.037197475859160188 0 0.015110943085364335 0.036557488736424198 0 0.016208754335953774 0.036514554799310157 0 0.014254890243271203 0.037008228323171966 0 0.014798717787909439 0.037407059250293029 0 0.015110943085364335 0.036557488736424198 0 0.014610305831548763 0.03802249826226875 0 0.014798717787909439 0.037407059250293029 0 0.01417991683471409 0.037779758740986429 0 0.014254890243271203 0.037008228323171966 0 0.014798717787909439 0.037407059250293029 0 0.01417991683471409 0.037779758740986429 0 0.013739765098838029 0.038204933137049674 0 0.01417991683471409 0.037779758740986429 0 0.013455881912569695 0.037585013327494955 0 0.014254890243271203 0.037008228323171966 0 0.01417991683471409 0.037779758740986429 0 0.013455881912569695 0.037585013327494955 0 0.014254890243271203 0.037008228323171966 0 0.013492368794420546 0.036298594056702979 0 0.013251876241954849 0.036978166080102508 0 0.014254890243271203 0.037008228323171966 0 0.013455881912569695 0.037585013327494955 0 0.013251876241954849 0.036978166080102508 0 0.014254890243271203 0.037008228323171966 0 0.013492368794420546 0.036298594056702979 0 0.014524225940916681 0.036000271369828127 0 0.013492368794420546 0.036298594056702979 0 0.013211113992807269 0.034999844618496208 0 0.014524225940916681 0.036000271369828127 0 0.013211113992807269 0.034999844618496208 0 0.014962670522580296 0.035000131075164344 0 0.014524225940916681 0.036000271369828127 0 0.014962670522580296 0.035000131075164344 0 0.014524225940916681 0.036000271369828127 0 0.015553227498126513 0.035870990865850966 0 0.014254890243271203 0.037008228323171966 0 0.014524225940916681 0.036000271369828127 0 0.015110943085364335 0.036557488736424198 0 0.014524225940916681 0.036000271369828127 0 0.015110943085364335 0.036557488736424198 0 0.015553227498126513 0.035870990865850966 0 0.014963642207424377 0.035000002387211987 0 0.016206147757187702 0.03600467203969171 0 0.016652638935164759 0.034999984095239953 0 0.014963695897895455 0.03500014428882213 0 0.01594353670561631 0.0359439606612127 0 0.018341632500949619 0.034999985803959292 0 0.016652638935164759 0.034999984095239953 0 0.01741288085091041 0.035828281774783415 0 0.016206147757187702 0.03600467203969171 0 0.016652638935164759 0.034999984095239953 0 0.01741288085091041 0.035828281774783415 0 0.015110943085364335 0.036557488736424198 0 0.015553227498126513 0.035870990865850966 0 0.016208754335953774 0.036514554799310157 0 0.016206147757187702 0.03600467203969171 0 0.01741288085091041 0.035828281774783415 0 0.017458537158101819 0.036994545303948904 0 0.01594353670561631 0.0359439606612127 0 0.016384358783031558 0.036741197084196847 0 0.0098744596900060683 0.037202323840377569 0 0.010440206468809544 0.038274967449463619 0 0.011209744201786092 0.03720161689675297 0 0.0098744596900060683 0.037202323840377569 0 0.0091324396431266448 0.038173128168260857 0 0.0084805904165324558 0.03711296959459276 0 0.0098744596900060683 0.037202323840377569 0 0.0091324396431266448 0.038173128168260857 0 0.010440206468809544 0.038274967449463619 0 0.0096781629498181414 0.039421809341541991 0 0.0091324396431266448 0.038173128168260857 0 0.010440206468809544 0.038274967449463619 0 0.0096781629498181414 0.039421809341541991 0 0.0091324396431266448 0.038173128168260857 0 0.0084013920718641073 0.039009758210320399 0 0.011296442501108101 0.039136843898449694 0 0.010440206468809544 0.038274967449463619 0 0.011600954031446491 0.038093147343317479 0 0.011296442501108101 0.039136843898449694 0 0.011600954031446491 0.038093147343317479 0 0.012492123621446468 0.038490723660506279 0 0.011600954031446491 0.038093147343317479 0 0.012492123621446468 0.038490723660506279 0 0.012466513734837809 0.037342409907556391 0 0.013739765098838029 0.038204933137049674 0 0.013455881912569695 0.037585013327494955 0 0.012928286054737215 0.037869402943819991 0 0.012715029958411441 0.038246298947342564 0 0.012518397894911635 0.037374498927497647 0 0.013455881912569695 0.037585013327494955 0 0.012928286054737215 0.037869402943819991 0 0.012466513734837809 0.037342409907556391 0 0.012466513734837809 0.037342409907556391 0 0.013251876241954849 0.036978166080102508 0 0.012296222468654109 0.036275320059241334 0 0.013455881912569695 0.037585013327494955 0 0.012466513734837809 0.037342409907556391 0 0.013251876241954849 0.036978166080102508 0 0.011600954031446491 0.038093147343317479 0 0.012466513734837809 0.037342409907556391 0 0.011209744201786092 0.03720161689675297 0 0.012466513734837809 0.037342409907556391 0 0.011209744201786092 0.03720161689675297 0 0.012296222468654109 0.036275320059241334 0 0.010440206468809544 0.038274967449463619 0 0.011600954031446491 0.038093147343317479 0 0.011209744201786092 0.03720161689675297 0 0.011209744201786092 0.03720161689675297 0 0.012296222468654109 0.036275320059241334 0 0.010631564937110496 0.036137498954028534 0 0.013492368794420546 0.036298594056702979 0 0.013251876241954849 0.036978166080102508 0 0.012296222468654109 0.036275320059241334 0 0.013492368794420546 0.036298594056702979 0 0.013211113992807269 0.034999844618496208 0 0.012296222468654109 0.036275320059241334 0 0.013211113992807269 0.034999844618496208 0 0.012296222468654109 0.036275320059241334 0 0.011458055646095948 0.034999844221632666 0 0.012296222468654109 0.036275320059241334 0 0.011458055646095948 0.034999844221632666 0 0.010631564937110496 0.036137498954028534 0 0.011458055646095948 0.034999844221632666 0 0.010631564937110496 0.036137498954028534 0 0.0097052551413780719 0.03499989550469812 0 0.0098744596900060683 0.037202323840377569 0 0.011209744201786092 0.03720161689675297 0 0.010631564937110496 0.036137498954028534 0 0.0098744596900060683 0.037202323840377569 0 0.010631564937110496 0.036137498954028534 0 0.009080869129808565 0.036114677490545734 0 0.0098744596900060683 0.037202323840377569 0 0.009080869129808565 0.036114677490545734 0 0.0084805904165324558 0.03711296959459276 0 0.010631564937110496 0.036137498954028534 0 0.009080869129808565 0.036114677490545734 0 0.0097052551413780719 0.03499989550469812 0 0.009080869129808565 0.036114677490545734 0 0.0097052551413780719 0.03499989550469812 0 0.0079523967693362306 0.03499990948798571 0 0.009080869129808565 0.036114677490545734 0 0.0079523967693362306 0.03499990948798571 0 0.007800944812925043 0.036159181510028324 0 0.007800944812925043 0.036159181510028324 0 0.0061998038124935918 0.034999965469137521 0 0.0067105641369101616 0.036754145563340133 0 0.0079523967693362306 0.03499990948798571 0 0.007800944812925043 0.036159181510028324 0 0.0061998038124935918 0.034999965469137521 0 0.007800944812925043 0.036159181510028324 0 0.0067105641369101616 0.036754145563340133 0 0.0084805904165324558 0.03711296959459276 0 0.009080869129808565 0.036114677490545734 0 0.007800944812925043 0.036159181510028324 0 0.0084805904165324558 0.03711296959459276 0 0.0050485140563064747 0.035209497368810627 0 0.00424193127096756 0.03618310810493542 0 0.0052822834263245855 0.035253192258035297 0 0.0061989111152524028 0.034999889578896937 0 0.0042616520806692685 0.034999928005110058 0 0.0052822834263245855 0.035253192258035297 0 0.0035847357902298064 0.035966949496407545 0 0.0042616520806692685 0.034999928005110058 0 0.0052822834263245855 0.035253192258035297 0 0.0049409467481069036 0.035919847786408166 0 0.0040354191403095922 0.035617674074881651 0 0.0052822834263245855 0.035253192258035297 0 0.0055313582754153824 0.035816488931033105 0 0.0049409467481069036 0.035919847786408166 0 0.0061989111152524028 0.034999889578896937 0 0.006125710162724317 0.036384147061909136 0 0.0055313582754153824 0.035816488931033105 0 0.0061994836235219845 0.035000048035928079 0 0.006468994350837998 0.036626524690840316 0 0.0052822834263245855 0.035253192258035297 0 0.0061989111152524028 0.034999889578896937 0 0.0055313582754153824 0.035816488931033105 0 0.006125710162724317 0.036384147061909136 0 0.0055313582754153824 0.035816488931033105 0 0.0051770763672724521 0.036412091714597375 0 0.0055313582754153824 0.035816488931033105 0 0.0051770763672724521 0.036412091714597375 0 0.0049409467481069036 0.035919847786408166 0 0.0051770763672724521 0.036412091714597375 0 0.0049409467481069036 0.035919847786408166 0 0.0045528525359506151 0.036361541253470388 0 0.00090396026402170693 0.032712797404346246 0 0.002365387730001878 0.033950309301743607 0 0.0051770763672724521 0.036412091714597375 0 0.0048627410887619365 0.036896369751042504 0 0.005519577642224517 0.037143420319578804 0 0.0051770763672724521 0.036412091714597375 0 0.0048627410887619365 0.036896369751042504 0 0.0045528525359506151 0.036361541253470388 0 0.006125710162724317 0.036384147061909136 0 0.0051770763672724521 0.036412091714597375 0 0.0058346920349500271 0.03743859945901179 0 0.006412751456784666 0.037968410202882753 0 0.002365387730001878 0.033950309301743607 0 0.006125710162724317 0.036384147061909136 0 0.0058346920349500271 0.03743859945901179 0 0.0063039095105319231 0.037647401287481279 0 -0.0025228007835620854 0.028930595024018062 0 -0.0025964762135812997 0.02887525935652838 0 -0.0025487943822298689 0.028928965300409743 0 0.002365387730001878 0.033950309301743607 0 0.0063821915889076628 0.03771463376331638 0 -0.0026067732630427254 0.028789878320267567 0 -0.0025228007835620854 0.028930595024018062 0 -0.0025487943822298689 0.028928965300409743 0 -0.0026067732630427254 0.028789878320267567 0 -0.0025487943822298689 0.028928965300409743 0 -0.0028092915840298499 0.02887871334303933 0 0.0091324396431266448 0.038173128168260857 0 0.0084805904165324558 0.03711296959459276 0 0.008012996223130309 0.037985822407230599 0 0.0067105641369101616 0.036754145563340133 0 0.0084805904165324558 0.03711296959459276 0 0.008012996223130309 0.037985822407230599 0 0.0067105641369101616 0.036754145563340133 0 0.0071079387685945641 0.038486149293498979 0 0.008012996223130309 0.037985822407230599 0 0.006468994350837998 0.036626524690840316 0 0.0063821915889076628 0.03771463376331638 0 0.0038126591321079764 0.035306578624288494 0 0.0037530130523268207 0.035276687888696812 0 0.0037378922855657811 0.0351533205124255 0 0.002365387730001878 0.033950309301743607 0 0.0030909263096186644 0.034360807996785869 0 0.0063821915889076628 0.03771463376331638 0 0.0086650629119630427 0.039193051337379256 0 0.0091324396431266448 0.038173128168260857 0 0.008012996223130309 0.037985822407230599 0 0.0084013920718641073 0.039009758210320399 0 0.0071079387685945641 0.038486149293498979 0 0.008012996223130309 0.037985822407230599 0 0.0084013920718641073 0.039009758210320399 0 0.0084013920718641073 0.039009758210320399 0 0.0079028029746467977 0.039309285402306514 0 0.008562160715745417 0.039706823077726869 0 0.0079028029746467977 0.039309285402306514 0 0.008562160715745417 0.039706823077726869 0 0.0076708652545938094 0.039635728896704102 0 0.0094122484872754333 0.040251835177057174 0 0.008562160715745417 0.039706823077726869 0 0.0084955411078846202 0.040516524505450978 0 0.007762796560911351 0.039740008876819208 0 0.0078740103912637669 0.039695582398348979 0 0.0076708652545938094 0.039635728896704102 0 0.0082835864732789723 0.040089928415699153 0 0.0077312417198472389 0.039703711474169602 0 0.008562160715745417 0.039706823077726869 0 0.0084955411078846202 0.040516524505450978 0 0.0076708652545938094 0.039635728896704102 0 0.0067959802749291897 0.038969575767780068 0 0.0068372273529477435 0.038191456544743464 0 0.0078243806559081305 0.039829351896474588 0 0.0076978630826053992 0.039670531961544554 0 0.0076248738704409336 0.039503194413471894 0 0.007762796560911351 0.039740008876819208 0 0.0078740103912637669 0.039695582398348979 0 0.0078243806559081305 0.039829351896474588 0 0.001839005978550411 0.032277503588539785 0 0.00024797391315791893 0.030295532119131507 0 -0.0027017734031619376 0.028798822216778725 0 -0.002654088820368996 0.028632457268023468 0 -0.0027327968948122816 0.028593723442276422 0 0.0029502610670636832 0.032002332169975507 0 0.0033604866945839192 0.032945027189099023 0 0.0032194189811023104 0.031842161882062604 0 0.0053018261059632494 0.036247003881995803 0 0.001839005978550411 0.032277503588539785 0 0.0068372273529477435 0.038191456544743464 0 0.0055913135769797883 0.036288085601740065 0 0.0057402887749830253 0.037017010199356888 0 0.007762796560911351 0.039740008876819208 0 0.0076708652545938094 0.039635728896704102 0 0.0075314766796443274 0.039501172969393095 0 0.0067959802749291897 0.038969575767780068 0 0.0068372273529477435 0.038191456544743464 0 0.0057402887749830253 0.037017010199356888 0 0.0076978630826053992 0.039670531961544554 0 0.0030909263096186644 0.034360807996785869 0 -0.0027017734031619376 0.028798822216778725 0 -0.0026303782584108197 0.028744923678406139 0 -0.002654088820368996 0.028632457268023468 0 -0.0026508750460408456 0.028831017135442612 0 -0.0027017734031619376 0.028798822216778725 0 -0.0026303782584108197 0.028744923678406139 0 0.0072991799497232812 0.038533812399825756 0 0.0084013920718641073 0.039009758210320399 0 0.0079028029746467977 0.039309285402306514 0 -0.0026508750460408456 0.028831017135442612 0 -0.0026672812321505935 0.028861314663060855 0 -0.0025964762135812997 0.02887525935652838 0 0.0072991799497232812 0.038533812399825756 0 0.0079028029746467977 0.039309285402306514 0 0.0075314766796443274 0.039501172969393095 0 0.0063821915889076628 0.03771463376331638 0 0.0030909263096186644 0.034360807996785869 0 -0.0026508750460408456 0.028831017135442612 0 -0.0026690192129762784 0.028854223089498855 0 -0.0027017734031619376 0.028798822216778725 0 -0.0026690192129762784 0.028854223089498855 0 -0.0026672812321505935 0.028861314663060855 0 -0.0026306044434500991 0.0288728256236029 0 0.00055618264677907573 0.030455428409520917 0 0.001839005978550411 0.032277503588539785 0 -0.0026508750460408456 0.028831017135442612 0 -0.0026690192129762784 0.028854223089498855 0 -0.0026672812321505935 0.028861314663060855 0 0.0079028029746467977 0.039309285402306514 0 0.0076708652545938094 0.039635728896704102 0 0.0075314766796443274 0.039501172969393095 0 0.0030909263096186644 0.034360807996785869 0 0.001839005978550411 0.032277503588539785 0 -0.0025964762135812997 0.02887525935652838 0 -0.0025487943822298689 0.028928965300409743 0 -0.0025336646543977813 0.028771564729093663 0 -0.0025964762135812997 0.02887525935652838 0 -0.0025336646543977813 0.028771564729093663 0 -0.0025932925250939111 0.028673272667416764 0 -0.0025228007835620854 0.028930595024018062 0 -0.0026672812321505935 0.028861314663060855 0 -0.0025964762135812997 0.02887525935652838 0 -0.0026508750460408456 0.028831017135442612 0 -0.0025964762135812997 0.02887525935652838 0 -0.0026303782584108197 0.028744923678406139 0 -0.0025487943822298689 0.028928965300409743 0 -0.0025336646543977813 0.028771564729093663 0 -0.0024019366022673579 0.028768045720650715 0 -0.0025888500443638171 0.028944057965894714 0 -0.0025690839754226483 0.028944195986274148 0 -0.0025336646543977813 0.028771564729093663 0 -0.0024861420061390248 0.028669509988948086 0 -0.0024019366022673579 0.028768045720650715 0 -0.0025336646543977813 0.028771564729093663 0 -0.0024861420061390248 0.028669509988948086 0 -0.0025932925250939111 0.028673272667416764 0 -0.0025964762135812997 0.02887525935652838 0 -0.0026303782584108197 0.028744923678406139 0 -0.0025932925250939111 0.028673272667416764 0 -0.0026303782584108197 0.028744923678406139 0 -0.0025932925250939111 0.028673272667416764 0 -0.002654088820368996 0.028632457268023468 0 -0.0025932925250939111 0.028673272667416764 0 -0.0026346845399028902 0.028486236607120113 0 -0.002615171463540547 0.028373786143673901 0 -0.0025932925250939111 0.028673272667416764 0 -0.002654088820368996 0.028632457268023468 0 -0.0026346845399028902 0.028486236607120113 0 -0.0024861420061390248 0.028669509988948086 0 -0.0025932925250939111 0.028673272667416764 0 -0.002615171463540547 0.028373786143673901 0 -0.0024861420061390248 0.028669509988948086 0 -0.002615171463540547 0.028373786143673901 0 -0.0024571620035167617 0.028524768795589298 0 -0.0026009076050578176 0.028422686603993014 0 -0.0027867684017424828 0.028548581259442551 0 -0.002615171463540547 0.028373786143673901 0 -0.0026009076050578176 0.028422686603993014 0 -0.0026346845399028902 0.028486236607120113 0 -0.002615171463540547 0.028373786143673901 0 -0.0026009076050578176 0.028422686603993014 0 -0.0026346845399028902 0.028486236607120113 0 -0.0027134086016492843 0.028457249122581012 0 -0.0025488245405082071 0.024970886882393697 0 0.0010176915605722386 0.027269077663244049 0 0.0090729935383691007 0.028677527234643802 0 0.0074958663935951525 0.032211220051491837 0 0.0062199207964193891 0.026837646925784872 0 0.0072307910439223608 0.027777168525859729 0 0.0067685715950163323 0.028060278604228352 0 0.0010176915605722386 0.027269077663244049 0 0.0074958663935951525 0.032211220051491837 0 0.0030337663264285095 0.030675904906506901 0 0.0024880638139744204 0.031008045623665624 0 0.0032194189811023104 0.031842161882062604 0 0.008313301748487106 0.03973798165503007 0 0.0077462371949841681 0.040327809862038218 0 0.0078243806559081305 0.039829351896474588 0 0.010124635598215442 0.038300161765427346 0 0.0074958663935951525 0.032211220051491837 0 0.008313301748487106 0.03973798165503007 0 0.0078740103912637669 0.039695582398348979 0 0.0078243806559081305 0.039829351896474588 0 0.0029502610670636832 0.032002332169975507 0 0.0024880638139744204 0.031008045623665624 0 0.0032194189811023104 0.031842161882062604 0 0.0067959802749291897 0.038969575767780068 0 0.0077462371949841681 0.040327809862038218 0 0.0078243806559081305 0.039829351896474588 0 0.0053018261059632494 0.036247003881995803 0 0.0074958663935951525 0.032211220051491837 0 -0.002654088820368996 0.028632457268023468 0 -0.0026346845399028902 0.028486236607120113 0 -0.0027327968948122816 0.028593723442276422 0 0.0010176915605722386 0.027269077663244049 0 0.00024797391315791893 0.030295532119131507 0 -0.0026346845399028902 0.028486236607120113 0 -0.0027134086016492843 0.028457249122581012 0 -0.0027327968948122816 0.028593723442276422 0 -0.0022984274481876632 0.028569834955529703 0 -0.0022581746689388144 0.028567308070640066 0 -0.0022710274869979659 0.028531846741077262 0 -0.0029485062441925161 0.028935940184891616 0 -0.0037962843384530733 0.028838771139290117 0 -0.0022581746689388144 0.028567308070640066 0 -0.0022710274869979659 0.028531846741077262 0 -0.0022704781031383185 0.028549836489075227 0 -0.0038541579969700655 0.02938307987073302 0 -0.00399519546552314 0.029388700599491342 0 -0.0040607536943304328 0.029505941831588868 0 -0.0037405668928557263 0.028312458486970969 0 -0.003566864176636441 0.028066456364241484 0 -0.0040209589165761152 0.028073470315652875 0 -0.0027821461766432964 0.028247380416056105 0 -0.0037962843384530733 0.028838771139290117 0 -0.0037405668928557263 0.028312458486970969 0 -0.0040209589165761152 0.028073470315652875 0 -0.0039930747942982531 0.028358486944966566 0 -0.0037405668928557263 0.028312458486970969 0 -0.0033917128650393681 0.02842906875007175 0 -0.003566864176636441 0.028066456364241484 0 -0.0033917128650393681 0.02842906875007175 0 -0.003566864176636441 0.028066456364241484 0 -0.0030762561824131899 0.028136912684388175 0 -0.0030200063504129009 0.028414030693816972 0 -0.0033917128650393681 0.02842906875007175 0 -0.0030762561824131899 0.028136912684388175 0 -0.0027821461766432964 0.028247380416056105 0 -0.0027638061714594232 0.028316399816443433 0 -0.0026279368345048792 0.028356327963183436 0 -0.0027638061714594232 0.028316399816443433 0 -0.0030200063504129009 0.028414030693816972 0 -0.002615171463540547 0.028373786143673901 0 -0.0030762561824131899 0.028136912684388175 0 -0.0023582691526989638 0.028467413898423357 0 -0.0024571620035167617 0.028524768795589298 0 -0.0023704878039474378 0.028628976545519984 0 -0.002615171463540547 0.028373786143673901 0 -0.0023582691526989638 0.028467413898423357 0 -0.0024571620035167617 0.028524768795589298 0 -0.0022984274481876632 0.028569834955529703 0 -0.0022710274869979659 0.028531846741077262 0 -0.0023582691526989638 0.028467413898423357 0 -0.0022984274481876632 0.028569834955529703 0 -0.0023582691526989638 0.028467413898423357 0 -0.0023704878039474378 0.028628976545519984 0 -0.0023704878039474378 0.028628976545519984 0 -0.0024019366022673579 0.028768045720650715 0 -0.0022905661027946152 0.028664555040904018 0 -0.0022984274481876632 0.028569834955529703 0 -0.0023704878039474378 0.028628976545519984 0 -0.0022905661027946152 0.028664555040904018 0 -0.0031374229514771024 0.029147051700938037 0 -0.0030589896395147613 0.029061696525793605 0 -0.0024861420061390248 0.028669509988948086 0 -0.0024571620035167617 0.028524768795589298 0 -0.0023704878039474378 0.028628976545519984 0 -0.0024861420061390248 0.028669509988948086 0 -0.0023704878039474378 0.028628976545519984 0 -0.0024019366022673579 0.028768045720650715 0 -0.0025487943822298689 0.028928965300409743 0 -0.0028399882504398649 0.02915292279079509 0 -0.0028092915840298499 0.02887871334303933 0 -0.0028399882504398649 0.02915292279079509 0 -0.0031999498195324507 0.029287511596128378 0 -0.0031583285363988626 0.029129714721008997 0 -0.0028399882504398649 0.02915292279079509 0 -0.0031583285363988626 0.029129714721008997 0 -0.0030891842797167429 0.028971675424505641 0 -0.0028399882504398649 0.02915292279079509 0 -0.0031999498195324507 0.029287511596128378 0 -0.0032498146491508877 0.029340250513028014 0 -0.0025690839754226483 0.028944195986274148 0 -0.0030589896395147613 0.029061696525793605 0 -0.0031999498195324507 0.029287511596128378 0 -0.0031583285363988626 0.029129714721008997 0 -0.003252804495788574 0.02920907940449886 0 -0.0031583285363988626 0.029129714721008997 0 -0.0033088659838490094 0.029038624513195315 0 -0.0030891842797167429 0.028971675424505641 0 -0.0031583285363988626 0.029129714721008997 0 -0.0033088659838490094 0.029038624513195315 0 -0.0033102669696984583 0.029132495318862934 0 -0.0033088659838490094 0.029038624513195315 0 -0.0033902352472287164 0.029079146379310267 0 -0.0034312016760736932 0.029011139987766887 0 -0.0033088659838490094 0.029038624513195315 0 -0.0033102669696984583 0.029132495318862934 0 -0.0033902352472287164 0.029079146379310267 0 -0.0033102669696984583 0.029132495318862934 0 -0.0033902352472287164 0.029079146379310267 0 -0.003414782020891606 0.029130559134351631 0 -0.0033102669696984583 0.029132495318862934 0 -0.003414782020891606 0.029130559134351631 0 -0.0033831203240242812 0.029184126198508253 0 -0.0031583285363988626 0.029129714721008997 0 -0.0033102669696984583 0.029132495318862934 0 -0.003252804495788574 0.02920907940449886 0 -0.0034848361643348754 0.029084518544903865 0 -0.003540266167745582 0.029020040772827108 0 -0.0034312016760736932 0.029011139987766887 0 -0.0034848361643348754 0.029084518544903865 0 -0.0033902352472287164 0.029079146379310267 0 -0.0034312016760736932 0.029011139987766887 0 -0.0034848361643348754 0.029084518544903865 0 -0.003414782020891606 0.029130559134351631 0 -0.0034889104726455191 0.029158999293556247 0 -0.0034848361643348754 0.029084518544903865 0 -0.0033902352472287164 0.029079146379310267 0 -0.003414782020891606 0.029130559134351631 0 -0.0034848361643348754 0.029084518544903865 0 -0.0034889104726455191 0.029158999293556247 0 -0.0036019678965347325 0.029106408789977039 0 -0.0034889104726455191 0.029158999293556247 0 -0.0034444193767118295 0.029225877061448177 0 -0.0035782360352880887 0.02921120719522001 0 -0.003414782020891606 0.029130559134351631 0 -0.0034889104726455191 0.029158999293556247 0 -0.0033831203240242812 0.029184126198508253 0 -0.0034889104726455191 0.029158999293556247 0 -0.0034444193767118295 0.029225877061448177 0 -0.0033831203240242812 0.029184126198508253 0 -0.0034444193767118295 0.029225877061448177 0 -0.0034080796709076971 0.029309760855881856 0 -0.0035511357675289505 0.02929609444808107 0 -0.0034444193767118295 0.029225877061448177 0 -0.0035511357675289505 0.02929609444808107 0 -0.0035782360352880887 0.02921120719522001 0 -0.0033102669696984583 0.029132495318862934 0 -0.003252804495788574 0.02920907940449886 0 -0.0033282409044652276 0.02922830744950642 0 -0.0034444193767118295 0.029225877061448177 0 -0.0033831203240242812 0.029184126198508253 0 -0.0033282409044652276 0.02922830744950642 0 -0.0033102669696984583 0.029132495318862934 0 -0.0033831203240242812 0.029184126198508253 0 -0.0033282409044652276 0.02922830744950642 0 -0.0034444193767118295 0.029225877061448177 0 -0.0033282409044652276 0.02922830744950642 0 -0.0034080796709076971 0.029309760855881856 0 -0.0033282409044652276 0.02922830744950642 0 -0.003315839353321011 0.029287536317882348 0 -0.0034080796709076971 0.029309760855881856 0 -0.0031999498195324507 0.029287511596128378 0 -0.003252804495788574 0.02920907940449886 0 -0.0032659826356808697 0.029271428209144086 0 -0.003315839353321011 0.029287536317882348 0 -0.0032659826356808697 0.029271428209144086 0 -0.0032591792070124459 0.029342977037894159 0 -0.003252804495788574 0.02920907940449886 0 -0.0033282409044652276 0.02922830744950642 0 -0.0032659826356808697 0.029271428209144086 0 -0.0033282409044652276 0.02922830744950642 0 -0.003315839353321011 0.029287536317882348 0 -0.0032659826356808697 0.029271428209144086 0 -0.0031999498195324507 0.029287511596128378 0 -0.0032659826356808697 0.029271428209144086 0 -0.0032591792070124459 0.029342977037894159 0 -0.0022984274481876632 0.028569834955529703 0 -0.0022581746689388144 0.028567308070640066 0 -0.0022905661027946152 0.028664555040904018 0 -0.0038541579969700655 0.02938307987073302 0 -0.0035845028676727638 0.02915367663141245 0 -0.003907847859848209 0.029270569445831184 0 -0.0032591792070124459 0.029342977037894159 0 -0.0034080796709076971 0.029309760855881856 0 -0.0037004990179583491 0.029430194185583423 0 -0.0030589896395147613 0.029061696525793605 0 -0.003878608299862708 0.029375868419947489 0 -0.0029485062441925161 0.028935940184891616 0 -0.0030589896395147613 0.029061696525793605 0 -0.003315839353321011 0.029287536317882348 0 -0.0032591792070124459 0.029342977037894159 0 -0.0034080796709076971 0.029309760855881856 0 -0.0034080796709076971 0.029309760855881856 0 -0.0035511357675289505 0.02929609444808107 0 -0.0037004990179583491 0.029430194185583423 0 -0.0038541579969700655 0.02938307987073302 0 -0.00399519546552314 0.029388700599491342 0 -0.003907847859848209 0.029270569445831184 0 -0.0035511357675289505 0.02929609444808107 0 -0.0037004990179583491 0.029430194185583423 0 -0.003680870437657191 0.029288625087687158 0 -0.0037004990179583491 0.029430194185583423 0 -0.003680870437657191 0.029288625087687158 0 -0.0038997317191549041 0.029287435194070323 0 -0.003680870437657191 0.029288625087687158 0 -0.0037179814353685147 0.029182190141334448 0 -0.0038997317191549041 0.029287435194070323 0 -0.0037179814353685147 0.029182190141334448 0 -0.0038997317191549041 0.029287435194070323 0 -0.0038575454403037266 0.029097326730058368 0 -0.0035511357675289505 0.02929609444808107 0 -0.003680870437657191 0.029288625087687158 0 -0.0035782360352880887 0.02921120719522001 0 -0.003680870437657191 0.029288625087687158 0 -0.0037179814353685147 0.029182190141334448 0 -0.0035782360352880887 0.02921120719522001 0 -0.0037179814353685147 0.029182190141334448 0 -0.0035782360352880887 0.02921120719522001 0 -0.0036019678965347325 0.029106408789977039 0 -0.0034889104726455191 0.029158999293556247 0 -0.0035782360352880887 0.02921120719522001 0 -0.0036019678965347325 0.029106408789977039 0 -0.0037179814353685147 0.029182190141334448 0 -0.0036019678965347325 0.029106408789977039 0 -0.0037259330426312352 0.02906077290364114 0 -0.0036019678965347325 0.029106408789977039 0 -0.0037259330426312352 0.02906077290364114 0 -0.0036318326162075873 0.029020181494622446 0 -0.0036019678965347325 0.029106408789977039 0 -0.0036318326162075873 0.029020181494622446 0 -0.003540266167745582 0.029020040772827108 0 -0.0034848361643348754 0.029084518544903865 0 -0.0036019678965347325 0.029106408789977039 0 -0.003540266167745582 0.029020040772827108 0 -0.0037179814353685147 0.029182190141334448 0 -0.0037259330426312352 0.02906077290364114 0 -0.0038575454403037266 0.029097326730058368 0 -0.0037259330426312352 0.02906077290364114 0 -0.0037942792319359134 0.028984716225311378 0 -0.0038575454403037266 0.029097326730058368 0 -0.0037259330426312352 0.02906077290364114 0 -0.0036916090138588587 0.028957375274728834 0 -0.0036318326162075873 0.029020181494622446 0 -0.0037259330426312352 0.02906077290364114 0 -0.0037942792319359134 0.028984716225311378 0 -0.0036916090138588587 0.028957375274728834 0 -0.0037942792319359134 0.028984716225311378 0 -0.0036916090138588587 0.028957375274728834 0 -0.0037527456978904152 0.028882323178329561 0 -0.0037527456978904152 0.028882323178329561 0 -0.0037849795343461896 0.028770808654378723 0 -0.003628272289731913 0.028748569687481441 0 -0.0036916090138588587 0.028957375274728834 0 -0.0037527456978904152 0.028882323178329561 0 -0.0036086747334425867 0.0288757257874377 0 -0.0037527456978904152 0.028882323178329561 0 -0.0036086747334425867 0.0288757257874377 0 -0.003628272289731913 0.028748569687481441 0 -0.0036086747334425867 0.0288757257874377 0 -0.0034697865541071455 0.028814740652036843 0 -0.003628272289731913 0.028748569687481441 0 -0.0036086747334425867 0.0288757257874377 0 -0.0034826372095694475 0.028929188729745765 0 -0.0034697865541071455 0.028814740652036843 0 -0.0036086747334425867 0.0288757257874377 0 -0.0035964929743742997 0.028960575872479515 0 -0.0034826372095694475 0.028929188729745765 0 -0.0036916090138588587 0.028957375274728834 0 -0.0036086747334425867 0.0288757257874377 0 -0.0035964929743742997 0.028960575872479515 0 -0.0036916090138588587 0.028957375274728834 0 -0.0035964929743742997 0.028960575872479515 0 -0.0036318326162075873 0.029020181494622446 0 -0.0035964929743742997 0.028960575872479515 0 -0.0036318326162075873 0.029020181494622446 0 -0.003540266167745582 0.029020040772827108 0 -0.0035964929743742997 0.028960575872479515 0 -0.003540266167745582 0.029020040772827108 0 -0.0034826372095694475 0.028929188729745765 0 -0.003540266167745582 0.029020040772827108 0 -0.0034312016760736932 0.029011139987766887 0 -0.0034826372095694475 0.028929188729745765 0 -0.0034312016760736932 0.029011139987766887 0 -0.0034826372095694475 0.028929188729745765 0 -0.0033306435230113507 0.028913833128021638 0 -0.0033088659838490094 0.029038624513195315 0 -0.0033306435230113507 0.028913833128021638 0 -0.0030891842797167429 0.028971675424505641 0 -0.0033088659838490094 0.029038624513195315 0 -0.0034312016760736932 0.029011139987766887 0 -0.0033306435230113507 0.028913833128021638 0 -0.0033306435230113507 0.028913833128021638 0 -0.0032977389319265079 0.028745308136116511 0 -0.0031797184856472158 0.028840566822148674 0 -0.0033306435230113507 0.028913833128021638 0 -0.0034697865541071455 0.028814740652036843 0 -0.0032977389319265079 0.028745308136116511 0 -0.0034826372095694475 0.028929188729745765 0 -0.0033306435230113507 0.028913833128021638 0 -0.0034697865541071455 0.028814740652036843 0 -0.0034621169476812116 0.028692127139419911 0 -0.0032977389319265079 0.028745308136116511 0 -0.0033273833379713264 0.02859281122802055 0 -0.0034697865541071455 0.028814740652036843 0 -0.0034621169476812116 0.028692127139419911 0 -0.0032977389319265079 0.028745308136116511 0 -0.0032977389319265079 0.028745308136116511 0 -0.0033273833379713264 0.02859281122802055 0 -0.0031464165333957884 0.02865929471968616 0 -0.0033273833379713264 0.02859281122802055 0 -0.0031464165333957884 0.02865929471968616 0 -0.0032648346884356066 0.028410438907518997 0 -0.0034621169476812116 0.028692127139419911 0 -0.0033273833379713264 0.02859281122802055 0 -0.0035669456567056176 0.028506359061646634 0 -0.0033888009856149212 0.028598821017085746 0 -0.0038970562321466212 0.028569399792742922 0 -0.0038179020779922509 0.028642600595381425 0 -0.0034621169476812116 0.028692127139419911 0 -0.003583197112879266 0.028644519535019848 0 -0.0035669456567056176 0.028506359061646634 0 -0.003583197112879266 0.028644519535019848 0 -0.0036960311303570166 0.028667082522306125 0 -0.0035669456567056176 0.028506359061646634 0 -0.0035843599300425738 0.028726946644450954 0 -0.0037072331608625051 0.028621803340527167 0 -0.0036960311303570166 0.028667082522306125 0 -0.0037977760288243467 0.028699174426633139 0 -0.0038179020779922509 0.028642600595381425 0 -0.0036960311303570166 0.028667082522306125 0 -0.0035669456567056176 0.028506359061646634 0 -0.0038179020779922509 0.028642600595381425 0 -0.0036960311303570166 0.028667082522306125 0 -0.0037849795343461896 0.028770808654378723 0 -0.003628272289731913 0.028748569687481441 0 -0.0036960311303570166 0.028667082522306125 0 -0.0037849795343461896 0.028770808654378723 0 -0.0037977760288243467 0.028699174426633139 0 -0.0034697865541071455 0.028814740652036843 0 -0.0034621169476812116 0.028692127139419911 0 -0.003628272289731913 0.028748569687481441 0 -0.0034621169476812116 0.028692127139419911 0 -0.003583197112879266 0.028644519535019848 0 -0.003628272289731913 0.028748569687481441 0 -0.003583197112879266 0.028644519535019848 0 -0.0036960311303570166 0.028667082522306125 0 -0.003628272289731913 0.028748569687481441 0 -0.0028399882504398649 0.02915292279079509 0 -0.0028092915840298499 0.02887871334303933 0 -0.0030891842797167429 0.028971675424505641 0 -0.0028092915840298499 0.02887871334303933 0 -0.0030891842797167429 0.028971675424505641 0 -0.0030253768821909732 0.028783424224502557 0 -0.0030891842797167429 0.028971675424505641 0 -0.0031797184856472158 0.028840566822148674 0 -0.0030253768821909732 0.028783424224502557 0 -0.0033306435230113507 0.028913833128021638 0 -0.0030891842797167429 0.028971675424505641 0 -0.0031797184856472158 0.028840566822148674 0 -0.0031464165333957884 0.02865929471968616 0 -0.0028954513756195015 0.028597590900976431 0 -0.0032648346884356066 0.028410438907518997 0 -0.0031797184856472158 0.028840566822148674 0 -0.0031464165333957884 0.02865929471968616 0 -0.0030253768821909732 0.028783424224502557 0 -0.0032977389319265079 0.028745308136116511 0 -0.0031797184856472158 0.028840566822148674 0 -0.0031464165333957884 0.02865929471968616 0 -0.0031464165333957884 0.02865929471968616 0 -0.0030253768821909732 0.028783424224502557 0 -0.0028954513756195015 0.028597590900976431 0 0.00090396026402170693 0.032712797404346246 0 0.00050101110044184461 0.032566672418962841 0 0.0048627410887619365 0.036896369751042504 0 0.0038247248102576655 0.03656361016870803 0 0.0045528525359506151 0.036361541253470388 0 -0.0026067732630427254 0.028789878320267567 0 -0.0028092915840298499 0.02887871334303933 0 -0.0028954513756195015 0.028597590900976431 0 -0.0028092915840298499 0.02887871334303933 0 -0.0030253768821909732 0.028783424224502557 0 -0.0028954513756195015 0.028597590900976431 0 0.0038247248102576655 0.03656361016870803 0 0.0045528525359506151 0.036361541253470388 0 0.0040354191403095922 0.035617674074881651 0 0.0049409467481069036 0.035919847786408166 0 0.0045528525359506151 0.036361541253470388 0 0.0040354191403095922 0.035617674074881651 0 0.0038247248102576655 0.03656361016870803 0 0.0040354191403095922 0.035617674074881651 0 0.0026941001135515224 0.036057636270875354 0 0.00424193127096756 0.03618310810493542 0 -0.00036663166287290378 0.032558657665546484 0 0.00050101110044184461 0.032566672418962841 0 -0.00036663166287290378 0.032558657665546484 0 0.0023232774122585861 0.034999990100581246 0 0.002336717132847479 0.03560171127318288 0 0.0035847357902298064 0.035966949496407545 0 0.002336717132847479 0.03560171127318288 0 0.0035847357902298064 0.035966949496407545 0 0.001876227649518935 0.036617864215809336 0 0.0023232774122585861 0.034999990100581246 0 0.0035847357902298064 0.035966949496407545 0 0.0042616520806692685 0.034999928005110058 0 0.00090566202196821675 0.036181679311963678 0 0.0011062486835609049 0.036271012567797245 0 -0.00049549359826988031 0.037119018379434036 0 0.00090566202196821675 0.036181679311963678 0 -0.00048029156504588019 0.035931601578757147 0 -0.00049549359826988031 0.037119018379434036 0 -0.0033888009856149212 0.028598821017085746 0 -0.0032635119700523308 0.028359527657886845 0 -0.0038970562321466212 0.028569399792742922 0 -0.00027007564014797531 0.034378829676374095 0 -0.0022789243763626744 0.032608455349900672 0 0.00022974397820666763 0.034722696261375322 0 -0.00027007564014797531 0.034378829676374095 0 -0.0035843599300425738 0.028726946644450954 0 -0.00036663166287290378 0.032558657665546484 0 -0.0033273833379713264 0.02859281122802055 0 -0.0035669456567056176 0.028506359061646634 0 -0.0032648346884356066 0.028410438907518997 0 0.002336717132847479 0.03560171127318288 0 0.001876227649518935 0.036617864215809336 0 0.0010968513877106104 0.036265348908891597 0 -0.0033888009856149212 0.028598821017085746 0 -0.0029613420936091006 0.028504448846266045 0 -0.0032635119700523308 0.028359527657886845 0 -0.00036663166287290378 0.032558657665546484 0 -0.00027007564014797531 0.034378829676374095 0 0.002336717132847479 0.03560171127318288 0 0.00090566202196821675 0.036181679311963678 0 0.0011090081707833168 0.036273743020674307 0 0.0024095015104692746 0.03578763073101375 0 -0.00027007564014797531 0.034378829676374095 0 0.0023232774122585861 0.034999990100581246 0 0.00090566202196821675 0.036181679311963678 0 0.00038525461741227259 0.034999957714952713 0 0.0023232774122585861 0.034999990100581246 0 0.002336717132847479 0.03560171127318288 0 0.00090566202196821675 0.036181679311963678 0 0.00090566202196821675 0.036181679311963678 0 0.00038525461741227259 0.034999957714952713 0 -0.00048029156504588019 0.035931601578757147 0 0.00038525461741227259 0.034999957714952713 0 -0.00048029156504588019 0.035931601578757147 0 -0.0015528304227338833 0.03499996296280633 0 -0.00048029156504588019 0.035931601578757147 0 -0.0015414872383867607 0.036359312727362175 0 -0.00049549359826988031 0.037119018379434036 0 -0.0015414872383867607 0.036359312727362175 0 -0.00049549359826988031 0.037119018379434036 0 -0.0021786323534737136 0.037077527796802755 0 -0.00048029156504588019 0.035931601578757147 0 -0.0015414872383867607 0.036359312727362175 0 -0.0015528304227338833 0.03499996296280633 0 -0.0015414872383867607 0.036359312727362175 0 -0.0015528304227338833 0.03499996296280633 0 -0.0030029746132102853 0.036667628773186071 0 -0.0015528304227338833 0.03499996296280633 0 -0.0034909133402724738 0.034999932795611664 0 -0.0030029746132102853 0.036667628773186071 0 -0.0034909133402724738 0.034999932795611664 0 -0.0043130552524715069 0.03612032895802185 0 -0.0030029746132102853 0.036667628773186071 0 -0.0043130552524715069 0.03612032895802185 0 -0.0039727628244141189 0.03705142117664692 0 -0.0049316970732559296 0.037320389246128217 0 -0.0043130552524715069 0.03612032895802185 0 -0.0039727628244141189 0.03705142117664692 0 -0.0030029746132102853 0.036667628773186071 0 -0.0015414872383867607 0.036359312727362175 0 -0.0030029746132102853 0.036667628773186071 0 -0.0021786323534737136 0.037077527796802755 0 -0.0030029746132102853 0.036667628773186071 0 -0.0032450726604949642 0.037704587955283995 0 -0.0021786323534737136 0.037077527796802755 0 -0.0029911716975950541 0.036575627840252624 0 -0.003520914890760906 0.038302372795242422 0 -0.0032450726604949642 0.037704587955283995 0 -0.0021786323534737136 0.037077527796802755 0 -0.0020812356026768185 0.037924973983606176 0 -0.0039727628244141189 0.03705142117664692 0 -0.0030029746132102853 0.036667628773186071 0 -0.0034195964787131447 0.037706815257772017 0 -0.0039727628244141189 0.03705142117664692 0 -0.0042147928126832308 0.037966642197114382 0 -0.0049316970732559296 0.037320389246128217 0 -0.0039727628244141189 0.03705142117664692 0 -0.0034195964787131447 0.037706815257772017 0 -0.0042147928126832308 0.037966642197114382 0 -0.0034195964787131447 0.037706815257772017 0 -0.0042147928126832308 0.037966642197114382 0 -0.0037724140520931089 0.038702144534775086 0 -0.003520914890760906 0.038302372795242422 0 -0.0044755502392707959 0.034454356865822953 0 -0.0042147928126832308 0.037966642197114382 0 -0.0037724140520931089 0.038702144534775086 0 -0.0044954712564365187 0.038715149288081917 0 -0.0044755502392707959 0.034454356865822953 0 -0.0073612864003399225 0.034520342588851165 0 -0.0037724140520931089 0.038702144534775086 0 -0.0044954712564365187 0.038715149288081917 0 -0.0045915597098959817 0.039131845735757884 0 -0.0044755502392707959 0.034454356865822953 0 -0.0031097466180133814 0.033256741313134455 0 -0.0048099031601162518 0.028926570765986634 0 -0.0043205536425793348 0.028738725526919667 0 -0.0042964965633622218 0.029034573365418599 0 -0.0032450726604949642 0.037704587955283995 0 -0.0035339146301907823 0.0386699811759127 0 -0.0020812356026768185 0.037924973983606176 0 -0.0039401500487635348 0.028926970565355731 0 -0.0040500975524734818 0.028780978458641381 0 -0.0042964965633622218 0.029034573365418599 0 -0.0040500975524734818 0.028780978458641381 0 -0.0043205536425793348 0.028738725526919667 0 -0.0042964965633622218 0.029034573365418599 0 -0.0037942792319359134 0.028984716225311378 0 -0.0039401500487635348 0.028926970565355731 0 -0.0038575454403037266 0.029097326730058368 0 -0.0037942792319359134 0.028984716225311378 0 -0.0037527456978904152 0.028882323178329561 0 -0.0039401500487635348 0.028926970565355731 0 -0.0037849795343461896 0.028770808654378723 0 -0.0039401500487635348 0.028926970565355731 0 -0.0038935858432240875 0.028721409824274718 0 -0.0037527456978904152 0.028882323178329561 0 -0.0037849795343461896 0.028770808654378723 0 -0.0039401500487635348 0.028926970565355731 0 -0.0039401500487635348 0.028926970565355731 0 -0.0040500975524734818 0.028780978458641381 0 -0.0038935858432240875 0.028721409824274718 0 -0.0040500975524734818 0.028780978458641381 0 -0.0038935858432240875 0.028721409824274718 0 -0.0038970562321466212 0.028569399792742922 0 -0.0037849795343461896 0.028770808654378723 0 -0.0038935858432240875 0.028721409824274718 0 -0.0037977760288243467 0.028699174426633139 0 -0.0038935858432240875 0.028721409824274718 0 -0.0037977760288243467 0.028699174426633139 0 -0.0038179020779922509 0.028642600595381425 0 -0.0038935858432240875 0.028721409824274718 0 -0.0038970562321466212 0.028569399792742922 0 -0.0038179020779922509 0.028642600595381425 0 -0.00049549359826988031 0.037119018379434036 0 -0.0021786323534737136 0.037077527796802755 0 -0.0020812356026768185 0.037924973983606176 0 -0.0022789243763626744 0.032608455349900672 0 -0.0031097466180133814 0.033256741313134455 0 -0.0040500975524734818 0.028780978458641381 0 -0.0038970562321466212 0.028569399792742922 0 -0.0043205536425793348 0.028738725526919667 0 -0.0086340423876530726 0.036432311897049305 0 -0.0073784247205917822 0.036301880083382955 0 -0.0073496723649779964 0.037399802634439469 0 -0.013821470122463878 0.030801910349002683 0 -0.012026703422169433 0.032240935966769774 0 -0.0086340423876530726 0.036432311897049305 0 -0.0073670450575992925 0.034999942224953083 0 -0.0073784247205917822 0.036301880083382955 0 -0.0086340423876530726 0.036432311897049305 0 -0.0073670450575992925 0.034999942224953083 0 -0.0093050575704476911 0.034999894116666423 0 -0.0073670450575992925 0.034999942224953083 0 -0.0073784247205917822 0.036301880083382955 0 -0.0061665726834412406 0.036370546267536143 0 -0.0073784247205917822 0.036301880083382955 0 -0.0061665726834412406 0.036370546267536143 0 -0.0073496723649779964 0.037399802634439469 0 -0.0073670450575992925 0.034999942224953083 0 -0.0061665726834412406 0.036370546267536143 0 -0.0054289819965152837 0.034999946997067939 0 -0.0034909133402724738 0.034999932795611664 0 -0.0043130552524715069 0.03612032895802185 0 -0.0054289819965152837 0.034999946997067939 0 -0.0043130552524715069 0.03612032895802185 0 -0.0061665726834412406 0.036370546267536143 0 -0.0054289819965152837 0.034999946997067939 0 -0.0043130552524715069 0.03612032895802185 0 -0.0061665726834412406 0.036370546267536143 0 -0.0049316970732559296 0.037320389246128217 0 -0.0049316970732559296 0.037320389246128217 0 -0.0049284769277961969 0.038214711771106538 0 -0.0060798074446641211 0.038358338006682854 0 -0.0042147928126832308 0.037966642197114382 0 -0.0049316970732559296 0.037320389246128217 0 -0.0049284769277961969 0.038214711771106538 0 -0.0049284769277961969 0.038214711771106538 0 -0.0060798074446641211 0.038358338006682854 0 -0.0048592510258119006 0.039275849096520099 0 -0.010557616098295494 0.033483321939133899 0 -0.0093985694019859088 0.032478354117320377 0 -0.0042147928126832308 0.037966642197114382 0 -0.0044954712564365187 0.038715149288081917 0 -0.0049284769277961969 0.038214711771106538 0 -0.0044954712564365187 0.038715149288081917 0 -0.0049284769277961969 0.038214711771106538 0 -0.0048592510258119006 0.039275849096520099 0 -0.0066683101521468413 0.037846171869979697 0 -0.0073612864003399225 0.034520342588851165 0 -0.0061665726834412406 0.036370546267536143 0 -0.0049316970732559296 0.037320389246128217 0 -0.0060798074446641211 0.038358338006682854 0 -0.0061665726834412406 0.036370546267536143 0 -0.0060798074446641211 0.038358338006682854 0 -0.0073496723649779964 0.037399802634439469 0 -0.010557616098295494 0.033483321939133899 0 -0.012026703422169433 0.032240935966769774 0 -0.015244665965690268 0.028111305186485334 0 -0.016986625507469641 0.028190377318188187 0 -0.016264810895968068 0.029271224260005248 0 -0.015244665965690268 0.028111305186485334 0 -0.016815409339508664 0.026980016957255739 0 -0.016986625507469641 0.028190377318188187 0 -0.016986625507469641 0.028190377318188187 0 -0.017768529324822986 0.02893871034847742 0 -0.016264810895968068 0.029271224260005248 0 -0.016986625507469641 0.028190377318188187 0 -0.018105997203377657 0.027520126119120279 0 -0.017768529324822986 0.02893871034847742 0 -0.018105997203377657 0.027520126119120279 0 -0.017768529324822986 0.02893871034847742 0 -0.018961488024710652 0.028284098522606656 0 -0.016815409339508664 0.026980016957255739 0 -0.016986625507469641 0.028190377318188187 0 -0.018105997203377657 0.027520126119120279 0 -0.018291432654302525 0.026055094062033053 0 -0.016815409339508664 0.026980016957255739 0 -0.018105997203377657 0.027520126119120279 0 -0.017359927947826159 0.030232052255005772 0 -0.018142668369704875 0.031451705595382913 0 -0.018801379380520407 0.029650075820596096 0 -0.017359927947826159 0.030232052255005772 0 -0.016769967277325534 0.031205226997285552 0 -0.018142668369704875 0.031451705595382913 0 -0.017359927947826159 0.030232052255005772 0 -0.017768529324822986 0.02893871034847742 0 -0.018801379380520407 0.029650075820596096 0 -0.017359927947826159 0.030232052255005772 0 -0.016264810895968068 0.029271224260005248 0 -0.01608154877844948 0.030535677982580844 0 -0.017359927947826159 0.030232052255005772 0 -0.017768529324822986 0.02893871034847742 0 -0.016264810895968068 0.029271224260005248 0 -0.017359927947826159 0.030232052255005772 0 -0.01608154877844948 0.030535677982580844 0 -0.016769967277325534 0.031205226997285552 0 -0.01608154877844948 0.030535677982580844 0 -0.016769967277325534 0.031205226997285552 0 -0.015871727512501484 0.031360656066813902 0 -0.01608154877844948 0.030535677982580844 0 -0.015871727512501484 0.031360656066813902 0 -0.014991666556785547 0.030958638384657171 0 -0.015871727512501484 0.031360656066813902 0 -0.014991666556785547 0.030958638384657171 0 -0.015088352546108911 0.031884041068295635 0 -0.014991666556785547 0.030958638384657171 0 -0.013875535062438927 0.031450822794847545 0 -0.015088352546108911 0.031884041068295635 0 -0.014991666556785547 0.030958638384657171 0 -0.014813346058159661 0.029912971219654465 0 -0.01416730693603691 0.030224915743795638 0 -0.01608154877844948 0.030535677982580844 0 -0.014991666556785547 0.030958638384657171 0 -0.014813346058159661 0.029912971219654465 0 -0.015244665965690268 0.028111305186485334 0 -0.016264810895968068 0.029271224260005248 0 -0.014813346058159661 0.029912971219654465 0 -0.015244665965690268 0.028111305186485334 0 -0.014813346058159661 0.029912971219654465 0 -0.013693936416446241 0.029321751466671042 0 -0.016264810895968068 0.029271224260005248 0 -0.01608154877844948 0.030535677982580844 0 -0.014813346058159661 0.029912971219654465 0 -0.014995917579316296 0.03050773634455908 0 -0.0093985694019859088 0.032478354117320377 0 -0.014813346058159661 0.029912971219654465 0 -0.013697478203559214 0.029298293668834671 0 -0.01416730693603691 0.030224915743795638 0 -0.0044954712564365187 0.038715149288081917 0 -0.0046008042499031494 0.039134269791130646 0 -0.0048592510258119006 0.039275849096520099 0 -0.0073612864003399225 0.034520342588851165 0 -0.0093985694019859088 0.032478354117320377 0 -0.0073612864003399225 0.034520342588851165 0 -0.0088007507095862643 0.031429037474913567 0 -0.0079345686834581021 0.033153555271695959 0 -0.0078783830090886423 0.033116832361540734 0 -0.0079225839695518697 0.033078804773246109 0 -0.0093985694019859088 0.032478354117320377 0 -0.0088007507095862643 0.031429037474913567 0 -0.013697478203559214 0.029298293668834671 0 -0.013452881470566466 0.029497185520052219 0 -0.01416730693603691 0.030224915743795638 0 -0.0088007507095862643 0.031429037474913567 0 -0.012335293402796909 0.029699097928142883 0 -0.013452881470566466 0.029497185520052219 0 -0.01416730693603691 0.030224915743795638 0 -0.013875535062438927 0.031450822794847545 0 -0.0089726462940075882 0.030172588578065727 0 -0.0089679371831274772 0.030040013994978815 0 -0.0090005146570830939 0.030057125904730989 0 -0.014991666556785547 0.030958638384657171 0 -0.01416730693603691 0.030224915743795638 0 -0.013875535062438927 0.031450822794847545 0 -0.012335293402796909 0.029699097928142883 0 -0.0063509145269740417 0.029812260682917497 0 -0.0057780360024192266 0.030326933213151795 0 -0.0063509145269740417 0.029812260682917497 0 -0.0061042495311206743 0.03014677950674903 0 -0.0060064154200627955 0.030399114229775887 0 -0.0059750140539388211 0.030098708605590052 0 -0.017855079220332498 0.028570323278342861 0 -0.018140434574302942 0.029714002262875579 0 -0.018733898989188268 0.028882433284113052 0 -0.012335293402796909 0.029699097928142883 0 -0.011936927511764435 0.029946762246589858 0 -0.0061042495311206743 0.03014677950674903 0 -0.0060064154200627955 0.030399114229775887 0 -0.006122578823140325 0.03047334301269404 0 -0.012335293402796909 0.029699097928142883 0 -0.017315249948267879 0.0305415906788662 0 -0.0056286162515030019 0.030230283036626455 0 -0.0053608557490333166 0.030763324076810299 0 -0.0059736939996193356 0.030857732464204559 0 -0.0060064154200627955 0.030399114229775887 0 -0.006122578823140325 0.03047334301269404 0 -0.0059736939996193356 0.030857732464204559 0 -0.011936927511764435 0.029946762246589858 0 -0.014849981398956697 0.030958978229243015 0 -0.0057780360024192266 0.030326933213151795 0 -0.005971468000646297 0.03083760111022861 0 -0.018140434574302942 0.029714002262875579 0 -0.018876237048206242 0.02973152265236639 0 -0.018748270230534714 0.029425642784239581 0 -0.018140434574302942 0.029714002262875579 0 -0.018862134374078802 0.030219714930227848 0 -0.0183818415028171 0.030867869695996964 0 -0.018140434574302942 0.029714002262875579 0 -0.018862134374078802 0.030219714930227848 0 -0.018876237048206242 0.02973152265236639 0 -0.018862134374078802 0.030219714930227848 0 -0.018876237048206242 0.02973152265236639 0 -0.019301511640202398 0.030034470347017134 0 -0.018876237048206242 0.02973152265236639 0 -0.019225830933364295 0.02937677808136414 0 -0.018748270230534714 0.029425642784239581 0 -0.018876237048206242 0.02973152265236639 0 -0.019225830933364295 0.02937677808136414 0 -0.019301511640202398 0.030034470347017134 0 -0.017315249948267879 0.0305415906788662 0 -0.018678414419890901 0.03022436425068508 0 -0.019225830933364295 0.02937677808136414 0 -0.018748270230534714 0.029425642784239581 0 -0.018733898989188268 0.028882433284113052 0 -0.019225830933364295 0.02937677808136414 0 -0.018733898989188268 0.028882433284113052 0 -0.019587839047001267 0.029217200721258541 0 -0.018140434574302942 0.029714002262875579 0 -0.018748270230534714 0.029425642784239581 0 -0.018733898989188268 0.028882433284113052 0 -0.015871727512501484 0.031360656066813902 0 -0.015088352546108911 0.031884041068295635 0 -0.016297377658543041 0.032311142465043026 0 -0.016769967277325534 0.031205226997285552 0 -0.016297377658543041 0.032311142465043026 0 -0.018142668369704875 0.031451705595382913 0 -0.019569877214429463 0.029226355327324437 0 -0.019784952587632212 0.02964423461509948 0 -0.020559607282624435 0.029658724701210362 0 -0.018678414419890901 0.03022436425068508 0 -0.020929033459362204 0.02998161519907799 0 -0.016769967277325534 0.031205226997285552 0 -0.015871727512501484 0.031360656066813902 0 -0.016297377658543041 0.032311142465043026 0 -0.019569877214429463 0.029226355327324437 0 -0.019493103419909542 0.029520581001730238 0 -0.019784952587632212 0.02964423461509948 0 -0.019340269235054212 0.029710365342065788 0 -0.018678414419890901 0.03022436425068508 0 -0.019225830933364295 0.02937677808136414 0 -0.019569877214429463 0.029226355327324437 0 -0.019493103419909542 0.029520581001730238 0 -0.019113831294300696 0.031416250796456505 0 -0.022634939467546793 0.026882273644686341 0 -0.019225830933364295 0.02937677808136414 0 -0.019493103419909542 0.029520581001730238 0 -0.019301511640202398 0.030034470347017134 0 -0.019493103419909542 0.029520581001730238 0 -0.019301511640202398 0.030034470347017134 0 -0.019784952587632212 0.02964423461509948 0 -0.019301511640202398 0.030034470347017134 0 -0.019784952587632212 0.02964423461509948 0 -0.019673519773349992 0.030809988447886044 0 -0.019784952587632212 0.02964423461509948 0 -0.020254102607172988 0.030387979077195326 0 -0.019941054244044701 0.031102491516694222 0 -0.019784952587632212 0.02964423461509948 0 -0.020559607282624435 0.029658724701210362 0 -0.020254102607172988 0.030387979077195326 0 -0.020559607282624435 0.029658724701210362 0 -0.020715585114952795 0.030165048506014123 0 -0.021292001805846842 0.030215662870993351 0 -0.020958494069590307 0.030156892900150046 0 -0.021199100833288489 0.0300479625772875 0 -0.021292001805846842 0.030215662870993351 0 -0.020254102607172988 0.030387979077195326 0 -0.020715585114952795 0.030165048506014123 0 -0.021155542713083619 0.030375064762096195 0 -0.020929033459362204 0.02998161519907799 0 -0.02115377616077023 0.030127925484133632 0 -0.020559607282624435 0.029658724701210362 0 -0.020254102607172988 0.030387979077195326 0 -0.020715585114952795 0.030165048506014123 0 -0.020958494069590307 0.030156892900150046 0 -0.021090313648157517 0.029820576695038948 0 -0.021199100833288489 0.0300479625772875 0 -0.020576121965974914 0.030027747240668604 0 -0.020958494069590307 0.030156892900150046 0 -0.021090313648157517 0.029820576695038948 0 -0.018678414419890901 0.03022436425068508 0 -0.019521597272686181 0.030767698572657921 0 -0.0042200236307030695 0.029278166092772361 0 -0.0044584701854442086 0.029265984596431392 0 -0.0043133203031992216 0.029357731153469728 0 -0.0042200236307030695 0.029278166092772361 0 -0.0043133203031992216 0.029357731153469728 0 -0.0041180104674614099 0.029393638775958332 0 -0.0042200236307030695 0.029278166092772361 0 -0.0038997317191549041 0.029287435194070323 0 -0.0041180104674614099 0.029393638775958332 0 -0.0037004990179583491 0.029430194185583423 0 -0.0038997317191549041 0.029287435194070323 0 -0.0041180104674614099 0.029393638775958332 0 -0.003878608299862708 0.029375868419947489 0 -0.0040462865783632259 0.029384505159607555 0 -0.00399519546552314 0.029388700599491342 0 -0.003907847859848209 0.029270569445831184 0 -0.0041180104674614099 0.029393638775958332 0 -0.0039401500487635348 0.028926970565355731 0 -0.0040373479764445773 0.029138832695030259 0 -0.0042964965633622218 0.029034573365418599 0 -0.0042200236307030695 0.029278166092772361 0 -0.0038997317191549041 0.029287435194070323 0 -0.0040373479764445773 0.029138832695030259 0 -0.0038997317191549041 0.029287435194070323 0 -0.0038575454403037266 0.029097326730058368 0 -0.0040373479764445773 0.029138832695030259 0 -0.0039401500487635348 0.028926970565355731 0 -0.0038575454403037266 0.029097326730058368 0 -0.0040373479764445773 0.029138832695030259 0 -0.0042200236307030695 0.029278166092772361 0 -0.0040373479764445773 0.029138832695030259 0 -0.0042964965633622218 0.029034573365418599 0 -0.0042200236307030695 0.029278166092772361 0 -0.0042964965633622218 0.029034573365418599 0 -0.0044584701854442086 0.029265984596431392 0 -0.0048099031601162518 0.028926570765986634 0 -0.0042964965633622218 0.029034573365418599 0 -0.0047147995542269451 0.029143786094037238 0 -0.0042964965633622218 0.029034573365418599 0 -0.0047147995542269451 0.029143786094037238 0 -0.0044584701854442086 0.029265984596431392 0 -0.0047147995542269451 0.029143786094037238 0 -0.0044584701854442086 0.029265984596431392 0 -0.0048030291799634707 0.029416705820351066 0 -0.0044755502392707959 0.034454356865822953 0 -0.0066715632225492543 0.02986776002305884 0 -0.0068909053344107345 0.033075171122575957 0 -0.0060707049703099553 0.032587576851240717 0 -0.0065584129697834077 0.031812320400443447 0 -0.0048099031601162518 0.028926570765986634 0 -0.0047147995542269451 0.029143786094037238 0 -0.0050239087445848197 0.029288699819080628 0 -0.0060707049703099553 0.032587576851240717 0 -0.0060105340311505167 0.032264551915479285 0 -0.0065584129697834077 0.031812320400443447 0 -0.0047147995542269451 0.029143786094037238 0 -0.0050239087445848197 0.029288699819080628 0 -0.0048030291799634707 0.029416705820351066 0 -0.0088007507095862643 0.031429037474913567 0 -0.0066715632225492543 0.02986776002305884 0 -0.0089726462940075882 0.030172588578065727 0 -0.0090112736179721962 0.030135569667307585 0 -0.0090005146570830939 0.030057125904730989 0 -0.0048030291799634707 0.029416705820351066 0 -0.0050188454565106289 0.029561754355022906 0 -0.0048742913088368287 0.029966570720187789 0 -0.0066715632225492543 0.02986776002305884 0 -0.0063509145269740417 0.029812260682917497 0 -0.0050239087445848197 0.029288699819080628 0 -0.0050188454565106289 0.029561754355022906 0 -0.0051912787222668883 0.029624420215325416 0 -0.0050239087445848197 0.029288699819080628 0 -0.0048030291799634707 0.029416705820351066 0 -0.0050188454565106289 0.029561754355022906 0 -0.0052262418119589935 0.029498619409340801 0 -0.0063509145269740417 0.029812260682917497 0 -0.0050188454565106289 0.029561754355022906 0 -0.0053216395146144591 0.029621658498130976 0 -0.0051212990499757806 0.029782986060143631 0 -0.0044584701854442086 0.029265984596431392 0 -0.0048030291799634707 0.029416705820351066 0 -0.0048742913088368287 0.029966570720187789 0 -0.0044395281970260551 0.029281025765049404 0 -0.0046698329265859283 0.029614782639699109 0 -0.0044584701854442086 0.029265984596431392 0 -0.0043150708542332335 0.029357087283011771 0 -0.0043133203031992216 0.029357731153469728 0 -0.0043150708542332335 0.029357087283011771 0 -0.0043274338598945222 0.029350875172023987 0 -0.0043133203031992216 0.029357731153469728 0 -0.0043150708542332335 0.029357087283011771 0 -0.0043274338598945222 0.029350875172023987 0 -0.0043592434658381663 0.029209807847217151 0 -0.0056286162515030019 0.030230283036626455 0 -0.0053216395146144591 0.029621658498130976 0 -0.0052876825212844611 0.029975659847250404 0 -0.0053216395146144591 0.029621658498130976 0 -0.0051212990499757806 0.029782986060143631 0 -0.0052876825212844611 0.029975659847250404 0 -0.0050188454565106289 0.029561754355022906 0 -0.0048742913088368287 0.029966570720187789 0 -0.0051212990499757806 0.029782986060143631 0 -0.0048742913088368287 0.029966570720187789 0 -0.0051212990499757806 0.029782986060143631 0 -0.0052876825212844611 0.029975659847250404 0 -0.0043150708542332335 0.029357087283011771 0 -0.0043592434658381663 0.029209807847217151 0 -0.0042190082343308375 0.028883937327919555 0 -0.0046698329265859283 0.029614782639699109 0 -0.0042317660496110597 0.030019979622482266 0 -0.0056286162515030019 0.030230283036626455 0 -0.0052876825212844611 0.029975659847250404 0 -0.0053608557490333166 0.030763324076810299 0 -0.0048742913088368287 0.029966570720187789 0 -0.0052876825212844611 0.029975659847250404 0 -0.0053608557490333166 0.030763324076810299 0 -0.0043001531814452886 0.029237078300099729 0 -0.0046036385590033854 0.029311824601379925 0 -0.0043274338598945222 0.029350875172023987 0 -0.0043592434658381663 0.029209807847217151 0 -0.0042629713026884706 0.029448157970720507 0 -0.0043592434658381663 0.029209807847217151 0 -0.004529016866643718 0.028982030011501472 0 -0.0046960671984935419 0.029168036288763105 0 -0.0043592434658381663 0.029209807847217151 0 -0.0043798595661314116 0.02888106717006067 0 -0.0042190082343308375 0.028883937327919555 0 -0.0043592434658381663 0.029209807847217151 0 -0.004529016866643718 0.028982030011501472 0 -0.0043798595661314116 0.02888106717006067 0 -0.004529016866643718 0.028982030011501472 0 -0.0047880881579364185 0.028938976935452512 0 -0.0046960671984935419 0.029168036288763105 0 -0.0042629713026884706 0.029448157970720507 0 -0.0043133203031992216 0.029357731153469728 0 -0.0041180104674614099 0.029393638775958332 0 -0.0043274338598945222 0.029350875172023987 0 -0.0042629713026884706 0.029448157970720507 0 -0.0043133203031992216 0.029357731153469728 0 -0.0042629713026884706 0.029448157970720507 0 -0.0041180104674614099 0.029393638775958332 0 -0.0040607536943304328 0.029505941831588868 0 -0.00399519546552314 0.029388700599491342 0 -0.0041180104674614099 0.029393638775958332 0 -0.0040607536943304328 0.029505941831588868 0 -0.004261718453400406 0.028314475511551172 0 -0.0040209589165761152 0.028073470315652875 0 -0.0039930747942982531 0.028358486944966566 0 -0.0046036385590033854 0.029311824601379925 0 -0.0037962843384530733 0.028838771139290117 0 -0.0047880881579364185 0.028938976935452512 0 -0.0046960671984935419 0.029168036288763105 0 -0.0050124949156590071 0.02916544310408907 0 -0.0045782801681533859 0.028665033326435354 0 -0.0037962843384530733 0.028838771139290117 0 -0.004261718453400406 0.028314475511551172 0 -0.0039930747942982531 0.028358486944966566 0 -0.0041357089682740773 0.028530559574080402 0 -0.004261718453400406 0.028314475511551172 0 -0.0041357089682740773 0.028530559574080402 0 -0.0042924776904253821 0.028548500936635388 0 -0.0041357089682740773 0.028530559574080402 0 -0.0039897091364771396 0.028495348002044792 0 -0.0039920456947479472 0.028582765611604912 0 -0.0039930747942982531 0.028358486944966566 0 -0.0041357089682740773 0.028530559574080402 0 -0.0039897091364771396 0.028495348002044792 0 -0.0045782801681533859 0.028665033326435354 0 -0.0044553967933848356 0.028618001294670046 0 -0.004529016866643718 0.028982030011501472 0 -0.0047880881579364185 0.028938976935452512 0 -0.0044655953570495984 0.028650342506639143 0 -0.004261718453400406 0.028314475511551172 0 -0.0042924776904253821 0.028548500936635388 0 -0.0044655953570495984 0.028650342506639143 0 -0.0041357089682740773 0.028530559574080402 0 -0.0042924776904253821 0.028548500936635388 0 -0.0042980421129052348 0.028642241143265593 0 -0.0042924776904253821 0.028548500936635388 0 -0.0044655953570495984 0.028650342506639143 0 -0.0042980421129052348 0.028642241143265593 0 -0.0042980421129052348 0.028642241143265593 0 -0.0041684342859132466 0.028717578865798038 0 -0.004359852117626341 0.028694346763643859 0 -0.0044655953570495984 0.028650342506639143 0 -0.0042980421129052348 0.028642241143265593 0 -0.0044171437098227181 0.028657251584536598 0 -0.0042980421129052348 0.028642241143265593 0 -0.004359852117626341 0.028694346763643859 0 -0.0044171437098227181 0.028657251584536598 0 -0.0039862316833729232 0.028681625270586417 0 -0.0039920456947479472 0.028582765611604912 0 -0.0041205046539621914 0.028633835086385145 0 -0.0041357089682740773 0.028530559574080402 0 -0.0039920456947479472 0.028582765611604912 0 -0.0041205046539621914 0.028633835086385145 0 -0.0041357089682740773 0.028530559574080402 0 -0.0042980421129052348 0.028642241143265593 0 -0.0041205046539621914 0.028633835086385145 0 -0.0042980421129052348 0.028642241143265593 0 -0.0041205046539621914 0.028633835086385145 0 -0.0041684342859132466 0.028717578865798038 0 -0.0039862316833729232 0.028681625270586417 0 -0.0041205046539621914 0.028633835086385145 0 -0.0041684342859132466 0.028717578865798038 0 -0.0039497283243898965 0.028778216102057018 0 -0.0041684342859132466 0.028717578865798038 0 -0.0042072688486911947 0.028821039333213672 0 -0.0039862316833729232 0.028681625270586417 0 -0.0039497283243898965 0.028778216102057018 0 -0.0041684342859132466 0.028717578865798038 0 -0.0041684342859132466 0.028717578865798038 0 -0.004359852117626341 0.028694346763643859 0 -0.0042072688486911947 0.028821039333213672 0 -0.0042072688486911947 0.028821039333213672 0 -0.0043945956797822724 0.028732504780157042 0 -0.0044695026568147998 0.028749676777398848 0 -0.004359852117626341 0.028694346763643859 0 -0.0042072688486911947 0.028821039333213672 0 -0.0043945956797822724 0.028732504780157042 0 -0.0075644025678948358 0.014746345940470452 0 -0.0073342350480428767 0.014822096820382626 0 -0.0073957942109323304 0.014576888725218281 0 -0.020879246834509299 0.02181071205493568 0 -0.021182592475215468 0.021417974024097678 0 -0.021498403765451798 0.021736921056949809 0 -0.020879246834509299 0.02181071205493568 0 -0.021498403765451798 0.021736921056949809 0 -0.021447768754608489 0.022146821662444267 0 -0.012262496070537483 0.025903603414142402 0 -0.011720224057968074 0.025500352658817647 0 -0.0044763595644547868 0.028706512849762132 0 -0.0043945956797822724 0.028732504780157042 0 -0.0044695026568147998 0.028749676777398848 0 -0.012262496070537483 0.025903603414142402 0 -0.012939938907386263 0.019050664068582933 0 -0.0044763595644547868 0.028706512849762132 0 -0.0043945956797822724 0.028732504780157042 0 -0.0044173420400252846 0.02868761858663349 0 -0.0044763595644547868 0.028706512849762132 0 -0.0044418095032567346 0.02865911909768562 0 -0.0044173420400252846 0.02868761858663349 0 -0.0044418095032567346 0.02865911909768562 0 -0.0044173420400252846 0.02868761858663349 0 -0.0044184281999514498 0.028662374422217592 0 -0.004359852117626341 0.028694346763643859 0 -0.0043945956797822724 0.028732504780157042 0 -0.0044173420400252846 0.02868761858663349 0 -0.004359852117626341 0.028694346763643859 0 -0.0044173420400252846 0.02868761858663349 0 -0.0044184281999514498 0.028662374422217592 0 -0.004359852117626341 0.028694346763643859 0 -0.0044184281999514498 0.028662374422217592 0 -0.0044171437098227181 0.028657251584536598 0 -0.0044418095032567346 0.02865911909768562 0 -0.0044184281999514498 0.028662374422217592 0 -0.00442103836404801 0.028649048097610007 0 -0.00442103836404801 0.028649048097610007 0 -0.0044678981606478029 0.028638207681206503 0 -0.0044445460932090548 0.028631074584008778 0 -0.0044418095032567346 0.02865911909768562 0 -0.00442103836404801 0.028649048097610007 0 -0.0044678981606478029 0.028638207681206503 0 -0.0044763595644547868 0.028706512849762132 0 -0.0044678981606478029 0.028638207681206503 0 -0.0044810358986072454 0.028625297159147176 0 -0.0044763595644547868 0.028706512849762132 0 -0.0044418095032567346 0.02865911909768562 0 -0.0044678981606478029 0.028638207681206503 0 -0.0091801083689656837 0.026856395553475909 0 -0.011720224057968074 0.025500352658817647 0 -0.00442103836404801 0.028649048097610007 0 -0.0044445460932090548 0.028631074584008778 0 -0.0043482646380917757 0.028647609515504102 0 -0.011720224057968074 0.025500352658817647 0 -0.0095774495527157309 0.028503030227578625 0 -0.011720224057968074 0.025500352658817647 0 -0.017434114787221896 0.024144443329349525 0 -0.0043617467309890693 0.028693137554100256 0 -0.0042190082343308375 0.028883937327919555 0 -0.0043482646380917757 0.028647609515504102 0 -0.00442103836404801 0.028649048097610007 0 -0.0043617467309890693 0.028693137554100256 0 -0.0043482646380917757 0.028647609515504102 0 -0.00442103836404801 0.028649048097610007 0 -0.0043617467309890693 0.028693137554100256 0 -0.004399934102929221 0.02866982137494788 0 -0.0044184281999514498 0.028662374422217592 0 -0.00442103836404801 0.028649048097610007 0 -0.004399934102929221 0.02866982137494788 0 -0.0044184281999514498 0.028662374422217592 0 -0.0044171437098227181 0.028657251584536598 0 -0.004399934102929221 0.02866982137494788 0 -0.0044171437098227181 0.028657251584536598 0 -0.004399934102929221 0.02866982137494788 0 -0.0043849552176799039 0.028713154456832195 0 -0.0043617467309890693 0.028693137554100256 0 -0.004399934102929221 0.02866982137494788 0 -0.0043849552176799039 0.028713154456832195 0 -0.0044655953570495984 0.028650342506639143 0 -0.0044171437098227181 0.028657251584536598 0 -0.0043849552176799039 0.028713154456832195 0 -0.0044655953570495984 0.028650342506639143 0 -0.0043849552176799039 0.028713154456832195 0 -0.0043798595661314116 0.02888106717006067 0 -0.0043849552176799039 0.028713154456832195 0 -0.0043798595661314116 0.02888106717006067 0 -0.0042190082343308375 0.028883937327919555 0 -0.004529016866643718 0.028982030011501472 0 -0.0044655953570495984 0.028650342506639143 0 -0.0043798595661314116 0.02888106717006067 0 -0.0042317660496110597 0.030019979622482266 0 -0.0095774495527157309 0.028503030227578625 0 -0.0043617467309890693 0.028693137554100256 0 -0.0043849552176799039 0.028713154456832195 0 -0.0042190082343308375 0.028883937327919555 0 -0.006122578823140325 0.03047334301269404 0 -0.0059736939996193356 0.030857732464204559 0 -0.0061532400624307081 0.030982157135226229 0 -0.0053608557490333166 0.030763324076810299 0 -0.0059736939996193356 0.030857732464204559 0 -0.0057947536835007141 0.031544862833961032 0 -0.0059736939996193356 0.030857732464204559 0 -0.0061532400624307081 0.030982157135226229 0 -0.0057947536835007141 0.031544862833961032 0 -0.018862134374078802 0.030219714930227848 0 -0.018604156370187207 0.030646850381154341 0 -0.019056425091619807 0.03063480301884812 0 -0.018604156370187207 0.030646850381154341 0 -0.019056425091619807 0.03063480301884812 0 -0.018743225203071825 0.03126860259642647 0 -0.018673664693203158 0.029562060123853484 0 -0.014849981398956697 0.030958978229243015 0 -0.018862134374078802 0.030219714930227848 0 -0.019301511640202398 0.030034470347017134 0 -0.019056425091619807 0.03063480301884812 0 -0.019592008010019937 0.025829632053028045 0 -0.022634939467546793 0.026882273644686341 0 -0.022339190819988624 0.021207704925596666 0 -0.02210676692817205 0.021171199586074847 0 -0.022512465638245292 0.021037286802960232 0 -0.014849981398956697 0.030958978229243015 0 -0.019592008010019937 0.025829632053028045 0 -0.019056425091619807 0.03063480301884812 0 -0.018743225203071825 0.03126860259642647 0 -0.019673519773349992 0.030809988447886044 0 -0.022339190819988624 0.021207704925596666 0 -0.02210676692817205 0.021171199586074847 0 -0.022107047477584896 0.021219613546901071 0 -0.022062476144093138 0.021081882840948238 0 -0.022107047477584896 0.021219613546901071 0 -0.021899062953841059 0.021305552123632561 0 -0.019592008010019937 0.025829632053028045 0 -0.019817949942363033 0.023341828882993135 0 -0.019592008010019937 0.025829632053028045 0 -0.017434114787221896 0.024144443329349525 0 -0.015085547435491908 0.027746118767148234 0 -0.016409672205064105 0.02764757552438378 0 -0.016208528688556087 0.027079971916254414 0 -0.014849981398956697 0.030958978229243015 0 -0.0095774495527157309 0.028503030227578625 0 -0.015353999501740325 0.029189851032966129 0 -0.015085547435491908 0.027746118767148234 0 -0.016409672205064105 0.02764757552438378 0 -0.0095774495527157309 0.028503030227578625 0 -0.017434114787221896 0.024144443329349525 0 -0.020254102607172988 0.030387979077195326 0 -0.019941054244044701 0.031102491516694222 0 -0.021155542713083619 0.030375064762096195 0 -0.029592276020875198 0.025221735593204366 0 -0.028799249760991744 0.024907735471886301 0 -0.028395129315422343 0.02602563040758088 0 -0.022634939467546793 0.026882273644686341 0 -0.025139190752137011 0.028322347628892682 0 -0.019301511640202398 0.030034470347017134 0 -0.019056425091619807 0.03063480301884812 0 -0.019673519773349992 0.030809988447886044 0 -0.022339190819988624 0.021207704925596666 0 -0.022512465638245292 0.021037286802960232 0 -0.022538867508891069 0.021346071595739834 0 -0.029592276020875198 0.025221735593204366 0 -0.028799249760991744 0.024907735471886301 0 -0.029569801266756866 0.024004015745961456 0 -0.022634939467546793 0.026882273644686341 0 -0.026352052585237165 0.021989925548059501 0 -0.028799249760991744 0.024907735471886301 0 -0.028501459294054655 0.024196186772970307 0 -0.029569801266756866 0.024004015745961456 0 -0.028951357821525709 0.023527720989097025 0 -0.028501459294054655 0.024196186772970307 0 -0.029569801266756866 0.024004015745961456 0 -0.028951357821525709 0.023527720989097025 0 -0.028501459294054655 0.024196186772970307 0 -0.028215917705366148 0.023086308497268653 0 -0.022538867508891069 0.021346071595739834 0 -0.022481551690771741 0.021477892638518327 0 -0.022616129877231064 0.021550826214440738 0 -0.026352052585237165 0.021989925548059501 0 -0.025199285373021796 0.02201935229796571 0 -0.028951357821525709 0.023527720989097025 0 -0.029569801266756866 0.024004015745961456 0 -0.029512834329417682 0.022830541486045481 0 -0.022339190819988624 0.021207704925596666 0 -0.022538867508891069 0.021346071595739834 0 -0.022320907825259147 0.021337232274991978 0 -0.022538867508891069 0.021346071595739834 0 -0.022481551690771741 0.021477892638518327 0 -0.022320907825259147 0.021337232274991978 0 -0.022481551690771741 0.021477892638518327 0 -0.022633015276650067 0.021521276031354081 0 -0.022616129877231064 0.021550826214440738 0 -0.022961278969620691 0.022048269578367863 0 -0.025199285373021796 0.02201935229796571 0 -0.025199285373021796 0.02201935229796571 0 -0.026510421994710216 0.021714006058903331 0 -0.023626135234767504 0.020439937366908866 0 -0.023858726039011995 0.020596535351352262 0 -0.024230756840064687 0.020465637461744204 0 -0.028951357821525709 0.023527720989097025 0 -0.029512834329417682 0.022830541486045481 0 -0.028215917705366148 0.023086308497268653 0 -0.021703369349475022 0.021450119108915186 0 -0.02193370043038877 0.021446691677638317 0 -0.021899062953841059 0.021305552123632561 0 -0.021703369349475022 0.021450119108915186 0 -0.02193370043038877 0.021446691677638317 0 -0.021879163472855425 0.021627782228739085 0 -0.021182592475215468 0.021417974024097678 0 -0.021703369349475022 0.021450119108915186 0 -0.021498403765451798 0.021736921056949809 0 -0.019328874043540376 0.022263440852757093 0 -0.017434114787221896 0.024144443329349525 0 -0.012453420806310999 0.025414673682365781 0 -0.012208107330506023 0.025789296757148663 0 -0.012148313534855548 0.025606185410074377 0 -0.021182592475215468 0.021417974024097678 0 -0.021703369349475022 0.021450119108915186 0 -0.021579297143844187 0.021200707179054989 0 -0.021703369349475022 0.021450119108915186 0 -0.02164435338025944 0.021257486277028555 0 -0.021899062953841059 0.021305552123632561 0 -0.022062476144093138 0.021081882840948238 0 -0.02164435338025944 0.021257486277028555 0 -0.021899062953841059 0.021305552123632561 0 -0.022107047477584896 0.021219613546901071 0 -0.021899062953841059 0.021305552123632561 0 -0.022109206250011001 0.021353578214572393 0 -0.022107047477584896 0.021219613546901071 0 -0.022109206250011001 0.021353578214572393 0 -0.022320907825259147 0.021337232274991978 0 -0.02193370043038877 0.021446691677638317 0 -0.021899062953841059 0.021305552123632561 0 -0.022109206250011001 0.021353578214572393 0 -0.022339190819988624 0.021207704925596666 0 -0.022107047477584896 0.021219613546901071 0 -0.022320907825259147 0.021337232274991978 0 -0.022481551690771741 0.021477892638518327 0 -0.022320907825259147 0.021337232274991978 0 -0.022268633674738952 0.021526552144066114 0 -0.022109206250011001 0.021353578214572393 0 -0.022320907825259147 0.021337232274991978 0 -0.022268633674738952 0.021526552144066114 0 -0.02193370043038877 0.021446691677638317 0 -0.022268633674738952 0.021526552144066114 0 -0.021879163472855425 0.021627782228739085 0 -0.02193370043038877 0.021446691677638317 0 -0.022109206250011001 0.021353578214572393 0 -0.022268633674738952 0.021526552144066114 0 -0.022315253804225776 0.021568056239984368 0 -0.022427393091054119 0.02159080732669871 0 -0.022268633674738952 0.021526552144066114 0 -0.021865339162229634 0.021901244798609928 0 -0.022204385696956572 0.022104535127046389 0 -0.022633015276650067 0.021521276031354081 0 -0.022268633674738952 0.021526552144066114 0 -0.02273702061020777 0.021488295028204849 0 -0.022268633674738952 0.021526552144066114 0 -0.021865339162229634 0.021901244798609928 0 -0.021879163472855425 0.021627782228739085 0 -0.022481551690771741 0.021477892638518327 0 -0.022633015276650067 0.021521276031354081 0 -0.022268633674738952 0.021526552144066114 0 -0.021865339162229634 0.021901244798609928 0 -0.021498403765451798 0.021736921056949809 0 -0.021447768754608489 0.022146821662444267 0 -0.021703369349475022 0.021450119108915186 0 -0.021879163472855425 0.021627782228739085 0 -0.021498403765451798 0.021736921056949809 0 -0.021865339162229634 0.021901244798609928 0 -0.021879163472855425 0.021627782228739085 0 -0.021498403765451798 0.021736921056949809 0 -0.021447768754608489 0.022146821662444267 0 -0.021741674321863486 0.022362241947540995 0 -0.021276422003948928 0.022496470829385218 0 -0.021447768754608489 0.022146821662444267 0 -0.021741674321863486 0.022362241947540995 0 -0.021890088981907072 0.022162111186590689 0 -0.021865339162229634 0.021901244798609928 0 -0.021447768754608489 0.022146821662444267 0 -0.021890088981907072 0.022162111186590689 0 -0.021865339162229634 0.021901244798609928 0 -0.021890088981907072 0.022162111186590689 0 -0.022204385696956572 0.022104535127046389 0 -0.022427393091054119 0.02159080732669871 0 -0.022693891663583723 0.022677134870881303 0 -0.022204385696956572 0.022104535127046389 0 -0.022021727847354244 0.022359490238058777 0 -0.022199714819819239 0.022512927986891106 0 -0.021741674321863486 0.022362241947540995 0 -0.021890088981907072 0.022162111186590689 0 -0.022021727847354244 0.022359490238058777 0 -0.021890088981907072 0.022162111186590689 0 -0.022204385696956572 0.022104535127046389 0 -0.022021727847354244 0.022359490238058777 0 -0.022021727847354244 0.022359490238058777 0 -0.022199714819819239 0.022512927986891106 0 -0.021878612363943752 0.022671340225570581 0 -0.021741674321863486 0.022362241947540995 0 -0.022021727847354244 0.022359490238058777 0 -0.021878612363943752 0.022671340225570581 0 -0.021641941427970948 0.017484868540097443 0 -0.022861305882889857 0.017522399286919059 0 -0.021741674321863486 0.022362241947540995 0 -0.021878612363943752 0.022671340225570581 0 -0.021276422003948928 0.022496470829385218 0 -0.023997144288916399 0.020731134777032544 0 -0.023539702412613297 0.020796185720074925 0 -0.023810091231476399 0.020988902131973582 0 -0.023858726039011995 0.020596535351352262 0 -0.023997144288916399 0.020731134777032544 0 -0.023539702412613297 0.020796185720074925 0 -0.023858726039011995 0.020596535351352262 0 -0.023997144288916399 0.020731134777032544 0 -0.024230756840064687 0.020465637461744204 0 -0.02273702061020777 0.021488295028204849 0 -0.022844119887313864 0.021365117447232386 0 -0.023029605255666774 0.021269926380206111 0 -0.025199285373021796 0.02201935229796571 0 -0.023152588972587096 0.020924444142428826 0 -0.022633015276650067 0.021521276031354081 0 -0.022642981116696517 0.02151521519337286 0 -0.022844119887313864 0.021365117447232386 0 -0.022633015276650067 0.021521276031354081 0 -0.02273702061020777 0.021488295028204849 0 -0.022844119887313864 0.021365117447232386 0 -0.023626135234767504 0.020439937366908866 0 -0.023858726039011995 0.020596535351352262 0 -0.023539702412613297 0.020796185720074925 0 -0.023539702412613297 0.020796185720074925 0 -0.023810091231476399 0.020988902131973582 0 -0.023312640024039658 0.021306241689681513 0 -0.022844119887313864 0.021365117447232386 0 -0.023029605255666774 0.021269926380206111 0 -0.023312640024039658 0.021306241689681513 0 -0.023152588972587096 0.020924444142428826 0 -0.023281346852429111 0.021404467890304951 0 -0.023810091231476399 0.020988902131973582 0 -0.023312640024039658 0.021306241689681513 0 -0.02407759009962256 0.021307735629467299 0 -0.023997144288916399 0.020731134777032544 0 -0.023810091231476399 0.020988902131973582 0 -0.024257026826423399 0.02091514518683869 0 -0.023942254787604762 0.015266540476804168 0 -0.024994804925472423 0.017073626313536348 0 -0.023308218644555873 0.021682562787276097 0 -0.023312640024039658 0.021306241689681513 0 -0.02407759009962256 0.021307735629467299 0 -0.025788794246326126 0.012751425364684953 0 -0.02539181088932442 0.012769201499935712 0 -0.025900068364878022 0.012499650357574185 0 -0.023029605255666774 0.021269926380206111 0 -0.023312640024039658 0.021306241689681513 0 -0.023191815335773195 0.021594698182524491 0 -0.022693891663583723 0.022677134870881303 0 -0.023227688706518184 0.017990241019349748 0 -0.023308218644555873 0.021682562787276097 0 -0.023312640024039658 0.021306241689681513 0 -0.023191815335773195 0.021594698182524491 0 -0.023942254787604762 0.015266540476804168 0 -0.023227688706518184 0.017990241019349748 0 -0.02334373895541611 0.016020639366655893 0 -0.022991429011666797 0.015824525574740605 0 -0.023065473530976419 0.016168904040077758 0 -0.023227688706518184 0.017990241019349748 0 -0.023860176111190519 0.013880134645131844 0 -0.022723562825470885 0.01287011776599164 0 -0.022745807965584616 0.012973494714821829 0 -0.022482509004142115 0.012956517752291641 0 -0.024458202067273824 0.011973847928396036 0 -0.024056252791602027 0.012681295354931201 0 -0.024662341629995036 0.012952510222618063 0 -0.024694646107327498 0.012493286038463705 0 -0.024971849684438576 0.012799252368379923 0 -0.024836478529549469 0.013178503426085489 0 -0.023860176111190519 0.013880134645131844 0 -0.024665324461210975 0.012867588671153937 0 -0.024971849684438576 0.012799252368379923 0 -0.02536155613021631 0.013086404651750351 0 -0.024836478529549469 0.013178503426085489 0 -0.024862545324087267 0.012396680836380486 0 -0.024694646107327498 0.012493286038463705 0 -0.024971849684438576 0.012799252368379923 0 -0.023942254787604762 0.015266540476804168 0 -0.023860176111190519 0.013880134645131844 0 -0.023942254787604762 0.015266540476804168 0 -0.025918994070047805 0.012443253608835627 0 -0.024971849684438576 0.012799252368379923 0 -0.02536155613021631 0.013086404651750351 0 -0.025819221692584313 0.012977502123661597 0 -0.025788794246326126 0.012751425364684953 0 -0.02539181088932442 0.012769201499935712 0 -0.025819221692584313 0.012977502123661597 0 -0.024862545324087267 0.012396680836380486 0 -0.024971849684438576 0.012799252368379923 0 -0.025819221692584313 0.012977502123661597 0 -0.021881601157230327 0.012829767079641233 0 -0.022228579269383038 0.012572536714548721 0 -0.021647173276554459 0.012267885786703143 0 -0.022214573914193337 0.012854474275038585 0 -0.021881601157230327 0.012829767079641233 0 -0.022228579269383038 0.012572536714548721 0 -0.022214573914193337 0.012854474275038585 0 -0.022228579269383038 0.012572536714548721 0 -0.022482509004142115 0.012956517752291641 0 -0.023227688706518184 0.017990241019349748 0 -0.021641941427970948 0.017484868540097443 0 -0.022723562825470885 0.01287011776599164 0 -0.022228579269383038 0.012572536714548721 0 -0.022482509004142115 0.012956517752291641 0 -0.022199714819819239 0.022512927986891106 0 -0.022258625158280251 0.022789285407767042 0 -0.021878612363943752 0.022671340225570581 0 -0.024458202067273824 0.011973847928396036 0 -0.024056252791602027 0.012681295354931201 0 -0.023313889034126189 0.012557910501596086 0 -0.022745807965584616 0.012973494714821829 0 -0.022482509004142115 0.012956517752291641 0 -0.022333095429078197 0.013144335799786182 0 -0.023860176111190519 0.013880134645131844 0 -0.022866201559090488 0.012774806949047916 0 -0.022214573914193337 0.012854474275038585 0 -0.022482509004142115 0.012956517752291641 0 -0.022333095429078197 0.013144335799786182 0 -0.024056252791602027 0.012681295354931201 0 -0.023313889034126189 0.012557910501596086 0 -0.023950301819459743 0.013239687739141463 0 -0.022333095429078197 0.013144335799786182 0 -0.022096329953568992 0.013055644445787693 0 -0.022074105336123102 0.013286644744051427 0 -0.022214573914193337 0.012854474275038585 0 -0.022333095429078197 0.013144335799786182 0 -0.022096329953568992 0.013055644445787693 0 -0.022214573914193337 0.012854474275038585 0 -0.021881601157230327 0.012829767079641233 0 -0.022096329953568992 0.013055644445787693 0 -0.021881601157230327 0.012829767079641233 0 -0.022096329953568992 0.013055644445787693 0 -0.02187837343888048 0.013100635939875748 0 -0.022096329953568992 0.013055644445787693 0 -0.02187837343888048 0.013100635939875748 0 -0.022074105336123102 0.013286644744051427 0 -0.02187837343888048 0.013100635939875748 0 -0.021451778682649129 0.013030270367901938 0 -0.021606468171010442 0.013289153005693383 0 -0.021881601157230327 0.012829767079641233 0 -0.02187837343888048 0.013100635939875748 0 -0.021451778682649129 0.013030270367901938 0 -0.021881601157230327 0.012829767079641233 0 -0.021402971782949674 0.012681331157153971 0 -0.021647173276554459 0.012267885786703143 0 -0.021881601157230327 0.012829767079641233 0 -0.021451778682649129 0.013030270367901938 0 -0.021402971782949674 0.012681331157153971 0 -0.021451778682649129 0.013030270367901938 0 -0.021402971782949674 0.012681331157153971 0 -0.020891804494560625 0.012852487579281426 0 -0.021402971782949674 0.012681331157153971 0 -0.020891804494560625 0.012852487579281426 0 -0.021204224078404443 0.012338408965118236 0 -0.021451778682649129 0.013030270367901938 0 -0.021606468171010442 0.013289153005693383 0 -0.020959884440659642 0.013366650213191765 0 -0.021451778682649129 0.013030270367901938 0 -0.020891804494560625 0.012852487579281426 0 -0.020959884440659642 0.013366650213191765 0 -0.0086305466672184552 0.013648636550596007 0 -0.0087386993272109588 0.013489662769133246 0 -0.0087851756582463941 0.013860406837003958 0 -0.014987743872081339 0.014548093148185906 0 -0.01778045165541612 0.0065910201040425944 0 -0.0086305466672184552 0.013648636550596007 0 -0.0087851756582463941 0.013860406837003958 0 -0.0085002986155704591 0.013768143572722448 0 -0.0086305466672184552 0.013648636550596007 0 -0.008142534651539279 0.013774822895179208 0 -0.0079155889480881508 0.014091453373284024 0 -0.0080623209180032736 0.014235898392433036 0 -0.0080527676413818042 0.010392546207372174 0 -0.0086305466672184552 0.013648636550596007 0 -0.0087386993272109588 0.013489662769133246 0 -0.0083247528739834702 0.013509542289050602 0 -0.0086305466672184552 0.013648636550596007 0 -0.008142534651539279 0.013774822895179208 0 -0.0083247528739834702 0.013509542289050602 0 -0.008142534651539279 0.013774822895179208 0 -0.007740633321037629 0.01387822979502587 0 -0.0079155889480881508 0.014091453373284024 0 -0.008142534651539279 0.013774822895179208 0 -0.007740633321037629 0.01387822979502587 0 -0.0083247528739834702 0.013509542289050602 0 -0.007740633321037629 0.01387822979502587 0 -0.0081899774149440576 0.013175000831290008 0 -0.0083247528739834702 0.013509542289050602 0 -0.0078196475358941805 0.013708347003637501 0 -0.0074608899188092831 0.013974700095186031 0 -0.007740633321037629 0.01387822979502587 0 -0.0075812872511252126 0.013994053408951776 0 -0.0073723632430236323 0.014027644526405625 0 -0.0075812872511252126 0.013994053408951776 0 -0.0073723632430236323 0.014027644526405625 0 -0.0074526629326168367 0.014190695651113005 0 -0.0076155565727069035 0.014033205283887839 0 -0.0075812872511252126 0.013994053408951776 0 -0.0074526629326168367 0.014190695651113005 0 -0.0081899774149440576 0.013175000831290008 0 -0.0087386993272109588 0.013489662769133246 0 -0.008665593463514934 0.012543047587002924 0 -0.014987743872081339 0.014548093148185906 0 -0.010936424317576183 0.012546268399958775 0 -0.0081899774149440576 0.013175000831290008 0 -0.0087386993272109588 0.013489662769133246 0 -0.0083247528739834702 0.013509542289050602 0 -0.0074608899188092831 0.013974700095186031 0 -0.010936424317576183 0.012546268399958775 0 -0.0071646206235938979 0.014308039599747139 0 -0.0073434256624234301 0.014409192932730205 0 -0.0072147516490724747 0.014577361788466907 0 -0.0073723632430236323 0.014027644526405625 0 -0.0071646206235938979 0.014308039599747139 0 -0.0074526629326168367 0.014190695651113005 0 -0.0071646206235938979 0.014308039599747139 0 -0.0074526629326168367 0.014190695651113005 0 -0.0073434256624234301 0.014409192932730205 0 -0.007568425590304264 0.014228963557763898 0 -0.0074526629326168367 0.014190695651113005 0 -0.0074730956328651144 0.014370818677861594 0 -0.0074526629326168367 0.014190695651113005 0 -0.0073434256624234301 0.014409192932730205 0 -0.0074730956328651144 0.014370818677861594 0 -0.0073342350480428767 0.014822096820382626 0 -0.0073957942109323304 0.014576888725218281 0 -0.0072147516490724747 0.014577361788466907 0 -0.0073434256624234301 0.014409192932730205 0 -0.0073957942109323304 0.014576888725218281 0 -0.0072147516490724747 0.014577361788466907 0 -0.0076062638310053473 0.014454330390128931 0 -0.0074730956328651144 0.014370818677861594 0 -0.0073957942109323304 0.014576888725218281 0 -0.0073434256624234301 0.014409192932730205 0 -0.0074730956328651144 0.014370818677861594 0 -0.0073957942109323304 0.014576888725218281 0 -0.0073342350480428767 0.014822096820382626 0 -0.0072147516490724747 0.014577361788466907 0 -0.0071097746123410903 0.01459806221766315 0 -0.0045611357277794036 0.022074268056912885 0 -0.012939938907386263 0.019050664068582933 0 -0.010936424317576183 0.012546268399958775 0 -0.0078931570270084454 0.014796372629802998 0 -0.010936424317576183 0.012546268399958775 0 -0.012939938907386263 0.019050664068582933 0 -0.0072326807058920167 0.014440581576786847 0 -0.0072147516490724747 0.014577361788466907 0 -0.0071097746123410903 0.01459806221766315 0 -0.012939938907386263 0.019050664068582933 0 -0.022861305882889857 0.017522399286919059 0 -0.021447768754608489 0.022146821662444267 0 -0.020566260606754091 0.022186507574283386 0 -0.021276422003948928 0.022496470829385218 0 -0.020879246834509299 0.02181071205493568 0 -0.021447768754608489 0.022146821662444267 0 -0.020566260606754091 0.022186507574283386 0 -0.021402971782949674 0.012681331157153971 0 -0.021647173276554459 0.012267885786703143 0 -0.021204224078404443 0.012338408965118236 0 -0.020891804494560625 0.012852487579281426 0 -0.020774618398225933 0.012340747655474297 0 -0.021204224078404443 0.012338408965118236 0 -0.020774618398225933 0.012340747655474297 0 -0.021012013957468972 0.011997686226362244 0 -0.021204224078404443 0.012338408965118236 0 -0.021012013957468972 0.011997686226362244 0 -0.021647173276554459 0.012267885786703143 0 -0.021204224078404443 0.012338408965118236 0 -0.023271875283188036 0.020083770534327479 0 -0.023864731435104765 0.020014631665206326 0 -0.023732961483585426 0.019518105412137544 0 -0.023271875283188036 0.020083770534327479 0 -0.023864731435104765 0.020014631665206326 0 -0.023876032962159587 0.020431961856955068 0 -0.023864731435104765 0.020014631665206326 0 -0.023876032962159587 0.020431961856955068 0 -0.024195276258762284 0.020351903079229374 0 -0.023876032962159587 0.020431961856955068 0 -0.024222384913994227 0.020720177148015193 0 -0.023622109439990446 0.020916913790989207 0 -0.023271875283188036 0.020083770534327479 0 -0.022633323967760802 0.020670154495324593 0 -0.023622109439990446 0.020916913790989207 0 -0.023271875283188036 0.020083770534327479 0 -0.023876032962159587 0.020431961856955068 0 -0.023622109439990446 0.020916913790989207 0 -0.027005368464470859 0.013999251972619087 0 -0.024510495591967357 0.017594019738394626 0 -0.023356046315934378 0.014914086676853924 0 -0.025065075190896402 0.017571505737695958 0 -0.023549430143632821 0.019059354488963971 0 -0.024510495591967357 0.017594019738394626 0 -0.021057652047255886 0.017251211070930365 0 -0.023356046315934378 0.014914086676853924 0 -0.021057652047255886 0.017251211070930365 0 -0.023356046315934378 0.014914086676853924 0 -0.020669965340535015 0.013706932336020494 0 -0.023356046315934378 0.014914086676853924 0 -0.023722778754151411 0.012048260112908861 0 -0.020669965340535015 0.013706932336020494 0 -0.027005368464470859 0.013999251972619087 0 -0.023356046315934378 0.014914086676853924 0 -0.023722778754151411 0.012048260112908861 0 -0.027005368464470859 0.013999251972619087 0 -0.023722778754151411 0.012048260112908861 0 -0.026295824547316882 0.011126653762280688 0 -0.023722778754151411 0.012048260112908861 0 -0.024787719584100733 0.0081314961190170273 0 -0.026295824547316882 0.011126653762280688 0 -0.023722778754151411 0.012048260112908861 0 -0.021186322187978383 0.01008555191315535 0 -0.020669965340535015 0.013706932336020494 0 -0.023722778754151411 0.012048260112908861 0 -0.021186322187978383 0.01008555191315535 0 -0.024787719584100733 0.0081314961190170273 0 -0.021186322187978383 0.01008555191315535 0 -0.024787719584100733 0.0081314961190170273 0 -0.022264736458668846 0.0064268020069060596 0 -0.024787719584100733 0.0081314961190170273 0 -0.025897892214686729 0.0067635479538262844 0 -0.02454367739818588 0.0053389676813830013 0 -0.025897892214686729 0.0067635479538262844 0 -0.027038771379640877 0.0081227198199443195 0 -0.026934996874274662 0.0068626936539330106 0 -0.024787719584100733 0.0081314961190170273 0 -0.025897892214686729 0.0067635479538262844 0 -0.027038771379640877 0.0081227198199443195 0 -0.025675472182556509 0.0075598625909292201 0 -0.026148246400962628 0.011703758935646352 0 -0.025065075190896402 0.017571505737695958 0 -0.026148246400962628 0.011703758935646352 0 -0.024787719584100733 0.0081314961190170273 0 -0.026295824547316882 0.011126653762280688 0 -0.029770888318258859 0.010188151425608073 0 -0.027005368464470859 0.013999251972619087 0 -0.026295824547316882 0.011126653762280688 0 -0.029770888318258859 0.010188151425608073 0 -0.023864731435104765 0.020014631665206326 0 -0.023732961483585426 0.019518105412137544 0 -0.024195432651635949 0.019783922111690805 0 -0.026148246400962628 0.011703758935646352 0 -0.026345252386261224 0.014233597735601289 0 -0.027004817362154456 0.0080255845663318708 0 -0.027866142077288526 0.0078097989651419912 0 -0.028415881243333864 0.008596601912211425 0 -0.026148246400962628 0.011703758935646352 0 -0.027462883342251776 0.0091104229362363488 0 -0.027004817362154456 0.0080255845663318708 0 -0.027866142077288526 0.0078097989651419912 0 -0.027315207401343064 0.0076216148181593333 0 -0.027866142077288526 0.0078097989651419912 0 -0.027315207401343064 0.0076216148181593333 0 -0.027640281418716155 0.0069477564634283949 0 -0.027315207401343064 0.0076216148181593333 0 -0.026934996874274662 0.0068626936539330106 0 -0.027640281418716155 0.0069477564634283949 0 -0.027038771379640877 0.0081227198199443195 0 -0.027315207401343064 0.0076216148181593333 0 -0.026934996874274662 0.0068626936539330106 0 -0.026934996874274662 0.0068626936539330106 0 -0.027640281418716155 0.0069477564634283949 0 -0.027297470987633098 0.0059550601226041966 0 -0.027640281418716155 0.0069477564634283949 0 -0.02796528405838274 0.0060440241314458571 0 -0.027297470987633098 0.0059550601226041966 0 -0.028447065917604927 0.0072529819458377132 0 -0.029155133821971047 0.0062169519512761231 0 -0.02796528405838274 0.0060440241314458571 0 -0.027640281418716155 0.0069477564634283949 0 -0.028447065917604927 0.0072529819458377132 0 -0.02796528405838274 0.0060440241314458571 0 -0.027866142077288526 0.0078097989651419912 0 -0.027640281418716155 0.0069477564634283949 0 -0.028447065917604927 0.0072529819458377132 0 -0.028447065917604927 0.0072529819458377132 0 -0.029155133821971047 0.0062169519512761231 0 -0.029652895047576972 0.0075305200154168802 0 -0.029155133821971047 0.0062169519512761231 0 -0.030373988903324812 0.0060902793271200555 0 -0.029652895047576972 0.0075305200154168802 0 -0.030373988903324812 0.0060902793271200555 0 -0.029652895047576972 0.0075305200154168802 0 -0.031495543774617517 0.0074166033519882536 0 -0.029652895047576972 0.0075305200154168802 0 -0.031495543774617517 0.0074166033519882536 0 -0.029968718741574682 0.0092595395800074767 0 -0.029453274450040388 0.0092386519218157562 0 -0.026985562745940519 0.014905563322607387 0 -0.029652895047576972 0.0075305200154168802 0 -0.028415881243333864 0.008596601912211425 0 -0.029968718741574682 0.0092595395800074767 0 -0.026345252386261224 0.014233597735601289 0 -0.026985562745940519 0.014905563322607387 0 -0.027866142077288526 0.0078097989651419912 0 -0.028447065917604927 0.0072529819458377132 0 -0.028415881243333864 0.008596601912211425 0 -0.028447065917604927 0.0072529819458377132 0 -0.029652895047576972 0.0075305200154168802 0 -0.028415881243333864 0.008596601912211425 0 -0.025819221692584313 0.012977502123661597 0 -0.026066453776700752 0.012760401047024651 0 -0.026156459367366325 0.013228681645263928 0 -0.026066453776700752 0.012760401047024651 0 -0.026446994100908755 0.012765940427179401 0 -0.026156459367366325 0.013228681645263928 0 -0.025788794246326126 0.012751425364684953 0 -0.025819221692584313 0.012977502123661597 0 -0.026066453776700752 0.012760401047024651 0 -0.030373988903324812 0.0060902793271200555 0 -0.031495543774617517 0.0074166033519882536 0 -0.031608656148978349 0.0056937829112284084 0 -0.031495543774617517 0.0074166033519882536 0 -0.033120156774905318 0.0054440572725000594 0 -0.031608656148978349 0.0056937829112284084 0 -0.029453274450040388 0.0092386519218157562 0 -0.029417110104647971 0.010081303913193113 0 -0.026066453776700752 0.012760401047024651 0 -0.026446994100908755 0.012765940427179401 0 -0.026339256459391388 0.012500248135783498 0 -0.026446994100908755 0.012765940427179401 0 -0.026339256459391388 0.012500248135783498 0 -0.026747361349407993 0.012424245574220227 0 -0.026066453776700752 0.012760401047024651 0 -0.026339256459391388 0.012500248135783498 0 -0.025900068364878022 0.012499650357574185 0 -0.025788794246326126 0.012751425364684953 0 -0.026066453776700752 0.012760401047024651 0 -0.025900068364878022 0.012499650357574185 0 -0.026339256459391388 0.012500248135783498 0 -0.025900068364878022 0.012499650357574185 0 -0.026421721573027673 0.012290760965333889 0 -0.02407759009962256 0.021307735629467299 0 -0.024257026826423399 0.02091514518683869 0 -0.024545900632765138 0.020753307954018779 0 -0.023810091231476399 0.020988902131973582 0 -0.02407759009962256 0.021307735629467299 0 -0.024257026826423399 0.02091514518683869 0 -0.024994804925472423 0.017073626313536348 0 -0.025577110186655493 0.017186754791870207 0 -0.024257026826423399 0.02091514518683869 0 -0.024409303231843548 0.020787158249881827 0 -0.024338725545855099 0.020708221390405186 0 -0.024542837005630012 0.020695562342173224 0 -0.024545900632765138 0.020753307954018779 0 -0.024528170551153791 0.020455321886112241 0 -0.026339256459391388 0.012500248135783498 0 -0.026421721573027673 0.012290760965333889 0 -0.026747361349407993 0.012424245574220227 0 -0.024257026826423399 0.02091514518683869 0 -0.024409303231843548 0.020787158249881827 0 -0.024545900632765138 0.020753307954018779 0 -0.024409303231843548 0.020787158249881827 0 -0.024488081651290971 0.02074091569538249 0 -0.024465075013557474 0.020715550424778763 0 -0.024488081651290971 0.02074091569538249 0 -0.024519795076914083 0.020706794042327083 0 -0.024465075013557474 0.020715550424778763 0 -0.024409303231843548 0.020787158249881827 0 -0.024488081651290971 0.02074091569538249 0 -0.024545900632765138 0.020753307954018779 0 -0.024488081651290971 0.02074091569538249 0 -0.024545900632765138 0.020753307954018779 0 -0.024524747591006788 0.020728369346784414 0 -0.024542837005630012 0.020695562342173224 0 -0.024545900632765138 0.020753307954018779 0 -0.024524747591006788 0.020728369346784414 0 -0.024542837005630012 0.020695562342173224 0 -0.024524747591006788 0.020728369346784414 0 -0.024519795076914083 0.020706794042327083 0 -0.024488081651290971 0.02074091569538249 0 -0.024524747591006788 0.020728369346784414 0 -0.024519795076914083 0.020706794042327083 0 -0.024542837005630012 0.020695562342173224 0 -0.024519795076914083 0.020706794042327083 0 -0.024539769576052743 0.020661310394750474 0 -0.024524640233972772 0.020680734285048775 0 -0.024507876640647588 0.020689632292875248 0 -0.024465075013557474 0.020715550424778763 0 -0.024519795076914083 0.020706794042327083 0 -0.024539769576052743 0.020661310394750474 0 -0.024524640233972772 0.020680734285048775 0 -0.024519795076914083 0.020706794042327083 0 -0.024524640233972772 0.020680734285048775 0 -0.024465075013557474 0.020715550424778763 0 -0.024524640233972772 0.020680734285048775 0 -0.024507876640647588 0.020689632292875248 0 -0.02451617949503369 0.020718584251558619 0 -0.024507876640647588 0.020689632292875248 0 -0.024465075013557474 0.020715550424778763 0 -0.024338725545855099 0.020708221390405186 0 -0.024409303231843548 0.020787158249881827 0 -0.024465075013557474 0.020715550424778763 0 -0.024338725545855099 0.020708221390405186 0 -0.023997144288916399 0.020731134777032544 0 -0.024338725545855099 0.020708221390405186 0 -0.024230756840064687 0.020465637461744204 0 -0.023997144288916399 0.020731134777032544 0 -0.024257026826423399 0.02091514518683869 0 -0.024338725545855099 0.020708221390405186 0 -0.024195432651635949 0.019783922111690805 0 -0.024195276258762284 0.020351903079229374 0 -0.024473949486487682 0.02037556801038003 0 -0.023864731435104765 0.020014631665206326 0 -0.024195432651635949 0.019783922111690805 0 -0.024195276258762284 0.020351903079229374 0 -0.024195432651635949 0.019783922111690805 0 -0.024734879090308817 0.020065579501160467 0 -0.024473949486487682 0.02037556801038003 0 -0.024195276258762284 0.020351903079229374 0 -0.024473949486487682 0.02037556801038003 0 -0.024452651768151739 0.020567512474099547 0 -0.024528170551153791 0.020455321886112241 0 -0.024529463532937314 0.020534578665101395 0 -0.024473949486487682 0.02037556801038003 0 -0.025577110186655493 0.017186754791870207 0 -0.026985562745940519 0.014905563322607387 0 -0.026985562745940519 0.014905563322607387 0 -0.023715470620121602 0.020253950259848618 0 -0.024542837005630012 0.020695562342173224 0 -0.024528170551153791 0.020455321886112241 0 -0.024529463532937314 0.020534578665101395 0 -0.024539769576052743 0.020661310394750474 0 -0.024529463532937314 0.020534578665101395 0 -0.024523520465232963 0.020634557696563048 0 -0.024542837005630012 0.020695562342173224 0 -0.024539769576052743 0.020661310394750474 0 -0.024529463532937314 0.020534578665101395 0 -0.024529463532937314 0.020534578665101395 0 -0.024473949486487682 0.02037556801038003 0 -0.024452651768151739 0.020567512474099547 0 -0.024529463532937314 0.020534578665101395 0 -0.024452651768151739 0.020567512474099547 0 -0.024523520465232963 0.020634557696563048 0 -0.024452651768151739 0.020567512474099547 0 -0.024523520465232963 0.020634557696563048 0 -0.02451617949503369 0.020718584251558619 0 -0.024539769576052743 0.020661310394750474 0 -0.024524640233972772 0.020680734285048775 0 -0.024523520465232963 0.020634557696563048 0 -0.024524640233972772 0.020680734285048775 0 -0.024523520465232963 0.020634557696563048 0 -0.02451617949503369 0.020718584251558619 0 -0.024195276258762284 0.020351903079229374 0 -0.024452651768151739 0.020567512474099547 0 -0.024222384913994227 0.020720177148015193 0 -0.024452651768151739 0.020567512474099547 0 -0.02451617949503369 0.020718584251558619 0 -0.024222384913994227 0.020720177148015193 0 -0.023876032962159587 0.020431961856955068 0 -0.024195276258762284 0.020351903079229374 0 -0.024222384913994227 0.020720177148015193 0 -0.02451617949503369 0.020718584251558619 0 -0.024222384913994227 0.020720177148015193 0 -0.024334012093831164 0.02128413477706171 0 -0.02451617949503369 0.020718584251558619 0 -0.024334012093831164 0.02128413477706171 0 -0.024555280913863456 0.020788021748448827 0 -0.025457965737046891 0.023391830428119906 0 -0.02687668811454242 0.023282844559680688 0 -0.026237849128105915 0.024228975415648037 0 -0.024881980191276919 0.022333090952475973 0 -0.025613605047534346 0.02205558192645099 0 -0.024507876640647588 0.020689632292875248 0 -0.024338725545855099 0.020708221390405186 0 -0.024230756840064687 0.020465637461744204 0 -0.024507876640647588 0.020689632292875248 0 -0.024230756840064687 0.020465637461744204 0 -0.024555280913863456 0.020788021748448827 0 -0.026510421994710216 0.021714006058903331 0 -0.025613605047534346 0.02205558192645099 0 -0.024507876640647588 0.020689632292875248 0 -0.02451617949503369 0.020718584251558619 0 -0.024555280913863456 0.020788021748448827 0 -0.028215917705366148 0.023086308497268653 0 -0.02687668811454242 0.023282844559680688 0 -0.0274742949198486 0.024147648580363622 0 -0.02687668811454242 0.023282844559680688 0 -0.0274742949198486 0.024147648580363622 0 -0.026237849128105915 0.024228975415648037 0 -0.028501459294054655 0.024196186772970307 0 -0.028215917705366148 0.023086308497268653 0 -0.0274742949198486 0.024147648580363622 0 -0.028799249760991744 0.024907735471886301 0 -0.028501459294054655 0.024196186772970307 0 -0.027934083571634377 0.025098781210929171 0 -0.028501459294054655 0.024196186772970307 0 -0.0274742949198486 0.024147648580363622 0 -0.027934083571634377 0.025098781210929171 0 -0.0274742949198486 0.024147648580363622 0 -0.027007999658083284 0.025056201989832636 0 -0.026237849128105915 0.024228975415648037 0 -0.0274742949198486 0.024147648580363622 0 -0.027934083571634377 0.025098781210929171 0 -0.027007999658083284 0.025056201989832636 0 -0.027934083571634377 0.025098781210929171 0 -0.027007999658083284 0.025056201989832636 0 -0.027395733548444597 0.025902013231851831 0 -0.027007999658083284 0.025056201989832636 0 -0.027395733548444597 0.025902013231851831 0 -0.026061147880192388 0.026004654700342262 0 -0.028799249760991744 0.024907735471886301 0 -0.027934083571634377 0.025098781210929171 0 -0.028395129315422343 0.02602563040758088 0 -0.027934083571634377 0.025098781210929171 0 -0.027395733548444597 0.025902013231851831 0 -0.028395129315422343 0.02602563040758088 0 -0.025317010721537036 0.024807414372553946 0 -0.026237849128105915 0.024228975415648037 0 -0.026061147880192388 0.026004654700342262 0 -0.025457965737046891 0.023391830428119906 0 -0.025317010721537036 0.024807414372553946 0 -0.024328273440942492 0.02454225775394429 0 -0.025457965737046891 0.023391830428119906 0 -0.025317010721537036 0.024807414372553946 0 -0.026237849128105915 0.024228975415648037 0 -0.027007999658083284 0.025056201989832636 0 -0.026237849128105915 0.024228975415648037 0 -0.026061147880192388 0.026004654700342262 0 -0.025317010721537036 0.024807414372553946 0 -0.026061147880192388 0.026004654700342262 0 -0.024468916575591589 0.026024781611194488 0 -0.024468916575591589 0.026024781611194488 0 -0.023265447136677206 0.024925040263794544 0 -0.024328273440942492 0.02454225775394429 0 -0.025317010721537036 0.024807414372553946 0 -0.024468916575591589 0.026024781611194488 0 -0.024328273440942492 0.02454225775394429 0 -0.024468916575591589 0.026024781611194488 0 -0.023265447136677206 0.024925040263794544 0 -0.023256418346177476 0.027061833485148939 0 -0.023265447136677206 0.024925040263794544 0 -0.023930390690516383 0.023385515998316373 0 -0.022320012687622386 0.022926286444924098 0 -0.023265447136677206 0.024925040263794544 0 -0.024328273440942492 0.02454225775394429 0 -0.023930390690516383 0.023385515998316373 0 -0.024334012093831164 0.02128413477706171 0 -0.023665075225186693 0.021835223218072155 0 -0.023622109439990446 0.020916913790989207 0 -0.024881980191276919 0.022333090952475973 0 -0.023710482163571658 0.022626110681840714 0 -0.025457965737046891 0.023391830428119906 0 -0.024328273440942492 0.02454225775394429 0 -0.023930390690516383 0.023385515998316373 0 -0.023710482163571658 0.022626110681840714 0 -0.022329136980977035 0.022921804832238431 0 -0.023665075225186693 0.021835223218072155 0 -0.023622109439990446 0.020916913790989207 0 -0.022863047567631932 0.021447099325537695 0 -0.022633323967760802 0.020670154495324593 0 -0.023622109439990446 0.020916913790989207 0 -0.022863047567631932 0.021447099325537695 0 -0.024222384913994227 0.020720177148015193 0 -0.024334012093831164 0.02128413477706171 0 -0.023622109439990446 0.020916913790989207 0 -0.021057652047255886 0.017251211070930365 0 -0.021602987912299774 0.021321080753422567 0 -0.0194069505888253 0.019402417967923108 0 -0.024510495591967357 0.017594019738394626 0 -0.021057652047255886 0.017251211070930365 0 -0.021602987912299774 0.021321080753422567 0 -0.023549430143632821 0.019059354488963971 0 -0.021742698117056584 0.021261098707870435 0 -0.022633323967760802 0.020670154495324593 0 -0.022863047567631932 0.021447099325537695 0 -0.021602987912299774 0.021321080753422567 0 -0.023665075225186693 0.021835223218072155 0 -0.022863047567631932 0.021447099325537695 0 -0.022320012687622386 0.022926286444924098 0 -0.022863047567631932 0.021447099325537695 0 -0.022320012687622386 0.022926286444924098 0 -0.021602987912299774 0.021321080753422567 0 -0.022320012687622386 0.022926286444924098 0 -0.021602987912299774 0.021321080753422567 0 -0.020442391883925045 0.022983274857038487 0 -0.020442391883925045 0.022983274857038487 0 -0.021527932203546072 0.024806711314530928 0 -0.019813606953515434 0.024761899501734783 0 -0.022320012687622386 0.022926286444924098 0 -0.020442391883925045 0.022983274857038487 0 -0.021527932203546072 0.024806711314530928 0 -0.023265447136677206 0.024925040263794544 0 -0.022320012687622386 0.022926286444924098 0 -0.021527932203546072 0.024806711314530928 0 -0.023265447136677206 0.024925040263794544 0 -0.021527932203546072 0.024806711314530928 0 -0.021865229432256068 0.026569778887677267 0 -0.021527932203546072 0.024806711314530928 0 -0.021865229432256068 0.026569778887677267 0 -0.019759756557101965 0.026565033190567574 0 -0.021527932203546072 0.024806711314530928 0 -0.019759756557101965 0.026565033190567574 0 -0.019813606953515434 0.024761899501734783 0 -0.020695946105037222 0.027895572331880291 0 -0.021865229432256068 0.026569778887677267 0 -0.019759756557101965 0.026565033190567574 0 -0.020695946105037222 0.027895572331880291 0 -0.020764063942925595 0.029305125983805882 0 -0.018993160496127287 0.02844433774861153 0 -0.020695946105037222 0.027895572331880291 0 -0.022021080475412475 0.028091283162783608 0 -0.020764063942925595 0.029305125983805882 0 -0.022021080475412475 0.028091283162783608 0 -0.020764063942925595 0.029305125983805882 0 -0.022107560972961283 0.029152770017464306 0 -0.022021080475412475 0.028091283162783608 0 -0.023246948598482947 0.028775285853331868 0 -0.022107560972961283 0.029152770017464306 0 -0.022021080475412475 0.028091283162783608 0 -0.021865229432256068 0.026569778887677267 0 -0.023256418346177476 0.027061833485148939 0 -0.023265447136677206 0.024925040263794544 0 -0.021865229432256068 0.026569778887677267 0 -0.023256418346177476 0.027061833485148939 0 -0.020695946105037222 0.027895572331880291 0 -0.022021080475412475 0.028091283162783608 0 -0.021865229432256068 0.026569778887677267 0 -0.024468916575591589 0.026024781611194488 0 -0.024301233375634713 0.027802663954840625 0 -0.025145893695027833 0.02694393448512707 0 -0.024468916575591589 0.026024781611194488 0 -0.023256418346177476 0.027061833485148939 0 -0.024301233375634713 0.027802663954840625 0 -0.024301233375634713 0.027802663954840625 0 -0.023727663492030666 0.029203477198735873 0 -0.02571254851149778 0.028135660269600297 0 -0.023256418346177476 0.027061833485148939 0 -0.024301233375634713 0.027802663954840625 0 -0.023246948598482947 0.028775285853331868 0 -0.022021080475412475 0.028091283162783608 0 -0.023256418346177476 0.027061833485148939 0 -0.023246948598482947 0.028775285853331868 0 -0.023248924251607978 0.02898306821755774 0 -0.024136986591150291 0.029443079768350762 0 -0.023246948598482947 0.028775285853331868 0 -0.024078981420709866 0.030710179956009578 0 -0.022244521752053135 0.03031955582070411 0 -0.024301233375634713 0.027802663954840625 0 -0.023246948598482947 0.028775285853331868 0 -0.023727663492030666 0.029203477198735873 0 -0.023246948598482947 0.028775285853331868 0 -0.023727663492030666 0.029203477198735873 0 -0.023765848047965207 0.029167154236695622 0 -0.023727663492030666 0.029203477198735873 0 -0.023765848047965207 0.029167154236695622 0 -0.022989703585015141 0.029222316245847049 0 -0.023765848047965207 0.029167154236695622 0 -0.022989703585015141 0.029222316245847049 0 -0.02296245591266027 0.028747162072115032 0 -0.019076012121428947 0.034169132974574461 0 -0.018824145569010672 0.035248408596939763 0 -0.019947953531823982 0.035062142193136046 0 -0.020587936516168189 0.032141407040483683 0 -0.022100581446881786 0.033564966977726603 0 -0.024078981420709866 0.030710179956009578 0 -0.022244521752053135 0.03031955582070411 0 -0.023612351024117399 0.031387350208921534 0 -0.019076012121428947 0.034169132974574461 0 -0.018239015285048048 0.035155154564295368 0 -0.018824145569010672 0.035248408596939763 0 -0.018239015285048048 0.035155154564295368 0 -0.01789025484316319 0.03512718918942534 0 -0.018286135880732225 0.034151126551767524 0 -0.019076012121428947 0.034169132974574461 0 -0.018239015285048048 0.035155154564295368 0 -0.018286135880732225 0.034151126551767524 0 -0.019076012121428947 0.034169132974574461 0 -0.018911110713958994 0.032976468040704449 0 -0.018286135880732225 0.034151126551767524 0 -0.023246948598482947 0.028775285853331868 0 -0.022244521752053135 0.03031955582070411 0 -0.022107560972961283 0.029152770017464306 0 -0.022244521752053135 0.03031955582070411 0 -0.020764063942925595 0.029305125983805882 0 -0.022107560972961283 0.029152770017464306 0 -0.020587936516168189 0.032141407040483683 0 -0.019801947545191177 0.031099693962278543 0 -0.021090313648157517 0.029820576695038948 0 -0.02143888200426905 0.029975243351020989 0 -0.021199100833288489 0.0300479625772875 0 -0.02143888200426905 0.029975243351020989 0 -0.021199100833288489 0.0300479625772875 0 -0.021292001805846842 0.030215662870993351 0 -0.02143888200426905 0.029975243351020989 0 -0.021292001805846842 0.030215662870993351 0 -0.021730176679903485 0.030186246486205204 0 -0.025139190752137011 0.028322347628892682 0 -0.024380456575593925 0.028599965449367857 0 -0.021292001805846842 0.030215662870993351 0 -0.021155542713083619 0.030375064762096195 0 -0.021730176679903485 0.030186246486205204 0 -0.020715585114952795 0.030165048506014123 0 -0.021292001805846842 0.030215662870993351 0 -0.021155542713083619 0.030375064762096195 0 -0.027395733548444597 0.025902013231851831 0 -0.026061147880192388 0.026004654700342262 0 -0.027168333520634833 0.026995776269812539 0 -0.027395733548444597 0.025902013231851831 0 -0.028395129315422343 0.02602563040758088 0 -0.027168333520634833 0.026995776269812539 0 -0.02143888200426905 0.029975243351020989 0 -0.021730176679903485 0.030186246486205204 0 -0.02186685699991937 0.029890517612876158 0 -0.021730176679903485 0.030186246486205204 0 -0.02186685699991937 0.029890517612876158 0 -0.022421689964068431 0.030062819431660039 0 -0.024380456575593925 0.028599965449367857 0 -0.024068457764498688 0.029068037228414091 0 -0.026061147880192388 0.026004654700342262 0 -0.027168333520634833 0.026995776269812539 0 -0.02571254851149778 0.028135660269600297 0 -0.026061147880192388 0.026004654700342262 0 -0.024468916575591589 0.026024781611194488 0 -0.025145893695027833 0.02694393448512707 0 -0.026061147880192388 0.026004654700342262 0 -0.025145893695027833 0.02694393448512707 0 -0.02571254851149778 0.028135660269600297 0 -0.024301233375634713 0.027802663954840625 0 -0.025145893695027833 0.02694393448512707 0 -0.02571254851149778 0.028135660269600297 0 -0.023727663492030666 0.029203477198735873 0 -0.022421689964068431 0.030062819431660039 0 -0.022989703585015141 0.029222316245847049 0 -0.023744998693747695 0.029216497985889378 0 -0.024068457764498688 0.029068037228414091 0 -0.022421689964068431 0.030062819431660039 0 -0.022989703585015141 0.029222316245847049 0 -0.022018567515380394 0.029397117071168707 0 -0.022582957866908719 0.028948040076413474 0 -0.022018567515380394 0.029397117071168707 0 -0.022284027117514184 0.028354984563212868 0 -0.022989703585015141 0.029222316245847049 0 -0.022582957866908719 0.028948040076413474 0 -0.022018567515380394 0.029397117071168707 0 -0.022989703585015141 0.029222316245847049 0 -0.02296245591266027 0.028747162072115032 0 -0.022582957866908719 0.028948040076413474 0 -0.02296245591266027 0.028747162072115032 0 -0.022582957866908719 0.028948040076413474 0 -0.022284027117514184 0.028354984563212868 0 -0.022018567515380394 0.029397117071168707 0 -0.020484150751928665 0.028463063813825285 0 -0.022284027117514184 0.028354984563212868 0 -0.02186685699991937 0.029890517612876158 0 -0.022421689964068431 0.030062819431660039 0 -0.022018567515380394 0.029397117071168707 0 -0.02186685699991937 0.029890517612876158 0 -0.022018567515380394 0.029397117071168707 0 -0.021578661391639171 0.029644351526596467 0 -0.02143888200426905 0.029975243351020989 0 -0.02186685699991937 0.029890517612876158 0 -0.021578661391639171 0.029644351526596467 0 -0.021930180043231599 0.029470041483211456 0 -0.020829977084656698 0.030051907062124905 0 -0.02001792949313308 0.030539322598664802 0 -0.018801379380520407 0.029650075820596096 0 -0.020484150751928665 0.028463063813825285 0 -0.022018567515380394 0.029397117071168707 0 -0.02001792949313308 0.030539322598664802 0 -0.020484150751928665 0.028463063813825285 0 -0.017768529324822986 0.02893871034847742 0 -0.018801379380520407 0.029650075820596096 0 -0.018961488024710652 0.028284098522606656 0 -0.019521597272686181 0.030767698572657921 0 -0.020829977084656698 0.030051907062124905 0 -0.021090313648157517 0.029820576695038948 0 -0.02143888200426905 0.029975243351020989 0 -0.021578661391639171 0.029644351526596467 0 -0.018142668369704875 0.031451705595382913 0 -0.02001792949313308 0.030539322598664802 0 -0.018801379380520407 0.029650075820596096 0 -0.018291432654302525 0.026055094062033053 0 -0.018105997203377657 0.027520126119120279 0 -0.019429703593341299 0.026933769891867992 0 -0.018105997203377657 0.027520126119120279 0 -0.019429703593341299 0.026933769891867992 0 -0.018961488024710652 0.028284098522606656 0 -0.019429703593341299 0.026933769891867992 0 -0.018961488024710652 0.028284098522606656 0 -0.020484150751928665 0.028463063813825285 0 -0.018801379380520407 0.029650075820596096 0 -0.018961488024710652 0.028284098522606656 0 -0.020484150751928665 0.028463063813825285 0 -0.019354641976518355 0.026940932492088499 0 -0.021281905729944178 0.026761178435596906 0 -0.019429703593341299 0.026933769891867992 0 -0.02029788101694896 0.026953356251156482 0 -0.019603263031290979 0.02624738072275927 0 -0.019429703593341299 0.026933769891867992 0 -0.020484150751928665 0.028463063813825285 0 -0.021235252031171926 0.026918601119261098 0 -0.021235252031171926 0.026918601119261098 0 -0.022192010696113196 0.027370533929285266 0 -0.022749740359777171 0.027055329040948647 0 -0.021281905729944178 0.026761178435596906 0 -0.019176276552566297 0.031022629301990606 0 -0.02029788101694896 0.026953356251156482 0 -0.021177072347129396 0.02702833166052019 0 -0.02033963437309317 0.026254020624859268 0 -0.021730112569735938 0.027678602234779377 0 -0.022463581186629028 0.027745665823535305 0 -0.022192010696113196 0.027370533929285266 0 -0.021235252031171926 0.026918601119261098 0 -0.021730112569735938 0.027678602234779377 0 -0.022192010696113196 0.027370533929285266 0 -0.020484150751928665 0.028463063813825285 0 -0.021235252031171926 0.026918601119261098 0 -0.021730112569735938 0.027678602234779377 0 -0.020484150751928665 0.028463063813825285 0 -0.021730112569735938 0.027678602234779377 0 -0.022284027117514184 0.028354984563212868 0 -0.021730112569735938 0.027678602234779377 0 -0.022463581186629028 0.027745665823535305 0 -0.022284027117514184 0.028354984563212868 0 -0.022463581186629028 0.027745665823535305 0 -0.022284027117514184 0.028354984563212868 0 -0.022937280127135886 0.028165001302150047 0 -0.02296245591266027 0.028747162072115032 0 -0.022284027117514184 0.028354984563212868 0 -0.022937280127135886 0.028165001302150047 0 -0.022463581186629028 0.027745665823535305 0 -0.022937280127135886 0.028165001302150047 0 -0.022774922637367159 0.027526865346037575 0 -0.022937280127135886 0.028165001302150047 0 -0.023188789002305477 0.027477576022568315 0 -0.022774922637367159 0.027526865346037575 0 -0.020924198759000413 0.032659233082260521 0 -0.020181555474315029 0.031152850794441724 0 -0.019033644839098526 0.031117554736927615 0 -0.021696200631528221 0.032396642364710702 0 -0.017371096495648282 0.034394078785497439 0 -0.023188789002305477 0.027477576022568315 0 -0.022774922637367159 0.027526865346037575 0 -0.022749740359777171 0.027055329040948647 0 -0.021696200631528221 0.032396642364710702 0 -0.019176276552566297 0.031022629301990606 0 -0.022774922637367159 0.027526865346037575 0 -0.022192010696113196 0.027370533929285266 0 -0.022749740359777171 0.027055329040948647 0 -0.022463581186629028 0.027745665823535305 0 -0.022774922637367159 0.027526865346037575 0 -0.022192010696113196 0.027370533929285266 0 -0.012972814211311069 0.037422388416821932 0 -0.012705078194308063 0.037419354318039784 0 -0.012432506039460745 0.036482673343268081 0 -0.017371096495648282 0.034394078785497439 0 -0.019176276552566297 0.031022629301990606 0 -0.012705078194308063 0.037419354318039784 0 -0.012432506039460745 0.036482673343268081 0 -0.011346083391584511 0.036443437504147976 0 -0.013137621988372549 0.037430524745178877 0 -0.012561664300799354 0.036415845369324712 0 -0.013615249692776481 0.036573061513706068 0 -0.017371096495648282 0.034394078785497439 0 -0.012602119629547378 0.036526349923144623 0 -0.012602119629547378 0.036526349923144623 0 -0.011988681211934776 0.035586995509132295 0 -0.012561664300799354 0.036415845369324712 0 -0.013150859145330571 0.03575673950516773 0 -0.013615249692776481 0.036573061513706068 0 -0.013150859145330571 0.03575673950516773 0 -0.012433648266795844 0.034999896013639425 0 -0.011915666876436691 0.035537755703010668 0 -0.012561664300799354 0.036415845369324712 0 -0.013150859145330571 0.03575673950516773 0 -0.011915666876436691 0.035537755703010668 0 -0.011915666876436691 0.035537755703010668 0 -0.010939212177079638 0.035606722570580347 0 -0.010526182733080081 0.034999878138986494 0 -0.012433648266795844 0.034999896013639425 0 -0.011915666876436691 0.035537755703010668 0 -0.010526182733080081 0.034999878138986494 0 -0.011915666876436691 0.035537755703010668 0 -0.011346083391584511 0.036443437504147976 0 -0.010939212177079638 0.035606722570580347 0 -0.012432506039460745 0.036482673343268081 0 -0.011915666876436691 0.035537755703010668 0 -0.011346083391584511 0.036443437504147976 0 -0.019176276552566297 0.031022629301990606 0 -0.015621062546147582 0.03108078439605334 0 -0.02033963437309317 0.026254020624859268 0 -0.019603263031290979 0.02624738072275927 0 -0.019373063505266852 0.025409334853045931 0 -0.02029788101694896 0.026953356251156482 0 -0.02033963437309317 0.026254020624859268 0 -0.019603263031290979 0.02624738072275927 0 -0.011346083391584511 0.036443437504147976 0 -0.010939212177079638 0.035606722570580347 0 -0.010004165432668667 0.035437239658528373 0 -0.015621062546147582 0.03108078439605334 0 -0.013275912634102528 0.033126565027752637 0 -0.010525878463007747 0.034999996100152281 0 -0.0099213177447763298 0.035489078140709368 0 -0.0093051134202854352 0.034999991267283245 0 -0.010939212177079638 0.035606722570580347 0 -0.010526182733080081 0.034999878138986494 0 -0.010004165432668667 0.035437239658528373 0 -0.010524749431101358 0.035001092122590186 0 -0.013275912634102528 0.033126565027752637 0 -0.013821470122463878 0.030801910349002683 0 -0.013275912634102528 0.033126565027752637 0 -0.0086340423876530726 0.036432311897049305 0 -0.0099028189712210297 0.035454160875695091 0 -0.0093050575704476911 0.034999894116666423 0 -0.013275912634102528 0.033126565027752637 0 -0.009306395547001042 0.034998412129905072 0 -0.018291432654302525 0.026055094062033053 0 -0.019429703593341299 0.026933769891867992 0 -0.019603263031290979 0.02624738072275927 0 -0.018291432654302525 0.026055094062033053 0 -0.019603263031290979 0.02624738072275927 0 -0.019373063505266852 0.025409334853045931 0 -0.017670721549896299 0.036457060486969013 0 -0.018824145569010672 0.035248408596939763 0 -0.019811126159693805 0.036427670208362219 0 -0.017598553332529188 0.036509635556531937 0 -0.017376287154577279 0.037040914188898454 0 -0.017670721549896299 0.036457060486969013 0 -0.015045325682898899 0.037288454749373978 0 -0.015867584495565162 0.035846767597183617 0 -0.017670721549896299 0.036457060486969013 0 -0.017805289467444977 0.03605576642102834 0 -0.017124839060427881 0.036008683409163585 0 -0.017670721549896299 0.036457060486969013 0 -0.017805289467444977 0.03605576642102834 0 -0.018239015285048048 0.035155154564295368 0 -0.017805289467444977 0.03605576642102834 0 -0.018239015285048048 0.035155154564295368 0 -0.01789025484316319 0.03512718918942534 0 -0.017670721549896299 0.036457060486969013 0 -0.018239015285048048 0.035155154564295368 0 -0.018824145569010672 0.035248408596939763 0 -0.018824145569010672 0.035248408596939763 0 -0.019947953531823982 0.035062142193136046 0 -0.019811126159693805 0.036427670208362219 0 -0.023765848047965207 0.029167154236695622 0 -0.022937280127135886 0.028165001302150047 0 -0.023188789002305477 0.027477576022568315 0 -0.024078981420709866 0.030710179956009578 0 -0.024800025296275549 0.032406125455902123 0 -0.023612351024117399 0.031387350208921534 0 -0.021696200631528221 0.032396642364710702 0 -0.022100581446881786 0.033564966977726603 0 -0.024136986591150291 0.029443079768350762 0 -0.021696200631528221 0.032396642364710702 0 -0.023765848047965207 0.029167154236695622 0 -0.02296245591266027 0.028747162072115032 0 -0.022937280127135886 0.028165001302150047 0 -0.021156324948137687 0.036083451247866695 0 -0.019947953531823982 0.035062142193136046 0 -0.019811126159693805 0.036427670208362219 0 -0.021156324948137687 0.036083451247866695 0 -0.021311432546506262 0.036411614788829108 0 -0.019811126159693805 0.036427670208362219 0 -0.013137621988372549 0.037430524745178877 0 -0.015045325682898899 0.037288454749373978 0 -0.013615249692776481 0.036573061513706068 0 -0.017371096495648282 0.034394078785497439 0 -0.017376287154577279 0.037040914188898454 0 -0.015045325682898899 0.037288454749373978 0 -0.014257456233602635 0.03605643231824833 0 -0.015867584495565162 0.035846767597183617 0 -0.015045325682898899 0.037288454749373978 0 -0.013615249692776481 0.036573061513706068 0 -0.014257456233602635 0.03605643231824833 0 -0.013150859145330571 0.03575673950516773 0 -0.013615249692776481 0.036573061513706068 0 -0.014257456233602635 0.03605643231824833 0 -0.013150859145330571 0.03575673950516773 0 -0.012433648266795844 0.034999896013639425 0 -0.01434175177033347 0.034999572231589657 0 -0.013150859145330571 0.03575673950516773 0 -0.014257456233602635 0.03605643231824833 0 -0.01434175177033347 0.034999572231589657 0 -0.01434175177033347 0.034999572231589657 0 -0.016249655869096033 0.034999798867583642 0 -0.015867584495565162 0.035846767597183617 0 -0.014257456233602635 0.03605643231824833 0 -0.01434175177033347 0.034999572231589657 0 -0.015867584495565162 0.035846767597183617 0 -0.016249655869096033 0.034999798867583642 0 -0.015867584495565162 0.035846767597183617 0 -0.017124839060427881 0.036008683409163585 0 -0.017670721549896299 0.036457060486969013 0 -0.015867584495565162 0.035846767597183617 0 -0.017124839060427881 0.036008683409163585 0 -0.017805289467444977 0.03605576642102834 0 -0.017124839060427881 0.036008683409163585 0 -0.017678901192881031 0.035882411394212242 0 -0.016249655869096033 0.034999798867583642 0 -0.017124839060427881 0.036008683409163585 0 -0.017678901192881031 0.035882411394212242 0 -0.016249655869096033 0.034999798867583642 0 -0.018156723928544186 0.034999695591400905 0 -0.017678901192881031 0.035882411394212242 0 -0.018156723928544186 0.034999695591400905 0 -0.018363462474833996 0.035809861458629889 0 -0.017678901192881031 0.035882411394212242 0 -0.018156723928544186 0.034999695591400905 0 -0.018363462474833996 0.035809861458629889 0 -0.020060725159256543 0.035000420339092356 0 -0.018363462474833996 0.035809861458629889 0 -0.017814603951568343 0.035917675428524004 0 -0.017958286034187067 0.036017852021926554 0 -0.018363462474833996 0.035809861458629889 0 -0.017904332803488483 0.035975650342597254 0 -0.017814603951568343 0.035917675428524004 0 -0.018363462474833996 0.035809861458629889 0 -0.017678901192881031 0.035882411394212242 0 -0.017904332803488483 0.035975650342597254 0 -0.017805289467444977 0.03605576642102834 0 -0.017678901192881031 0.035882411394212242 0 -0.017904332803488483 0.035975650342597254 0 -0.017805289467444977 0.03605576642102834 0 -0.017904332803488483 0.035975650342597254 0 -0.01771533890357261 0.035645188365418704 0 -0.017904332803488483 0.035975650342597254 0 -0.017814603951568343 0.035917675428524004 0 -0.01771533890357261 0.035645188365418704 0 -0.017814603951568343 0.035917675428524004 0 -0.017306911728694901 0.035450967993730501 0 -0.01771533890357261 0.035645188365418704 0 -0.017814603951568343 0.035917675428524004 0 -0.017306911728694901 0.035450967993730501 0 -0.017217330581140871 0.035684797588769308 0 -0.017306911728694901 0.035450967993730501 0 -0.017526879638519833 0.035151591512397329 0 -0.01771533890357261 0.035645188365418704 0 -0.017306911728694901 0.035450967993730501 0 -0.017072694047494504 0.034823698922981268 0 -0.016682873581381093 0.035190725530416515 0 -0.017306911728694901 0.035450967993730501 0 -0.017072694047494504 0.034823698922981268 0 -0.017526879638519833 0.035151591512397329 0 -0.017072694047494504 0.034823698922981268 0 -0.017526879638519833 0.035151591512397329 0 -0.017582144667846411 0.034470310657416896 0 -0.017526879638519833 0.035151591512397329 0 -0.01789025484316319 0.03512718918942534 0 -0.017582144667846411 0.034470310657416896 0 -0.017805289467444977 0.03605576642102834 0 -0.01789025484316319 0.03512718918942534 0 -0.01771533890357261 0.035645188365418704 0 -0.017526879638519833 0.035151591512397329 0 -0.01789025484316319 0.03512718918942534 0 -0.01771533890357261 0.035645188365418704 0 -0.022894838762514733 0.036563210218266064 0 -0.022499507852682805 0.036803851698354824 0 -0.022550156048044522 0.03626921250456111 0 -0.022894838762514733 0.036563210218266064 0 -0.023114926525051149 0.03684263143018205 0 -0.023400752960887398 0.036653523173823851 0 -0.022894838762514733 0.036563210218266064 0 -0.023114926525051149 0.03684263143018205 0 -0.022499507852682805 0.036803851698354824 0 -0.018650064914034706 0.035842927027557231 0 -0.017337637345125306 0.035156720848874751 0 -0.016682873581381093 0.035190725530416515 0 -0.016289156064468072 0.035443149519058137 0 -0.016071267616460109 0.034805923936936559 0 -0.015597448576218769 0.035260508304707422 0 -0.016289156064468072 0.035443149519058137 0 -0.016071267616460109 0.034805923936936559 0 -0.017072694047494504 0.034823698922981268 0 -0.016682873581381093 0.035190725530416515 0 -0.016399703861559946 0.034476111290498053 0 -0.016682873581381093 0.035190725530416515 0 -0.016399703861559946 0.034476111290498053 0 -0.016071267616460109 0.034805923936936559 0 -0.017306911728694901 0.035450967993730501 0 -0.016682873581381093 0.035190725530416515 0 -0.017217330581140871 0.035684797588769308 0 -0.016682873581381093 0.035190725530416515 0 -0.016289156064468072 0.035443149519058137 0 -0.017217330581140871 0.035684797588769308 0 -0.018650064914034706 0.035842927027557231 0 -0.019814228625221749 0.035869694669051259 0 -0.016289156064468072 0.035443149519058137 0 -0.017217330581140871 0.035684797588769308 0 -0.017958286034187067 0.036017852021926554 0 -0.017814603951568343 0.035917675428524004 0 -0.017217330581140871 0.035684797588769308 0 -0.017958286034187067 0.036017852021926554 0 -0.015943918566548219 0.035371285101501476 0 -0.016289156064468072 0.035443149519058137 0 -0.017958286034187067 0.036017852021926554 0 -0.022499507852682805 0.036803851698354824 0 -0.022550156048044522 0.03626921250456111 0 -0.02159866504601737 0.035992679718297733 0 -0.020065721907607057 0.034999786042691175 0 -0.021648266014653333 0.035466841973519646 0 -0.022283311508785118 0.034999230701534163 0 -0.022550156048044522 0.03626921250456111 0 -0.02159866504601737 0.035992679718297733 0 -0.022618780977012459 0.035761198212770684 0 -0.02159866504601737 0.035992679718297733 0 -0.021648266014653333 0.035466841973519646 0 -0.022618780977012459 0.035761198212770684 0 -0.018363462474833996 0.035809861458629889 0 -0.017958286034187067 0.036017852021926554 0 -0.020060725159256543 0.035000420339092356 0 -0.02159866504601737 0.035992679718297733 0 -0.020065721907607057 0.034999786042691175 0 -0.021648266014653333 0.035466841973519646 0 -0.019814228625221749 0.035869694669051259 0 -0.020063869171297034 0.034999552585974245 0 -0.021648266014653333 0.035466841973519646 0 -0.022283311508785118 0.034999230701534163 0 -0.022618780977012459 0.035761198212770684 0 -0.022283311508785118 0.034999230701534163 0 -0.024089617686317379 0.035693068293474621 0 -0.025301832444594604 0.034999353155657185 0 -0.024089617686317379 0.035693068293474621 0 -0.022618780977012459 0.035761198212770684 0 -0.023578845891584026 0.03624553651531158 0 -0.022283311508785118 0.034999230701534163 0 -0.024089617686317379 0.035693068293474621 0 -0.022618780977012459 0.035761198212770684 0 -0.024089617686317379 0.035693068293474621 0 -0.025301832444594604 0.034999353155657185 0 -0.025605670292865115 0.035826150122391029 0 -0.025301832444594604 0.034999353155657185 0 -0.025605670292865115 0.035826150122391029 0 -0.027278582696470981 0.035903398047391774 0 -0.025605670292865115 0.035826150122391029 0 -0.026075488116331778 0.036298864135628987 0 -0.027278582696470981 0.035903398047391774 0 -0.024089617686317379 0.035693068293474621 0 -0.025605670292865115 0.035826150122391029 0 -0.024883125649401702 0.036228545849199038 0 -0.025605670292865115 0.035826150122391029 0 -0.026075488116331778 0.036298864135628987 0 -0.024883125649401702 0.036228545849199038 0 -0.026075488116331778 0.036298864135628987 0 -0.024883125649401702 0.036228545849199038 0 -0.025208969322444968 0.03669277430433307 0 -0.026075488116331778 0.036298864135628987 0 -0.027278582696470981 0.035903398047391774 0 -0.027222807658940931 0.036298854264632335 0 -0.022550156048044522 0.03626921250456111 0 -0.022618780977012459 0.035761198212770684 0 -0.023578845891584026 0.03624553651531158 0 -0.022894838762514733 0.036563210218266064 0 -0.022550156048044522 0.03626921250456111 0 -0.023578845891584026 0.03624553651531158 0 -0.024089617686317379 0.035693068293474621 0 -0.023578845891584026 0.03624553651531158 0 -0.024883125649401702 0.036228545849199038 0 -0.023578845891584026 0.03624553651531158 0 -0.024883125649401702 0.036228545849199038 0 -0.024281658633298422 0.036663414796801366 0 -0.024883125649401702 0.036228545849199038 0 -0.024281658633298422 0.036663414796801366 0 -0.025208969322444968 0.03669277430433307 0 -0.023578845891584026 0.03624553651531158 0 -0.024281658633298422 0.036663414796801366 0 -0.023400752960887398 0.036653523173823851 0 -0.024281658633298422 0.036663414796801366 0 -0.023400752960887398 0.036653523173823851 0 -0.023792158175229328 0.036822187382425875 0 -0.022894838762514733 0.036563210218266064 0 -0.023578845891584026 0.03624553651531158 0 -0.023400752960887398 0.036653523173823851 0 -0.023400752960887398 0.036653523173823851 0 -0.023543440687419023 0.036858670379353115 0 -0.023792158175229328 0.036822187382425875 0 -0.023114926525051149 0.03684263143018205 0 -0.023400752960887398 0.036653523173823851 0 -0.023543440687419023 0.036858670379353115 0 -0.023114926525051149 0.03684263143018205 0 -0.023963507914973866 0.037299902431699498 0 -0.023859343700430552 0.037138710648065738 0 -0.023114926525051149 0.03684263143018205 0 -0.023543440687419023 0.036858670379353115 0 -0.023859343700430552 0.037138710648065738 0 -0.016164245352590541 0.031802085152252267 0 -0.014457679477131721 0.032006250193356109 0 -0.016927171087553722 0.033145648753596775 0 -0.024057886012696476 0.037243524515480443 0 -0.023859343700430552 0.037138710648065738 0 -0.024288987071479903 0.037071769642223647 0 -0.020288042816837971 0.034757781800700549 0 -0.021357329699986143 0.036357525247972165 0 -0.023859343700430552 0.037138710648065738 0 -0.024288987071479903 0.037071769642223647 0 -0.024125862235780039 0.036918025437307211 0 -0.024281658633298422 0.036663414796801366 0 -0.024125862235780039 0.036918025437307211 0 -0.023792158175229328 0.036822187382425875 0 -0.023859343700430552 0.037138710648065738 0 -0.024125862235780039 0.036918025437307211 0 -0.023792158175229328 0.036822187382425875 0 -0.023543440687419023 0.036858670379353115 0 -0.023859343700430552 0.037138710648065738 0 -0.023792158175229328 0.036822187382425875 0 -0.024281658633298422 0.036663414796801366 0 -0.024539021091200271 0.036897655159902239 0 -0.025208969322444968 0.03669277430433307 0 -0.024281658633298422 0.036663414796801366 0 -0.024125862235780039 0.036918025437307211 0 -0.024539021091200271 0.036897655159902239 0 -0.024288987071479903 0.037071769642223647 0 -0.024125862235780039 0.036918025437307211 0 -0.024539021091200271 0.036897655159902239 0 -0.024539021091200271 0.036897655159902239 0 -0.025208969322444968 0.03669277430433307 0 -0.024869612368227947 0.03707956583110017 0 -0.025208969322444968 0.03669277430433307 0 -0.024869612368227947 0.03707956583110017 0 -0.025672914013779621 0.036972046820951662 0 -0.024057886012696476 0.037243524515480443 0 -0.024288987071479903 0.037071769642223647 0 -0.024869612368227947 0.03707956583110017 0 -0.024288987071479903 0.037071769642223647 0 -0.024539021091200271 0.036897655159902239 0 -0.024869612368227947 0.03707956583110017 0 -0.020075555337235998 0.034963595093442358 0 -0.018556556351466112 0.033731806079834059 0 -0.019157783226179274 0.032332479622888224 0 -0.020288042816837971 0.034757781800700549 0 -0.021863020188690609 0.035600917231225923 0 -0.024057886012696476 0.037243524515480443 0 -0.024869612368227947 0.03707956583110017 0 -0.025140726771235879 0.037322249988241116 0 -0.024869612368227947 0.03707956583110017 0 -0.025140726771235879 0.037322249988241116 0 -0.025672914013779621 0.036972046820951662 0 -0.015120431877640941 0.02929287652193386 0 -0.014905881839526658 0.026834457555034105 0 -0.017718062232461321 0.030439207234945913 0 -0.020288042816837971 0.034757781800700549 0 -0.015561090597153066 0.029323977393963859 0 -0.014457679477131721 0.032006250193356109 0 -0.015120431877640941 0.02929287652193386 0 -0.012816476806523973 0.027028480019035662 0 -0.016164245352590541 0.031802085152252267 0 -0.014457679477131721 0.032006250193356109 0 -0.015846897016535137 0.030834623215354521 0 -0.015120431877640941 0.02929287652193386 0 -0.015846897016535137 0.030834623215354521 0 -0.017718062232461321 0.030439207234945913 0 -0.014457679477131721 0.032006250193356109 0 -0.015120431877640941 0.02929287652193386 0 -0.015846897016535137 0.030834623215354521 0 -0.026075488116331778 0.036298864135628987 0 -0.026260692252713925 0.036660035870825988 0 -0.027222807658940931 0.036298854264632335 0 -0.026260692252713925 0.036660035870825988 0 -0.027020444499653396 0.036638479408206422 0 -0.027222807658940931 0.036298854264632335 0 -0.026075488116331778 0.036298864135628987 0 -0.025208969322444968 0.03669277430433307 0 -0.026260692252713925 0.036660035870825988 0 -0.025208969322444968 0.03669277430433307 0 -0.026260692252713925 0.036660035870825988 0 -0.025672914013779621 0.036972046820951662 0 -0.025672914013779621 0.036972046820951662 0 -0.025944230565869766 0.03717378556541321 0 -0.026416834228670735 0.036912035761087529 0 -0.025140726771235879 0.037322249988241116 0 -0.025944230565869766 0.03717378556541321 0 -0.026209615415931083 0.037713905238153177 0 -0.025140726771235879 0.037322249988241116 0 -0.025672914013779621 0.036972046820951662 0 -0.025944230565869766 0.03717378556541321 0 -0.025944230565869766 0.03717378556541321 0 -0.026416834228670735 0.036912035761087529 0 -0.026456124097005339 0.037076439345208843 0 -0.026260692252713925 0.036660035870825988 0 -0.025672914013779621 0.036972046820951662 0 -0.026416834228670735 0.036912035761087529 0 -0.026260692252713925 0.036660035870825988 0 -0.026416834228670735 0.036912035761087529 0 -0.027020444499653396 0.036638479408206422 0 -0.026416834228670735 0.036912035761087529 0 -0.027020444499653396 0.036638479408206422 0 -0.026772190034011288 0.03689992411172003 0 -0.027107902207493761 0.036754668388767647 0 -0.02707063979976633 0.036841284119216923 0 -0.027327746325784816 0.036755000887345152 0 -0.027107902207493761 0.036754668388767647 0 -0.027327746325784816 0.036755000887345152 0 -0.027458056025352912 0.03657099387922038 0 -0.027020444499653396 0.036638479408206422 0 -0.027107902207493761 0.036754668388767647 0 -0.027458056025352912 0.03657099387922038 0 -0.027107902207493761 0.036754668388767647 0 -0.026772190034011288 0.03689992411172003 0 -0.02707063979976633 0.036841284119216923 0 -0.027020444499653396 0.036638479408206422 0 -0.027107902207493761 0.036754668388767647 0 -0.026772190034011288 0.03689992411172003 0 -0.02707063979976633 0.036841284119216923 0 -0.026892414818258919 0.036943974237780806 0 -0.027069884154447985 0.036870489235379292 0 -0.026772190034011288 0.03689992411172003 0 -0.02707063979976633 0.036841284119216923 0 -0.026892414818258919 0.036943974237780806 0 -0.026578476039286938 0.037268802182848483 0 -0.023588962057362849 0.035349954216926167 0 -0.026772190034011288 0.03689992411172003 0 -0.026892414818258919 0.036943974237780806 0 -0.026456124097005339 0.037076439345208843 0 -0.026416834228670735 0.036912035761087529 0 -0.026772190034011288 0.03689992411172003 0 -0.026456124097005339 0.037076439345208843 0 -0.025646275061861647 0.037730873385895702 0 -0.023588962057362849 0.035349954216926167 0 -0.018556556351466112 0.033731806079834059 0 -0.017025089638369996 0.032519632358065792 0 -0.018196195067834812 0.032620009728099669 0 -0.021863020188690609 0.035600917231225923 0 -0.023588962057362849 0.035349954216926167 0 -0.017025089638369996 0.032519632358065792 0 -0.017891784337928641 0.031617355934397413 0 -0.01719682533518082 0.03126268476460653 0 -0.017025089638369996 0.032519632358065792 0 -0.017891784337928641 0.031617355934397413 0 -0.018196195067834812 0.032620009728099669 0 -0.017025089638369996 0.032519632358065792 0 -0.01719682533518082 0.03126268476460653 0 -0.016767460689554706 0.030490347764304381 0 -0.017025089638369996 0.032519632358065792 0 -0.016767460689554706 0.030490347764304381 0 -0.01597747765507081 0.029800283376299065 0 -0.017891784337928641 0.031617355934397413 0 -0.017396871006637282 0.030673448672965172 0 -0.018227872417017909 0.02967697204182362 0 -0.026892414818258919 0.036943974237780806 0 -0.026773060329893107 0.037000227250325549 0 -0.02734374617509994 0.036723492165289424 0 -0.023588962057362849 0.035349954216926167 0 -0.021326489407863521 0.032901633323381342 0 -0.017891784337928641 0.031617355934397413 0 -0.01719682533518082 0.03126268476460653 0 -0.017396871006637282 0.030673448672965172 0 -0.01719682533518082 0.03126268476460653 0 -0.017396871006637282 0.030673448672965172 0 -0.016767460689554706 0.030490347764304381 0 -0.017396871006637282 0.030673448672965172 0 -0.016767460689554706 0.030490347764304381 0 -0.017156346045546618 0.029764885787731357 0 -0.017396871006637282 0.030673448672965172 0 -0.018227872417017909 0.02967697204182362 0 -0.017156346045546618 0.029764885787731357 0 -0.016767460689554706 0.030490347764304381 0 -0.01597747765507081 0.029800283376299065 0 -0.016573780874093943 0.029535093441176871 0 -0.016767460689554706 0.030490347764304381 0 -0.016573780874093943 0.029535093441176871 0 -0.017156346045546618 0.029764885787731357 0 -0.026892414818258919 0.036943974237780806 0 -0.027069884154447985 0.036870489235379292 0 -0.02734374617509994 0.036723492165289424 0 -0.027069884154447985 0.036870489235379292 0 -0.027088851879625973 0.036842452485731127 0 -0.02734374617509994 0.036723492165289424 0 -0.026995469326442804 0.036843634332355157 0 -0.027088851879625973 0.036842452485731127 0 -0.02734374617509994 0.036723492165289424 0 -0.026995469326442804 0.036843634332355157 0 -0.027088851879625973 0.036842452485731127 0 -0.027254643604731399 0.036825371084580352 0 -0.026995469326442804 0.036843634332355157 0 -0.027254643604731399 0.036825371084580352 0 -0.027505362260193584 0.036946862383936102 0 -0.027069884154447985 0.036870489235379292 0 -0.027254643604731399 0.036825371084580352 0 -0.027327746325784816 0.036755000887345152 0 -0.02707063979976633 0.036841284119216923 0 -0.027069884154447985 0.036870489235379292 0 -0.027327746325784816 0.036755000887345152 0 -0.027069884154447985 0.036870489235379292 0 -0.027088851879625973 0.036842452485731127 0 -0.027254643604731399 0.036825371084580352 0 -0.014905881839526658 0.026834457555034105 0 -0.012816476806523973 0.027028480019035662 0 -0.014180992049376428 0.024010133802162235 0 -0.014905881839526658 0.026834457555034105 0 -0.016396907494636292 0.025341637422664355 0 -0.017718062232461321 0.030439207234945913 0 -0.015120431877640941 0.02929287652193386 0 -0.014905881839526658 0.026834457555034105 0 -0.012816476806523973 0.027028480019035662 0 -0.018556556351466112 0.033731806079834059 0 -0.019157783226179274 0.032332479622888224 0 -0.018196195067834812 0.032620009728099669 0 -0.017891784337928641 0.031617355934397413 0 -0.019157783226179274 0.032332479622888224 0 -0.018196195067834812 0.032620009728099669 0 -0.012816476806523973 0.027028480019035662 0 -0.014180992049376428 0.024010133802162235 0 -0.011644174134030065 0.022506823450855803 0 -0.015561090597153066 0.029323977393963859 0 -0.015032036589528027 0.026221367117422179 0 -0.017891784337928641 0.031617355934397413 0 -0.019157783226179274 0.032332479622888224 0 -0.018227872417017909 0.02967697204182362 0 -0.014180992049376428 0.024010133802162235 0 -0.013379851319442767 0.022228276159557178 0 -0.011644174134030065 0.022506823450855803 0 -0.014180992049376428 0.024010133802162235 0 -0.016396907494636292 0.025341637422664355 0 -0.015152384258923169 0.020455499227709485 0 -0.014305721205112009 0.027433591792566128 0 -0.013743946531291532 0.022308384658964515 0 -0.014905881839526658 0.026834457555034105 0 -0.014180992049376428 0.024010133802162235 0 -0.016396907494636292 0.025341637422664355 0 -0.012257452019373102 0.029276337906521906 0 -0.013225239863536372 0.026967137113225053 0 -0.011132241723944671 0.025286731360722806 0 -0.012257452019373102 0.029276337906521906 0 -0.014537819883559242 0.028906871309236151 0 -0.013225239863536372 0.026967137113225053 0 -0.014537819883559242 0.028906871309236151 0 -0.01508444886475353 0.025819919947236883 0 -0.013225239863536372 0.026967137113225053 0 -0.012257452019373102 0.029276337906521906 0 -0.014417482877883964 0.031187544538947457 0 -0.01382342369225913 0.032860147474096553 0 -0.014305721205112009 0.027433591792566128 0 -0.015585701449404755 0.031447219339711029 0 -0.012257452019373102 0.029276337906521906 0 -0.014417482877883964 0.031187544538947457 0 -0.014537819883559242 0.028906871309236151 0 -0.014417482877883964 0.031187544538947457 0 -0.015955228761141339 0.030915938477209762 0 -0.014537819883559242 0.028906871309236151 0 -0.014537819883559242 0.028906871309236151 0 -0.016703412510956007 0.027720879359058655 0 -0.01508444886475353 0.025819919947236883 0 -0.015955228761141339 0.030915938477209762 0 -0.014537819883559242 0.028906871309236151 0 -0.016703412510956007 0.027720879359058655 0 -0.016737285342609241 0.027804423282281235 0 -0.018554820145875062 0.02954979349658619 0 -0.020695946105037222 0.027895572331880291 0 -0.019759756557101965 0.026565033190567574 0 -0.018993160496127287 0.02844433774861153 0 -0.016703412510956007 0.027720879359058655 0 -0.019759756557101965 0.026565033190567574 0 -0.018993160496127287 0.02844433774861153 0 -0.019801947545191177 0.031099693962278543 0 -0.018554820145875062 0.02954979349658619 0 -0.015955228761141339 0.030915938477209762 0 -0.018420129001784791 0.030855207312667932 0 -0.016879193838295229 0.032478890864361967 0 -0.015955228761141339 0.030915938477209762 0 -0.016703412510956007 0.027720879359058655 0 -0.018420129001784791 0.030855207312667932 0 -0.018420129001784791 0.030855207312667932 0 -0.016879193838295229 0.032478890864361967 0 -0.017846481528176219 0.033108974580123122 0 -0.016879193838295229 0.032478890864361967 0 -0.017846481528176219 0.033108974580123122 0 -0.01684832929970137 0.033842635222114344 0 -0.018911110713958994 0.032976468040704449 0 -0.018420129001784791 0.030855207312667932 0 -0.017846481528176219 0.033108974580123122 0 -0.018911110713958994 0.032976468040704449 0 -0.017846481528176219 0.033108974580123122 0 -0.018286135880732225 0.034151126551767524 0 -0.017846481528176219 0.033108974580123122 0 -0.018286135880732225 0.034151126551767524 0 -0.017582144667846411 0.034470310657416896 0 -0.01789025484316319 0.03512718918942534 0 -0.018286135880732225 0.034151126551767524 0 -0.017582144667846411 0.034470310657416896 0 -0.017846481528176219 0.033108974580123122 0 -0.01684832929970137 0.033842635222114344 0 -0.017582144667846411 0.034470310657416896 0 -0.017072694047494504 0.034823698922981268 0 -0.01684832929970137 0.033842635222114344 0 -0.016399703861559946 0.034476111290498053 0 -0.017072694047494504 0.034823698922981268 0 -0.01684832929970137 0.033842635222114344 0 -0.017582144667846411 0.034470310657416896 0 -0.015597448576218769 0.035260508304707422 0 -0.015343657493299268 0.033493153507801354 0 -0.016071267616460109 0.034805923936936559 0 -0.01684832929970137 0.033842635222114344 0 -0.016399703861559946 0.034476111290498053 0 -0.015343657493299268 0.033493153507801354 0 -0.016399703861559946 0.034476111290498053 0 -0.015343657493299268 0.033493153507801354 0 -0.016071267616460109 0.034805923936936559 0 -0.015597448576218769 0.035260508304707422 0 -0.015343657493299268 0.033493153507801354 0 -0.01382342369225913 0.032860147474096553 0 -0.023114926525051149 0.03684263143018205 0 -0.022499507852682805 0.036803851698354824 0 -0.023963507914973866 0.037299902431699498 0 -0.018961040334520035 0.03567117333826901 0 -0.016927171087553722 0.033145648753596775 0 -0.017718062232461321 0.030439207234945913 0 -0.018650064914034706 0.035842927027557231 0 -0.015585701449404755 0.031447219339711029 0 -0.018650064914034706 0.035842927027557231 0 -0.020288042816837971 0.034757781800700549 0 -0.018961040334520035 0.03567117333826901 0 -0.014457679477131721 0.032006250193356109 0 -0.016927171087553722 0.033145648753596775 0 -0.016164245352590541 0.031802085152252267 0 -0.016927171087553722 0.033145648753596775 0 -0.017718062232461321 0.030439207234945913 0 -0.014417482877883964 0.031187544538947457 0 -0.015343657493299268 0.033493153507801354 0 -0.01382342369225913 0.032860147474096553 0 -0.016164245352590541 0.031802085152252267 0 -0.015846897016535137 0.030834623215354521 0 -0.017718062232461321 0.030439207234945913 0 -0.014417482877883964 0.031187544538947457 0 -0.015955228761141339 0.030915938477209762 0 -0.015343657493299268 0.033493153507801354 0 -0.015955228761141339 0.030915938477209762 0 -0.016879193838295229 0.032478890864361967 0 -0.015343657493299268 0.033493153507801354 0 -0.016879193838295229 0.032478890864361967 0 -0.01684832929970137 0.033842635222114344 0 -0.015343657493299268 0.033493153507801354 0 -0.034482310564339973 0.033530710459012437 0 -0.034998195423346437 0.034998079695919553 0 -0.034997769669444539 0.028782637668330342 0 -0.034998195423346437 0.034998079695919553 0 -0.031758667648294325 0.034668753638597116 0 -0.029410819210585765 0.034997099334755942 0 -0.034482310564339973 0.033530710459012437 0 -0.034998195423346437 0.034998079695919553 0 -0.031758667648294325 0.034668753638597116 0 -0.034482310564339973 0.033530710459012437 0 -0.035627321054394395 0.031409182916254413 0 -0.03587843856249754 0.030774972140288633 0 -0.031758667648294325 0.034668753638597116 0 -0.031929200493272344 0.036022411161016323 0 -0.030074594577704419 0.035764125465047571 0 -0.034482310564339973 0.033530710459012437 0 -0.031758667648294325 0.034668753638597116 0 -0.031929200493272344 0.036022411161016323 0 -0.034400784952197866 0.033566975468062837 0 -0.033664244403212411 0.033672244161967811 0 -0.031929200493272344 0.036022411161016323 0 -0.030074594577704419 0.035764125465047571 0 -0.029923092799035177 0.036270757762782296 0 -0.033664244403212411 0.033672244161967811 0 -0.031688890159846127 0.033644159253820534 0 -0.031758667648294325 0.034668753638597116 0 -0.030074594577704419 0.035764125465047571 0 -0.028661010291861775 0.035551244466755096 0 -0.030074594577704419 0.035764125465047571 0 -0.028661010291861775 0.035551244466755096 0 -0.02856969306210369 0.035970314276743146 0 -0.031758667648294325 0.034668753638597116 0 -0.028661010291861775 0.035551244466755096 0 -0.029410819210585765 0.034997099334755942 0 -0.025301832444594604 0.034999353155657185 0 -0.028661010291861775 0.035551244466755096 0 -0.029410819210585765 0.034997099334755942 0 -0.025301832444594604 0.034999353155657185 0 -0.028661010291861775 0.035551244466755096 0 -0.027278582696470981 0.035903398047391774 0 -0.028661010291861775 0.035551244466755096 0 -0.027278582696470981 0.035903398047391774 0 -0.02856969306210369 0.035970314276743146 0 -0.027278582696470981 0.035903398047391774 0 -0.027222807658940931 0.036298854264632335 0 -0.02856969306210369 0.035970314276743146 0 -0.027222807658940931 0.036298854264632335 0 -0.02856969306210369 0.035970314276743146 0 -0.027862616739909401 0.036220095828655367 0 -0.02856969306210369 0.035970314276743146 0 -0.028533145448220786 0.035760293956719494 0 -0.029250815026705172 0.034962512030349557 0 -0.02856969306210369 0.035970314276743146 0 -0.027862616739909401 0.036220095828655367 0 -0.028533145448220786 0.035760293956719494 0 -0.027020444499653396 0.036638479408206422 0 -0.027222807658940931 0.036298854264632335 0 -0.027862616739909401 0.036220095828655367 0 -0.027020444499653396 0.036638479408206422 0 -0.027862616739909401 0.036220095828655367 0 -0.027458056025352912 0.03657099387922038 0 -0.027862616739909401 0.036220095828655367 0 -0.027458056025352912 0.03657099387922038 0 -0.028009665769194576 0.036442900578436049 0 -0.027327746325784816 0.036755000887345152 0 -0.027458056025352912 0.03657099387922038 0 -0.028009665769194576 0.036442900578436049 0 -0.027327746325784816 0.036755000887345152 0 -0.028009665769194576 0.036442900578436049 0 -0.027725678839598825 0.0368063996626109 0 -0.027254643604731399 0.036825371084580352 0 -0.027327746325784816 0.036755000887345152 0 -0.027725678839598825 0.0368063996626109 0 -0.028009665769194576 0.036442900578436049 0 -0.027725678839598825 0.0368063996626109 0 -0.028480650074422423 0.036864958877022104 0 -0.027725678839598825 0.0368063996626109 0 -0.028480650074422423 0.036864958877022104 0 -0.028002272221084836 0.037040666345498054 0 -0.027254643604731399 0.036825371084580352 0 -0.027725678839598825 0.0368063996626109 0 -0.027505362260193584 0.036946862383936102 0 -0.027725678839598825 0.0368063996626109 0 -0.027505362260193584 0.036946862383936102 0 -0.028002272221084836 0.037040666345498054 0 -0.028009665769194576 0.036442900578436049 0 -0.028480650074422423 0.036864958877022104 0 -0.029087582627342207 0.03632957527711763 0 -0.027862616739909401 0.036220095828655367 0 -0.028009665769194576 0.036442900578436049 0 -0.028533145448220786 0.035760293956719494 0 -0.028009665769194576 0.036442900578436049 0 -0.028533145448220786 0.035760293956719494 0 -0.029087582627342207 0.03632957527711763 0 -0.028533145448220786 0.035760293956719494 0 -0.029087582627342207 0.03632957527711763 0 -0.029250815026705172 0.034962512030349557 0 -0.029087582627342207 0.03632957527711763 0 -0.030866556190377006 0.035619216128705271 0 -0.029250815026705172 0.034962512030349557 0 -0.029087582627342207 0.03632957527711763 0 -0.030260484939151133 0.037387718302730272 0 -0.030866556190377006 0.035619216128705271 0 -0.028480650074422423 0.036864958877022104 0 -0.029087582627342207 0.03632957527711763 0 -0.030260484939151133 0.037387718302730272 0 -0.031008600029074289 0.035694256360302039 0 -0.03441773547370245 0.033237930810314592 0 -0.031569988436814467 0.034062358075643361 0 -0.03529524375545081 0.031252587738419803 0 -0.035561547397215551 0.03303327277266016 0 -0.030260484939151133 0.037387718302730272 0 -0.030866556190377006 0.035619216128705271 0 -0.033812331296977798 0.035455233786167349 0 -0.030866556190377006 0.035619216128705271 0 -0.032345560364194108 0.033712514268212077 0 -0.033812331296977798 0.035455233786167349 0 -0.030866556190377006 0.035619216128705271 0 -0.032345560364194108 0.033712514268212077 0 -0.029250815026705172 0.034962512030349557 0 -0.030074594577704419 0.035764125465047571 0 -0.02856969306210369 0.035970314276743146 0 -0.029923092799035177 0.036270757762782296 0 -0.032345560364194108 0.033712514268212077 0 -0.029250815026705172 0.034962512030349557 0 -0.033389875759514978 0.030827302978290328 0 -0.029495561618947109 0.034823095008065817 0 -0.031688890159846127 0.033644159253820534 0 -0.02856969306210369 0.035970314276743146 0 -0.029250815026705172 0.034962512030349557 0 -0.029923092799035177 0.036270757762782296 0 -0.036150567078167106 0.026880847979576957 0 -0.034997769669444539 0.028782637668330342 0 -0.034999535290837068 0.024085643020080708 0 -0.035627321054394395 0.031409182916254413 0 -0.033389875759514978 0.030827302978290328 0 -0.03587843856249754 0.030774972140288633 0 -0.033389875759514978 0.030827302978290328 0 -0.03587843856249754 0.030774972140288633 0 -0.034712475064227546 0.031973083741220966 0 -0.03587843856249754 0.030774972140288633 0 -0.034712475064227546 0.031973083741220966 0 -0.036378294814666021 0.030342989120708964 0 -0.032345560364194108 0.033712514268212077 0 -0.033389875759514978 0.030827302978290328 0 -0.034712475064227546 0.031973083741220966 0 -0.034712475064227546 0.031973083741220966 0 -0.033812331296977798 0.035455233786167349 0 -0.036378294814666021 0.030342989120708964 0 -0.032345560364194108 0.033712514268212077 0 -0.034712475064227546 0.031973083741220966 0 -0.033812331296977798 0.035455233786167349 0 -0.03529524375545081 0.031252587738419803 0 -0.035561547397215551 0.03303327277266016 0 -0.036458318168038573 0.030092483189129573 0 -0.03697871044026383 0.030215505661488163 0 -0.036510648090348222 0.030179925294568005 0 -0.03716108097096172 0.02759782272798442 0 -0.036458318168038573 0.030092483189129573 0 -0.036150567078167106 0.026880847979576957 0 -0.038635515162402274 0.027282567432926445 0 -0.03716108097096172 0.02759782272798442 0 -0.036458318168038573 0.030092483189129573 0 -0.03716108097096172 0.02759782272798442 0 -0.036150567078167106 0.026880847979576957 0 -0.037469899412985903 0.02635454180476204 0 -0.038635515162402274 0.027282567432926445 0 -0.03716108097096172 0.02759782272798442 0 -0.037469899412985903 0.02635454180476204 0 -0.03441773547370245 0.033237930810314592 0 -0.036279512673989565 0.030771790529216407 0 -0.03529524375545081 0.031252587738419803 0 -0.036458318168038573 0.030092483189129573 0 -0.036378294814666021 0.030342989120708964 0 -0.036458318168038573 0.030092483189129573 0 -0.036150567078167106 0.026880847979576957 0 -0.034997769669444539 0.028782637668330342 0 -0.036458318168038573 0.030092483189129573 0 -0.036378294814666021 0.030342989120708964 0 -0.034997769669444539 0.028782637668330342 0 -0.03587843856249754 0.030774972140288633 0 -0.036378294814666021 0.030342989120708964 0 -0.034997769669444539 0.028782637668330342 0 -0.034482310564339973 0.033530710459012437 0 -0.03587843856249754 0.030774972140288633 0 -0.034997769669444539 0.028782637668330342 0 -0.036386906272342312 0.022246422839082194 0 -0.034999535290837068 0.024085643020080708 0 -0.03717395246814597 0.024428936529374296 0 -0.036386906272342312 0.022246422839082194 0 -0.034999535290837068 0.024085643020080708 0 -0.034999512642078623 0.020550630123317822 0 -0.036150567078167106 0.026880847979576957 0 -0.034999535290837068 0.024085643020080708 0 -0.03717395246814597 0.024428936529374296 0 -0.03717395246814597 0.024428936529374296 0 -0.037469899412985903 0.02635454180476204 0 -0.038347506576792124 0.025434112410582726 0 -0.036150567078167106 0.026880847979576957 0 -0.03717395246814597 0.024428936529374296 0 -0.037469899412985903 0.02635454180476204 0 -0.038635515162402274 0.027282567432926445 0 -0.037469899412985903 0.02635454180476204 0 -0.038347506576792124 0.025434112410582726 0 -0.038635515162402274 0.027282567432926445 0 -0.038347506576792124 0.025434112410582726 0 -0.039687449229447183 0.025358176273882805 0 -0.038347506576792124 0.025434112410582726 0 -0.038647014660680698 0.02406078255653973 0 -0.039687449229447183 0.025358176273882805 0 -0.03717395246814597 0.024428936529374296 0 -0.038347506576792124 0.025434112410582726 0 -0.038647014660680698 0.02406078255653973 0 -0.03717395246814597 0.024428936529374296 0 -0.038647014660680698 0.02406078255653973 0 -0.038071366537237986 0.022263458829565673 0 -0.036386906272342312 0.022246422839082194 0 -0.03717395246814597 0.024428936529374296 0 -0.038071366537237986 0.022263458829565673 0 -0.038071366537237986 0.022263458829565673 0 -0.039681416303329609 0.023026618639665861 0 -0.039165868876495334 0.021563130224822657 0 -0.039681416303329609 0.023026618639665861 0 -0.040218041007816521 0.021644687956085068 0 -0.039165868876495334 0.021563130224822657 0 -0.039681416303329609 0.023026618639665861 0 -0.040966620422048607 0.0224936106902409 0 -0.040218041007816521 0.021644687956085068 0 -0.040966620422048607 0.0224936106902409 0 -0.041343163821494763 0.021708619204821346 0 -0.040218041007816521 0.021644687956085068 0 -0.040824590895415923 0.023758244280107654 0 -0.039681416303329609 0.023026618639665861 0 -0.040966620422048607 0.0224936106902409 0 -0.040824590895415923 0.023758244280107654 0 -0.039681416303329609 0.023026618639665861 0 -0.039687449229447183 0.025358176273882805 0 -0.038647014660680698 0.02406078255653973 0 -0.039681416303329609 0.023026618639665861 0 -0.039687449229447183 0.025358176273882805 0 -0.038647014660680698 0.02406078255653973 0 -0.038071366537237986 0.022263458829565673 0 -0.039681416303329609 0.023026618639665861 0 -0.03697871044026383 0.030215505661488163 0 -0.03595030709915905 0.031064513505602083 0 -0.031569988436814467 0.034062358075643361 0 -0.035561547397215551 0.03303327277266016 0 -0.032312548429792573 0.037006417204059401 0 -0.031569988436814467 0.034062358075643361 0 -0.032312548429792573 0.037006417204059401 0 -0.028728411392200056 0.037192371309069168 0 -0.031008600029074289 0.035694256360302039 0 -0.028912570955717223 0.037057093462289241 0 -0.035850207723777651 0.032069485493946587 0 -0.03595030709915905 0.031064513505602083 0 -0.029808672041313398 0.039109751666513974 0 -0.032312548429792573 0.037006417204059401 0 -0.028728411392200056 0.037192371309069168 0 -0.028728411392200056 0.037192371309069168 0 -0.028064259112626007 0.037992136924922183 0 -0.028597587051349953 0.038651993373920043 0 -0.029808672041313398 0.039109751666513974 0 -0.028728411392200056 0.037192371309069168 0 -0.028597587051349953 0.038651993373920043 0 -0.028480650074422423 0.036864958877022104 0 -0.028728411392200056 0.037192371309069168 0 -0.028002272221084836 0.037040666345498054 0 -0.028480650074422423 0.036864958877022104 0 -0.030260484939151133 0.037387718302730272 0 -0.028728411392200056 0.037192371309069168 0 -0.028728411392200056 0.037192371309069168 0 -0.028002272221084836 0.037040666345498054 0 -0.027679363212770477 0.037314426270510265 0 -0.028728411392200056 0.037192371309069168 0 -0.027679363212770477 0.037314426270510265 0 -0.028064259112626007 0.037992136924922183 0 -0.027505362260193584 0.036946862383936102 0 -0.028002272221084836 0.037040666345498054 0 -0.027679363212770477 0.037314426270510265 0 -0.027679363212770477 0.037314426270510265 0 -0.028064259112626007 0.037992136924922183 0 -0.027390239563640961 0.037724372010887249 0 -0.026305270145665624 0.036513049264800722 0 -0.026563561358444714 0.035792334336569163 0 -0.028064259112626007 0.037992136924922183 0 -0.027837277532117576 0.038950366794797957 0 -0.027390239563640961 0.037724372010887249 0 -0.024817643519055081 0.031615744620181865 0 -0.026218194008100847 0.033347552551390977 0 -0.025825063398663022 0.03429326004063199 0 -0.024817643519055081 0.031615744620181865 0 -0.025033640755361051 0.029932656937990364 0 -0.026218194008100847 0.033347552551390977 0 -0.027837277532117576 0.038950366794797957 0 -0.02862902118676329 0.039216869631611959 0 -0.028362084619660263 0.040143885610957913 0 -0.018478379752284717 0.025192673023312854 0 -0.021039819988273173 0.030922064486714002 0 -0.027837277532117576 0.038950366794797957 0 -0.028597587051349953 0.038651993373920043 0 -0.02862902118676329 0.039216869631611959 0 -0.028064259112626007 0.037992136924922183 0 -0.027837277532117576 0.038950366794797957 0 -0.028597587051349953 0.038651993373920043 0 -0.029808672041313398 0.039109751666513974 0 -0.02862902118676329 0.039216869631611959 0 -0.028362084619660263 0.040143885610957913 0 -0.029808672041313398 0.039109751666513974 0 -0.028597587051349953 0.038651993373920043 0 -0.02862902118676329 0.039216869631611959 0 -0.040966620422048607 0.0224936106902409 0 -0.04218294164901637 0.022164513118240799 0 -0.041343163821494763 0.021708619204821346 0 -0.035850207723777651 0.032069485493946587 0 -0.031084429386147076 0.026506078171745526 0 -0.040824590895415923 0.023758244280107654 0 -0.040966620422048607 0.0224936106902409 0 -0.04218294164901637 0.022164513118240799 0 -0.042118838503156446 0.021972132413724223 0 -0.04218294164901637 0.022164513118240799 0 -0.041343163821494763 0.021708619204821346 0 -0.022457873360422105 0.02460489982265586 0 -0.021897879922111237 0.024191987898053158 0 -0.022185925705923332 0.024889331404805603 0 -0.018478379752284717 0.025192673023312854 0 -0.021039611143591784 0.020459359135402883 0 -0.038683820440856227 0.018735854959939059 0 -0.038671915191590273 0.018741481862446591 0 -0.038650447477966629 0.018728511030337635 0 -0.024817643519055081 0.031615744620181865 0 -0.023870868258099403 0.028941546565611261 0 -0.025033640755361051 0.029932656937990364 0 -0.031084429386147076 0.026506078171745526 0 -0.021039611143591784 0.020459359135402883 0 -0.026305270145665624 0.036513049264800722 0 -0.031084429386147076 0.026506078171745526 0 -0.035492769280416413 0.022814932027388504 0 -0.031084429386147076 0.026506078171745526 0 -0.011883800281639489 0.020883641875587312 0 -0.012217722789107273 0.01987610033946742 0 -0.010824057006930505 0.020046856556343234 0 -0.011883800281639489 0.020883641875587312 0 -0.011422126446827628 0.022055956555799498 0 -0.010824057006930505 0.020046856556343234 0 -0.011883800281639489 0.020883641875587312 0 -0.012217722789107273 0.01987610033946742 0 -0.012944141377007369 0.020740307145984547 0 -0.011883800281639489 0.020883641875587312 0 -0.011422126446827628 0.022055956555799498 0 -0.013309180051463343 0.022440431536133371 0 -0.031084429386147076 0.026506078171745526 0 -0.018478379752284717 0.025192673023312854 0 -0.012806666572741434 0.018421353905267189 0 -0.012688919140639162 0.018437927269100443 0 -0.012796552491181253 0.018201172636835683 0 -0.012806666572741434 0.018421353905267189 0 -0.012688919140639162 0.018437927269100443 0 -0.012756278852892107 0.018406665843783927 0 -0.031158659740250103 0.018688541607594335 0 -0.033906387326826291 0.017980141794447051 0 -0.031158659740250103 0.018688541607594335 0 -0.032364968648573439 0.019374114249348696 0 -0.012481068097799104 0.018491166246772297 0 -0.012688919140639162 0.018437927269100443 0 -0.012667850292509839 0.018355166729305632 0 -0.012131143902574755 0.02029534745501739 0 -0.021039611143591784 0.020459359135402883 0 -0.012481068097799104 0.018491166246772297 0 -0.012217722789107273 0.01987610033946742 0 -0.010824057006930505 0.020046856556343234 0 -0.012481068097799104 0.018491166246772297 0 -0.012688919140639162 0.018437927269100443 0 -0.012796552491181253 0.018201172636835683 0 -0.038694819632949767 0.018811476890578653 0 -0.038650447477966629 0.018728511030337635 0 -0.038738432150818028 0.018747966371149307 0 -0.031158659740250103 0.018688541607594335 0 -0.021039611143591784 0.020459359135402883 0 -0.038683820440856227 0.018735854959939059 0 -0.038650447477966629 0.018728511030337635 0 -0.038738432150818028 0.018747966371149307 0 -0.038826643684161548 0.018914342817053887 0 -0.038819900876934273 0.018735104349821619 0 -0.038731524485905867 0.018622118925958085 0 -0.035492769280416413 0.022814932027388504 0 -0.037676555051517797 0.018609959586236371 0 -0.035492769280416413 0.022814932027388504 0 -0.040427408221523228 0.01946085225290007 0 -0.038683820440856227 0.018735854959939059 0 -0.038738432150818028 0.018747966371149307 0 -0.038819900876934273 0.018735104349821619 0 -0.042118838503156446 0.021972132413724223 0 -0.041343163821494763 0.021708619204821346 0 -0.040776050998667095 0.020467130428440131 0 -0.038819900876934273 0.018735104349821619 0 -0.038814700100216537 0.018608486899350744 0 -0.038731524485905867 0.018622118925958085 0 -0.038819900876934273 0.018735104349821619 0 -0.038857603254013072 0.018644932679463957 0 -0.038814700100216537 0.018608486899350744 0 -0.038850199572844843 0.01871449471132413 0 -0.038738432150818028 0.018747966371149307 0 -0.038819900876934273 0.018735104349821619 0 -0.038850199572844843 0.01871449471132413 0 -0.038890287932355661 0.018681267232929354 0 -0.038819900876934273 0.018735104349821619 0 -0.038890287932355661 0.018681267232929354 0 -0.038819900876934273 0.018735104349821619 0 -0.038857603254013072 0.018644932679463957 0 -0.038890287932355661 0.018681267232929354 0 -0.038857603254013072 0.018644932679463957 0 -0.038912471404609822 0.018530573063313422 0 -0.038912471404609822 0.018530573063313422 0 -0.038814700100216537 0.018608486899350744 0 -0.038842883222183468 0.018497028274673102 0 -0.038857603254013072 0.018644932679463957 0 -0.038912471404609822 0.018530573063313422 0 -0.038814700100216537 0.018608486899350744 0 -0.038814700100216537 0.018608486899350744 0 -0.038842883222183468 0.018497028274673102 0 -0.038731524485905867 0.018622118925958085 0 -0.038912471404609822 0.018530573063313422 0 -0.038842883222183468 0.018497028274673102 0 -0.039111060197752193 0.018304490662361891 0 -0.038895849277780288 0.018758483168703714 0 -0.038890287932355661 0.018681267232929354 0 -0.039111060197752193 0.018304490662361891 0 -0.031158659740250103 0.018688541607594335 0 -0.025672331442210317 0.018442701472649106 0 -0.012806666572741434 0.018421353905267189 0 -0.012756278852892107 0.018406665843783927 0 -0.012875408535664544 0.018431968892585315 0 -0.038890287932355661 0.018681267232929354 0 -0.038912471404609822 0.018530573063313422 0 -0.039111060197752193 0.018304490662361891 0 -0.012688919140639162 0.018437927269100443 0 -0.012667850292509839 0.018355166729305632 0 -0.012756278852892107 0.018406665843783927 0 -0.012667850292509839 0.018355166729305632 0 -0.012756278852892107 0.018406665843783927 0 -0.012758843506189903 0.018390266032465311 0 -0.012756278852892107 0.018406665843783927 0 -0.012758843506189903 0.018390266032465311 0 -0.012875408535664544 0.018431968892585315 0 -0.012758843506189903 0.018390266032465311 0 -0.012875408535664544 0.018431968892585315 0 -0.012787347231124057 0.018433127560291016 0 -0.012875408535664544 0.018431968892585315 0 -0.012988480763311267 0.018614872730789843 0 -0.012879486804083547 0.018563771164724911 0 -0.025672331442210317 0.018442701472649106 0 -0.025578701493887745 0.018708206026844271 0 -0.039111060197752193 0.018304490662361891 0 -0.039128609861935823 0.018105472959968446 0 -0.038893986481059586 0.018100799175537238 0 -0.012875408535664544 0.018431968892585315 0 -0.012812062513591222 0.018504750729266533 0 -0.012787347231124057 0.018433127560291016 0 -0.012875408535664544 0.018431968892585315 0 -0.012879486804083547 0.018563771164724911 0 -0.012812062513591222 0.018504750729266533 0 -0.038893986481059586 0.018100799175537238 0 -0.038953084669569697 0.018153944655101333 0 -0.038298997720588472 0.018787988975959784 0 -0.012988480763311267 0.018614872730789843 0 -0.012992956773206468 0.018674487099854777 0 -0.013119670895607638 0.018803168978427254 0 -0.038953084669569697 0.018153944655101333 0 -0.038862689672032338 0.018185463864211736 0 -0.038539961104579301 0.018243638963144477 0 -0.012928748779708912 0.018616124191618202 0 -0.012988480763311267 0.018614872730789843 0 -0.012879486804083547 0.018563771164724911 0 -0.012928748779708912 0.018616124191618202 0 -0.012988480763311267 0.018614872730789843 0 -0.012992956773206468 0.018674487099854777 0 -0.039120424620799774 0.018095126015109261 0 -0.039441919537128806 0.017421742651550116 0 -0.039128609861935823 0.018105472959968446 0 -0.038893986481059586 0.018100799175537238 0 -0.038953084669569697 0.018153944655101333 0 -0.039128609861935823 0.018105472959968446 0 -0.039738880598771904 0.017122883845229656 0 -0.039140272552341232 0.017335111850366049 0 -0.039128609861935823 0.018105472959968446 0 -0.038953084669569697 0.018153944655101333 0 -0.038862689672032338 0.018185463864211736 0 -0.039738880598771904 0.017122883845229656 0 -0.039140272552341232 0.017335111850366049 0 -0.03942550534394812 0.016786752802682516 0 -0.038713317939090497 0.017193336574960798 0 -0.038923328229604155 0.017850391648372915 0 -0.03873132368414333 0.018126116872443979 0 -0.038713317939090497 0.017193336574960798 0 -0.039140272552341232 0.017335111850366049 0 -0.038923328229604155 0.017850391648372915 0 -0.038713317939090497 0.017193336574960798 0 -0.039140272552341232 0.017335111850366049 0 -0.039102504491653603 0.016796412303583058 0 -0.039140272552341232 0.017335111850366049 0 -0.039102504491653603 0.016796412303583058 0 -0.03942550534394812 0.016786752802682516 0 -0.039128609861935823 0.018105472959968446 0 -0.039140272552341232 0.017335111850366049 0 -0.038923328229604155 0.017850391648372915 0 -0.038923328229604155 0.017850391648372915 0 -0.038923697066859782 0.018264673591559366 0 -0.03873132368414333 0.018126116872443979 0 -0.039128609861935823 0.018105472959968446 0 -0.038923328229604155 0.017850391648372915 0 -0.038923697066859782 0.018264673591559366 0 -0.039111060197752193 0.018304490662361891 0 -0.039128609861935823 0.018105472959968446 0 -0.038923697066859782 0.018264673591559366 0 -0.038842883222183468 0.018497028274673102 0 -0.039111060197752193 0.018304490662361891 0 -0.038923697066859782 0.018264673591559366 0 -0.038923697066859782 0.018264673591559366 0 -0.03873132368414333 0.018126116872443979 0 -0.038739045006142364 0.018567617914694981 0 -0.038842883222183468 0.018497028274673102 0 -0.038923697066859782 0.018264673591559366 0 -0.038739045006142364 0.018567617914694981 0 -0.03873132368414333 0.018126116872443979 0 -0.038722304766097698 0.018831809357992849 0 -0.038739045006142364 0.018567617914694981 0 -0.03873132368414333 0.018126116872443979 0 -0.038463180667378631 0.017679030614288414 0 -0.038722304766097698 0.018831809357992849 0 -0.038713317939090497 0.017193336574960798 0 -0.03873132368414333 0.018126116872443979 0 -0.038463180667378631 0.017679030614288414 0 -0.038463180667378631 0.017679030614288414 0 -0.03816143052161227 0.017631690249784251 0 -0.038195767212798458 0.016870309207051584 0 -0.038713317939090497 0.017193336574960798 0 -0.038463180667378631 0.017679030614288414 0 -0.038195767212798458 0.016870309207051584 0 -0.038463180667378631 0.017679030614288414 0 -0.03816143052161227 0.017631690249784251 0 -0.038722304766097698 0.018831809357992849 0 -0.03816143052161227 0.017631690249784251 0 -0.038722304766097698 0.018831809357992849 0 -0.037685534023963435 0.018240829566179749 0 -0.038722304766097698 0.018831809357992849 0 -0.039350466948291363 0.020407425603414481 0 -0.038296154365140833 0.020401723265570215 0 -0.038722304766097698 0.018831809357992849 0 -0.040776050998667095 0.020467130428440131 0 -0.039350466948291363 0.020407425603414481 0 -0.038722304766097698 0.018831809357992849 0 -0.038739045006142364 0.018567617914694981 0 -0.038731524485905867 0.018622118925958085 0 -0.038842883222183468 0.018497028274673102 0 -0.038739045006142364 0.018567617914694981 0 -0.038731524485905867 0.018622118925958085 0 -0.038595713604582221 0.018813961401568602 0 -0.040427408221523228 0.01946085225290007 0 -0.040776050998667095 0.020467130428440131 0 -0.040218041007816521 0.021644687956085068 0 -0.039350466948291363 0.020407425603414481 0 -0.041343163821494763 0.021708619204821346 0 -0.040776050998667095 0.020467130428440131 0 -0.040218041007816521 0.021644687956085068 0 -0.040218041007816521 0.021644687956085068 0 -0.039165868876495334 0.021563130224822657 0 -0.039350466948291363 0.020407425603414481 0 -0.039165868876495334 0.021563130224822657 0 -0.039350466948291363 0.020407425603414481 0 -0.038296154365140833 0.020401723265570215 0 -0.036194839699702386 0.018439599688639872 0 -0.034999512642078623 0.020550630123317822 0 -0.034999779343380277 0.01587823272354922 0 -0.038071366537237986 0.022263458829565673 0 -0.038296154365140833 0.020401723265570215 0 -0.036895404166593489 0.01996960571301289 0 -0.038071366537237986 0.022263458829565673 0 -0.039165868876495334 0.021563130224822657 0 -0.038296154365140833 0.020401723265570215 0 -0.036386906272342312 0.022246422839082194 0 -0.038071366537237986 0.022263458829565673 0 -0.036895404166593489 0.01996960571301289 0 -0.038296154365140833 0.020401723265570215 0 -0.036895404166593489 0.01996960571301289 0 -0.037685534023963435 0.018240829566179749 0 -0.038722304766097698 0.018831809357992849 0 -0.038296154365140833 0.020401723265570215 0 -0.037685534023963435 0.018240829566179749 0 -0.037685534023963435 0.018240829566179749 0 -0.037419388454169852 0.017231174364940562 0 -0.037904816009213665 0.01683758015891787 0 -0.03816143052161227 0.017631690249784251 0 -0.037685534023963435 0.018240829566179749 0 -0.037220915491206978 0.016727926467786602 0 -0.037669008843635755 0.018128270845552068 0 -0.037566173824184541 0.016759262455811438 0 -0.037685534023963435 0.018240829566179749 0 -0.036983005914982089 0.01822941586742817 0 -0.037419388454169852 0.017231174364940562 0 -0.036983005914982089 0.01822941586742817 0 -0.036694059528095388 0.017525343630158105 0 -0.037419388454169852 0.017231174364940562 0 -0.036895404166593489 0.01996960571301289 0 -0.037685534023963435 0.018240829566179749 0 -0.036983005914982089 0.01822941586742817 0 -0.036895404166593489 0.01996960571301289 0 -0.036983005914982089 0.01822941586742817 0 -0.036194839699702386 0.018439599688639872 0 -0.036194839699702386 0.018439599688639872 0 -0.036694059528095388 0.017525343630158105 0 -0.036263173911155425 0.016620011852956577 0 -0.036983005914982089 0.01822941586742817 0 -0.036194839699702386 0.018439599688639872 0 -0.036694059528095388 0.017525343630158105 0 -0.036386906272342312 0.022246422839082194 0 -0.036895404166593489 0.01996960571301289 0 -0.034999512642078623 0.020550630123317822 0 -0.036895404166593489 0.01996960571301289 0 -0.036194839699702386 0.018439599688639872 0 -0.034999512642078623 0.020550630123317822 0 -0.015078713654593356 0.020584404555071861 0 -0.016966290291454068 0.020499392163547066 0 -0.016311008319554073 0.022952740286901287 0 -0.015078713654593356 0.020584404555071861 0 -0.01410043524200017 0.022023545244887231 0 -0.016311008319554073 0.022952740286901287 0 -0.015078713654593356 0.020584404555071861 0 -0.01410043524200017 0.022023545244887231 0 -0.013748237854279106 0.020253207733775543 0 -0.01410043524200017 0.022023545244887231 0 -0.012014426670467789 0.021764584309619413 0 -0.013748237854279106 0.020253207733775543 0 -0.013090495081801179 0.020445211328568542 0 -0.013942323633785642 0.017294715601636253 0 -0.013748237854279106 0.020253207733775543 0 -0.012936990711845226 0.018013830869923982 0 -0.014579627868232045 0.01880817617409582 0 -0.014777918092088095 0.016645140747056593 0 -0.014026731783094316 0.017414793340800771 0 -0.013824854704781361 0.016068931967982928 0 -0.012014426670467789 0.021764584309619413 0 -0.013748237854279106 0.020253207733775543 0 -0.012936990711845226 0.018013830869923982 0 -0.014498314505336519 0.018739164197988857 0 -0.014777918092088095 0.016645140747056593 0 -0.014026731783094316 0.017414793340800771 0 -0.012936990711845226 0.018013830869923982 0 -0.014579627868232045 0.01880817617409582 0 -0.014434578698421839 0.017163274530190974 0 -0.014579627868232045 0.01880817617409582 0 -0.015480076070477848 0.017281738047972096 0 -0.014434578698421839 0.017163274530190974 0 -0.015078713654593356 0.020584404555071861 0 -0.013748237854279106 0.020253207733775543 0 -0.014579627868232045 0.01880817617409582 0 -0.015078713654593356 0.020584404555071861 0 -0.014579627868232045 0.01880817617409582 0 -0.016231859829605511 0.018900929965959785 0 -0.015078713654593356 0.020584404555071861 0 -0.016231859829605511 0.018900929965959785 0 -0.016966290291454068 0.020499392163547066 0 -0.014579627868232045 0.01880817617409582 0 -0.016231859829605511 0.018900929965959785 0 -0.015480076070477848 0.017281738047972096 0 -0.017621157009843152 0.018254339473587001 0 -0.0194069505888253 0.019402417967923108 0 -0.016966290291454068 0.020499392163547066 0 -0.016231859829605511 0.018900929965959785 0 -0.017621157009843152 0.018254339473587001 0 -0.01689984072020188 0.016543123744084731 0 -0.016231859829605511 0.018900929965959785 0 -0.017621157009843152 0.018254339473587001 0 -0.016966290291454068 0.020499392163547066 0 -0.017621157009843152 0.018254339473587001 0 -0.0194069505888253 0.019402417967923108 0 -0.018604637033078176 0.016040251208910623 0 -0.021602987912299774 0.021321080753422567 0 -0.0194069505888253 0.019402417967923108 0 -0.018841760970748491 0.021529372111504581 0 -0.020442391883925045 0.022983274857038487 0 -0.018841760970748491 0.021529372111504581 0 -0.018495361459455462 0.023488554804500985 0 -0.021602987912299774 0.021321080753422567 0 -0.020442391883925045 0.022983274857038487 0 -0.018841760970748491 0.021529372111504581 0 -0.018841760970748491 0.021529372111504581 0 -0.016966290291454068 0.020499392163547066 0 -0.016311008319554073 0.022952740286901287 0 -0.0194069505888253 0.019402417967923108 0 -0.018841760970748491 0.021529372111504581 0 -0.016966290291454068 0.020499392163547066 0 -0.018841760970748491 0.021529372111504581 0 -0.018495361459455462 0.023488554804500985 0 -0.016311008319554073 0.022952740286901287 0 -0.018495361459455462 0.023488554804500985 0 -0.017803047270082081 0.025275537914556282 0 -0.016311008319554073 0.022952740286901287 0 -0.020442391883925045 0.022983274857038487 0 -0.018495361459455462 0.023488554804500985 0 -0.019813606953515434 0.024761899501734783 0 -0.018495361459455462 0.023488554804500985 0 -0.019813606953515434 0.024761899501734783 0 -0.017803047270082081 0.025275537914556282 0 -0.019759756557101965 0.026565033190567574 0 -0.019813606953515434 0.024761899501734783 0 -0.017803047270082081 0.025275537914556282 0 -0.016703412510956007 0.027720879359058655 0 -0.017803047270082081 0.025275537914556282 0 -0.01508444886475353 0.025819919947236883 0 -0.016703412510956007 0.027720879359058655 0 -0.019759756557101965 0.026565033190567574 0 -0.017803047270082081 0.025275537914556282 0 -0.01508444886475353 0.025819919947236883 0 -0.016311008319554073 0.022952740286901287 0 -0.014049952787375497 0.023788675725889726 0 -0.01410043524200017 0.022023545244887231 0 -0.016311008319554073 0.022952740286901287 0 -0.014049952787375497 0.023788675725889726 0 -0.017803047270082081 0.025275537914556282 0 -0.01508444886475353 0.025819919947236883 0 -0.016311008319554073 0.022952740286901287 0 -0.012014426670467789 0.021764584309619413 0 -0.012941770013628317 0.02500863002893098 0 -0.011132241723944671 0.025286731360722806 0 -0.012014426670467789 0.021764584309619413 0 -0.014049952787375497 0.023788675725889726 0 -0.012941770013628317 0.02500863002893098 0 -0.01410043524200017 0.022023545244887231 0 -0.012014426670467789 0.021764584309619413 0 -0.014049952787375497 0.023788675725889726 0 -0.012941770013628317 0.02500863002893098 0 -0.013225239863536372 0.026967137113225053 0 -0.011132241723944671 0.025286731360722806 0 -0.01508444886475353 0.025819919947236883 0 -0.012941770013628317 0.02500863002893098 0 -0.013225239863536372 0.026967137113225053 0 -0.01508444886475353 0.025819919947236883 0 -0.014049952787375497 0.023788675725889726 0 -0.012941770013628317 0.02500863002893098 0 -0.014180992049376428 0.024010133802162235 0 -0.014497283657541304 0.021159870069617764 0 -0.013379851319442767 0.022228276159557178 0 -0.014414259767523077 0.023154968293224297 0 -0.013743946531291532 0.022308384658964515 0 -0.014497283657541304 0.021159870069617764 0 -0.013379851319442767 0.022228276159557178 0 -0.013078898429674739 0.02095995942883179 0 -0.013379851319442767 0.022228276159557178 0 -0.011644174134030065 0.022506823450855803 0 -0.013078898429674739 0.02095995942883179 0 -0.011644174134030065 0.022506823450855803 0 -0.013078898429674739 0.02095995942883179 0 -0.011868084848970764 0.020309837534984148 0 -0.013078898429674739 0.02095995942883179 0 -0.011868084848970764 0.020309837534984148 0 -0.0137914722671168 0.019667222066773151 0 -0.011868084848970764 0.020309837534984148 0 -0.0137914722671168 0.019667222066773151 0 -0.013042812597126661 0.018088470161883422 0 -0.013090495081801179 0.020445211328568542 0 -0.013743946531291532 0.022308384658964515 0 -0.014498314505336519 0.018739164197988857 0 -0.014098613379826966 0.020830050303309512 0 -0.0137914722671168 0.019667222066773151 0 -0.013743946531291532 0.022308384658964515 0 -0.013740991984385588 0.019640147121321984 0 -0.014497283657541304 0.021159870069617764 0 -0.013078898429674739 0.02095995942883179 0 -0.0137914722671168 0.019667222066773151 0 -0.026977482647077954 0.036848041059929677 0 -0.026563561358444714 0.035792334336569163 0 -0.021326489407863521 0.032901633323381342 0 -0.021039819988273173 0.030922064486714002 0 -0.02734374617509994 0.036723492165289424 0 -0.026218194008100847 0.033347552551390977 0 -0.025825063398663022 0.03429326004063199 0 -0.01597747765507081 0.029800283376299065 0 -0.015973621110485156 0.028349582862865121 0 -0.015230001435667186 0.027216564888512491 0 -0.026995469326442804 0.036843634332355157 0 -0.02734374617509994 0.036723492165289424 0 -0.025825063398663022 0.03429326004063199 0 -0.026995469326442804 0.036843634332355157 0 -0.027679363212770477 0.037314426270510265 0 -0.027390239563640961 0.037724372010887249 0 -0.026995469326442804 0.036843634332355157 0 -0.027505362260193584 0.036946862383936102 0 -0.027679363212770477 0.037314426270510265 0 -0.01597747765507081 0.029800283376299065 0 -0.015973621110485156 0.028349582862865121 0 -0.016410824718006051 0.028961845769286027 0 -0.018227872417017909 0.02967697204182362 0 -0.017198521108585243 0.02863489762485381 0 -0.017284133838270405 0.026780570197527543 0 -0.015032036589528027 0.026221367117422179 0 -0.014277397435624149 0.023158280651256035 0 -0.015973621110485156 0.028349582862865121 0 -0.016425493580278769 0.028450358421561753 0 -0.016423641557543934 0.027860500001954502 0 -0.016425493580278769 0.028450358421561753 0 -0.017198521108585243 0.02863489762485381 0 -0.016423641557543934 0.027860500001954502 0 -0.016425493580278769 0.028450358421561753 0 -0.016410824718006051 0.028961845769286027 0 -0.017198521108585243 0.02863489762485381 0 -0.015973621110485156 0.028349582862865121 0 -0.016425493580278769 0.028450358421561753 0 -0.016410824718006051 0.028961845769286027 0 -0.01597747765507081 0.029800283376299065 0 -0.016410824718006051 0.028961845769286027 0 -0.016573780874093943 0.029535093441176871 0 -0.016573780874093943 0.029535093441176871 0 -0.017156346045546618 0.029764885787731357 0 -0.017198521108585243 0.02863489762485381 0 -0.016410824718006051 0.028961845769286027 0 -0.016573780874093943 0.029535093441176871 0 -0.017198521108585243 0.02863489762485381 0 -0.018227872417017909 0.02967697204182362 0 -0.017156346045546618 0.029764885787731357 0 -0.017198521108585243 0.02863489762485381 0 -0.011644174134030065 0.022506823450855803 0 -0.011868084848970764 0.020309837534984148 0 -0.011280891132866733 0.019551830052835468 0 -0.011868084848970764 0.020309837534984148 0 -0.011280891132866733 0.019551830052835468 0 -0.01172382577920642 0.018756629098847965 0 -0.017198521108585243 0.02863489762485381 0 -0.017284133838270405 0.026780570197527543 0 -0.016757229240121869 0.027235376849090033 0 -0.017284133838270405 0.026780570197527543 0 -0.016757229240121869 0.027235376849090033 0 -0.013745325064484963 0.024588380605805399 0 -0.017198521108585243 0.02863489762485381 0 -0.016757229240121869 0.027235376849090033 0 -0.016423641557543934 0.027860500001954502 0 -0.016757229240121869 0.027235376849090033 0 -0.016423641557543934 0.027860500001954502 0 -0.016192478062881186 0.027280692055962751 0 -0.015973621110485156 0.028349582862865121 0 -0.015924580034789942 0.027571548623725631 0 -0.015230001435667186 0.027216564888512491 0 -0.015973621110485156 0.028349582862865121 0 -0.016423641557543934 0.027860500001954502 0 -0.015924580034789942 0.027571548623725631 0 -0.016423641557543934 0.027860500001954502 0 -0.015924580034789942 0.027571548623725631 0 -0.016192478062881186 0.027280692055962751 0 -0.015924580034789942 0.027571548623725631 0 -0.016192478062881186 0.027280692055962751 0 -0.015807226481522354 0.027167919326758109 0 -0.016757229240121869 0.027235376849090033 0 -0.016192478062881186 0.027280692055962751 0 -0.015602470072987143 0.026344558134062297 0 -0.015924580034789942 0.027571548623725631 0 -0.015807226481522354 0.027167919326758109 0 -0.015230001435667186 0.027216564888512491 0 -0.016772873986523863 0.027312294210820529 0 -0.014010236737637419 0.024891048455797801 0 -0.016192478062881186 0.027280692055962751 0 -0.015807226481522354 0.027167919326758109 0 -0.015602470072987143 0.026344558134062297 0 -0.015807226481522354 0.027167919326758109 0 -0.015230001435667186 0.027216564888512491 0 -0.015602470072987143 0.026344558134062297 0 -0.014722356557768925 0.025408890551295801 0 -0.015230001435667186 0.027216564888512491 0 -0.015602470072987143 0.026344558134062297 0 -0.011422126446827628 0.022055956555799498 0 -0.013745325064484963 0.024588380605805399 0 -0.013309180051463343 0.022440431536133371 0 -0.018478379752284717 0.025192673023312854 0 -0.014010236737637419 0.024891048455797801 0 -0.013745325064484963 0.024588380605805399 0 -0.015242564716657508 0.021662788311240286 0 -0.013309180051463343 0.022440431536133371 0 -0.014277397435624149 0.023158280651256035 0 -0.013489282776121495 0.019972012491270327 0 -0.017284133838270405 0.026780570197527543 0 -0.013745325064484963 0.024588380605805399 0 -0.015242564716657508 0.021662788311240286 0 -0.011280891132866733 0.019551830052835468 0 -0.01172382577920642 0.018756629098847965 0 -0.011729243154914637 0.018044843284452567 0 -0.01172382577920642 0.018756629098847965 0 -0.011729243154914637 0.018044843284452567 0 -0.011875132084462191 0.018083545029636289 0 -0.011729243154914637 0.018044843284452567 0 -0.011875132084462191 0.018083545029636289 0 -0.012086469164947676 0.01800209846205789 0 -0.015242564716657508 0.021662788311240286 0 -0.012944141377007369 0.020740307145984547 0 -0.013309180051463343 0.022440431536133371 0 -0.015242564716657508 0.021662788311240286 0 -0.012944141377007369 0.020740307145984547 0 -0.013056291641414973 0.01973922113987148 0 -0.011883800281639489 0.020883641875587312 0 -0.012944141377007369 0.020740307145984547 0 -0.013309180051463343 0.022440431536133371 0 -0.014498314505336519 0.018739164197988857 0 -0.013042812597126661 0.018088470161883422 0 -0.014026731783094316 0.017414793340800771 0 -0.014498314505336519 0.018739164197988857 0 -0.0137914722671168 0.019667222066773151 0 -0.013042812597126661 0.018088470161883422 0 -0.011880608420378261 0.020203683402346365 0 -0.01265779383291867 0.01839420000200382 0 -0.011868084848970764 0.020309837534984148 0 -0.01172382577920642 0.018756629098847965 0 -0.012307570390962783 0.01859144533124122 0 -0.01172382577920642 0.018756629098847965 0 -0.012307570390962783 0.01859144533124122 0 -0.011875132084462191 0.018083545029636289 0 -0.012307570390962783 0.01859144533124122 0 -0.011875132084462191 0.018083545029636289 0 -0.011912294509894103 0.017690341410388707 0 -0.011875132084462191 0.018083545029636289 0 -0.011912294509894103 0.017690341410388707 0 -0.012086469164947676 0.01800209846205789 0 -0.013042812597126661 0.018088470161883422 0 -0.014026731783094316 0.017414793340800771 0 -0.013824854704781361 0.016068931967982928 0 -0.012307570390962783 0.01859144533124122 0 -0.011912294509894103 0.017690341410388707 0 -0.012960439587462408 0.017168334690949378 0 -0.01265779383291867 0.01839420000200382 0 -0.013421854026894572 0.016526126672451319 0 -0.012960439587462408 0.017168334690949378 0 -0.0116295966090801 0.016038587343288356 0 -0.012221366146996175 0.014416693259718401 0 -0.011912294509894103 0.017690341410388707 0 -0.012960439587462408 0.017168334690949378 0 -0.0116295966090801 0.016038587343288356 0 -0.011961727608765377 0.017755850608236957 0 -0.0099678638488023084 0.016250570211844517 0 -0.011912294509894103 0.017690341410388707 0 -0.0116295966090801 0.016038587343288356 0 -0.0091155498531391519 0.014675458150281298 0 -0.011912294509894103 0.017690341410388707 0 -0.012089603462078524 0.018272498420224662 0 -0.012086469164947676 0.01800209846205789 0 -0.0116295966090801 0.016038587343288356 0 -0.0091155498531391519 0.014675458150281298 0 -0.012221366146996175 0.014416693259718401 0 -0.0091155498531391519 0.014675458150281298 0 -0.012221366146996175 0.014416693259718401 0 -0.010858183232996406 0.012545939987520932 0 -0.012960439587462408 0.017168334690949378 0 -0.012221366146996175 0.014416693259718401 0 -0.014624130515995126 0.013686151453048872 0 -0.012221366146996175 0.014416693259718401 0 -0.012927366808097055 0.012007920884284397 0 -0.014624130515995126 0.013686151453048872 0 -0.013489282776121495 0.019972012491270327 0 -0.012924407417489762 0.018348280912019756 0 -0.015242564716657508 0.021662788311240286 0 -0.013056291641414973 0.01973922113987148 0 -0.012847306670446503 0.018181071676176205 0 -0.012481068097799104 0.018491166246772297 0 -0.012667850292509839 0.018355166729305632 0 -0.012847306670446503 0.018181071676176205 0 -0.012481068097799104 0.018491166246772297 0 -0.013056291641414973 0.01973922113987148 0 -0.012847306670446503 0.018181071676176205 0 -0.012481068097799104 0.018491166246772297 0 -0.012217722789107273 0.01987610033946742 0 -0.013056291641414973 0.01973922113987148 0 -0.012217722789107273 0.01987610033946742 0 -0.012944141377007369 0.020740307145984547 0 -0.013056291641414973 0.01973922113987148 0 -0.012847306670446503 0.018181071676176205 0 -0.012086469164947676 0.01800209846205789 0 -0.012388668499511476 0.018252482083202862 0 -0.011729243154914637 0.018044843284452567 0 -0.012847306670446503 0.018181071676176205 0 -0.012086469164947676 0.01800209846205789 0 -0.012089603462078524 0.018272498420224662 0 -0.012086469164947676 0.01800209846205789 0 -0.012388668499511476 0.018252482083202862 0 -0.012089603462078524 0.018272498420224662 0 -0.012556599595135075 0.018372812613901463 0 -0.012564547646031593 0.018457974228693514 0 -0.012089603462078524 0.018272498420224662 0 -0.012388668499511476 0.018252482083202862 0 -0.012556599595135075 0.018372812613901463 0 -0.012847306670446503 0.018181071676176205 0 -0.012388668499511476 0.018252482083202862 0 -0.012753996834563566 0.018323602923227746 0 -0.012388668499511476 0.018252482083202862 0 -0.012753996834563566 0.018323602923227746 0 -0.012556599595135075 0.018372812613901463 0 -0.012556599595135075 0.018372812613901463 0 -0.012743979412354623 0.018401070141575063 0 -0.012666888009527942 0.018444829222750633 0 -0.012753996834563566 0.018323602923227746 0 -0.012556599595135075 0.018372812613901463 0 -0.012743979412354623 0.018401070141575063 0 -0.012556599595135075 0.018372812613901463 0 -0.012666888009527942 0.018444829222750633 0 -0.012564547646031593 0.018457974228693514 0 -0.012758843506189903 0.018390266032465311 0 -0.012753996834563566 0.018323602923227746 0 -0.012743979412354623 0.018401070141575063 0 -0.012758843506189903 0.018390266032465311 0 -0.012743979412354623 0.018401070141575063 0 -0.012787347231124057 0.018433127560291016 0 -0.012667850292509839 0.018355166729305632 0 -0.012758843506189903 0.018390266032465311 0 -0.012753996834563566 0.018323602923227746 0 -0.012667850292509839 0.018355166729305632 0 -0.012847306670446503 0.018181071676176205 0 -0.012753996834563566 0.018323602923227746 0 -0.012879486804083547 0.018563771164724911 0 -0.012806192471265104 0.018555498308056948 0 -0.012789719323413072 0.018603042405240224 0 -0.012879486804083547 0.018563771164724911 0 -0.012806192471265104 0.018555498308056948 0 -0.012812062513591222 0.018504750729266533 0 -0.012806192471265104 0.018555498308056948 0 -0.01274496895299182 0.018546906034352408 0 -0.012789719323413072 0.018603042405240224 0 -0.012812062513591222 0.018504750729266533 0 -0.012707754328613813 0.018496937803868678 0 -0.01274496895299182 0.018546906034352408 0 -0.012806192471265104 0.018555498308056948 0 -0.012812062513591222 0.018504750729266533 0 -0.01274496895299182 0.018546906034352408 0 -0.012812062513591222 0.018504750729266533 0 -0.012787347231124057 0.018433127560291016 0 -0.012754030058984603 0.018457078315487641 0 -0.012743979412354623 0.018401070141575063 0 -0.012787347231124057 0.018433127560291016 0 -0.012754030058984603 0.018457078315487641 0 -0.012812062513591222 0.018504750729266533 0 -0.012754030058984603 0.018457078315487641 0 -0.012707754328613813 0.018496937803868678 0 -0.012743979412354623 0.018401070141575063 0 -0.012754030058984603 0.018457078315487641 0 -0.012666888009527942 0.018444829222750633 0 -0.012754030058984603 0.018457078315487641 0 -0.012707754328613813 0.018496937803868678 0 -0.012666888009527942 0.018444829222750633 0 -0.012707754328613813 0.018496937803868678 0 -0.012666888009527942 0.018444829222750633 0 -0.012564547646031593 0.018457974228693514 0 -0.012707754328613813 0.018496937803868678 0 -0.012666336718195156 0.018535831011697246 0 -0.012564547646031593 0.018457974228693514 0 -0.012666336718195156 0.018535831011697246 0 -0.012684365160339894 0.018572523115788952 0 -0.012614836577365609 0.018583335683173358 0 -0.012666336718195156 0.018535831011697246 0 -0.01274496895299182 0.018546906034352408 0 -0.012684365160339894 0.018572523115788952 0 -0.012684365160339894 0.018572523115788952 0 -0.01261283021486375 0.018581489417226725 0 -0.012789719323413072 0.018603042405240224 0 -0.012707754328613813 0.018496937803868678 0 -0.012666336718195156 0.018535831011697246 0 -0.01274496895299182 0.018546906034352408 0 -0.01274496895299182 0.018546906034352408 0 -0.012684365160339894 0.018572523115788952 0 -0.012789719323413072 0.018603042405240224 0 -0.0099678638488023084 0.016250570211844517 0 -0.014456661252197084 0.014615570455924563 0 -0.012089603462078524 0.018272498420224662 0 -0.012590021634102135 0.018614084573415318 0 -0.012614836577365609 0.018583335683173358 0 -0.012089603462078524 0.018272498420224662 0 -0.012614836577365609 0.018583335683173358 0 -0.012564547646031593 0.018457974228693514 0 -0.0091155498531391519 0.014675458150281298 0 -0.006880230885530028 0.011168609175678716 0 -0.0091287979466488593 0.012196724985366482 0 -0.012684365160339894 0.018572523115788952 0 -0.01261283021486375 0.018581489417226725 0 -0.012614836577365609 0.018583335683173358 0 -0.014456661252197084 0.014615570455924563 0 -0.014037285598307801 0.015211694834389427 0 -0.012666336718195156 0.018535831011697246 0 -0.012614836577365609 0.018583335683173358 0 -0.012564547646031593 0.018457974228693514 0 -0.006880230885530028 0.011168609175678716 0 -0.0086156258388525586 0.010658991590097824 0 -0.0091287979466488593 0.012196724985366482 0 -0.021117247859321089 0.013023380692295611 0 -0.022390651834464131 0.011490874739121807 0 -0.021331069432166252 0.01086894428465641 0 -0.021117247859321089 0.013023380692295611 0 -0.020199139402955413 0.011391625415968835 0 -0.021331069432166252 0.01086894428465641 0 -0.006880230885530028 0.011168609175678716 0 -0.0086156258388525586 0.010658991590097824 0 -0.0086715035936967364 0.0088671683027653787 0 -0.014456661252197084 0.014615570455924563 0 -0.01581577752064256 0.0098505819643954998 0 -0.01261283021486375 0.018581489417226725 0 -0.012789719323413072 0.018603042405240224 0 -0.012850032781151067 0.018688408114421927 0 -0.014456661252197084 0.014615570455924563 0 -0.015724500789964277 0.014293932407626605 0 -0.012850032781151067 0.018688408114421927 0 -0.012916114485383655 0.018655324836683231 0 -0.01300170562756635 0.018729938166626946 0 -0.012789719323413072 0.018603042405240224 0 -0.012850032781151067 0.018688408114421927 0 -0.012916114485383655 0.018655324836683231 0 -0.012992956773206468 0.018674487099854777 0 -0.012916114485383655 0.018655324836683231 0 -0.01300170562756635 0.018729938166626946 0 -0.012928748779708912 0.018616124191618202 0 -0.012992956773206468 0.018674487099854777 0 -0.012916114485383655 0.018655324836683231 0 -0.012928748779708912 0.018616124191618202 0 -0.012879486804083547 0.018563771164724911 0 -0.012789719323413072 0.018603042405240224 0 -0.012928748779708912 0.018616124191618202 0 -0.012789719323413072 0.018603042405240224 0 -0.012916114485383655 0.018655324836683231 0 -0.012927366808097055 0.012007920884284397 0 -0.010858183232996406 0.012545939987520932 0 -0.010970128020289715 0.010573290461645492 0 -0.012221366146996175 0.014416693259718401 0 -0.012927366808097055 0.012007920884284397 0 -0.010858183232996406 0.012545939987520932 0 -0.0091155498531391519 0.014675458150281298 0 -0.010858183232996406 0.012545939987520932 0 -0.0091287979466488593 0.012196724985366482 0 -0.010858183232996406 0.012545939987520932 0 -0.0091287979466488593 0.012196724985366482 0 -0.0097773186790741599 0.01113534777646853 0 -0.0086156258388525586 0.010658991590097824 0 -0.0091287979466488593 0.012196724985366482 0 -0.0097773186790741599 0.01113534777646853 0 -0.010858183232996406 0.012545939987520932 0 -0.0097773186790741599 0.01113534777646853 0 -0.010970128020289715 0.010573290461645492 0 -0.0093171389548541896 0.0097111606998355905 0 -0.011341729265233356 0.008535018528131353 0 -0.010252918203639456 0.0062975697854395678 0 -0.0086715035936967364 0.0088671683027653787 0 -0.0093171389548541896 0.0097111606998355905 0 -0.010624339672879974 0.0065971279793752002 0 -0.0097773186790741599 0.01113534777646853 0 -0.010970128020289715 0.010573290461645492 0 -0.0093171389548541896 0.0097111606998355905 0 -0.010970128020289715 0.010573290461645492 0 -0.0093171389548541896 0.0097111606998355905 0 -0.011341729265233356 0.008535018528131353 0 -0.0086156258388525586 0.010658991590097824 0 -0.0097773186790741599 0.01113534777646853 0 -0.0093171389548541896 0.0097111606998355905 0 -0.0086156258388525586 0.010658991590097824 0 -0.0086715035936967364 0.0088671683027653787 0 -0.0093171389548541896 0.0097111606998355905 0 -0.012927366808097055 0.012007920884284397 0 -0.010970128020289715 0.010573290461645492 0 -0.013496551281809007 0.0094324170439607693 0 -0.011341729265233356 0.008535018528131353 0 -0.013496551281809007 0.0094324170439607693 0 -0.012699063661907629 0.0065383972338788898 0 -0.010970128020289715 0.010573290461645492 0 -0.011341729265233356 0.008535018528131353 0 -0.013496551281809007 0.0094324170439607693 0 -0.013496551281809007 0.0094324170439607693 0 -0.016960554323034734 0.0084597978397446399 0 -0.015455002912953569 0.011087070793810863 0 -0.016960554323034734 0.0084597978397446399 0 -0.017907959081195971 0.012153996869802335 0 -0.015455002912953569 0.011087070793810863 0 -0.016960554323034734 0.0084597978397446399 0 -0.017907959081195971 0.012153996869802335 0 -0.020602071272140594 0.0083113726862085961 0 -0.017907959081195971 0.012153996869802335 0 -0.015455002912953569 0.011087070793810863 0 -0.014624130515995126 0.013686151453048872 0 -0.012927366808097055 0.012007920884284397 0 -0.015455002912953569 0.011087070793810863 0 -0.014624130515995126 0.013686151453048872 0 -0.012927366808097055 0.012007920884284397 0 -0.013496551281809007 0.0094324170439607693 0 -0.015455002912953569 0.011087070793810863 0 -0.013824854704781361 0.016068931967982928 0 -0.01500855380642652 0.014466040609315903 0 -0.014624130515995126 0.013686151453048872 0 -0.013421854026894572 0.016526126672451319 0 -0.014587988505294348 0.01386883438883332 0 -0.016766403378572665 0.011917154878533554 0 -0.01481507292365461 0.014998644083402983 0 -0.015597705299144024 0.01175114247474335 0 -0.015604812767786653 0.014756255616623618 0 -0.016734227914125956 0.014606609662834679 0 -0.017907959081195971 0.012153996869802335 0 -0.01500855380642652 0.014466040609315903 0 -0.014624130515995126 0.013686151453048872 0 -0.015597705299144024 0.01175114247474335 0 -0.014636965480781564 0.015282580527573074 0 -0.015604812767786653 0.014756255616623618 0 -0.017907959081195971 0.012153996869802335 0 -0.01500855380642652 0.014466040609315903 0 -0.014636965480781564 0.015282580527573074 0 -0.015604812767786653 0.014756255616623618 0 -0.015969172268017754 0.015850189776459495 0 -0.016734227914125956 0.014606609662834679 0 -0.014636965480781564 0.015282580527573074 0 -0.015158166599617875 0.016087433375919669 0 -0.014434578698421839 0.017163274530190974 0 -0.014636965480781564 0.015282580527573074 0 -0.015604812767786653 0.014756255616623618 0 -0.015158166599617875 0.016087433375919669 0 -0.015158166599617875 0.016087433375919669 0 -0.015969172268017754 0.015850189776459495 0 -0.015480076070477848 0.017281738047972096 0 -0.015604812767786653 0.014756255616623618 0 -0.015158166599617875 0.016087433375919669 0 -0.015969172268017754 0.015850189776459495 0 -0.016231859829605511 0.018900929965959785 0 -0.015480076070477848 0.017281738047972096 0 -0.01689984072020188 0.016543123744084731 0 -0.015969172268017754 0.015850189776459495 0 -0.015480076070477848 0.017281738047972096 0 -0.01689984072020188 0.016543123744084731 0 -0.015158166599617875 0.016087433375919669 0 -0.015480076070477848 0.017281738047972096 0 -0.014434578698421839 0.017163274530190974 0 -0.013942323633785642 0.017294715601636253 0 -0.014852103936514564 0.014729018931660103 0 -0.014777918092088095 0.016645140747056593 0 -0.013824854704781361 0.016068931967982928 0 -0.01500855380642652 0.014466040609315903 0 -0.012936990711845226 0.018013830869923982 0 -0.01500855380642652 0.014466040609315903 0 -0.014636965480781564 0.015282580527573074 0 -0.012936990711845226 0.018013830869923982 0 -0.014636965480781564 0.015282580527573074 0 -0.014434578698421839 0.017163274530190974 0 -0.021057652047255886 0.017251211070930365 0 -0.0194069505888253 0.019402417967923108 0 -0.018604637033078176 0.016040251208910623 0 -0.021057652047255886 0.017251211070930365 0 -0.018604637033078176 0.016040251208910623 0 -0.020669965340535015 0.013706932336020494 0 -0.017621157009843152 0.018254339473587001 0 -0.018604637033078176 0.016040251208910623 0 -0.01689984072020188 0.016543123744084731 0 -0.015969172268017754 0.015850189776459495 0 -0.01689984072020188 0.016543123744084731 0 -0.016734227914125956 0.014606609662834679 0 -0.018604637033078176 0.016040251208910623 0 -0.01689984072020188 0.016543123744084731 0 -0.016734227914125956 0.014606609662834679 0 -0.018604637033078176 0.016040251208910623 0 -0.016734227914125956 0.014606609662834679 0 -0.01839757312793092 0.012369176754905398 0 -0.015597705299144024 0.01175114247474335 0 -0.016734227914125956 0.014606609662834679 0 -0.01839757312793092 0.012369176754905398 0 -0.018604637033078176 0.016040251208910623 0 -0.020669965340535015 0.013706932336020494 0 -0.01839757312793092 0.012369176754905398 0 -0.021186322187978383 0.01008555191315535 0 -0.01839757312793092 0.012369176754905398 0 -0.017729639266066497 0.0077148978815977818 0 -0.021186322187978383 0.01008555191315535 0 -0.020669965340535015 0.013706932336020494 0 -0.01839757312793092 0.012369176754905398 0 -0.015597705299144024 0.01175114247474335 0 -0.01839757312793092 0.012369176754905398 0 -0.017729639266066497 0.0077148978815977818 0 -0.016766403378572665 0.011917154878533554 0 -0.019179907630372302 0.0080090059992555338 0 -0.021186322187978383 0.01008555191315535 0 -0.017729639266066497 0.0077148978815977818 0 -0.022264736458668846 0.0064268020069060596 0 -0.017729639266066497 0.0077148978815977818 0 -0.020101028592158794 0.0041784935333547737 0 -0.022264736458668846 0.0064268020069060596 0 -0.019179907630372302 0.0080090059992555338 0 -0.021535284144197253 0.0042415813507826932 0 -0.020602071272140594 0.0083113726862085961 0 -0.023051323737236822 0.0042449189953169212 0 -0.018409433608018881 0.0041213283542116197 0 -0.023051323737236822 0.0042449189953169212 0 -0.020178949719443055 0.0015150565340055274 0 -0.018409433608018881 0.0041213283542116197 0 -0.023051323737236822 0.0042449189953169212 0 -0.020178949719443055 0.0015150565340055274 0 -0.02224571401451169 -0.00029597297352359044 0 -0.023051323737236822 0.0042449189953169212 0 -0.02224571401451169 -0.00029597297352359044 0 -0.024681780152570148 0.00040219732750069374 0 -0.020178949719443055 0.0015150565340055274 0 -0.019597029457511086 -0.0014264468601155325 0 -0.02224571401451169 -0.00029597297352359044 0 -0.020178949719443055 0.0015150565340055274 0 -0.019597029457511086 -0.0014264468601155325 0 -0.017467193716809788 0.00079541581589087109 0 -0.019845876477882659 -0.0014330819637109467 0 -0.022079353168915732 -0.0003909271520632994 0 -0.020564019835545934 -0.0012128757226557007 0 -0.02224571401451169 -0.00029597297352359044 0 -0.022633867562574194 -0.0030931839054072251 0 -0.02224571401451169 -0.00029597297352359044 0 -0.022633867562574194 -0.0030931839054072251 0 -0.023976990405605636 -0.0012821958888170138 0 -0.02224571401451169 -0.00029597297352359044 0 -0.024681780152570148 0.00040219732750069374 0 -0.023976990405605636 -0.0012821958888170138 0 -0.020064403936520453 0.00074246511558822247 0 -0.022280438911954813 0.00016122061017852194 0 -0.019566200267083656 -0.0010527298261103098 0 -0.020064403936520453 0.00074246511558822247 0 -0.018497436323059578 0.0017820130673367887 0 -0.019566200267083656 -0.0010527298261103098 0 -0.019621042436432118 -0.0024216048703379054 0 -0.017454041299043179 0.0016439742565068425 0 -0.020064403936520453 0.00074246511558822247 0 -0.022280438911954813 0.00016122061017852194 0 -0.020333370805206752 0.0026006155644905612 0 -0.020064403936520453 0.00074246511558822247 0 -0.020333370805206752 0.0026006155644905612 0 -0.018497436323059578 0.0017820130673367887 0 -0.01701944624315117 -0.0025577944618741027 0 -0.017467193716809788 0.00079541581589087109 0 -0.014680774346250746 0.00035310333494727495 0 -0.019597029457511086 -0.0014264468601155325 0 -0.01701944624315117 -0.0025577944618741027 0 -0.017467193716809788 0.00079541581589087109 0 -0.019845876477882659 -0.0014330819637109467 0 -0.019621042436432118 -0.0024216048703379054 0 -0.020178949719443055 0.0015150565340055274 0 -0.017467193716809788 0.00079541581589087109 0 -0.018409433608018881 0.0041213283542116197 0 -0.017454041299043179 0.0016439742565068425 0 -0.015240557204843212 0.0041885385288222415 0 -0.017467193716809788 0.00079541581589087109 0 -0.014680774346250746 0.00035310333494727495 0 -0.015494320042016107 0.0029625655042969817 0 -0.014680774346250746 0.00035310333494727495 0 -0.015494320042016107 0.0029625655042969817 0 -0.012404827725458789 0.0033357075502171147 0 -0.015494320042016107 0.0029625655042969817 0 -0.015304639710921624 0.0058883643331199007 0 -0.012404827725458789 0.0033357075502171147 0 -0.015494320042016107 0.0029625655042969817 0 -0.018409433608018881 0.0041213283542116197 0 -0.015304639710921624 0.0058883643331199007 0 -0.017467193716809788 0.00079541581589087109 0 -0.015494320042016107 0.0029625655042969817 0 -0.018409433608018881 0.0041213283542116197 0 -0.016960554323034734 0.0084597978397446399 0 -0.020602071272140594 0.0083113726862085961 0 -0.018409433608018881 0.0041213283542116197 0 -0.016960554323034734 0.0084597978397446399 0 -0.018409433608018881 0.0041213283542116197 0 -0.015304639710921624 0.0058883643331199007 0 -0.013496551281809007 0.0094324170439607693 0 -0.016960554323034734 0.0084597978397446399 0 -0.015304639710921624 0.0058883643331199007 0 -0.013496551281809007 0.0094324170439607693 0 -0.015304639710921624 0.0058883643331199007 0 -0.012699063661907629 0.0065383972338788898 0 -0.011341729265233356 0.008535018528131353 0 -0.012699063661907629 0.0065383972338788898 0 -0.010252918203639456 0.0062975697854395678 0 -0.0087639066591305541 0.0094186420649766574 0 -0.015036537743409047 0.0075463170376030312 0 -0.022390651834464131 0.011490874739121807 0 -0.02366248994188699 0.009947384592279852 0 -0.021886421176195738 0.0098674697091691802 0 -0.01581577752064256 0.0098505819643954998 0 -0.015036537743409047 0.0075463170376030312 0 -0.015036537743409047 0.0075463170376030312 0 -0.021291577008099416 0.0061525676698895339 0 -0.02366248994188699 0.009947384592279852 0 -0.022701097471878283 0.0082231392240162907 0 -0.024476413608556593 0.0078687365768502961 0 -0.02366248994188699 0.009947384592279852 0 -0.022701097471878283 0.0082231392240162907 0 -0.021886421176195738 0.0098674697091691802 0 -0.016328093644503047 0.0075502978178682047 0 -0.018347080039677614 0.0050694307734368759 0 -0.017418263780055999 0.0046555676200656414 0 -0.012699063661907629 0.0065383972338788898 0 -0.010252918203639456 0.0062975697854395678 0 -0.012404827725458789 0.0033357075502171147 0 -0.015036537743409047 0.0075463170376030312 0 -0.015240557204843212 0.0041885385288222415 0 -0.015304639710921624 0.0058883643331199007 0 -0.012699063661907629 0.0065383972338788898 0 -0.012404827725458789 0.0033357075502171147 0 -0.020199139402955413 0.011391625415968835 0 -0.020446427923038541 0.009958787611548248 0 -0.019262280088260784 0.0097218796982885217 0 -0.015724500789964277 0.014293932407626605 0 -0.030739936925055576 0.01476947721429262 0 -0.012850032781151067 0.018688408114421927 0 -0.01300170562756635 0.018729938166626946 0 -0.013143882524100614 0.018835777751935109 0 -0.020446427923038541 0.009958787611548248 0 -0.019481586742080521 0.0092932845989110637 0 -0.019262280088260784 0.0097218796982885217 0 -0.01300170562756635 0.018729938166626946 0 -0.013119670895607638 0.018803168978427254 0 -0.013143882524100614 0.018835777751935109 0 -0.030173093075119478 0.013026677685737571 0 -0.030739936925055576 0.01476947721429262 0 -0.020199139402955413 0.011391625415968835 0 -0.020446427923038541 0.009958787611548248 0 -0.021331069432166252 0.01086894428465641 0 -0.020446427923038541 0.009958787611548248 0 -0.021886421176195738 0.0098674697091691802 0 -0.021040484510957292 0.008891512845178735 0 -0.020446427923038541 0.009958787611548248 0 -0.021331069432166252 0.01086894428465641 0 -0.021886421176195738 0.0098674697091691802 0 -0.022390651834464131 0.011490874739121807 0 -0.021331069432166252 0.01086894428465641 0 -0.021886421176195738 0.0098674697091691802 0 -0.022701097471878283 0.0082231392240162907 0 -0.021040484510957292 0.008891512845178735 0 -0.020553059323936827 0.0069282626697429496 0 -0.022701097471878283 0.0082231392240162907 0 -0.021886421176195738 0.0098674697091691802 0 -0.021040484510957292 0.008891512845178735 0 -0.039284082200473483 0.015701179960869022 0 -0.039742858286190404 0.014421981245353972 0 -0.039058776054897625 0.015984004513245404 0 -0.039742858286190404 0.014421981245353972 0 -0.040021597550320143 0.015850777053970713 0 -0.03972605526800748 0.015026322874768334 0 -0.039284082200473483 0.015701179960869022 0 -0.039742858286190404 0.014421981245353972 0 -0.040434358422718149 0.014243882406207251 0 -0.030173093075119478 0.013026677685737571 0 -0.030053449254439576 0.010358628123237365 0 -0.021040484510957292 0.008891512845178735 0 -0.019481586742080521 0.0092932845989110637 0 -0.020553059323936827 0.0069282626697429496 0 -0.041210723100669013 0.014615053639314986 0 -0.030739936925055576 0.01476947721429262 0 -0.020446427923038541 0.009958787611548248 0 -0.021040484510957292 0.008891512845178735 0 -0.019481586742080521 0.0092932845989110637 0 -0.039742858286190404 0.014421981245353972 0 -0.040434358422718149 0.014243882406207251 0 -0.038746597734903139 0.013167346388710069 0 -0.039742858286190404 0.014421981245353972 0 -0.03972605526800748 0.015026322874768334 0 -0.039488930558987632 0.01455418749994097 0 -0.022701097471878283 0.0082231392240162907 0 -0.020553059323936827 0.0069282626697429496 0 -0.022422465831088371 0.0063709772191455549 0 -0.022422465831088371 0.0063709772191455549 0 -0.021662389475918274 0.0045440261976172746 0 -0.023110609565366706 0.005370941009787647 0 -0.020553059323936827 0.0069282626697429496 0 -0.022422465831088371 0.0063709772191455549 0 -0.021662389475918274 0.0045440261976172746 0 -0.030053449254439576 0.010358628123237365 0 -0.025923435517040159 0.0057424727933246128 0 -0.029739111121431086 0.010328494975749985 0 -0.031300160838237494 0.0069071162146793607 0 -0.030877826913122214 0.0067176591430532237 0 -0.030053449254439576 0.010358628123237365 0 -0.037075201436964168 0.0087504453835763208 0 -0.040434358422718149 0.014243882406207251 0 -0.038545975024856093 0.01021289646492554 0 -0.041416964185139675 0.01032861714503046 0 -0.040434358422718149 0.014243882406207251 0 -0.038545975024856093 0.01021289646492554 0 -0.038746597734903139 0.013167346388710069 0 -0.024476413608556593 0.0078687365768502961 0 -0.023861384451736918 0.0064975490812696516 0 -0.02533394600342203 0.0057476141874901066 0 -0.021291577008099416 0.0061525676698895339 0 -0.021721381600683959 0.0042901085736188026 0 -0.020333370805206752 0.0026006155644905612 0 -0.018347080039677614 0.0050694307734368759 0 -0.018497436323059578 0.0017820130673367887 0 -0.018347080039677614 0.0050694307734368759 0 -0.017418263780055999 0.0046555676200656414 0 -0.018497436323059578 0.0017820130673367887 0 -0.022701097471878283 0.0082231392240162907 0 -0.022422465831088371 0.0063709772191455549 0 -0.023861384451736918 0.0064975490812696516 0 -0.022701097471878283 0.0082231392240162907 0 -0.024476413608556593 0.0078687365768502961 0 -0.023861384451736918 0.0064975490812696516 0 -0.023861384451736918 0.0064975490812696516 0 -0.023110609565366706 0.005370941009787647 0 -0.024428671820904586 0.0053689978220259494 0 -0.022422465831088371 0.0063709772191455549 0 -0.023861384451736918 0.0064975490812696516 0 -0.023110609565366706 0.005370941009787647 0 -0.021662389475918274 0.0045440261976172746 0 -0.023110609565366706 0.005370941009787647 0 -0.023172559481182756 0.0040972664928281017 0 -0.023110609565366706 0.005370941009787647 0 -0.024428671820904586 0.0053689978220259494 0 -0.023172559481182756 0.0040972664928281017 0 -0.021721381600683959 0.0042901085736188026 0 -0.023565786139025515 -0.0016067754818910476 0 -0.024428671820904586 0.0053689978220259494 0 -0.02533394600342203 0.0057476141874901066 0 -0.024416684596322156 0.0034663464654323775 0 -0.02533394600342203 0.0057476141874901066 0 -0.024416684596322156 0.0034663464654323775 0 -0.026268453768715769 0.0032740852239112892 0 -0.023861384451736918 0.0064975490812696516 0 -0.024428671820904586 0.0053689978220259494 0 -0.02533394600342203 0.0057476141874901066 0 -0.024416684596322156 0.0034663464654323775 0 -0.02329689949258669 0.0019377085479432472 0 -0.026268453768715769 0.0032740852239112892 0 -0.02577912305081155 -0.0035193309501831754 0 -0.026198126279043603 -0.0036003389888004103 0 -0.026355999670293451 -0.0032576496449795767 0 -0.025172515468471421 0.00064976874818795279 0 -0.023565786139025515 -0.0016067754818910476 0 -0.023978055297744126 0.0058119197208910262 0 -0.025172515468471421 0.00064976874818795279 0 -0.023172559481182756 0.0040972664928281017 0 -0.023550902623544867 0.0025978069482401138 0 -0.022782039130125418 0.0022430209744370437 0 -0.024428671820904586 0.0053689978220259494 0 -0.024416684596322156 0.0034663464654323775 0 -0.02329689949258669 0.0019377085479432472 0 -0.024428671820904586 0.0053689978220259494 0 -0.023172559481182756 0.0040972664928281017 0 -0.023550902623544867 0.0025978069482401138 0 -0.027162026452281801 0.00087495041092469292 0 -0.026607263141517352 0.00062427446387454757 0 -0.026892470727516674 1.538111353691881e-05 0 -0.025172515468471421 0.00064976874818795279 0 -0.027623297227054231 -0.0017578319278579099 0 -0.025172515468471421 0.00064976874818795279 0 -0.028121096837429329 0.0022025880157304878 0 -0.028121096837429329 0.0022025880157304878 0 -0.027623297227054231 -0.0017578319278579099 0 -0.030686902720022457 0.0026905461307730632 0 -0.031679883807668653 0.00056728122145106895 0 -0.029617828324038132 0.0022119597206448267 0 -0.031679883807668653 0.00056728122145106895 0 -0.029617828324038132 0.0022119597206448267 0 -0.031040955945011731 -0.0013972367657290527 0 -0.034843486751294103 0.0035125420016426149 0 -0.031385746327797379 -0.001508251340351166 0 -0.02577912305081155 -0.0035193309501831754 0 -0.025694331001372344 -0.0038130606245810545 0 -0.025854498769587723 -0.0038218271281254359 0 -0.02577912305081155 -0.0035193309501831754 0 -0.025854498769587723 -0.0038218271281254359 0 -0.026027352046740011 -0.0037629805210603424 0 -0.025694331001372344 -0.0038130606245810545 0 -0.025854498769587723 -0.0038218271281254359 0 -0.025763025242746686 -0.0039568884271265446 0 -0.02577912305081155 -0.0035193309501831754 0 -0.026027352046740011 -0.0037629805210603424 0 -0.026198126279043603 -0.0036003389888004103 0 -0.025854498769587723 -0.0038218271281254359 0 -0.026027352046740011 -0.0037629805210603424 0 -0.026009718226768071 -0.004058379202068931 0 -0.026198126279043603 -0.0036003389888004103 0 -0.026280804695506015 -0.0039006588345425735 0 -0.026517467370023112 -0.003673882007748451 0 -0.026027352046740011 -0.0037629805210603424 0 -0.026198126279043603 -0.0036003389888004103 0 -0.026280804695506015 -0.0039006588345425735 0 -0.038545975024856093 0.01021289646492554 0 -0.039968303276949696 0.006888280222539552 0 -0.036510198540680876 0.0051048927301508337 0 -0.038545975024856093 0.01021289646492554 0 -0.039968303276949696 0.006888280222539552 0 -0.041416964185139675 0.01032861714503046 0 -0.037075201436964168 0.0087504453835763208 0 -0.034843486751294103 0.0035125420016426149 0 -0.039968303276949696 0.006888280222539552 0 -0.041416964185139675 0.01032861714503046 0 -0.043592383688523736 0.0049394998078192013 0 -0.021662389475918274 0.0045440261976172746 0 -0.023172559481182756 0.0040972664928281017 0 -0.022782039130125418 0.0022430209744370437 0 -0.032895295296277764 0.0034319263300179835 0 -0.030877826913122214 0.0067176591430532237 0 -0.032257628518122403 0.0031453247432396613 0 -0.031300160838237494 0.0069071162146793607 0 -0.032895295296277764 0.0034319263300179835 0 -0.030877826913122214 0.0067176591430532237 0 -0.025923435517040159 0.0057424727933246128 0 -0.028121096837429329 0.0022025880157304878 0 -0.028121096837429329 0.0022025880157304878 0 -0.034843486751294103 0.0035125420016426149 0 -0.034843486751294103 0.0035125420016426149 0 -0.037648333136081381 0.0023994563226289733 0 -0.034879358950579503 0.0012132874674359606 0 -0.034510862674490918 0.00098217302905854184 0 -0.034677306764719966 0.00078758079001426003 0 -0.039968303276949696 0.006888280222539552 0 -0.043592383688523736 0.0049394998078192013 0 -0.03985849485861629 0.0031033347169389818 0 -0.039968303276949696 0.006888280222539552 0 -0.03985849485861629 0.0031033347169389818 0 -0.036510198540680876 0.0051048927301508337 0 -0.03985849485861629 0.0031033347169389818 0 -0.036510198540680876 0.0051048927301508337 0 -0.034783384211686766 0.0013747798465593162 0 -0.034401449672476443 0.00052807142620283243 0 -0.033655447186552792 -0.00040268261565692433 0 -0.034783384211686766 0.0013747798465593162 0 -0.034510862674490918 0.00098217302905854184 0 -0.034401449672476443 0.00052807142620283243 0 -0.034783384211686766 0.0013747798465593162 0 -0.037648333136081381 0.0023994563226289733 0 -0.034979877057807231 0.0013219798518765221 0 -0.034401449672476443 0.00052807142620283243 0 -0.034677306764719966 0.00078758079001426003 0 -0.034775554544495733 -0.00012158509457506804 0 -0.034510862674490918 0.00098217302905854184 0 -0.034401449672476443 0.00052807142620283243 0 -0.034677306764719966 0.00078758079001426003 0 -0.034187788226562835 -0.00077466938354674717 0 -0.031385746327797379 -0.001508251340351166 0 -0.034677306764719966 0.00078758079001426003 0 -0.034775554544495733 -0.00012158509457506804 0 -0.035106412105957593 0.000763692334316267 0 -0.034879358950579503 0.0012132874674359606 0 -0.034677306764719966 0.00078758079001426003 0 -0.035106412105957593 0.000763692334316267 0 -0.034775554544495733 -0.00012158509457506804 0 -0.033655447186552792 -0.00040268261565692433 0 -0.033546666434158642 -0.0016682101230529019 0 -0.034401449672476443 0.00052807142620283243 0 -0.034775554544495733 -0.00012158509457506804 0 -0.033655447186552792 -0.00040268261565692433 0 -0.026248139321218437 -0.0042683464134077058 0 -0.026280804695506015 -0.0039006588345425735 0 -0.026009718226768071 -0.004058379202068931 0 -0.026027352046740011 -0.0037629805210603424 0 -0.026280804695506015 -0.0039006588345425735 0 -0.026009718226768071 -0.004058379202068931 0 -0.025854498769587723 -0.0038218271281254359 0 -0.026009718226768071 -0.004058379202068931 0 -0.025763025242746686 -0.0039568884271265446 0 -0.026009718226768071 -0.004058379202068931 0 -0.025763025242746686 -0.0039568884271265446 0 -0.025874564656533278 -0.0046476293013771423 0 -0.025763025242746686 -0.0039568884271265446 0 -0.025637899392968136 -0.0040064688784365561 0 -0.025874564656533278 -0.0046476293013771423 0 -0.027623297227054231 -0.0017578319278579099 0 -0.027288141996636373 -0.0028483095848869438 0 -0.025702716459779607 -0.0038001086652013176 0 -0.025763025242746686 -0.0039568884271265446 0 -0.025637899392968136 -0.0040064688784365561 0 -0.027623297227054231 -0.0017578319278579099 0 -0.031385746327797379 -0.001508251340351166 0 -0.033329513130856851 -0.002000395241486509 0 -0.033247853939335416 -0.0021663110858241032 0 -0.033191588650438003 -0.0019096661493878933 0 -0.031385746327797379 -0.001508251340351166 0 -0.02953140689114251 -0.0031121751919491298 0 -0.033329513130856851 -0.002000395241486509 0 -0.033191588650438003 -0.0019096661493878933 0 -0.033233688081474241 -0.0018799758068132389 0 -0.026248139321218437 -0.0042683464134077058 0 -0.026009718226768071 -0.004058379202068931 0 -0.025874564656533278 -0.0046476293013771423 0 -0.026248139321218437 -0.0042683464134077058 0 -0.025874564656533278 -0.0046476293013771423 0 -0.026398825737154297 -0.0046840085634490304 0 -0.023129218601265222 -0.0095818929369462704 0 -0.022436401477349922 -0.008627231683761857 0 -0.022728320352902686 -0.0091015039592057204 0 -0.023129218601265222 -0.0095818929369462704 0 -0.022172721166837082 -0.0083822276284806312 0 -0.022436401477349922 -0.008627231683761857 0 -0.026248139321218437 -0.0042683464134077058 0 -0.026398825737154297 -0.0046840085634490304 0 -0.026666914081392556 -0.0040929777909917107 0 -0.024727536155949036 -0.0072293953620839509 0 -0.02325962938141525 -0.0063515819850439564 0 -0.026248139321218437 -0.0042683464134077058 0 -0.026280804695506015 -0.0039006588345425735 0 -0.026666914081392556 -0.0040929777909917107 0 -0.023129218601265222 -0.0095818929369462704 0 -0.022172721166837082 -0.0083822276284806312 0 -0.022055576827722054 -0.0082587203564612952 0 -0.022172721166837082 -0.0083822276284806312 0 -0.021988878645061577 -0.0081581320499260045 0 -0.022232389908048975 -0.0082881935882456719 0 -0.023265646433214333 -0.0067949075409534498 0 -0.02325962938141525 -0.0063515819850439564 0 -0.02325962938141525 -0.0063515819850439564 0 -0.021954606217888594 -0.0078324547901611041 0 -0.022209642164304041 -0.0079446815815874452 0 -0.022526272461257799 -0.0081110932290987033 0 -0.02209023134304915 -0.0071524111818013691 0 -0.021988878645061577 -0.0081581320499260045 0 -0.022209642164304041 -0.0079446815815874452 0 -0.021860080442461443 -0.0073512667719970778 0 -0.021988878645061577 -0.0081581320499260045 0 -0.022209642164304041 -0.0079446815815874452 0 -0.022232389908048975 -0.0082881935882456719 0 -0.022172721166837082 -0.0083822276284806312 0 -0.022232389908048975 -0.0082881935882456719 0 -0.022436401477349922 -0.008627231683761857 0 -0.022209642164304041 -0.0079446815815874452 0 -0.022232389908048975 -0.0082881935882456719 0 -0.022436401477349922 -0.008627231683761857 0 -0.022209642164304041 -0.0079446815815874452 0 -0.022436401477349922 -0.008627231683761857 0 -0.022526272461257799 -0.0081110932290987033 0 -0.022436401477349922 -0.008627231683761857 0 -0.022728320352902686 -0.0091015039592057204 0 -0.022758513143930629 -0.0087225043920763096 0 -0.022436401477349922 -0.008627231683761857 0 -0.022758513143930629 -0.0087225043920763096 0 -0.022526272461257799 -0.0081110932290987033 0 -0.022758513143930629 -0.0087225043920763096 0 -0.023130632451014602 -0.0082901136654375939 0 -0.023072096575825721 -0.0089956377780393108 0 -0.022728320352902686 -0.0091015039592057204 0 -0.022758513143930629 -0.0087225043920763096 0 -0.022783697746838576 -0.0091905304681012823 0 -0.023130632451014602 -0.0082901136654375939 0 -0.023072096575825721 -0.0089956377780393108 0 -0.023547701550000581 -0.008479635758166881 0 -0.023130632451014602 -0.0082901136654375939 0 -0.023586044781228097 -0.0080660489631664903 0 -0.023547701550000581 -0.008479635758166881 0 -0.023130632451014602 -0.0082901136654375939 0 -0.023500819450706509 -0.0073810986624080043 0 -0.023586044781228097 -0.0080660489631664903 0 -0.023130632451014602 -0.0082901136654375939 0 -0.022645962187209556 -0.0076234742284315947 0 -0.023500819450706509 -0.0073810986624080043 0 -0.022758513143930629 -0.0087225043920763096 0 -0.023130632451014602 -0.0082901136654375939 0 -0.022526272461257799 -0.0081110932290987033 0 -0.023130632451014602 -0.0082901136654375939 0 -0.022526272461257799 -0.0081110932290987033 0 -0.022645962187209556 -0.0076234742284315947 0 -0.022526272461257799 -0.0081110932290987033 0 -0.022645962187209556 -0.0076234742284315947 0 -0.02209023134304915 -0.0071524111818013691 0 -0.022645962187209556 -0.0076234742284315947 0 -0.021956737702060566 -0.0066528772074833133 0 -0.02209023134304915 -0.0071524111818013691 0 -0.021956737702060566 -0.0066528772074833133 0 -0.022073972306799 -0.0067563900830607737 0 -0.02209023134304915 -0.0071524111818013691 0 -0.022645962187209556 -0.0076234742284315947 0 -0.021956737702060566 -0.0066528772074833133 0 -0.023500819450706509 -0.0073810986624080043 0 -0.021743840596736379 -0.0064087762986873194 0 -0.021161899796537858 -0.0056565253618795054 0 -0.023500819450706509 -0.0073810986624080043 0 -0.023232219571955422 -0.0055630036436712573 0 -0.024897057641919098 -0.0048576328643034385 0 -0.021956737702060566 -0.0066528772074833133 0 -0.023500819450706509 -0.0073810986624080043 0 -0.023232219571955422 -0.0055630036436712573 0 -0.023232219571955422 -0.0055630036436712573 0 -0.024897057641919098 -0.0048576328643034385 0 -0.022633867562574194 -0.0030931839054072251 0 -0.021956737702060566 -0.0066528772074833133 0 -0.023232219571955422 -0.0055630036436712573 0 -0.022633867562574194 -0.0030931839054072251 0 -0.021956737702060566 -0.0066528772074833133 0 -0.022633867562574194 -0.0030931839054072251 0 -0.019784727382383099 -0.004148166406366993 0 -0.020564019835545934 -0.0012128757226557007 0 -0.022633867562574194 -0.0030931839054072251 0 -0.019784727382383099 -0.004148166406366993 0 -0.020564019835545934 -0.0012128757226557007 0 -0.018260133248574142 -0.002283622759760347 0 -0.019784727382383099 -0.004148166406366993 0 -0.021859467567213839 -0.0064043686340965232 0 -0.022073972306799 -0.0067563900830607737 0 -0.021810524317234754 -0.0068959652168996358 0 -0.019621042436432118 -0.0024216048703379054 0 -0.021161899796537858 -0.0056565253618795054 0 -0.021810524317234754 -0.0068959652168996358 0 -0.021323110409421708 -0.00661958551353515 0 -0.021486327336042995 -0.0071390985825816444 0 -0.019621042436432118 -0.0024216048703379054 0 -0.023565786139025515 -0.0016067754818910476 0 -0.021859467567213839 -0.0064043686340965232 0 -0.021810524317234754 -0.0068959652168996358 0 -0.021323110409421708 -0.00661958551353515 0 -0.023565786139025515 -0.0016067754818910476 0 -0.024175542041350334 -0.0058764737407234948 0 -0.021810524317234754 -0.0068959652168996358 0 -0.021486327336042995 -0.0071390985825816444 0 -0.021860080442461443 -0.0073512667719970778 0 -0.026198126279043603 -0.0036003389888004103 0 -0.026355999670293451 -0.0032576496449795767 0 -0.026517467370023112 -0.003673882007748451 0 -0.026280804695506015 -0.0039006588345425735 0 -0.026666914081392556 -0.0040929777909917107 0 -0.026517467370023112 -0.003673882007748451 0 -0.02325962938141525 -0.0063515819850439564 0 -0.024175542041350334 -0.0058764737407234948 0 -0.021695814753303028 -0.007688958465735511 0 -0.021486327336042995 -0.0071390985825816444 0 -0.021860080442461443 -0.0073512667719970778 0 -0.022073972306799 -0.0067563900830607737 0 -0.021810524317234754 -0.0068959652168996358 0 -0.02209023134304915 -0.0071524111818013691 0 -0.022209642164304041 -0.0079446815815874452 0 -0.021860080442461443 -0.0073512667719970778 0 -0.02209023134304915 -0.0071524111818013691 0 -0.021810524317234754 -0.0068959652168996358 0 -0.021860080442461443 -0.0073512667719970778 0 -0.02209023134304915 -0.0071524111818013691 0 -0.034999733747006156 0.013753599330990768 0 -0.036388589036838281 0.013984148578366514 0 -0.035794918869203558 0.012569044850399939 0 -0.036388589036838281 0.013984148578366514 0 -0.036690874016260117 0.012335053238276687 0 -0.035794918869203558 0.012569044850399939 0 -0.036372748928261013 0.014367049988596108 0 -0.035000124931843055 0.015434430972334911 0 -0.036352530902522669 0.014646524725248701 0 -0.0349999393544594 0.015435293607822148 0 -0.035925629544469796 0.015729050280558241 0 -0.034999733747006156 0.013753599330990768 0 -0.036388589036838281 0.013984148578366514 0 -0.035000049106649007 0.015434377065567807 0 -0.036194839699702386 0.018439599688639872 0 -0.034999779343380277 0.01587823272354922 0 -0.036263173911155425 0.016620011852956577 0 -0.035000204966392702 0.015877913967831187 0 -0.03623858960178581 0.016571877680144786 0 -0.034999954111206794 0.015877279297432288 0 -0.0349999393544594 0.015435293607822148 0 -0.035925629544469796 0.015729050280558241 0 -0.034999954111206794 0.015877279297432288 0 -0.036186295742315203 0.016506804726359688 0 -0.035925629544469796 0.015729050280558241 0 -0.036352530902522669 0.014646524725248701 0 -0.035925629544469796 0.015729050280558241 0 -0.037081005332954352 0.016196900580496523 0 -0.036186295742315203 0.016506804726359688 0 -0.035925629544469796 0.015729050280558241 0 -0.037081005332954352 0.016196900580496523 0 -0.036694059528095388 0.017525343630158105 0 -0.036263173911155425 0.016620011852956577 0 -0.037419388454169852 0.017231174364940562 0 -0.03623858960178581 0.016571877680144786 0 -0.037353372862977949 0.017172288980508672 0 -0.036186295742315203 0.016506804726359688 0 -0.037081005332954352 0.016196900580496523 0 -0.037419388454169852 0.017231174364940562 0 -0.037081005332954352 0.016196900580496523 0 -0.037419388454169852 0.017231174364940562 0 -0.037904816009213665 0.01683758015891787 0 -0.037220915491206978 0.016727926467786602 0 -0.037022080396690075 0.014712143103046731 0 -0.038573759354949937 0.015939684607115617 0 -0.037081005332954352 0.016196900580496523 0 -0.037904816009213665 0.01683758015891787 0 -0.037864529657185717 0.015206800307407569 0 -0.037566173824184541 0.016759262455811438 0 -0.037434078596690817 0.01500557697241729 0 -0.037022080396690075 0.014712143103046731 0 -0.03783701793627376 0.013116628295449165 0 -0.038771455665335054 0.013672337633496609 0 -0.036352530902522669 0.014646524725248701 0 -0.037081005332954352 0.016196900580496523 0 -0.037864529657185717 0.015206800307407569 0 -0.036388589036838281 0.013984148578366514 0 -0.037636384511843125 0.012631351163083403 0 -0.036690874016260117 0.012335053238276687 0 -0.036372748928261013 0.014367049988596108 0 -0.037522750460819897 0.012882905629834105 0 -0.036352530902522669 0.014646524725248701 0 -0.037864529657185717 0.015206800307407569 0 -0.037797939654836403 0.013682634733488448 0 -0.037022080396690075 0.014712143103046731 0 -0.036975465340771493 0.012520168188865297 0 -0.03783701793627376 0.013116628295449165 0 -0.037434078596690817 0.01500557697241729 0 -0.037522750460819897 0.012882905629834105 0 -0.036975465340771493 0.012520168188865297 0 -0.03783701793627376 0.013116628295449165 0 -0.037629311583385575 0.012125841232382197 0 -0.03783701793627376 0.013116628295449165 0 -0.038771455665335054 0.013672337633496609 0 -0.03870551521763918 0.011510964944311503 0 -0.037905503464671149 0.013589822585734159 0 -0.038013021289256717 0.011546923586580249 0 -0.037040953159359874 0.013496512302568547 0 -0.038249615875604659 0.013990731894971551 0 -0.038610190863844554 0.012884580062361674 0 -0.037040953159359874 0.013496512302568547 0 -0.038610190863844554 0.012884580062361674 0 -0.037926120469712103 0.012316344252104905 0 -0.038249615875604659 0.013990731894971551 0 -0.03787360389995667 0.014829007088441308 0 -0.038694007280550113 0.014853875091953371 0 -0.037040953159359874 0.013496512302568547 0 -0.038249615875604659 0.013990731894971551 0 -0.03787360389995667 0.014829007088441308 0 -0.037022080396690075 0.014712143103046731 0 -0.038771455665335054 0.013672337633496609 0 -0.038573759354949937 0.015939684607115617 0 -0.037905503464671149 0.013589822585734159 0 -0.037893545722351686 0.015733601684619253 0 -0.037040953159359874 0.013496512302568547 0 -0.037136230497251101 0.015583430394362658 0 -0.03787360389995667 0.014829007088441308 0 -0.038097589989367651 0.017458214063076155 0 -0.037893545722351686 0.015733601684619253 0 -0.03816143052161227 0.017631690249784251 0 -0.037220915491206978 0.016727926467786602 0 -0.038573759354949937 0.015939684607115617 0 -0.03816143052161227 0.017631690249784251 0 -0.037136230497251101 0.015583430394362658 0 -0.038195767212798458 0.016870309207051584 0 -0.038713317939090497 0.017193336574960798 0 -0.038195767212798458 0.016870309207051584 0 -0.038409056673302966 0.015925565326088416 0 -0.037136230497251101 0.015583430394362658 0 -0.038195767212798458 0.016870309207051584 0 -0.038409056673302966 0.015925565326088416 0 -0.03787360389995667 0.014829007088441308 0 -0.038409056673302966 0.015925565326088416 0 -0.038694007280550113 0.014853875091953371 0 -0.037136230497251101 0.015583430394362658 0 -0.03787360389995667 0.014829007088441308 0 -0.038409056673302966 0.015925565326088416 0 -0.038694007280550113 0.014853875091953371 0 -0.03921567488778846 0.015248179099524462 0 -0.039050167165768021 0.014556317779323629 0 -0.038694007280550113 0.014853875091953371 0 -0.039001691534282117 0.015725276143358974 0 -0.03921567488778846 0.015248179099524462 0 -0.038409056673302966 0.015925565326088416 0 -0.038694007280550113 0.014853875091953371 0 -0.039001691534282117 0.015725276143358974 0 -0.038713317939090497 0.017193336574960798 0 -0.038409056673302966 0.015925565326088416 0 -0.03890920440990113 0.016343027429460272 0 -0.038409056673302966 0.015925565326088416 0 -0.039001691534282117 0.015725276143358974 0 -0.03890920440990113 0.016343027429460272 0 -0.039001691534282117 0.015725276143358974 0 -0.03890920440990113 0.016343027429460272 0 -0.039319357422467401 0.016264018853245195 0 -0.038713317939090497 0.017193336574960798 0 -0.03890920440990113 0.016343027429460272 0 -0.039102504491653603 0.016796412303583058 0 -0.03890920440990113 0.016343027429460272 0 -0.039102504491653603 0.016796412303583058 0 -0.039319357422467401 0.016264018853245195 0 -0.025578701493887745 0.018708206026844271 0 -0.031079985611318584 0.017887824830068063 0 -0.038862689672032338 0.018185463864211736 0 -0.038539961104579301 0.018243638963144477 0 -0.038471582995636897 0.018261104341014238 0 -0.039738880598771904 0.017122883845229656 0 -0.039845547807339357 0.016185314564015816 0 -0.040021597550320143 0.015850777053970713 0 -0.039706730869680053 0.017656643876123135 0 -0.031079985611318584 0.017887824830068063 0 -0.039441919537128806 0.017421742651550116 0 -0.030739936925055576 0.01476947721429262 0 -0.012992956773206468 0.018674487099854777 0 -0.01300170562756635 0.018729938166626946 0 -0.013119670895607638 0.018803168978427254 0 -0.039738880598771904 0.017122883845229656 0 -0.039646303976448347 0.016631476309853344 0 -0.039845547807339357 0.016185314564015816 0 -0.039646303976448347 0.016631476309853344 0 -0.039575497365009274 0.016430768800214691 0 -0.039845547807339357 0.016185314564015816 0 -0.039738880598771904 0.017122883845229656 0 -0.039646303976448347 0.016631476309853344 0 -0.03942550534394812 0.016786752802682516 0 -0.039102504491653603 0.016796412303583058 0 -0.03942550534394812 0.016786752802682516 0 -0.039319357422467401 0.016264018853245195 0 -0.03942550534394812 0.016786752802682516 0 -0.039575497365009274 0.016430768800214691 0 -0.039319357422467401 0.016264018853245195 0 -0.039646303976448347 0.016631476309853344 0 -0.03942550534394812 0.016786752802682516 0 -0.039575497365009274 0.016430768800214691 0 -0.039575497365009274 0.016430768800214691 0 -0.039605402822318593 0.016147632655291112 0 -0.039319357422467401 0.016264018853245195 0 -0.039605402822318593 0.016147632655291112 0 -0.039319357422467401 0.016264018853245195 0 -0.039536748645839503 0.015828014653638822 0 -0.039001691534282117 0.015725276143358974 0 -0.039319357422467401 0.016264018853245195 0 -0.039536748645839503 0.015828014653638822 0 -0.039536748645839503 0.015828014653638822 0 -0.039757354504601376 0.01579934174634208 0 -0.039752203842143757 0.015971887502521386 0 -0.039605402822318593 0.016147632655291112 0 -0.039536748645839503 0.015828014653638822 0 -0.039752203842143757 0.015971887502521386 0 -0.039605402822318593 0.016147632655291112 0 -0.039752203842143757 0.015971887502521386 0 -0.039845547807339357 0.016185314564015816 0 -0.039575497365009274 0.016430768800214691 0 -0.039605402822318593 0.016147632655291112 0 -0.039845547807339357 0.016185314564015816 0 -0.039757354504601376 0.01579934174634208 0 -0.040021597550320143 0.015850777053970713 0 -0.039888051927157692 0.015885783594689243 0 -0.031079985611318584 0.017887824830068063 0 -0.030739936925055576 0.01476947721429262 0 -0.039845547807339357 0.016185314564015816 0 -0.040021597550320143 0.015850777053970713 0 -0.039888051927157692 0.015885783594689243 0 -0.039757354504601376 0.01579934174634208 0 -0.040021597550320143 0.015850777053970713 0 -0.039844216844378319 0.015638029294270724 0 -0.039752203842143757 0.015971887502521386 0 -0.039845547807339357 0.016185314564015816 0 -0.039888051927157692 0.015885783594689243 0 -0.039757354504601376 0.01579934174634208 0 -0.039752203842143757 0.015971887502521386 0 -0.039888051927157692 0.015885783594689243 0 -0.040021597550320143 0.015850777053970713 0 -0.039844216844378319 0.015638029294270724 0 -0.039777160537920186 0.015387971025600314 0 -0.039844216844378319 0.015638029294270724 0 -0.03959870651603771 0.015487635074844124 0 -0.039777160537920186 0.015387971025600314 0 -0.040021597550320143 0.015850777053970713 0 -0.039777160537920186 0.015387971025600314 0 -0.03972605526800748 0.015026322874768334 0 -0.039536748645839503 0.015828014653638822 0 -0.039757354504601376 0.01579934174634208 0 -0.03959870651603771 0.015487635074844124 0 -0.039757354504601376 0.01579934174634208 0 -0.039844216844378319 0.015638029294270724 0 -0.03959870651603771 0.015487635074844124 0 -0.03959870651603771 0.015487635074844124 0 -0.039777160537920186 0.015387971025600314 0 -0.039479064308855887 0.015039317556856798 0 -0.039001691534282117 0.015725276143358974 0 -0.039536748645839503 0.015828014653638822 0 -0.03921567488778846 0.015248179099524462 0 -0.039536748645839503 0.015828014653638822 0 -0.03959870651603771 0.015487635074844124 0 -0.03921567488778846 0.015248179099524462 0 -0.03959870651603771 0.015487635074844124 0 -0.03921567488778846 0.015248179099524462 0 -0.039479064308855887 0.015039317556856798 0 -0.03921567488778846 0.015248179099524462 0 -0.039479064308855887 0.015039317556856798 0 -0.039050167165768021 0.014556317779323629 0 -0.039479064308855887 0.015039317556856798 0 -0.039488930558987632 0.01455418749994097 0 -0.039050167165768021 0.014556317779323629 0 -0.039777160537920186 0.015387971025600314 0 -0.03972605526800748 0.015026322874768334 0 -0.039479064308855887 0.015039317556856798 0 -0.03972605526800748 0.015026322874768334 0 -0.039479064308855887 0.015039317556856798 0 -0.039488930558987632 0.01455418749994097 0 -0.039488930558987632 0.01455418749994097 0 -0.039097992609551734 0.014017704381781971 0 -0.039050167165768021 0.014556317779323629 0 -0.039742858286190404 0.014421981245353972 0 -0.039488930558987632 0.01455418749994097 0 -0.039097992609551734 0.014017704381781971 0 -0.039097992609551734 0.014017704381781971 0 -0.038823294103210088 0.01386234551370096 0 -0.03906344365442245 0.012931811923265131 0 -0.039742858286190404 0.014421981245353972 0 -0.039097992609551734 0.014017704381781971 0 -0.038746597734903139 0.013167346388710069 0 -0.039097992609551734 0.014017704381781971 0 -0.039050167165768021 0.014556317779323629 0 -0.038823294103210088 0.01386234551370096 0 -0.038249615875604659 0.013990731894971551 0 -0.038823294103210088 0.01386234551370096 0 -0.038610190863844554 0.012884580062361674 0 -0.038694007280550113 0.014853875091953371 0 -0.039050167165768021 0.014556317779323629 0 -0.038823294103210088 0.01386234551370096 0 -0.038249615875604659 0.013990731894971551 0 -0.038694007280550113 0.014853875091953371 0 -0.038823294103210088 0.01386234551370096 0 -0.038823294103210088 0.01386234551370096 0 -0.038610190863844554 0.012884580062361674 0 -0.03906344365442245 0.012931811923265131 0 -0.038610190863844554 0.012884580062361674 0 -0.03906344365442245 0.012931811923265131 0 -0.03975267172502743 0.01192581480725363 0 -0.039097992609551734 0.014017704381781971 0 -0.03906344365442245 0.012931811923265131 0 -0.038746597734903139 0.013167346388710069 0 -0.03906344365442245 0.012931811923265131 0 -0.038746597734903139 0.013167346388710069 0 -0.03975267172502743 0.01192581480725363 0 -0.038510889044187729 0.01280875462828235 0 -0.037243891527805856 0.0097360835324219429 0 -0.038545975024856093 0.01021289646492554 0 -0.038746597734903139 0.013167346388710069 0 -0.034654579663249446 0.0078222037061971752 0 -0.038545975024856093 0.01021289646492554 0 -0.036510198540680876 0.0051048927301508337 0 -0.034654579663249446 0.0078222037061971752 0 -0.038610190863844554 0.012884580062361674 0 -0.03975267172502743 0.01192581480725363 0 -0.038723019214449123 0.011351317553262887 0 -0.038723019214449123 0.011351317553262887 0 -0.039823194999470291 0.0098425068769608225 0 -0.038777138642979915 0.0098280074282613289 0 -0.03975267172502743 0.01192581480725363 0 -0.038723019214449123 0.011351317553262887 0 -0.039823194999470291 0.0098425068769608225 0 -0.036510198540680876 0.0051048927301508337 0 -0.034654579663249446 0.0078222037061971752 0 -0.032387238265516496 0.0015161086088640425 0 -0.036510198540680876 0.0051048927301508337 0 -0.034783384211686766 0.0013747798465593162 0 -0.032387238265516496 0.0015161086088640425 0 -0.037243891527805856 0.0097360835324219429 0 -0.036138231867081989 0.005740168081064553 0 -0.034783384211686766 0.0013747798465593162 0 -0.032387238265516496 0.0015161086088640425 0 -0.033181581359226733 6.0424587549820872e-05 0 -0.033655447186552792 -0.00040268261565692433 0 -0.034783384211686766 0.0013747798465593162 0 -0.033181581359226733 6.0424587549820872e-05 0 -0.032387238265516496 0.0015161086088640425 0 -0.033181581359226733 6.0424587549820872e-05 0 -0.032172506490254445 -0.00040982333716728186 0 -0.033181581359226733 6.0424587549820872e-05 0 -0.032172506490254445 -0.00040982333716728186 0 -0.032814043906942807 -0.00088460802784483727 0 -0.033655447186552792 -0.00040268261565692433 0 -0.033181581359226733 6.0424587549820872e-05 0 -0.032814043906942807 -0.00088460802784483727 0 -0.036138231867081989 0.005740168081064553 0 -0.035833439071972201 0.0037442948774047383 0 -0.039823194999470291 0.0098425068769608225 0 -0.039570201238306194 0.008015255207140453 0 -0.038777138642979915 0.0098280074282613289 0 -0.038777138642979915 0.0098280074282613289 0 -0.038131701587097548 0.0096733857117546531 0 -0.038584562391705622 0.0079269796803480147 0 -0.039570201238306194 0.008015255207140453 0 -0.038777138642979915 0.0098280074282613289 0 -0.038584562391705622 0.0079269796803480147 0 -0.038131701587097548 0.0096733857117546531 0 -0.037647079659447094 0.0085649087526995064 0 -0.038584562391705622 0.0079269796803480147 0 -0.038131701587097548 0.0096733857117546531 0 -0.037885674623337577 0.011041853374645584 0 -0.037500171807397446 0.010188341178962085 0 -0.038113059390450198 0.0098429191271165485 0 -0.038013021289256717 0.011546923586580249 0 -0.038131701587097548 0.0096733857117546531 0 -0.03870551521763918 0.011510964944311503 0 -0.037885674623337577 0.011041853374645584 0 -0.038777138642979915 0.0098280074282613289 0 -0.038131701587097548 0.0096733857117546531 0 -0.037313744329132016 0.011533823060666179 0 -0.038723019214449123 0.011351317553262887 0 -0.038777138642979915 0.0098280074282613289 0 -0.037313744329132016 0.011533823060666179 0 -0.038610190863844554 0.012884580062361674 0 -0.038723019214449123 0.011351317553262887 0 -0.037926120469712103 0.012316344252104905 0 -0.038723019214449123 0.011351317553262887 0 -0.037926120469712103 0.012316344252104905 0 -0.037313744329132016 0.011533823060666179 0 -0.03783701793627376 0.013116628295449165 0 -0.03870551521763918 0.011510964944311503 0 -0.037629311583385575 0.012125841232382197 0 -0.037040953159359874 0.013496512302568547 0 -0.037926120469712103 0.012316344252104905 0 -0.037313744329132016 0.011533823060666179 0 -0.03870551521763918 0.011510964944311503 0 -0.037629311583385575 0.012125841232382197 0 -0.037885674623337577 0.011041853374645584 0 -0.037394746997481507 0.011638648680268775 0 -0.037629311583385575 0.012125841232382197 0 -0.037885674623337577 0.011041853374645584 0 -0.037636384511843125 0.012631351163083403 0 -0.037394746997481507 0.011638648680268775 0 -0.037169156188423001 0.012046903937714957 0 -0.037522750460819897 0.012882905629834105 0 -0.037624285425201326 0.012464372722919531 0 -0.037322697164513516 0.012327833315462139 0 -0.037394746997481507 0.011638648680268775 0 -0.037629311583385575 0.012125841232382197 0 -0.037522750460819897 0.012882905629834105 0 -0.037423112414365071 0.01170943527552047 0 -0.036690874016260117 0.012335053238276687 0 -0.037169156188423001 0.012046903937714957 0 -0.036929154182103144 0.011021277171408316 0 -0.037636384511843125 0.012631351163083403 0 -0.036690874016260117 0.012335053238276687 0 -0.037169156188423001 0.012046903937714957 0 -0.037394746997481507 0.011638648680268775 0 -0.037169156188423001 0.012046903937714957 0 -0.036929154182103144 0.011021277171408316 0 -0.036690874016260117 0.012335053238276687 0 -0.036929154182103144 0.011021277171408316 0 -0.036242555852968698 0.011298409462922024 0 -0.036929154182103144 0.011021277171408316 0 -0.036315920900794815 0.010084297543884171 0 -0.036242555852968698 0.011298409462922024 0 -0.037394746997481507 0.011638648680268775 0 -0.037885674623337577 0.011041853374645584 0 -0.037500171807397446 0.010188341178962085 0 -0.037394746997481507 0.011638648680268775 0 -0.036929154182103144 0.011021277171408316 0 -0.037500171807397446 0.010188341178962085 0 -0.038131701587097548 0.0096733857117546531 0 -0.037500171807397446 0.010188341178962085 0 -0.037647079659447094 0.0085649087526995064 0 -0.037500171807397446 0.010188341178962085 0 -0.037647079659447094 0.0085649087526995064 0 -0.036850744925309403 0.0093521438471807529 0 -0.037647079659447094 0.0085649087526995064 0 -0.036850744925309403 0.0093521438471807529 0 -0.036937267095268955 0.0075740729050014603 0 -0.036929154182103144 0.011021277171408316 0 -0.036850744925309403 0.0093521438471807529 0 -0.036315920900794815 0.010084297543884171 0 -0.036929154182103144 0.011021277171408316 0 -0.037500171807397446 0.010188341178962085 0 -0.036850744925309403 0.0093521438471807529 0 -0.036850744925309403 0.0093521438471807529 0 -0.036315920900794815 0.010084297543884171 0 -0.036029189312249868 0.0092288595237247605 0 -0.035616754049280712 0.0099734530054876817 0 -0.036222403350885203 0.011191929785951087 0 -0.036315920900794815 0.010084297543884171 0 -0.035429936240866114 0.0096883183479976997 0 -0.036242555852968698 0.011298409462922024 0 -0.036315920900794815 0.010084297543884171 0 -0.036029189312249868 0.0092288595237247605 0 -0.035429936240866114 0.0096883183479976997 0 -0.036850744925309403 0.0093521438471807529 0 -0.036029189312249868 0.0092288595237247605 0 -0.036132237629550742 0.0084320898239316558 0 -0.036029189312249868 0.0092288595237247605 0 -0.034999459762658142 0.0087109298230337671 0 -0.036132237629550742 0.0084320898239316558 0 -0.036029189312249868 0.0092288595237247605 0 -0.035429936240866114 0.0096883183479976997 0 -0.034999459762658142 0.0087109298230337671 0 -0.034999891310252274 0.010392660176614903 0 -0.035792158490710158 0.010209835213028221 0 -0.035000028315348694 0.0087118852788027525 0 -0.035616754049280712 0.0099734530054876817 0 -0.035000088419674037 0.0087120823720427242 0 -0.034999891310252274 0.010392660176614903 0 -0.035792158490710158 0.010209835213028221 0 -0.035589907050245895 0.011167003494451487 0 -0.034999891310252274 0.010392660176614903 0 -0.035589907050245895 0.011167003494451487 0 -0.034999829494228453 0.012072927927137534 0 -0.035589907050245895 0.011167003494451487 0 -0.034999829494228453 0.012072927927137534 0 -0.035794918869203558 0.012569044850399939 0 -0.035589907050245895 0.011167003494451487 0 -0.036242555852968698 0.011298409462922024 0 -0.035794918869203558 0.012569044850399939 0 -0.035792158490710158 0.010209835213028221 0 -0.035589907050245895 0.011167003494451487 0 -0.036242555852968698 0.011298409462922024 0 -0.036690874016260117 0.012335053238276687 0 -0.036242555852968698 0.011298409462922024 0 -0.035794918869203558 0.012569044850399939 0 -0.034999733747006156 0.013753599330990768 0 -0.034999829494228453 0.012072927927137534 0 -0.035794918869203558 0.012569044850399939 0 -0.035886727963806542 0.0054268432232554035 0 -0.036186441047067537 0.0045462272622925374 0 -0.034999983266727722 0.0038024606962739045 0 -0.0349997353007215 0.0054385873696598469 0 -0.035886727963806542 0.0054268432232554035 0 -0.034999983266727722 0.0038024606962739045 0 -0.035886727963806542 0.0054268432232554035 0 -0.036391370195504799 0.0063569754850295547 0 -0.037207340452463114 0.0050792335007285201 0 -0.035886727963806542 0.0054268432232554035 0 -0.037207340452463114 0.0050792335007285201 0 -0.036186441047067537 0.0045462272622925374 0 -0.035886727963806542 0.0054268432232554035 0 -0.036391370195504799 0.0063569754850295547 0 -0.034999919016048611 0.0070753421586720608 0 -0.0349997353007215 0.0054385873696598469 0 -0.035886727963806542 0.0054268432232554035 0 -0.034999919016048611 0.0070753421586720608 0 -0.036391370195504799 0.0063569754850295547 0 -0.034999919016048611 0.0070753421586720608 0 -0.035905867988995067 0.0074488993637196422 0 -0.034999919016048611 0.0070753421586720608 0 -0.034999459762658142 0.0087109298230337671 0 -0.035905867988995067 0.0074488993637196422 0 -0.034999459762658142 0.0087109298230337671 0 -0.036132237629550742 0.0084320898239316558 0 -0.035905867988995067 0.0074488993637196422 0 -0.036132237629550742 0.0084320898239316558 0 -0.035905867988995067 0.0074488993637196422 0 -0.036937267095268955 0.0075740729050014603 0 -0.036391370195504799 0.0063569754850295547 0 -0.035905867988995067 0.0074488993637196422 0 -0.036937267095268955 0.0075740729050014603 0 -0.036391370195504799 0.0063569754850295547 0 -0.036937267095268955 0.0075740729050014603 0 -0.037346472836126889 0.0062515074914094469 0 -0.036850744925309403 0.0093521438471807529 0 -0.036132237629550742 0.0084320898239316558 0 -0.036937267095268955 0.0075740729050014603 0 -0.037647079659447094 0.0085649087526995064 0 -0.036937267095268955 0.0075740729050014603 0 -0.037967557061907138 0.0069228651816396584 0 -0.036937267095268955 0.0075740729050014603 0 -0.037346472836126889 0.0062515074914094469 0 -0.037967557061907138 0.0069228651816396584 0 -0.037346472836126889 0.0062515074914094469 0 -0.038126350498361321 0.0054381146262522497 0 -0.037967557061907138 0.0069228651816396584 0 -0.036391370195504799 0.0063569754850295547 0 -0.037346472836126889 0.0062515074914094469 0 -0.037207340452463114 0.0050792335007285201 0 -0.035813479335989183 0.0022273145235308751 0 -0.035537677045811913 0.0028088165126141651 0 -0.035813479335989183 0.0022273145235308751 0 -0.036407593289777378 0.0022844390646152278 0 -0.034710811617339028 -0.00059391808376071443 0 -0.03395357694683486 -0.0013814476047668916 0 -0.034266930263657271 -0.00085924644607331482 0 -0.037346472836126889 0.0062515074914094469 0 -0.037207340452463114 0.0050792335007285201 0 -0.038126350498361321 0.0054381146262522497 0 -0.03485186930298647 6.350308512172963e-05 0 -0.0331552697100847 -0.0026289595528714506 0 -0.03395357694683486 -0.0013814476047668916 0 -0.033837217030731413 -0.0014659649254001577 0 -0.033597141851139808 -0.0016671518118740846 0 -0.033070392359185075 -0.0028065055153943344 0 -0.032677335354029322 -0.0023545122127596944 0 -0.033597141851139808 -0.0016671518118740846 0 -0.036407593289777378 0.0022844390646152278 0 -0.03485186930298647 6.350308512172963e-05 0 -0.038126350498361321 0.0054381146262522497 0 -0.039005985950975555 0.0056540950689863059 0 -0.038683356011952455 0.0064089611726904413 0 -0.039005985950975555 0.0056540950689863059 0 -0.038683356011952455 0.0064089611726904413 0 -0.039284771013015508 0.0066796065728303294 0 -0.038126350498361321 0.0054381146262522497 0 -0.038683356011952455 0.0064089611726904413 0 -0.037967557061907138 0.0069228651816396584 0 -0.038683356011952455 0.0064089611726904413 0 -0.037967557061907138 0.0069228651816396584 0 -0.038584562391705622 0.0079269796803480147 0 -0.037647079659447094 0.0085649087526995064 0 -0.037967557061907138 0.0069228651816396584 0 -0.038584562391705622 0.0079269796803480147 0 -0.038683356011952455 0.0064089611726904413 0 -0.038584562391705622 0.0079269796803480147 0 -0.039284771013015508 0.0066796065728303294 0 -0.035833439071972201 0.0037442948774047383 0 -0.035674621923752432 0.0028230501551337922 0 -0.039570201238306194 0.008015255207140453 0 -0.038584562391705622 0.0079269796803480147 0 -0.039284771013015508 0.0066796065728303294 0 -0.032172506490254445 -0.00040982333716728186 0 -0.031880303851032091 -0.0016551613789271874 0 -0.032814043906942807 -0.00088460802784483727 0 -0.031880303851032091 -0.0016551613789271874 0 -0.032814043906942807 -0.00088460802784483727 0 -0.032922064292008751 -0.0017947011053991593 0 -0.031880303851032091 -0.0016551613789271874 0 -0.032530239869019595 -0.0023906932654325125 0 -0.032922064292008751 -0.0017947011053991593 0 -0.032530239869019595 -0.0023906932654325125 0 -0.032369657647612543 -0.0026990964214277094 0 -0.032362373588988733 -0.0027657961988403193 0 -0.031619241255800908 -0.0027738922681267131 0 -0.031880303851032091 -0.0016551613789271874 0 -0.032369657647612543 -0.0026990964214277094 0 -0.031880303851032091 -0.0016551613789271874 0 -0.032530239869019595 -0.0023906932654325125 0 -0.032369657647612543 -0.0026990964214277094 0 -0.03485186930298647 6.350308512172963e-05 0 -0.035674621923752432 0.0028230501551337922 0 -0.03485186930298647 6.350308512172963e-05 0 -0.031354252838048068 -0.0030937331592088965 0 -0.033070392359185075 -0.0028065055153943344 0 -0.032369657647612543 -0.0026990964214277094 0 -0.032677335354029322 -0.0023545122127596944 0 -0.032369657647612543 -0.0026990964214277094 0 -0.032314713334598025 -0.0026115884466562304 0 -0.032677335354029322 -0.0023545122127596944 0 -0.032369657647612543 -0.0026990964214277094 0 -0.032314713334598025 -0.0026115884466562304 0 -0.032362373588988733 -0.0027657961988403193 0 -0.032314713334598025 -0.0026115884466562304 0 -0.032331430782021803 -0.0023339910381669844 0 -0.032677335354029322 -0.0023545122127596944 0 -0.032314713334598025 -0.0026115884466562304 0 -0.032331430782021803 -0.0023339910381669844 0 -0.032103890929844753 -0.0025140040823647216 0 -0.032331430782021803 -0.0023339910381669844 0 -0.032103890929844753 -0.0025140040823647216 0 -0.031978759209176866 -0.0023617175742063788 0 -0.032331430782021803 -0.0023339910381669844 0 -0.032677335354029322 -0.0023545122127596944 0 -0.032875054503674159 -0.0019556431959391299 0 -0.032677335354029322 -0.0023545122127596944 0 -0.032875054503674159 -0.0019556431959391299 0 -0.033597141851139808 -0.0016671518118740846 0 -0.032875054503674159 -0.0019556431959391299 0 -0.032142067056733011 -0.0022114976053230779 0 -0.032698051172249366 -0.0020031784226864683 0 -0.032331430782021803 -0.0023339910381669844 0 -0.032142067056733011 -0.0022114976053230779 0 -0.031978759209176866 -0.0023617175742063788 0 -0.032331430782021803 -0.0023339910381669844 0 -0.032875054503674159 -0.0019556431959391299 0 -0.032142067056733011 -0.0022114976053230779 0 -0.032142067056733011 -0.0022114976053230779 0 -0.03159633085723873 -0.0023632550214845983 0 -0.032698051172249366 -0.0020031784226864683 0 -0.032142067056733011 -0.0022114976053230779 0 -0.03159633085723873 -0.0023632550214845983 0 -0.031579462645012157 -0.002293569803708441 0 -0.03159633085723873 -0.0023632550214845983 0 -0.031963121272085129 -0.0023862052884077939 0 -0.032698051172249366 -0.0020031784226864683 0 -0.03159633085723873 -0.0023632550214845983 0 -0.031963121272085129 -0.0023862052884077939 0 -0.031080470400384003 -0.0026628565780706663 0 -0.031963121272085129 -0.0023862052884077939 0 -0.032698051172249366 -0.0020031784226864683 0 -0.033306560206037727 -0.0018234068412768597 0 -0.032875054503674159 -0.0019556431959391299 0 -0.032698051172249366 -0.0020031784226864683 0 -0.033647789932548119 -0.0014779201481459055 0 -0.033647789932548119 -0.0014779201481459055 0 -0.033306560206037727 -0.0018234068412768597 0 -0.033963482178428782 -0.0014153342638776863 0 -0.032698051172249366 -0.0020031784226864683 0 -0.033647789932548119 -0.0014779201481459055 0 -0.033306560206037727 -0.0018234068412768597 0 -0.033956643235924712 -0.0015730055446790331 0 -0.033306560206037727 -0.0018234068412768597 0 -0.033963482178428782 -0.0014153342638776863 0 -0.033956643235924712 -0.0015730055446790331 0 -0.034400580689268594 -0.0012315212067118555 0 -0.033963482178428782 -0.0014153342638776863 0 -0.034400580689268594 -0.0012315212067118555 0 -0.033963482178428782 -0.0014153342638776863 0 -0.034247349358387164 -0.0010184315972492292 0 -0.033647789932548119 -0.0014779201481459055 0 -0.034247349358387164 -0.0010184315972492292 0 -0.034410060621853193 -0.0006546826995241146 0 -0.033647789932548119 -0.0014779201481459055 0 -0.033963482178428782 -0.0014153342638776863 0 -0.034247349358387164 -0.0010184315972492292 0 -0.033647789932548119 -0.0014779201481459055 0 -0.033597141851139808 -0.0016671518118740846 0 -0.034410060621853193 -0.0006546826995241146 0 -0.032875054503674159 -0.0019556431959391299 0 -0.033647789932548119 -0.0014779201481459055 0 -0.033597141851139808 -0.0016671518118740846 0 -0.033597141851139808 -0.0016671518118740846 0 -0.034266930263657271 -0.00085924644607331482 0 -0.034410060621853193 -0.0006546826995241146 0 -0.03395357694683486 -0.0013814476047668916 0 -0.033597141851139808 -0.0016671518118740846 0 -0.034266930263657271 -0.00085924644607331482 0 -0.034710811617339028 -0.00059391808376071443 0 -0.034266930263657271 -0.00085924644607331482 0 -0.034891445811799822 0.00020031143782461814 0 -0.034266930263657271 -0.00085924644607331482 0 -0.034891445811799822 0.00020031143782461814 0 -0.034410060621853193 -0.0006546826995241146 0 -0.034710811617339028 -0.00059391808376071443 0 -0.034891445811799822 0.00020031143782461814 0 -0.035238922819664446 0.0010390010858195911 0 -0.034891445811799822 0.00020031143782461814 0 -0.034410060621853193 -0.0006546826995241146 0 -0.03513614723030821 0.0004401609553730001 0 -0.034247349358387164 -0.0010184315972492292 0 -0.034410060621853193 -0.0006546826995241146 0 -0.034760757480187414 -0.00061028982926689883 0 -0.034761423246780394 -0.0012350921994329224 0 -0.034400580689268594 -0.0012315212067118555 0 -0.034760757480187414 -0.00061028982926689883 0 -0.034400580689268594 -0.0012315212067118555 0 -0.034247349358387164 -0.0010184315972492292 0 -0.034760757480187414 -0.00061028982926689883 0 -0.034761423246780394 -0.0012350921994329224 0 -0.034760757480187414 -0.00061028982926689883 0 -0.035187732072558806 -0.00028808196203691826 0 -0.034410060621853193 -0.0006546826995241146 0 -0.034760757480187414 -0.00061028982926689883 0 -0.03513614723030821 0.0004401609553730001 0 -0.034760757480187414 -0.00061028982926689883 0 -0.03513614723030821 0.0004401609553730001 0 -0.035187732072558806 -0.00028808196203691826 0 -0.03513614723030821 0.0004401609553730001 0 -0.035187732072558806 -0.00028808196203691826 0 -0.034999408053316236 0.0017066085114844196 0 -0.034999228929111496 -0.00038782677507412388 0 -0.035187732072558806 -0.00028808196203691826 0 -0.034999408053316236 0.0017066085114844196 0 -0.034999408053316236 0.0017066085114844196 0 -0.035266561817572116 0.0017435950014250824 0 -0.034999687055467549 0.003796247002491046 0 -0.03513614723030821 0.0004401609553730001 0 -0.034999408053316236 0.0017066085114844196 0 -0.035266561817572116 0.0017435950014250824 0 -0.034891445811799822 0.00020031143782461814 0 -0.03513614723030821 0.0004401609553730001 0 -0.035266561817572116 0.0017435950014250824 0 -0.034891445811799822 0.00020031143782461814 0 -0.035266561817572116 0.0017435950014250824 0 -0.035238922819664446 0.0010390010858195911 0 -0.035537677045811913 0.0028088165126141651 0 -0.034999662343257888 0.0038012115008642681 0 -0.035266561817572116 0.0017435950014250824 0 -0.035238922819664446 0.0010390010858195911 0 -0.034999687055467549 0.003796247002491046 0 -0.022870148323129409 -0.0093579678512254426 0 -0.023348690148333313 -0.00865791398960041 0 -0.022660747365915467 -0.0098889600308848663 0 -0.022870148323129409 -0.0093579678512254426 0 -0.022750868278975996 -0.010002437286816599 0 -0.022790984576244417 -0.009574383678377563 0 -0.022870148323129409 -0.0093579678512254426 0 -0.022660747365915467 -0.0098889600308848663 0 -0.022750868278975996 -0.010002437286816599 0 -0.022870148323129409 -0.0093579678512254426 0 -0.022790984576244417 -0.009574383678377563 0 -0.022834635684342325 -0.0093561735114631329 0 -0.022870148323129409 -0.0093579678512254426 0 -0.023348690148333313 -0.00865791398960041 0 -0.022834635684342325 -0.0093561735114631329 0 -0.023348690148333313 -0.00865791398960041 0 -0.026388776803925495 -0.0056816117010595052 0 -0.026499627719664107 -0.0043340140249872429 0 -0.023348690148333313 -0.00865791398960041 0 -0.025103715563398982 -0.0085651763316606944 0 -0.025428178735786545 -0.0075337953792083568 0 -0.023348690148333313 -0.00865791398960041 0 -0.025428178735786545 -0.0075337953792083568 0 -0.026388776803925495 -0.0056816117010595052 0 -0.023348690148333313 -0.00865791398960041 0 -0.026499627719664107 -0.0043340140249872429 0 -0.026627575300446685 -0.0028506556707309418 0 -0.023348690148333313 -0.00865791398960041 0 -0.022660747365915467 -0.0098889600308848663 0 -0.021674318252383962 -0.010806254904334706 0 -0.023410475866513125 -0.0089726362940275011 0 -0.024202727634469758 -0.0065457499837503685 0 -0.026388776803925495 -0.0056816117010595052 0 -0.026499627719664107 -0.0043340140249872429 0 -0.027632834425075369 -0.0040737484579079046 0 -0.026499627719664107 -0.0043340140249872429 0 -0.026684893506108316 -0.0034888560186479962 0 -0.026627575300446685 -0.0028506556707309418 0 -0.026499627719664107 -0.0043340140249872429 0 -0.027181162795881703 -0.0036933148451460287 0 -0.027632834425075369 -0.0040737484579079046 0 -0.026684893506108316 -0.0034888560186479962 0 -0.026729792519843878 -0.003126337334441438 0 -0.027080840249533545 -0.0032481574036358199 0 -0.027181162795881703 -0.0036933148451460287 0 -0.02782396519509709 -0.0032017604927022489 0 -0.027080840249533545 -0.0032481574036358199 0 -0.026499627719664107 -0.0043340140249872429 0 -0.026684893506108316 -0.0034888560186479962 0 -0.027181162795881703 -0.0036933148451460287 0 -0.026684893506108316 -0.0034888560186479962 0 -0.027181162795881703 -0.0036933148451460287 0 -0.027080840249533545 -0.0032481574036358199 0 -0.022236601511887687 -0.010604332210468855 0 -0.022660747365915467 -0.0098889600308848663 0 -0.021674318252383962 -0.010806254904334706 0 -0.022236601511887687 -0.010604332210468855 0 -0.022428974062749213 -0.010575057802602188 0 -0.022660747365915467 -0.0098889600308848663 0 -0.022428974062749213 -0.010575057802602188 0 -0.022660747365915467 -0.0098889600308848663 0 -0.022627185458422471 -0.01027780731223547 0 -0.022660747365915467 -0.0098889600308848663 0 -0.022750868278975996 -0.010002437286816599 0 -0.022627185458422471 -0.01027780731223547 0 -0.022428974062749213 -0.010575057802602188 0 -0.022627185458422471 -0.01027780731223547 0 -0.022599857096346231 -0.010769503434868422 0 -0.022750868278975996 -0.010002437286816599 0 -0.022627185458422471 -0.01027780731223547 0 -0.022599857096346231 -0.010769503434868422 0 -0.022599857096346231 -0.010769503434868422 0 -0.02276003151406801 -0.010504625938670702 0 -0.022621127873673236 -0.011237710340688895 0 -0.022750868278975996 -0.010002437286816599 0 -0.022599857096346231 -0.010769503434868422 0 -0.02276003151406801 -0.010504625938670702 0 -0.02276003151406801 -0.010504625938670702 0 -0.022769693340090817 -0.010921999148234218 0 -0.02298533047266553 -0.010278371179905141 0 -0.02276003151406801 -0.010504625938670702 0 -0.022769693340090817 -0.010921999148234218 0 -0.022621127873673236 -0.011237710340688895 0 -0.02276003151406801 -0.010504625938670702 0 -0.02298533047266553 -0.010278371179905141 0 -0.022843748534086519 -0.0099227846712246701 0 -0.02298533047266553 -0.010278371179905141 0 -0.022843748534086519 -0.0099227846712246701 0 -0.023114438351910384 -0.0095432737511227592 0 -0.022750868278975996 -0.010002437286816599 0 -0.02276003151406801 -0.010504625938670702 0 -0.022843748534086519 -0.0099227846712246701 0 -0.022750868278975996 -0.010002437286816599 0 -0.022843748534086519 -0.0099227846712246701 0 -0.022790984576244417 -0.009574383678377563 0 -0.022843748534086519 -0.0099227846712246701 0 -0.022790984576244417 -0.009574383678377563 0 -0.022834742638164852 -0.0094373936856558469 0 -0.022834742638164852 -0.0094373936856558469 0 -0.022783697746838576 -0.0091905304681012823 0 -0.022834635684342325 -0.0093561735114631329 0 -0.022790984576244417 -0.009574383678377563 0 -0.022834742638164852 -0.0094373936856558469 0 -0.022834635684342325 -0.0093561735114631329 0 -0.022834742638164852 -0.0094373936856558469 0 -0.023114438351910384 -0.0095432737511227592 0 -0.023072096575825721 -0.0089956377780393108 0 -0.022843748534086519 -0.0099227846712246701 0 -0.022834742638164852 -0.0094373936856558469 0 -0.023114438351910384 -0.0095432737511227592 0 -0.022834742638164852 -0.0094373936856558469 0 -0.023072096575825721 -0.0089956377780393108 0 -0.022783697746838576 -0.0091905304681012823 0 -0.022758513143930629 -0.0087225043920763096 0 -0.023072096575825721 -0.0089956377780393108 0 -0.022783697746838576 -0.0091905304681012823 0 -0.022783697746838576 -0.0091905304681012823 0 -0.023031689864070694 -0.0094413709936310587 0 -0.022834635684342325 -0.0093561735114631329 0 -0.022728320352902686 -0.0091015039592057204 0 -0.022783697746838576 -0.0091905304681012823 0 -0.023031689864070694 -0.0094413709936310587 0 -0.023348690148333313 -0.00865791398960041 0 -0.022834635684342325 -0.0093561735114631329 0 -0.023993468198535484 -0.0094868432204592117 0 -0.023031689864070694 -0.0094413709936310587 0 -0.022834635684342325 -0.0093561735114631329 0 -0.023993468198535484 -0.0094868432204592117 0 -0.023348690148333313 -0.00865791398960041 0 -0.025103715563398982 -0.0085651763316606944 0 -0.023993468198535484 -0.0094868432204592117 0 -0.023129218601265222 -0.0095818929369462704 0 -0.022728320352902686 -0.0091015039592057204 0 -0.023031689864070694 -0.0094413709936310587 0 -0.023129218601265222 -0.0095818929369462704 0 -0.023031689864070694 -0.0094413709936310587 0 -0.023993468198535484 -0.0094868432204592117 0 -0.02953140689114251 -0.0031121751919491298 0 -0.027623170437076124 -0.0062406863665535727 0 -0.025874564656533278 -0.0046476293013771423 0 -0.026398825737154297 -0.0046840085634490304 0 -0.026127662897149455 -0.0052886816854262487 0 -0.024727536155949036 -0.0072293953620839509 0 -0.027623170437076124 -0.0062406863665535727 0 -0.023129218601265222 -0.0095818929369462704 0 -0.023993468198535484 -0.0094868432204592117 0 -0.025530885577044995 -0.0095788310323546254 0 -0.033191588650438003 -0.0019096661493878933 0 -0.033228457188788779 -0.0019842706329105007 0 -0.033388207139889894 -0.0021438001203043233 0 -0.033191588650438003 -0.0019096661493878933 0 -0.033233688081474241 -0.0018799758068132389 0 -0.033228457188788779 -0.0019842706329105007 0 -0.033233688081474241 -0.0018799758068132389 0 -0.033228457188788779 -0.0019842706329105007 0 -0.033051619055941082 -0.002126199339296891 0 -0.033228457188788779 -0.0019842706329105007 0 -0.033051619055941082 -0.002126199339296891 0 -0.033388207139889894 -0.0021438001203043233 0 -0.033051619055941082 -0.002126199339296891 0 -0.033388207139889894 -0.0021438001203043233 0 -0.033077452785382717 -0.0027791059809462223 0 -0.033051619055941082 -0.002126199339296891 0 -0.032416020096394764 -0.0028502070878969076 0 -0.033077452785382717 -0.0027791059809462223 0 -0.027623170437076124 -0.0062406863665535727 0 -0.031175668424322612 -0.004973060698080691 0 -0.026078129417911884 -0.0093062436436874112 0 -0.026702437037178679 -0.010972286046169438 0 -0.029312360626018094 -0.0077007903797427181 0 -0.027465890762729799 -0.0086218624201575712 0 -0.027623170437076124 -0.0062406863665535727 0 -0.025103715563398982 -0.0085651763316606944 0 -0.023993468198535484 -0.0094868432204592117 0 -0.026078129417911884 -0.0093062436436874112 0 -0.023993468198535484 -0.0094868432204592117 0 -0.026078129417911884 -0.0093062436436874112 0 -0.025530885577044995 -0.0095788310323546254 0 -0.033655447186552792 -0.00040268261565692433 0 -0.033546666434158642 -0.0016682101230529019 0 -0.032922064292008751 -0.0017947011053991593 0 -0.033655447186552792 -0.00040268261565692433 0 -0.032814043906942807 -0.00088460802784483727 0 -0.032922064292008751 -0.0017947011053991593 0 -0.034187788226562835 -0.00077466938354674717 0 -0.033630674205005165 -0.0016717727943750644 0 -0.033329513130856851 -0.002000395241486509 0 -0.033233688081474241 -0.0018799758068132389 0 -0.033546666434158642 -0.0016682101230529019 0 -0.033233688081474241 -0.0018799758068132389 0 -0.033051619055941082 -0.002126199339296891 0 -0.033546666434158642 -0.0016682101230529019 0 -0.033051619055941082 -0.002126199339296891 0 -0.033546666434158642 -0.0016682101230529019 0 -0.032943672997405971 -0.0022245468037627456 0 -0.033051619055941082 -0.002126199339296891 0 -0.032943672997405971 -0.0022245468037627456 0 -0.032416020096394764 -0.0028502070878969076 0 -0.033546666434158642 -0.0016682101230529019 0 -0.032943672997405971 -0.0022245468037627456 0 -0.032922064292008751 -0.0017947011053991593 0 -0.032530239869019595 -0.0023906932654325125 0 -0.032922064292008751 -0.0017947011053991593 0 -0.032584675633878117 -0.0025799944846444417 0 -0.032943672997405971 -0.0022245468037627456 0 -0.032922064292008751 -0.0017947011053991593 0 -0.032584675633878117 -0.0025799944846444417 0 -0.032584675633878117 -0.0025799944846444417 0 -0.032069964716423809 -0.0031735164360011951 0 -0.032362373588988733 -0.0027657961988403193 0 -0.032530239869019595 -0.0023906932654325125 0 -0.032584675633878117 -0.0025799944846444417 0 -0.032362373588988733 -0.0027657961988403193 0 -0.032416020096394764 -0.0028502070878969076 0 -0.032069964716423809 -0.0031735164360011951 0 -0.031639603139235223 -0.003925407943482625 0 -0.032584675633878117 -0.0025799944846444417 0 -0.032416020096394764 -0.0028502070878969076 0 -0.032069964716423809 -0.0031735164360011951 0 -0.032943672997405971 -0.0022245468037627456 0 -0.032584675633878117 -0.0025799944846444417 0 -0.032416020096394764 -0.0028502070878969076 0 -0.032069964716423809 -0.0031735164360011951 0 -0.031213177665274826 -0.0028410537039744643 0 -0.031714876809299103 -0.0027227224102016226 0 -0.032069964716423809 -0.0031735164360011951 0 -0.031639603139235223 -0.003925407943482625 0 -0.031213177665274826 -0.0028410537039744643 0 -0.032069964716423809 -0.0031735164360011951 0 -0.032094457581671426 -0.0027539894198591844 0 -0.031714876809299103 -0.0027227224102016226 0 -0.032069964716423809 -0.0031735164360011951 0 -0.032362373588988733 -0.0027657961988403193 0 -0.032094457581671426 -0.0027539894198591844 0 -0.032314713334598025 -0.0026115884466562304 0 -0.032362373588988733 -0.0027657961988403193 0 -0.032094457581671426 -0.0027539894198591844 0 -0.026797218829781286 -0.0071924989477723288 0 -0.029312360626018094 -0.0077007903797427181 0 -0.028821989895013483 -0.004617990623101695 0 -0.025428178735786545 -0.0075337953792083568 0 -0.026388776803925495 -0.0056816117010595052 0 -0.026797218829781286 -0.0071924989477723288 0 -0.026388776803925495 -0.0056816117010595052 0 -0.026797218829781286 -0.0071924989477723288 0 -0.028821989895013483 -0.004617990623101695 0 -0.025103715563398982 -0.0085651763316606944 0 -0.026078129417911884 -0.0093062436436874112 0 -0.026797218829781286 -0.0071924989477723288 0 -0.025103715563398982 -0.0085651763316606944 0 -0.025428178735786545 -0.0075337953792083568 0 -0.026797218829781286 -0.0071924989477723288 0 -0.026078129417911884 -0.0093062436436874112 0 -0.026797218829781286 -0.0071924989477723288 0 -0.029312360626018094 -0.0077007903797427181 0 -0.032416020096394764 -0.0028502070878969076 0 -0.033077452785382717 -0.0027791059809462223 0 -0.031639603139235223 -0.003925407943482625 0 -0.031175668424322612 -0.004973060698080691 0 -0.031641844813346802 -0.004064917855058337 0 -0.029312360626018094 -0.0077007903797427181 0 -0.031639603139235223 -0.003925407943482625 0 -0.028821989895013483 -0.004617990623101695 0 -0.031639603139235223 -0.003925407943482625 0 -0.030280030084273737 -0.0032589719099552477 0 -0.028821989895013483 -0.004617990623101695 0 -0.031639603139235223 -0.003925407943482625 0 -0.030280030084273737 -0.0032589719099552477 0 -0.031213177665274826 -0.0028410537039744643 0 -0.030280030084273737 -0.0032589719099552477 0 -0.02891909324500971 -0.0032861946508041203 0 -0.028821989895013483 -0.004617990623101695 0 -0.02891909324500971 -0.0032861946508041203 0 -0.028821989895013483 -0.004617990623101695 0 -0.027632834425075369 -0.0040737484579079046 0 -0.026388776803925495 -0.0056816117010595052 0 -0.028821989895013483 -0.004617990623101695 0 -0.027632834425075369 -0.0040737484579079046 0 -0.02891909324500971 -0.0032861946508041203 0 -0.027632834425075369 -0.0040737484579079046 0 -0.02782396519509709 -0.0032017604927022489 0 -0.027181162795881703 -0.0036933148451460287 0 -0.027632834425075369 -0.0040737484579079046 0 -0.02782396519509709 -0.0032017604927022489 0 -0.02782396519509709 -0.0032017604927022489 0 -0.02792336511701797 -0.002633453843227088 0 -0.02739298344435552 -0.0030019214292914425 0 -0.02792336511701797 -0.002633453843227088 0 -0.028971728923378723 -0.0022593617247877191 0 -0.029290708790750734 -0.0018049935160538435 0 -0.02891909324500971 -0.0032861946508041203 0 -0.02782396519509709 -0.0032017604927022489 0 -0.028650596314429448 -0.0027250251339212767 0 -0.02782396519509709 -0.0032017604927022489 0 -0.028650596314429448 -0.0027250251339212767 0 -0.02792336511701797 -0.002633453843227088 0 -0.028650596314429448 -0.0027250251339212767 0 -0.02792336511701797 -0.002633453843227088 0 -0.028971728923378723 -0.0022593617247877191 0 -0.028650596314429448 -0.0027250251339212767 0 -0.028971728923378723 -0.0022593617247877191 0 -0.029340133126094185 -0.0023699168706653468 0 -0.028650596314429448 -0.0027250251339212767 0 -0.029340133126094185 -0.0023699168706653468 0 -0.030039308533430321 -0.0025254304083689775 0 -0.029340133126094185 -0.0023699168706653468 0 -0.030039308533430321 -0.0025254304083689775 0 -0.029690863334873203 -0.0020721709412161509 0 -0.028971728923378723 -0.0022593617247877191 0 -0.029340133126094185 -0.0023699168706653468 0 -0.029690863334873203 -0.0020721709412161509 0 -0.02891909324500971 -0.0032861946508041203 0 -0.028650596314429448 -0.0027250251339212767 0 -0.030039308533430321 -0.0025254304083689775 0 -0.030280030084273737 -0.0032589719099552477 0 -0.02891909324500971 -0.0032861946508041203 0 -0.030039308533430321 -0.0025254304083689775 0 -0.030280030084273737 -0.0032589719099552477 0 -0.031213177665274826 -0.0028410537039744643 0 -0.030039308533430321 -0.0025254304083689775 0 -0.031213177665274826 -0.0028410537039744643 0 -0.030603340791008356 -0.0022334919642146961 0 -0.031291951410226782 -0.0023966906514929442 0 -0.031213177665274826 -0.0028410537039744643 0 -0.030039308533430321 -0.0025254304083689775 0 -0.030603340791008356 -0.0022334919642146961 0 -0.030039308533430321 -0.0025254304083689775 0 -0.030603340791008356 -0.0022334919642146961 0 -0.029690863334873203 -0.0020721709412161509 0 -0.030603340791008356 -0.0022334919642146961 0 -0.030230736833006634 -0.0019844000489400988 0 -0.029690863334873203 -0.0020721709412161509 0 -0.030603340791008356 -0.0022334919642146961 0 -0.031291951410226782 -0.0023966906514929442 0 -0.030813993450208844 -0.0021167224551915469 0 -0.030603340791008356 -0.0022334919642146961 0 -0.030230736833006634 -0.0019844000489400988 0 -0.030813993450208844 -0.0021167224551915469 0 -0.029811315965939597 -0.0019385899815226079 0 -0.030230736833006634 -0.0019844000489400988 0 -0.029690863334873203 -0.0020721709412161509 0 -0.029811315965939597 -0.0019385899815226079 0 -0.030230736833006634 -0.0019844000489400988 0 -0.030037123512419307 -0.0019235225209120064 0 -0.029811315965939597 -0.0019385899815226079 0 -0.030037123512419307 -0.0019235225209120064 0 -0.029290708790750734 -0.0018049935160538435 0 -0.028971728923378723 -0.0022593617247877191 0 -0.029690863334873203 -0.0020721709412161509 0 -0.029290708790750734 -0.0018049935160538435 0 -0.029811315965939597 -0.0019385899815226079 0 -0.029690863334873203 -0.0020721709412161509 0 -0.029290708790750734 -0.0018049935160538435 0 -0.032103890929844753 -0.0025140040823647216 0 -0.032094457581671426 -0.0027539894198591844 0 -0.031749029616578432 -0.0024533413081782936 0 -0.032094457581671426 -0.0027539894198591844 0 -0.031714876809299103 -0.0027227224102016226 0 -0.031749029616578432 -0.0024533413081782936 0 -0.032314713334598025 -0.0026115884466562304 0 -0.032103890929844753 -0.0025140040823647216 0 -0.032094457581671426 -0.0027539894198591844 0 -0.031714876809299103 -0.0027227224102016226 0 -0.031291951410226782 -0.0023966906514929442 0 -0.031749029616578432 -0.0024533413081782936 0 -0.031213177665274826 -0.0028410537039744643 0 -0.031714876809299103 -0.0027227224102016226 0 -0.031291951410226782 -0.0023966906514929442 0 -0.031291951410226782 -0.0023966906514929442 0 -0.031288092250615497 -0.0022739519226975392 0 -0.030813993450208844 -0.0021167224551915469 0 -0.031291951410226782 -0.0023966906514929442 0 -0.031288092250615497 -0.0022739519226975392 0 -0.031749029616578432 -0.0024533413081782936 0 -0.032142067056733011 -0.0022114976053230779 0 -0.031978759209176866 -0.0023617175742063788 0 -0.031579462645012157 -0.002293569803708441 0 -0.031749029616578432 -0.0024533413081782936 0 -0.031978759209176866 -0.0023617175742063788 0 -0.031579462645012157 -0.002293569803708441 0 -0.031288092250615497 -0.0022739519226975392 0 -0.031749029616578432 -0.0024533413081782936 0 -0.031579462645012157 -0.002293569803708441 0 -0.032103890929844753 -0.0025140040823647216 0 -0.031749029616578432 -0.0024533413081782936 0 -0.031978759209176866 -0.0023617175742063788 0 -0.03159633085723873 -0.0023632550214845983 0 -0.031579462645012157 -0.002293569803708441 0 -0.031028424727701211 -0.0023374379065384241 0 -0.031028424727701211 -0.0023374379065384241 0 -0.030813993450208844 -0.0021167224551915469 0 -0.03072055466261565 -0.0022354797815887142 0 -0.031288092250615497 -0.0022739519226975392 0 -0.031579462645012157 -0.002293569803708441 0 -0.031028424727701211 -0.0023374379065384241 0 -0.031288092250615497 -0.0022739519226975392 0 -0.031028424727701211 -0.0023374379065384241 0 -0.030813993450208844 -0.0021167224551915469 0 -0.031028424727701211 -0.0023374379065384241 0 -0.030741622474165134 -0.0025129754169865765 0 -0.03072055466261565 -0.0022354797815887142 0 -0.030665689409929708 -0.0028581523588766416 0 -0.031028424727701211 -0.0023374379065384241 0 -0.030741622474165134 -0.0025129754169865765 0 -0.03043550790625708 -0.0032788572008843361 0 -0.030665689409929708 -0.0028581523588766416 0 -0.030741622474165134 -0.0025129754169865765 0 -0.03043550790625708 -0.0032788572008843361 0 -0.030741622474165134 -0.0025129754169865765 0 -0.030730780954369093 -0.0026001428319247441 0 -0.030665689409929708 -0.0028581523588766416 0 -0.031028424727701211 -0.0023374379065384241 0 -0.031080470400384003 -0.0026628565780706663 0 -0.03159633085723873 -0.0023632550214845983 0 -0.031028424727701211 -0.0023374379065384241 0 -0.031080470400384003 -0.0026628565780706663 0 -0.030494120309960817 -0.002033529222759321 0 -0.030037123512419307 -0.0019235225209120064 0 -0.029290708790750734 -0.0018049935160538435 0 -0.027891822633630048 -0.0064396208208209547 0 -0.027850469270203175 -0.0027485139766500271 0 -0.030494120309960817 -0.002033529222759321 0 -0.0304715893863577 -0.0020400726614581638 0 -0.030720672527245436 -0.002319925336061564 0 -0.030494120309960817 -0.002033529222759321 0 -0.030037123512419307 -0.0019235225209120064 0 -0.0304715893863577 -0.0020400726614581638 0 -0.030230736833006634 -0.0019844000489400988 0 -0.030037123512419307 -0.0019235225209120064 0 -0.0304715893863577 -0.0020400726614581638 0 -0.030230736833006634 -0.0019844000489400988 0 -0.030813993450208844 -0.0021167224551915469 0 -0.0304715893863577 -0.0020400726614581638 0 -0.030813993450208844 -0.0021167224551915469 0 -0.03072055466261565 -0.0022354797815887142 0 -0.0304715893863577 -0.0020400726614581638 0 -0.03072055466261565 -0.0022354797815887142 0 -0.0304715893863577 -0.0020400726614581638 0 -0.030720672527245436 -0.002319925336061564 0 -0.03072055466261565 -0.0022354797815887142 0 -0.030730780954369093 -0.0026001428319247441 0 -0.030720672527245436 -0.002319925336061564 0 -0.030741622474165134 -0.0025129754169865765 0 -0.03072055466261565 -0.0022354797815887142 0 -0.030730780954369093 -0.0026001428319247441 0 -0.03067849102969419 -0.0031374477142006685 0 -0.030730780954369093 -0.0026001428319247441 0 -0.030859641587930729 -0.0026829635817569451 0 -0.030730780954369093 -0.0026001428319247441 0 -0.030859641587930729 -0.0026829635817569451 0 -0.030720672527245436 -0.002319925336061564 0 -0.031209357967280825 -0.0028747505079740896 0 -0.030859641587930729 -0.0026829635817569451 0 -0.030720672527245436 -0.002319925336061564 0 -0.031053660566049874 -0.003410142884642291 0 -0.027891822633630048 -0.0064396208208209547 0 -0.027392520911335483 -0.0094351320964500707 0 -0.027891822633630048 -0.0064396208208209547 0 -0.031209357967280825 -0.0028747505079740896 0 -0.030494120309960817 -0.002033529222759321 0 -0.030720672527245436 -0.002319925336061564 0 -0.030236513910904605 -0.005121094017376507 0 -0.030180977631460503 -0.0051425883130827195 0 -0.030086075360374609 -0.0054079113216004048 0 -0.024694970036933252 -0.012671553029009627 0 -0.023910705363788465 -0.013281039283238739 0 -0.023688884691372272 -0.012928376104214757 0 -0.024018998063828179 -0.012506880687956627 0 -0.023688884691372272 -0.012928376104214757 0 -0.023429243496737313 -0.012712802092337527 0 -0.023688884691372272 -0.012928376104214757 0 -0.023429243496737313 -0.012712802092337527 0 -0.023150804171733302 -0.012798691342960853 0 -0.023429243496737313 -0.012712802092337527 0 -0.023150804171733302 -0.012798691342960853 0 -0.023006089818256064 -0.012694147520837301 0 -0.023150804171733302 -0.012798691342960853 0 -0.02278671582424853 -0.012756819031600865 0 -0.022876054809542211 -0.012756915146655255 0 -0.023688884691372272 -0.012928376104214757 0 -0.023150804171733302 -0.012798691342960853 0 -0.022876054809542211 -0.012756915146655255 0 -0.023150804171733302 -0.012798691342960853 0 -0.023006089818256064 -0.012694147520837301 0 -0.02278671582424853 -0.012756819031600865 0 -0.02255249800763541 -0.012695938833015615 0 -0.023006089818256064 -0.012694147520837301 0 -0.02278671582424853 -0.012756819031600865 0 -0.02255249800763541 -0.012695938833015615 0 -0.02278671582424853 -0.012756819031600865 0 -0.022490880553435819 -0.012671018596696488 0 -0.022490880553435819 -0.012671018596696488 0 -0.02262505309016459 -0.012650944813174329 0 -0.022488163322764383 -0.012498538719570336 0 -0.02278671582424853 -0.012756819031600865 0 -0.022490880553435819 -0.012671018596696488 0 -0.02262505309016459 -0.012650944813174329 0 -0.02278671582424853 -0.012756819031600865 0 -0.02262505309016459 -0.012650944813174329 0 -0.022876054809542211 -0.012756915146655255 0 -0.02262505309016459 -0.012650944813174329 0 -0.022553510517667137 -0.012559502120168056 0 -0.022461929387098893 -0.012308638520446202 0 -0.02262505309016459 -0.012650944813174329 0 -0.022488163322764383 -0.012498538719570336 0 -0.022461929387098893 -0.012308638520446202 0 -0.022488163322764383 -0.012498538719570336 0 -0.022461929387098893 -0.012308638520446202 0 -0.022449505269894799 -0.012227947947273724 0 -0.023688884691372272 -0.012928376104214757 0 -0.022876054809542211 -0.012756915146655255 0 -0.022336367208196234 -0.012501594035528659 0 -0.02620897384024741 -0.0060873762458509102 0 -0.026444832303446939 -0.004448205342534972 0 -0.026760736273127226 -0.0049954312356184239 0 -0.023910705363788465 -0.013281039283238739 0 -0.023688884691372272 -0.012928376104214757 0 -0.023672239333027281 -0.013705249740657276 0 -0.023419485243315757 -0.013798134473262525 0 -0.023519310977071675 -0.010766938529164483 0 -0.02262505309016459 -0.012650944813174329 0 -0.022876054809542211 -0.012756915146655255 0 -0.022553510517667137 -0.012559502120168056 0 -0.022876054809542211 -0.012756915146655255 0 -0.022553510517667137 -0.012559502120168056 0 -0.022336367208196234 -0.012501594035528659 0 -0.022553510517667137 -0.012559502120168056 0 -0.022336367208196234 -0.012501594035528659 0 -0.022461929387098893 -0.012308638520446202 0 -0.027891822633630048 -0.0064396208208209547 0 -0.023519310977071675 -0.010766938529164483 0 -0.022336367208196234 -0.012501594035528659 0 -0.022461929387098893 -0.012308638520446202 0 -0.02213771605989116 -0.011687566385105127 0 -0.023519310977071675 -0.010766938529164483 0 -0.024202727634469758 -0.0065457499837503685 0 -0.023519310977071675 -0.010766938529164483 0 -0.021791198979846979 -0.012472303738141861 0 -0.026444832303446939 -0.004448205342534972 0 -0.026760736273127226 -0.0049954312356184239 0 -0.026627575300446685 -0.0028506556707309418 0 -0.021636204841373793 -0.012678297617091022 0 -0.021674318252383962 -0.010806254904334706 0 -0.02213771605989116 -0.011687566385105127 0 -0.022461929387098893 -0.012308638520446202 0 -0.022478943107762953 -0.011685400514931516 0 -0.022449505269894799 -0.012227947947273724 0 -0.022461929387098893 -0.012308638520446202 0 -0.022478943107762953 -0.011685400514931516 0 -0.02213771605989116 -0.011687566385105127 0 -0.022478943107762953 -0.011685400514931516 0 -0.022202329151694497 -0.011122394788485925 0 -0.02213771605989116 -0.011687566385105127 0 -0.022599857096346231 -0.010769503434868422 0 -0.022478943107762953 -0.011685400514931516 0 -0.022202329151694497 -0.011122394788485925 0 -0.022236601511887687 -0.010604332210468855 0 -0.022428974062749213 -0.010575057802602188 0 -0.022202329151694497 -0.011122394788485925 0 -0.022428974062749213 -0.010575057802602188 0 -0.022599857096346231 -0.010769503434868422 0 -0.022202329151694497 -0.011122394788485925 0 -0.026444832303446939 -0.004448205342534972 0 -0.026627575300446685 -0.0028506556707309418 0 -0.026677779919464926 -0.0029350200826605967 0 -0.022236601511887687 -0.010604332210468855 0 -0.022202329151694497 -0.011122394788485925 0 -0.021674318252383962 -0.010806254904334706 0 -0.027850469270203175 -0.0027485139766500271 0 -0.02691246318331519 -0.0033100762843424731 0 -0.02792336511701797 -0.002633453843227088 0 -0.029290708790750734 -0.0018049935160538435 0 -0.026677779919464926 -0.0029350200826605967 0 -0.022202329151694497 -0.011122394788485925 0 -0.021674318252383962 -0.010806254904334706 0 -0.02213771605989116 -0.011687566385105127 0 -0.026627575300446685 -0.0028506556707309418 0 -0.026729792519843878 -0.003126337334441438 0 -0.026677779919464926 -0.0029350200826605967 0 -0.026684893506108316 -0.0034888560186479962 0 -0.026627575300446685 -0.0028506556707309418 0 -0.026729792519843878 -0.003126337334441438 0 -0.026729792519843878 -0.003126337334441438 0 -0.026677779919464926 -0.0029350200826605967 0 -0.027080840249533545 -0.0032481574036358199 0 -0.02782396519509709 -0.0032017604927022489 0 -0.027080840249533545 -0.0032481574036358199 0 -0.02739298344435552 -0.0030019214292914425 0 -0.026677779919464926 -0.0029350200826605967 0 -0.027080840249533545 -0.0032481574036358199 0 -0.02739298344435552 -0.0030019214292914425 0 -0.02792336511701797 -0.002633453843227088 0 -0.026677779919464926 -0.0029350200826605967 0 -0.02739298344435552 -0.0030019214292914425 0 -0.022567499672272371 -0.011506416364304547 0 -0.022621127873673236 -0.011237710340688895 0 -0.022428502515359449 -0.012003030141404797 0 -0.022769693340090817 -0.010921999148234218 0 -0.022567499672272371 -0.011506416364304547 0 -0.022878938926575752 -0.011030280662254612 0 -0.022769693340090817 -0.010921999148234218 0 -0.022567499672272371 -0.011506416364304547 0 -0.022621127873673236 -0.011237710340688895 0 -0.022599857096346231 -0.010769503434868422 0 -0.022478943107762953 -0.011685400514931516 0 -0.022621127873673236 -0.011237710340688895 0 -0.022478943107762953 -0.011685400514931516 0 -0.022621127873673236 -0.011237710340688895 0 -0.022428502515359449 -0.012003030141404797 0 -0.022478943107762953 -0.011685400514931516 0 -0.022428502515359449 -0.012003030141404797 0 -0.022449505269894799 -0.012227947947273724 0 -0.022428502515359449 -0.012003030141404797 0 -0.022449505269894799 -0.012227947947273724 0 -0.022315293919664889 -0.012502006608295988 0 -0.022428502515359449 -0.012003030141404797 0 -0.022271716213008396 -0.012083411529967973 0 -0.022170301387305635 -0.0123821584435755 0 -0.022567499672272371 -0.011506416364304547 0 -0.022428502515359449 -0.012003030141404797 0 -0.022271716213008396 -0.012083411529967973 0 -0.022271716213008396 -0.012083411529967973 0 -0.022170301387305635 -0.0123821584435755 0 -0.021880778286748507 -0.012498582525145087 0 -0.022170301387305635 -0.0123821584435755 0 -0.022315293919664889 -0.012502006608295988 0 -0.02195919499916562 -0.01261872023184368 0 -0.022170301387305635 -0.0123821584435755 0 -0.02195919499916562 -0.01261872023184368 0 -0.021880778286748507 -0.012498582525145087 0 -0.022488163322764383 -0.012498538719570336 0 -0.022449505269894799 -0.012227947947273724 0 -0.022315293919664889 -0.012502006608295988 0 -0.022428502515359449 -0.012003030141404797 0 -0.022170301387305635 -0.0123821584435755 0 -0.022315293919664889 -0.012502006608295988 0 -0.022315293919664889 -0.012502006608295988 0 -0.022184519532064444 -0.012682407198040336 0 -0.02195919499916562 -0.01261872023184368 0 -0.022490880553435819 -0.012671018596696488 0 -0.022315293919664889 -0.012502006608295988 0 -0.022184519532064444 -0.012682407198040336 0 -0.022490880553435819 -0.012671018596696488 0 -0.022488163322764383 -0.012498538719570336 0 -0.022315293919664889 -0.012502006608295988 0 -0.02255249800763541 -0.012695938833015615 0 -0.022490880553435819 -0.012671018596696488 0 -0.022184519532064444 -0.012682407198040336 0 -0.022118911788189376 -0.012572495610107546 0 -0.022184519532064444 -0.012682407198040336 0 -0.021714000606553818 -0.012690173346742125 0 -0.022118911788189376 -0.012572495610107546 0 -0.02255249800763541 -0.012695938833015615 0 -0.022184519532064444 -0.012682407198040336 0 -0.02195919499916562 -0.01261872023184368 0 -0.021714000606553818 -0.012690173346742125 0 -0.021533474657314533 -0.01274512847798749 0 -0.02195919499916562 -0.01261872023184368 0 -0.021533474657314533 -0.01274512847798749 0 -0.021880778286748507 -0.012498582525145087 0 -0.022184519532064444 -0.012682407198040336 0 -0.02195919499916562 -0.01261872023184368 0 -0.021714000606553818 -0.012690173346742125 0 -0.021154482412852112 -0.012743674025918569 0 -0.021714000606553818 -0.012690173346742125 0 -0.021533474657314533 -0.01274512847798749 0 -0.021154482412852112 -0.012743674025918569 0 -0.021533474657314533 -0.01274512847798749 0 -0.021103135320002686 -0.012990355405265705 0 -0.021533474657314533 -0.01274512847798749 0 -0.02153242303984337 -0.012708143674129776 0 -0.021880778286748507 -0.012498582525145087 0 -0.021533474657314533 -0.01274512847798749 0 -0.02153242303984337 -0.012708143674129776 0 -0.021103135320002686 -0.012990355405265705 0 -0.020810066398632209 -0.013586102018860374 0 -0.021103135320002686 -0.012990355405265705 0 -0.02150903036794085 -0.01275980598000424 0 -0.02153242303984337 -0.012708143674129776 0 -0.021103135320002686 -0.012990355405265705 0 -0.02150903036794085 -0.01275980598000424 0 -0.02153242303984337 -0.012708143674129776 0 -0.02150903036794085 -0.01275980598000424 0 -0.021927970087339668 -0.012330209945847203 0 -0.02150903036794085 -0.01275980598000424 0 -0.021927970087339668 -0.012330209945847203 0 -0.02227218996632695 -0.012146540540318553 0 -0.021927970087339668 -0.012330209945847203 0 -0.021880778286748507 -0.012498582525145087 0 -0.022343115327942663 -0.011897115593697164 0 -0.02153242303984337 -0.012708143674129776 0 -0.021927970087339668 -0.012330209945847203 0 -0.021880778286748507 -0.012498582525145087 0 -0.020810066398632209 -0.013586102018860374 0 -0.02150903036794085 -0.01275980598000424 0 -0.022066834439220213 -0.012640862781439915 0 -0.020810066398632209 -0.013586102018860374 0 -0.022633138466918005 -0.013232747743856348 0 -0.022066834439220213 -0.012640862781439915 0 -0.020866946781896482 -0.013659614457469649 0 -0.020710231767580946 -0.013918861003924528 0 -0.02150903036794085 -0.01275980598000424 0 -0.02227218996632695 -0.012146540540318553 0 -0.022066834439220213 -0.012640862781439915 0 -0.02227218996632695 -0.012146540540318553 0 -0.022066834439220213 -0.012640862781439915 0 -0.022908278761276067 -0.012047525147442817 0 -0.022633138466918005 -0.013232747743856348 0 -0.022066834439220213 -0.012640862781439915 0 -0.022908278761276067 -0.012047525147442817 0 -0.024468748018020986 -0.010395376138571139 0 -0.024368824360263077 -0.010254251421162127 0 -0.024568299084794822 -0.010255122400526725 0 -0.02227218996632695 -0.012146540540318553 0 -0.022908278761276067 -0.012047525147442817 0 -0.022835519132909408 -0.011544613879115723 0 -0.023978438839154195 -0.011114270230563885 0 -0.023571956819921119 -0.010876991543510225 0 -0.02227218996632695 -0.012146540540318553 0 -0.022835519132909408 -0.011544613879115723 0 -0.022440012708314045 -0.011844062477528812 0 -0.022835519132909408 -0.011544613879115723 0 -0.022440012708314045 -0.011844062477528812 0 -0.022770812461923976 -0.011405189166170828 0 -0.023571956819921119 -0.010876991543510225 0 -0.023657422981474205 -0.010497078208776617 0 -0.022835519132909408 -0.011544613879115723 0 -0.022770812461923976 -0.011405189166170828 0 -0.023216223097029948 -0.01095069662258041 0 -0.024368824360263077 -0.010254251421162127 0 -0.024398395583153074 -0.010094195872596147 0 -0.024536683710439905 -0.01011174698945495 0 -0.024368824360263077 -0.010254251421162127 0 -0.024536683710439905 -0.01011174698945495 0 -0.024568299084794822 -0.010255122400526725 0 -0.022567499672272371 -0.011506416364304547 0 -0.022271716213008396 -0.012083411529967973 0 -0.022343115327942663 -0.011897115593697164 0 -0.022271716213008396 -0.012083411529967973 0 -0.021880778286748507 -0.012498582525145087 0 -0.022343115327942663 -0.011897115593697164 0 -0.021927970087339668 -0.012330209945847203 0 -0.022343115327942663 -0.011897115593697164 0 -0.022440012708314045 -0.011844062477528812 0 -0.021927970087339668 -0.012330209945847203 0 -0.02227218996632695 -0.012146540540318553 0 -0.022440012708314045 -0.011844062477528812 0 -0.022343115327942663 -0.011897115593697164 0 -0.022440012708314045 -0.011844062477528812 0 -0.022770812461923976 -0.011405189166170828 0 -0.022343115327942663 -0.011897115593697164 0 -0.022770812461923976 -0.011405189166170828 0 -0.022878938926575752 -0.011030280662254612 0 -0.022567499672272371 -0.011506416364304547 0 -0.022343115327942663 -0.011897115593697164 0 -0.022878938926575752 -0.011030280662254612 0 -0.022769693340090817 -0.010921999148234218 0 -0.02298533047266553 -0.010278371179905141 0 -0.022878938926575752 -0.011030280662254612 0 -0.02298533047266553 -0.010278371179905141 0 -0.023114438351910384 -0.0095432737511227592 0 -0.023624920186570277 -0.0099914631940788371 0 -0.02298533047266553 -0.010278371179905141 0 -0.022878938926575752 -0.011030280662254612 0 -0.023624920186570277 -0.0099914631940788371 0 -0.023560274616370166 -0.00999743704849952 0 -0.023657422981474205 -0.010497078208776617 0 -0.023624920186570277 -0.0099914631940788371 0 -0.024165612381355738 -0.010163282718082207 0 -0.024315127769347772 -0.0098652083929818384 0 -0.022770812461923976 -0.011405189166170828 0 -0.022878938926575752 -0.011030280662254612 0 -0.023216223097029948 -0.01095069662258041 0 -0.022878938926575752 -0.011030280662254612 0 -0.023624920186570277 -0.0099914631940788371 0 -0.023216223097029948 -0.01095069662258041 0 -0.024165612381355738 -0.010163282718082207 0 -0.024398395583153074 -0.010094195872596147 0 -0.024315127769347772 -0.0098652083929818384 0 -0.024368824360263077 -0.010254251421162127 0 -0.024165612381355738 -0.010163282718082207 0 -0.024398395583153074 -0.010094195872596147 0 -0.024398395583153074 -0.010094195872596147 0 -0.024546180422743293 -0.0098910464607639709 0 -0.024536683710439905 -0.01011174698945495 0 -0.024398395583153074 -0.010094195872596147 0 -0.024546180422743293 -0.0098910464607639709 0 -0.024315127769347772 -0.0098652083929818384 0 -0.024546180422743293 -0.0098910464607639709 0 -0.024315127769347772 -0.0098652083929818384 0 -0.024550109989224168 -0.0096368013609641982 0 -0.024315127769347772 -0.0098652083929818384 0 -0.024550109989224168 -0.0096368013609641982 0 -0.024450777297997009 -0.0092541441934294744 0 -0.023624920186570277 -0.0099914631940788371 0 -0.024315127769347772 -0.0098652083929818384 0 -0.024450777297997009 -0.0092541441934294744 0 -0.024550109989224168 -0.0096368013609641982 0 -0.024450777297997009 -0.0092541441934294744 0 -0.024646219380077966 -0.0095472484021764097 0 -0.024450777297997009 -0.0092541441934294744 0 -0.026709104039608047 -0.0090548473677210355 0 -0.026086588777293095 -0.0075624093454431645 0 -0.024493093896747455 -0.0092734674066683089 0 -0.02563930336664871 -0.0092551258703824617 0 -0.024450777297997009 -0.0092541441934294744 0 -0.023618415698350735 -0.0091352139832567465 0 -0.023972628613432762 -0.0084056145870330685 0 -0.023072096575825721 -0.0089956377780393108 0 -0.023618415698350735 -0.0091352139832567465 0 -0.023547701550000581 -0.008479635758166881 0 -0.023114438351910384 -0.0095432737511227592 0 -0.023072096575825721 -0.0089956377780393108 0 -0.023618415698350735 -0.0091352139832567465 0 -0.023618415698350735 -0.0091352139832567465 0 -0.023972628613432762 -0.0084056145870330685 0 -0.023547701550000581 -0.008479635758166881 0 -0.023114438351910384 -0.0095432737511227592 0 -0.023624920186570277 -0.0099914631940788371 0 -0.023618415698350735 -0.0091352139832567465 0 -0.023624920186570277 -0.0099914631940788371 0 -0.024450777297997009 -0.0092541441934294744 0 -0.023618415698350735 -0.0091352139832567465 0 -0.024915149661127699 -0.0097235425870836542 0 -0.025109414577887058 -0.0095545531774976922 0 -0.024863186023308843 -0.0095763670288035417 0 -0.024915149661127699 -0.0097235425870836542 0 -0.025054200850456954 -0.0096950455732886 0 -0.025109414577887058 -0.0095545531774976922 0 -0.025054200850456954 -0.0096950455732886 0 -0.025093603354640788 -0.0094488481211915387 0 -0.025206373699561479 -0.0095979746637385142 0 -0.025115819675900968 -0.010525073234979776 0 -0.028692559958200962 -0.0073670854116225024 0 -0.03288761138396027 -0.0086308117116719232 0 -0.032098188680573396 -0.0068448396609002175 0 -0.033378707174155538 -0.0058173794975999562 0 -0.028692559958200962 -0.0073670854116225024 0 -0.033315875856393867 -0.0032801050353198774 0 -0.03288761138396027 -0.0086308117116719232 0 -0.031087653616599573 -0.0074197396882345326 0 -0.032098188680573396 -0.0068448396609002175 0 -0.032027976715694004 -0.0030394179338479369 0 -0.03270938951251133 -0.0021702122231859917 0 -0.03242063473196579 -0.0015063238400528326 0 -0.031087653616599573 -0.0074197396882345326 0 -0.029799099265881139 -0.008763060136421157 0 -0.030005722290149774 -0.0066746362245901428 0 -0.028692559958200962 -0.0073670854116225024 0 -0.027391389506062701 -0.0093977118626142261 0 -0.03288761138396027 -0.0086308117116719232 0 -0.031087653616599573 -0.0074197396882345326 0 -0.029799099265881139 -0.008763060136421157 0 -0.029799099265881139 -0.008763060136421157 0 -0.028219302161009312 -0.0074939930955115284 0 -0.030005722290149774 -0.0066746362245901428 0 -0.027391389506062701 -0.0093977118626142261 0 -0.02563930336664871 -0.0092551258703824617 0 -0.028219302161009312 -0.0074939930955115284 0 -0.026709104039608047 -0.0090548473677210355 0 -0.026086588777293095 -0.0075624093454431645 0 -0.029799099265881139 -0.008763060136421157 0 -0.028219302161009312 -0.0074939930955115284 0 -0.026709104039608047 -0.0090548473677210355 0 -0.024550109989224168 -0.0096368013609641982 0 -0.024646219380077966 -0.0095472484021764097 0 -0.024728795718053503 -0.0097386371933115782 0 -0.024863186023308843 -0.0095763670288035417 0 -0.024646219380077966 -0.0095472484021764097 0 -0.024728795718053503 -0.0097386371933115782 0 -0.024915149661127699 -0.0097235425870836542 0 -0.024863186023308843 -0.0095763670288035417 0 -0.024728795718053503 -0.0097386371933115782 0 -0.024915149661127699 -0.0097235425870836542 0 -0.024728795718053503 -0.0097386371933115782 0 -0.024794286210088213 -0.009906735065967516 0 -0.024728795718053503 -0.0097386371933115782 0 -0.024794286210088213 -0.009906735065967516 0 -0.024659348489022785 -0.0099478018383033842 0 -0.024546180422743293 -0.0098910464607639709 0 -0.024550109989224168 -0.0096368013609641982 0 -0.024728795718053503 -0.0097386371933115782 0 -0.024546180422743293 -0.0098910464607639709 0 -0.024728795718053503 -0.0097386371933115782 0 -0.024659348489022785 -0.0099478018383033842 0 -0.024546180422743293 -0.0098910464607639709 0 -0.024659348489022785 -0.0099478018383033842 0 -0.024536683710439905 -0.01011174698945495 0 -0.024659348489022785 -0.0099478018383033842 0 -0.024536683710439905 -0.01011174698945495 0 -0.024683865568708638 -0.010089981633364794 0 -0.024794286210088213 -0.009906735065967516 0 -0.024659348489022785 -0.0099478018383033842 0 -0.024683865568708638 -0.010089981633364794 0 -0.024794286210088213 -0.009906735065967516 0 -0.024683865568708638 -0.010089981633364794 0 -0.024840503171907263 -0.010059274678232815 0 -0.024840503171907263 -0.010059274678232815 0 -0.024925355470339614 -0.0099189027878075868 0 -0.024991427732584851 -0.010009012548759669 0 -0.024794286210088213 -0.009906735065967516 0 -0.024840503171907263 -0.010059274678232815 0 -0.024925355470339614 -0.0099189027878075868 0 -0.024915149661127699 -0.0097235425870836542 0 -0.024794286210088213 -0.009906735065967516 0 -0.024925355470339614 -0.0099189027878075868 0 -0.024915149661127699 -0.0097235425870836542 0 -0.025054200850456954 -0.0096950455732886 0 -0.024925355470339614 -0.0099189027878075868 0 -0.025054200850456954 -0.0096950455732886 0 -0.025107732466271685 -0.0098781040612917585 0 -0.025206373699561479 -0.0095979746637385142 0 -0.025054200850456954 -0.0096950455732886 0 -0.024925355470339614 -0.0099189027878075868 0 -0.025107732466271685 -0.0098781040612917585 0 -0.025107732466271685 -0.0098781040612917585 0 -0.024991427732584851 -0.010009012548759669 0 -0.025074482106066491 -0.010077370257032009 0 -0.024925355470339614 -0.0099189027878075868 0 -0.025107732466271685 -0.0098781040612917585 0 -0.024991427732584851 -0.010009012548759669 0 -0.024921046890407285 -0.010146064964952288 0 -0.025016937093051049 -0.01019754497162984 0 -0.025074482106066491 -0.010077370257032009 0 -0.024991427732584851 -0.010009012548759669 0 -0.024921046890407285 -0.010146064964952288 0 -0.025074482106066491 -0.010077370257032009 0 -0.024840503171907263 -0.010059274678232815 0 -0.024991427732584851 -0.010009012548759669 0 -0.024921046890407285 -0.010146064964952288 0 -0.024840503171907263 -0.010059274678232815 0 -0.024921046890407285 -0.010146064964952288 0 -0.024765407797067967 -0.010256994269433477 0 -0.024921046890407285 -0.010146064964952288 0 -0.024905371284873155 -0.010291993060851757 0 -0.024765407797067967 -0.010256994269433477 0 -0.024905371284873155 -0.010291993060851757 0 -0.024765407797067967 -0.010256994269433477 0 -0.024800040746385886 -0.010468158092275021 0 -0.025016937093051049 -0.01019754497162984 0 -0.024905371284873155 -0.010291993060851757 0 -0.025016445782717677 -0.010373814470045336 0 -0.024921046890407285 -0.010146064964952288 0 -0.025016937093051049 -0.01019754497162984 0 -0.024905371284873155 -0.010291993060851757 0 -0.024536683710439905 -0.01011174698945495 0 -0.024683865568708638 -0.010089981633364794 0 -0.024568299084794822 -0.010255122400526725 0 -0.024683865568708638 -0.010089981633364794 0 -0.024840503171907263 -0.010059274678232815 0 -0.024765407797067967 -0.010256994269433477 0 -0.024683865568708638 -0.010089981633364794 0 -0.024568299084794822 -0.010255122400526725 0 -0.024765407797067967 -0.010256994269433477 0 -0.024765407797067967 -0.010256994269433477 0 -0.024626309013304669 -0.01039146042504434 0 -0.024800040746385886 -0.010468158092275021 0 -0.024568299084794822 -0.010255122400526725 0 -0.024765407797067967 -0.010256994269433477 0 -0.024626309013304669 -0.01039146042504434 0 -0.024468748018020986 -0.010395376138571139 0 -0.024568299084794822 -0.010255122400526725 0 -0.024626309013304669 -0.01039146042504434 0 -0.024468748018020986 -0.010395376138571139 0 -0.024626309013304669 -0.01039146042504434 0 -0.024550224925639529 -0.010577937224661351 0 -0.023978438839154195 -0.011114270230563885 0 -0.02125097934291242 -0.013252712819133657 0 -0.022633138466918005 -0.013232747743856348 0 -0.022908278761276067 -0.012047525147442817 0 -0.023473142211652531 -0.012940538969460808 0 -0.02125097934291242 -0.013252712819133657 0 -0.021136163044852958 -0.012464770247433754 0 -0.024626309013304669 -0.01039146042504434 0 -0.024550224925639529 -0.010577937224661351 0 -0.024800040746385886 -0.010468158092275021 0 -0.017919391592762835 -0.014529124364475985 0 -0.01801484679416469 -0.014660944687450059 0 -0.017595836604995613 -0.014514459506260784 0 -0.01801484679416469 -0.014660944687450059 0 -0.017466832267743784 -0.0146906021208296 0 -0.017595836604995613 -0.014514459506260784 0 -0.01774771094451873 -0.014408186109649852 0 -0.017919391592762835 -0.014529124364475985 0 -0.017595836604995613 -0.014514459506260784 0 -0.020710231767580946 -0.013918861003924528 0 -0.02125097934291242 -0.013252712819133657 0 -0.019042070304172511 -0.014573517639429776 0 -0.018141686132530754 -0.014887998186358819 0 -0.018435768040624845 -0.014422868892253785 0 -0.019185320124602178 -0.013726121781796198 0 -0.02125097934291242 -0.013252712819133657 0 -0.017919391592762835 -0.014529124364475985 0 -0.018141686132530754 -0.014887998186358819 0 -0.018435768040624845 -0.014422868892253785 0 -0.017376517244378456 -0.014626159602004831 0 -0.017335875191244306 -0.014634737567037268 0 -0.01742115957978458 -0.014448794462879326 0 -0.024905371284873155 -0.010291993060851757 0 -0.024800040746385886 -0.010468158092275021 0 -0.025016445782717677 -0.010373814470045336 0 -0.017466832267743784 -0.0146906021208296 0 -0.017376517244378456 -0.014626159602004831 0 -0.01742115957978458 -0.014448794462879326 0 -0.021136163044852958 -0.012464770247433754 0 -0.021384439036612527 -0.012506180618066284 0 -0.017595836604995613 -0.014514459506260784 0 -0.017422196239036652 -0.014517060461249233 0 -0.017376517244378456 -0.014626159602004831 0 -0.017466832267743784 -0.0146906021208296 0 -0.017595836604995613 -0.014514459506260784 0 -0.017376517244378456 -0.014626159602004831 0 -0.017311612785007764 -0.014528359346934359 0 -0.017422196239036652 -0.014517060461249233 0 -0.017376517244378456 -0.014626159602004831 0 -0.017311612785007764 -0.014528359346934359 0 -0.017376517244378456 -0.014626159602004831 0 -0.017335875191244306 -0.014634737567037268 0 -0.017164333330711833 -0.014558380360020268 0 -0.01719301849337385 -0.0145584792678932 0 -0.017311612785007764 -0.014528359346934359 0 -0.017196602874516728 -0.01453127423498886 0 -0.017335875191244306 -0.014634737567037268 0 -0.017196602874516728 -0.01453127423498886 0 -0.017335875191244306 -0.014634737567037268 0 -0.01705956964827016 -0.01477400494412931 0 -0.017335875191244306 -0.014634737567037268 0 -0.017752286888525048 -0.014574976838521171 0 -0.01742115957978458 -0.014448794462879326 0 -0.017418877826881059 -0.014647125464632222 0 -0.01719301849337385 -0.0145584792678932 0 -0.017196602874516728 -0.01453127423498886 0 -0.01716123593509495 -0.014463705913455638 0 -0.017164472181075516 -0.0145189877604352 0 -0.01716123593509495 -0.014463705913455638 0 -0.017164472181075516 -0.0145189877604352 0 -0.017231269907382388 -0.014484776934370976 0 -0.017509098106950796 -0.013808421179155917 0 -0.017093001463876389 -0.014163560262200578 0 -0.017092232815802653 -0.013319592894585799 0 -0.017224687083429467 -0.014573819495802125 0 -0.017164472181075516 -0.0145189877604352 0 -0.017231269907382388 -0.014484776934370976 0 -0.017167065376070854 -0.014329335790088901 0 -0.017093183924986505 -0.014087539246492866 0 -0.017509098106950796 -0.013808421179155917 0 -0.017615412176326197 -0.013298184649567354 0 -0.017942096839108496 -0.01356524706721573 0 -0.017509098106950796 -0.013808421179155917 0 -0.017092232815802653 -0.013319592894585799 0 -0.017615412176326197 -0.013298184649567354 0 -0.017615412176326197 -0.013298184649567354 0 -0.017942096839108496 -0.01356524706721573 0 -0.018021426410684962 -0.012967686990790595 0 -0.017516594655391238 -0.012810345265691098 0 -0.017750834791519648 -0.012104769318144436 0 -0.018021426410684962 -0.012967686990790595 0 -0.017615412176326197 -0.013298184649567354 0 -0.017516594655391238 -0.012810345265691098 0 -0.018021426410684962 -0.012967686990790595 0 -0.017092232815802653 -0.013319592894585799 0 -0.017615412176326197 -0.013298184649567354 0 -0.017516594655391238 -0.012810345265691098 0 -0.017093183924986505 -0.014087539246492866 0 -0.018001237939406795 -0.01252390446918826 0 -0.017092232815802653 -0.013319592894585799 0 -0.017516594655391238 -0.012810345265691098 0 -0.017143830841517733 -0.012431650289401658 0 -0.01716123593509495 -0.014463705913455638 0 -0.017231269907382388 -0.014484776934370976 0 -0.017251151621510152 -0.014386683970136087 0 -0.01719301849337385 -0.0145584792678932 0 -0.018001237939406795 -0.01252390446918826 0 -0.017272933100131772 -0.013658014090281098 0 -0.019621723968848381 -0.012437536590535005 0 -0.018562462172793254 -0.011711862949844241 0 -0.018001237939406795 -0.01252390446918826 0 -0.019074951212411095 -0.010114692219841558 0 -0.019074951212411095 -0.010114692219841558 0 -0.021063542981374635 -0.011550390738070656 0 -0.019621723968848381 -0.012437536590535005 0 -0.019717603279403032 -0.011310881302294492 0 -0.018562462172793254 -0.011711862949844241 0 -0.017516594655391238 -0.012810345265691098 0 -0.017143830841517733 -0.012431650289401658 0 -0.017750834791519648 -0.012104769318144436 0 -0.018001237939406795 -0.01252390446918826 0 -0.016642045290211196 -0.010335033374705722 0 -0.017744953337503176 -0.010796816619129773 0 -0.017761967209233381 -0.01059379333563616 0 -0.018027594375431302 -0.010637873414515494 0 -0.017761967209233381 -0.01059379333563616 0 -0.018027594375431302 -0.010637873414515494 0 -0.017988090057471953 -0.010508840293561708 0 -0.016642045290211196 -0.010335033374705722 0 -0.017684511300960864 -0.0090211743276930791 0 -0.015498269312253602 -0.0080514942373896385 0 -0.015793798176180554 -0.008963012892351142 0 -0.014967753424483502 -0.0087201638609723468 0 -0.018317584212244213 -0.0081121889299855306 0 -0.018304933466100674 -0.0080583416854854168 0 -0.018386321880676917 -0.0079722233032346861 0 -0.017684511300960864 -0.0090211743276930791 0 -0.017699443904626938 -0.0087469196571413783 0 -0.018124183818635529 -0.0081956453032219698 0 -0.018304933466100674 -0.0080583416854854168 0 -0.018143463531976912 -0.0079432656605483414 0 -0.019074951212411095 -0.010114692219841558 0 -0.017684511300960864 -0.0090211743276930791 0 -0.018124183818635529 -0.0081956453032219698 0 -0.018323022668512778 -0.0081155849663947215 0 -0.018304933466100674 -0.0080583416854854168 0 -0.018304933466100674 -0.0080583416854854168 0 -0.018143463531976912 -0.0079432656605483414 0 -0.018340397722417773 -0.0078535536814377093 0 -0.018304933466100674 -0.0080583416854854168 0 -0.018386321880676917 -0.0079722233032346861 0 -0.018340397722417773 -0.0078535536814377093 0 -0.025558964077205138 -0.010256061915633202 0 -0.026004488378478852 -0.0096720417673149591 0 -0.025497314726926984 -0.009603315794439668 0 -0.021547784449115572 -0.010692085358009005 0 -0.020373928235019555 -0.011097441515505239 0 -0.021685746840153043 -0.0091278298494719932 0 -0.021063542981374635 -0.011550390738070656 0 -0.022626388044183827 -0.0088316482857065878 0 -0.019074951212411095 -0.010114692219841558 0 -0.022626388044183827 -0.0088316482857065878 0 -0.022626388044183827 -0.0088316482857065878 0 -0.022869580276238644 -0.0089762890830950882 0 -0.025558964077205138 -0.010256061915633202 0 -0.025497314726926984 -0.009603315794439668 0 -0.025146233908912678 -0.010106572291939913 0 -0.025497314726926984 -0.009603315794439668 0 -0.025146233908912678 -0.010106572291939913 0 -0.024995087083547023 -0.009364449439353913 0 -0.025074482106066491 -0.010077370257032009 0 -0.025146233908912678 -0.010106572291939913 0 -0.025217663205992797 -0.0099823790075040143 0 -0.025137202682268101 -0.010127368697253201 0 -0.025124206705569727 -0.0094865401732421462 0 -0.025016937093051049 -0.01019754497162984 0 -0.025074482106066491 -0.010077370257032009 0 -0.025146233908912678 -0.010106572291939913 0 -0.025016937093051049 -0.01019754497162984 0 -0.025146233908912678 -0.010106572291939913 0 -0.025016445782717677 -0.010373814470045336 0 -0.017752286888525048 -0.014574976838521171 0 -0.018082970067856842 -0.01410942581362051 0 -0.01742115957978458 -0.014448794462879326 0 -0.025558964077205138 -0.010256061915633202 0 -0.025146233908912678 -0.010106572291939913 0 -0.025016445782717677 -0.010373814470045336 0 -0.01719301849337385 -0.0145584792678932 0 -0.021063542981374635 -0.011550390738070656 0 -0.021063542981374635 -0.011550390738070656 0 -0.021384439036612527 -0.012506180618066284 0 -0.011345123839903663 -0.0088756192630971131 0 -0.010753479147106556 -0.0088655383952999482 0 -0.010904622704285456 -0.0081632452993521259 0 -0.011345123839903663 -0.0088756192630971131 0 -0.011126114949627121 -0.0094413264546798301 0 -0.010753479147106556 -0.0088655383952999482 0 -0.01118324637252812 -0.010278785515577865 0 -0.01169207476575479 -0.0096039092801184795 0 -0.011126114949627121 -0.0094413264546798301 0 -0.01169207476575479 -0.0096039092801184795 0 -0.011345123839903663 -0.0088756192630971131 0 -0.011126114949627121 -0.0094413264546798301 0 -0.01118324637252812 -0.010278785515577865 0 -0.011126114949627121 -0.0094413264546798301 0 -0.010523961463872548 -0.0095718096964765315 0 -0.010268870923373826 -0.010359190815337375 0 -0.010523961463872548 -0.0095718096964765315 0 -0.0099139978244183139 -0.0096738527697938208 0 -0.011126114949627121 -0.0094413264546798301 0 -0.010523961463872548 -0.0095718096964765315 0 -0.010753479147106556 -0.0088655383952999482 0 -0.010753479147106556 -0.0088655383952999482 0 -0.0099442508026716253 -0.0089056914594334395 0 -0.01044963358813473 -0.008343588784154022 0 -0.010523961463872548 -0.0095718096964765315 0 -0.010753479147106556 -0.0088655383952999482 0 -0.0099442508026716253 -0.0089056914594334395 0 -0.0099442508026716253 -0.0089056914594334395 0 -0.0099139978244183139 -0.0096738527697938208 0 -0.0089726005878066513 -0.0089793917941444791 0 -0.0099442508026716253 -0.0089056914594334395 0 -0.0089726005878066513 -0.0089793917941444791 0 -0.0096808054772410529 -0.0082980348017595833 0 -0.0099442508026716253 -0.0089056914594334395 0 -0.010021896782412202 -0.0084349279650110694 0 -0.01044963358813473 -0.008343588784154022 0 -0.0099442508026716253 -0.0089056914594334395 0 -0.0096808054772410529 -0.0082980348017595833 0 -0.010021896782412202 -0.0084349279650110694 0 -0.010523961463872548 -0.0095718096964765315 0 -0.0099442508026716253 -0.0089056914594334395 0 -0.0099139978244183139 -0.0096738527697938208 0 -0.018356667401227357 -0.013987538470188205 0 -0.017849709572528655 -0.013383069427876043 0 -0.017917165242557521 -0.012650922612510098 0 -0.01347138037191711 -0.011805729482901201 0 -0.014673519440826776 -0.01124811105999121 0 -0.0093831183292096658 -0.010240316963726417 0 -0.0099139978244183139 -0.0096738527697938208 0 -0.0089726005878066513 -0.0089793917941444791 0 -0.017722847224555437 -0.013632335150253137 0 -0.014673519440826776 -0.01124811105999121 0 -0.0089726005878066513 -0.0089793917941444791 0 -0.0091002504511337734 -0.00774417796930556 0 -0.0096808054772410529 -0.0082980348017595833 0 -0.014673519440826776 -0.01124811105999121 0 -0.011665712392357379 -0.0083798814261681256 0 -0.013777312653187898 -0.0096666479207154141 0 -0.014172067318328924 -0.010884973552073006 0 -0.014344525420152862 -0.0093673543723184101 0 -0.016642045290211196 -0.010335033374705722 0 -0.014673519440826776 -0.01124811105999121 0 -0.016642045290211196 -0.010335033374705722 0 -0.011665712392357379 -0.0083798814261681256 0 -0.015498269312253602 -0.0080514942373896385 0 -0.014967753424483502 -0.0087201638609723468 0 -0.014106881823985076 -0.0087474814841066954 0 -0.017684511300960864 -0.0090211743276930791 0 -0.012784723260936999 -0.0075456920025201305 0 -0.0095010952699320743 -0.0075673281725033952 0 -0.0095146941128784902 -0.0074062567090045321 0 -0.0099667207795348794 -0.0072638869406235918 0 -0.015793798176180554 -0.008963012892351142 0 -0.014967753424483502 -0.0087201638609723468 0 -0.014003162480647166 -0.0095592573733300525 0 -0.018317584212244213 -0.0081121889299855306 0 -0.018386321880676917 -0.0079722233032346861 0 -0.018524950464555573 -0.0080351225355391361 0 -0.014967753424483502 -0.0087201638609723468 0 -0.014106881823985076 -0.0087474814841066954 0 -0.014003162480647166 -0.0095592573733300525 0 -0.011665712392357379 -0.0083798814261681256 0 -0.012784723260936999 -0.0075456920025201305 0 -0.018386321880676917 -0.0079722233032346861 0 -0.018524950464555573 -0.0080351225355391361 0 -0.018447100786307877 -0.0077925771092565415 0 -0.0095146941128784902 -0.0074062567090045321 0 -0.010090148611543717 -0.0071221264283843613 0 -0.0099667207795348794 -0.0072638869406235918 0 -0.010082460838620555 -0.0067496329520665204 0 -0.010559810487733043 -0.0065773088632404058 0 -0.010284034796886938 -0.0064691990214295119 0 -0.0091002504511337734 -0.00774417796930556 0 -0.0099667207795348794 -0.0072638869406235918 0 -0.0099402235113457277 -0.007719789847809487 0 -0.012784723260936999 -0.0075456920025201305 0 -0.0097428955234557576 -0.00690353250035551 0 -0.011665712392357379 -0.0083798814261681256 0 -0.0091980903956993248 -0.0074071949299943261 0 -0.010090148611543717 -0.0071221264283843613 0 -0.0099667207795348794 -0.0072638869406235918 0 -0.010169883646853147 -0.0073652328565787187 0 -0.0099667207795348794 -0.0072638869406235918 0 -0.0099402235113457277 -0.007719789847809487 0 -0.010169883646853147 -0.0073652328565787187 0 -0.0099402235113457277 -0.007719789847809487 0 -0.010112385072828267 -0.0080891390189511969 0 -0.0096808054772410529 -0.0082980348017595833 0 -0.0091002504511337734 -0.00774417796930556 0 -0.0099402235113457277 -0.007719789847809487 0 -0.0096808054772410529 -0.0082980348017595833 0 -0.010112385072828267 -0.0080891390189511969 0 -0.0096808054772410529 -0.0082980348017595833 0 -0.010021896782412202 -0.0084349279650110694 0 -0.010753479147106556 -0.0088655383952999482 0 -0.01044963358813473 -0.008343588784154022 0 -0.010904622704285456 -0.0081632452993521259 0 -0.010112385072828267 -0.0080891390189511969 0 -0.010021896782412202 -0.0084349279650110694 0 -0.01044963358813473 -0.008343588784154022 0 -0.01044963358813473 -0.008343588784154022 0 -0.010456903316676473 -0.0076576199209886344 0 -0.010904622704285456 -0.0081632452993521259 0 -0.010456903316676473 -0.0076576199209886344 0 -0.010923739847294684 -0.0074426617853659257 0 -0.010904622704285456 -0.0081632452993521259 0 -0.0099402235113457277 -0.007719789847809487 0 -0.010112385072828267 -0.0080891390189511969 0 -0.010456903316676473 -0.0076576199209886344 0 -0.010112385072828267 -0.0080891390189511969 0 -0.01044963358813473 -0.008343588784154022 0 -0.010456903316676473 -0.0076576199209886344 0 -0.0099402235113457277 -0.007719789847809487 0 -0.010456903316676473 -0.0076576199209886344 0 -0.010169883646853147 -0.0073652328565787187 0 -0.010456903316676473 -0.0076576199209886344 0 -0.010169883646853147 -0.0073652328565787187 0 -0.010350115584254062 -0.007303980219189308 0 -0.010090148611543717 -0.0071221264283843613 0 -0.010350115584254062 -0.007303980219189308 0 -0.010699367669331506 -0.0070843963152170224 0 -0.010090148611543717 -0.0071221264283843613 0 -0.010169883646853147 -0.0073652328565787187 0 -0.010350115584254062 -0.007303980219189308 0 -0.010456903316676473 -0.0076576199209886344 0 -0.010350115584254062 -0.007303980219189308 0 -0.010699367669331506 -0.0070843963152170224 0 -0.010456903316676473 -0.0076576199209886344 0 -0.010699367669331506 -0.0070843963152170224 0 -0.010923739847294684 -0.0074426617853659257 0 -0.010699367669331506 -0.0070843963152170224 0 -0.010923739847294684 -0.0074426617853659257 0 -0.011163163638860892 -0.0065749197083252971 0 -0.010923739847294684 -0.0074426617853659257 0 -0.011426976393026079 -0.0076439489828512303 0 -0.011163163638860892 -0.0065749197083252971 0 -0.010923739847294684 -0.0074426617853659257 0 -0.011426976393026079 -0.0076439489828512303 0 -0.010904622704285456 -0.0081632452993521259 0 -0.011287079851042211 -0.0066955984005246001 0 -0.010943846572831078 -0.0073234501528547189 0 -0.010853213643883445 -0.0059582330703618937 0 -0.011345123839903663 -0.0088756192630971131 0 -0.011426976393026079 -0.0076439489828512303 0 -0.010904622704285456 -0.0081632452993521259 0 -0.011324959955540228 -0.0087805120072520539 0 -0.011193219387949068 -0.0074843610492898657 0 -0.011096087502810293 -0.0061086152717848789 0 -0.011054555394875978 -0.0054680346272138877 0 -0.011081713636605263 -0.0055085285343036789 0 -0.010853213643883445 -0.0059582330703618937 0 -0.011050222363155388 -0.0054148399982491355 0 -0.011053574262495933 -0.0058500271236570592 0 -0.011338746319135257 -0.0062184078092013357 0 -0.011050222363155388 -0.0054148399982491355 0 -0.011053574262495933 -0.0058500271236570592 0 -0.010964544607050281 -0.0061547575610032988 0 -0.01089800874870984 -0.0058446207307990437 0 -0.011053574262495933 -0.0058500271236570592 0 -0.01089800874870984 -0.0058446207307990437 0 -0.010979590611456792 -0.0056580391551987082 0 -0.011053574262495933 -0.0058500271236570592 0 -0.010964544607050281 -0.0061547575610032988 0 -0.011338746319135257 -0.0062184078092013357 0 -0.011193219387949068 -0.0074843610492898657 0 -0.011096087502810293 -0.0061086152717848789 0 -0.011426976393026079 -0.0076439489828512303 0 -0.011338746319135257 -0.0062184078092013357 0 -0.011163163638860892 -0.0065749197083252971 0 -0.011163163638860892 -0.0065749197083252971 0 -0.011046389692976572 -0.006352345922807162 0 -0.010799295895585941 -0.006410851877592519 0 -0.011338746319135257 -0.0062184078092013357 0 -0.011163163638860892 -0.0065749197083252971 0 -0.011046389692976572 -0.006352345922807162 0 -0.010964544607050281 -0.0061547575610032988 0 -0.011338746319135257 -0.0062184078092013357 0 -0.011046389692976572 -0.006352345922807162 0 -0.010964544607050281 -0.0061547575610032988 0 -0.011046389692976572 -0.006352345922807162 0 -0.010799295895585941 -0.006410851877592519 0 -0.0097428955234557576 -0.00690353250035551 0 -0.011368232318372822 -0.0065315962993384626 0 -0.010964544607050281 -0.0061547575610032988 0 -0.010799295895585941 -0.006410851877592519 0 -0.010722197590860426 -0.0060473397213948281 0 -0.010090148611543717 -0.0071221264283843613 0 -0.010699367669331506 -0.0070843963152170224 0 -0.011163163638860892 -0.0065749197083252971 0 -0.010559810487733043 -0.0065773088632404058 0 -0.011163163638860892 -0.0065749197083252971 0 -0.010799295895585941 -0.006410851877592519 0 -0.010559810487733043 -0.0065773088632404058 0 -0.010799295895585941 -0.006410851877592519 0 -0.010504703478796859 -0.0062849056493883655 0 -0.010799295895585941 -0.006410851877592519 0 -0.010722197590860426 -0.0060473397213948281 0 -0.010504703478796859 -0.0062849056493883655 0 -0.010964544607050281 -0.0061547575610032988 0 -0.010722197590860426 -0.0060473397213948281 0 -0.01089800874870984 -0.0058446207307990437 0 -0.010722197590860426 -0.0060473397213948281 0 -0.01089800874870984 -0.0058446207307990437 0 -0.010696474537376618 -0.0057507627862466021 0 -0.010722197590860426 -0.0060473397213948281 0 -0.010462845929978086 -0.0058270127090283147 0 -0.010696474537376618 -0.0057507627862466021 0 -0.010462845929978086 -0.0058270127090283147 0 -0.010130383137079462 -0.006140329631409776 0 -0.010236541534547854 -0.0054715425289506483 0 -0.010462845929978086 -0.0058270127090283147 0 -0.010504703478796859 -0.0062849056493883655 0 -0.010130383137079462 -0.006140329631409776 0 -0.010722197590860426 -0.0060473397213948281 0 -0.010462845929978086 -0.0058270127090283147 0 -0.010504703478796859 -0.0062849056493883655 0 -0.010504703478796859 -0.0062849056493883655 0 -0.010284034796886938 -0.0064691990214295119 0 -0.010130383137079462 -0.006140329631409776 0 -0.010559810487733043 -0.0065773088632404058 0 -0.010504703478796859 -0.0062849056493883655 0 -0.010284034796886938 -0.0064691990214295119 0 -0.010082460838620555 -0.0067496329520665204 0 -0.010284034796886938 -0.0064691990214295119 0 -0.010130383137079462 -0.006140329631409776 0 -0.012784723260936999 -0.0075456920025201305 0 -0.014047244228314775 -0.0069308061777671503 0 -0.018524950464555573 -0.0080351225355391361 0 -0.018447100786307877 -0.0077925771092565415 0 -0.018618168523753899 -0.0075542230236209712 0 -0.018447100786307877 -0.0077925771092565415 0 -0.018618168523753899 -0.0075542230236209712 0 -0.018393303772334803 -0.0075021046931819362 0 -0.018618168523753899 -0.0075542230236209712 0 -0.018693588247853336 -0.0069994393739153619 0 -0.018393303772334803 -0.0075021046931819362 0 -0.014047244228314775 -0.0069308061777671503 0 -0.018732649583552533 -0.0058218849944419691 0 -0.026965167156129684 -0.0080073690248365116 0 -0.026528819346956032 -0.0088124041193327323 0 -0.026364073228233368 -0.0078592572314806434 0 -0.018732649583552533 -0.0058218849944419691 0 -0.022948179988651701 -0.008331633464805574 0 -0.018732649583552533 -0.0058218849944419691 0 -0.022054250649178524 -0.0024819075081349289 0 -0.022054250649178524 -0.0024819075081349289 0 -0.029340262051803612 -0.0026064869130053938 0 -0.029196648886870628 0.0019538240767083517 0 -0.028278655683751194 0.0026959860774227453 0 -0.030078007354299212 0.0026794639762467887 0 -0.026965167156129684 -0.0080073690248365116 0 -0.026977930028957903 -0.0078485293661397018 0 -0.026364073228233368 -0.0078592572314806434 0 -0.029196648886870628 0.0019538240767083517 0 -0.028278655683751194 0.0026959860774227453 0 -0.028116878584831098 0.0014113797705236129 0 -0.012729720794594446 -0.0020302412736966807 0 -0.010881257472953858 -0.0022805506519456872 0 -0.013005995876947713 -0.0030299562689210659 0 -0.022054250649178524 -0.0024819075081349289 0 -0.020242640030558853 -8.2570956367914309e-05 0 -0.015425681101323821 -0.0036707631195630969 0 -0.010248345276882207 -0.003567214455776989 0 -0.013164469541818382 -0.0017473720579932398 0 -0.012935629438140627 -0.0017474969438903561 0 -0.012729720794594446 -0.0020302412736966807 0 -0.013164469541818382 -0.0017473720579932398 0 -0.012729720794594446 -0.0020302412736966807 0 -0.013005995876947713 -0.0030299562689210659 0 -0.018330860818056651 -0.0051125615753531946 0 -0.018755635895636336 -0.0016527723994421162 0 -0.020624845513846104 -0.0016518778541311928 0 -0.012928937112461196 -0.001736992309536187 0 -0.012729720794594446 -0.0020302412736966807 0 -0.011208393462978762 -0.0017954477449855354 0 -0.0076807389583542097 -0.0025522164625213814 0 -0.020242640030558853 -8.2570956367914309e-05 0 -0.022054250649178524 -0.0024819075081349289 0 -0.015425681101323821 -0.0036707631195630969 0 -0.015425681101323821 -0.0036707631195630969 0 -0.015011683667889412 -0.0034051135214158818 0 -0.010318371904754259 -0.0053568002545085697 0 -0.010551775210044348 -0.0054818131957698156 0 -0.010435709405727529 -0.0055367009036246355 0 -0.010318371904754259 -0.0053568002545085697 0 -0.010551775210044348 -0.0054818131957698156 0 -0.010744038179031077 -0.0053560358607525997 0 -0.010551775210044348 -0.0054818131957698156 0 -0.010435709405727529 -0.0055367009036246355 0 -0.01056849414659302 -0.0056192546234062552 0 -0.010236541534547854 -0.0054715425289506483 0 -0.010318371904754259 -0.0053568002545085697 0 -0.010435709405727529 -0.0055367009036246355 0 -0.018732649583552533 -0.0058218849944419691 0 -0.015425681101323821 -0.0036707631195630969 0 -0.010462845929978086 -0.0058270127090283147 0 -0.010236541534547854 -0.0054715425289506483 0 -0.010435709405727529 -0.0055367009036246355 0 -0.010462845929978086 -0.0058270127090283147 0 -0.01056849414659302 -0.0056192546234062552 0 -0.010696474537376618 -0.0057507627862466021 0 -0.010462845929978086 -0.0058270127090283147 0 -0.010435709405727529 -0.0055367009036246355 0 -0.01056849414659302 -0.0056192546234062552 0 -0.010696474537376618 -0.0057507627862466021 0 -0.010835277118836454 -0.0055823437163208161 0 -0.010688282470333188 -0.0055420143009308137 0 -0.01056849414659302 -0.0056192546234062552 0 -0.010696474537376618 -0.0057507627862466021 0 -0.010688282470333188 -0.0055420143009308137 0 -0.01089800874870984 -0.0058446207307990437 0 -0.010835277118836454 -0.0055823437163208161 0 -0.010979590611456792 -0.0056580391551987082 0 -0.01089800874870984 -0.0058446207307990437 0 -0.010696474537376618 -0.0057507627862466021 0 -0.010835277118836454 -0.0055823437163208161 0 -0.010835277118836454 -0.0055823437163208161 0 -0.010744038179031077 -0.0053560358607525997 0 -0.010964552141058148 -0.0054690709945341247 0 -0.010835277118836454 -0.0055823437163208161 0 -0.010688282470333188 -0.0055420143009308137 0 -0.010744038179031077 -0.0053560358607525997 0 -0.010551775210044348 -0.0054818131957698156 0 -0.010688282470333188 -0.0055420143009308137 0 -0.010744038179031077 -0.0053560358607525997 0 -0.010551775210044348 -0.0054818131957698156 0 -0.01056849414659302 -0.0056192546234062552 0 -0.010688282470333188 -0.0055420143009308137 0 -0.011208393462978762 -0.0017954477449855354 0 -0.010881257472953858 -0.0022805506519456872 0 -0.010386579509567295 -0.0020784898548212743 0 -0.012729720794594446 -0.0020302412736966807 0 -0.011208393462978762 -0.0017954477449855354 0 -0.010881257472953858 -0.0022805506519456872 0 -0.010248345276882207 -0.003567214455776989 0 -0.011003723315682787 -0.0040570840263538643 0 -0.010848771287221235 -0.0042579433587599065 0 -0.010708394672957894 -0.0047625010275477771 0 -0.010397197036122326 -0.0038483733678542132 0 -0.010881257472953858 -0.0022805506519456872 0 -0.010386579509567295 -0.0020784898548212743 0 -0.010812486298546526 -0.0024830494187721183 0 -0.011003723315682787 -0.0040570840263538643 0 -0.010509255420115382 -0.0030143713706702242 0 -0.010912968823162757 -0.0045744970078812853 0 -0.010848771287221235 -0.0042579433587599065 0 -0.010708394672957894 -0.0047625010275477771 0 -0.010914279225793704 -0.0043970905528566175 0 -0.011003723315682787 -0.0040570840263538643 0 -0.010744038179031077 -0.0053560358607525997 0 -0.011083848989098661 -0.0053411740030136316 0 -0.010964552141058148 -0.0054690709945341247 0 -0.011083848989098661 -0.0053411740030136316 0 -0.011050222363155388 -0.0054148399982491355 0 -0.010964552141058148 -0.0054690709945341247 0 -0.011175019864862124 -0.0057018430020045804 0 -0.011003723315682787 -0.0040570840263538643 0 -0.011081713636605263 -0.0055085285343036789 0 -0.011083848989098661 -0.0053411740030136316 0 -0.011050222363155388 -0.0054148399982491355 0 -0.011050222363155388 -0.0054148399982491355 0 -0.010964552141058148 -0.0054690709945341247 0 -0.010979590611456792 -0.0056580391551987082 0 -0.011053574262495933 -0.0058500271236570592 0 -0.011050222363155388 -0.0054148399982491355 0 -0.010979590611456792 -0.0056580391551987082 0 -0.010835277118836454 -0.0055823437163208161 0 -0.010964552141058148 -0.0054690709945341247 0 -0.010979590611456792 -0.0056580391551987082 0 -0.025542780791733007 -0.0089622572235975133 0 -0.024961194196074052 -0.0085962718451342412 0 -0.025427771784063479 -0.0083387062434336981 0 -0.025542780791733007 -0.0089622572235975133 0 -0.024961194196074052 -0.0085962718451342412 0 -0.024995087083547023 -0.009364449439353913 0 -0.02491472535931176 -0.010053664698841999 0 -0.025124206705569727 -0.0094865401732421462 0 -0.025107732466271685 -0.0098781040612917585 0 -0.025299157858155782 -0.0097488441695707685 0 -0.025206373699561479 -0.0095979746637385142 0 -0.025107732466271685 -0.0098781040612917585 0 -0.025299157858155782 -0.0097488441695707685 0 -0.025217663205992797 -0.0099823790075040143 0 -0.025107732466271685 -0.0098781040612917585 0 -0.025074482106066491 -0.010077370257032009 0 -0.025217663205992797 -0.0099823790075040143 0 -0.025497314726926984 -0.009603315794439668 0 -0.025542780791733007 -0.0089622572235975133 0 -0.024995087083547023 -0.009364449439353913 0 -0.026021568118784772 -0.0095725473311533138 0 -0.025808991130434875 -0.0093666162609922221 0 -0.025969299204128465 -0.0090119502601544721 0 -0.026004488378478852 -0.0096720417673149591 0 -0.025497314726926984 -0.009603315794439668 0 -0.025808991130434875 -0.0093666162609922221 0 -0.025497314726926984 -0.009603315794439668 0 -0.025542780791733007 -0.0089622572235975133 0 -0.025808991130434875 -0.0093666162609922221 0 -0.026004488378478852 -0.0096720417673149591 0 -0.026021568118784772 -0.0095725473311533138 0 -0.025808991130434875 -0.0093666162609922221 0 -0.025542780791733007 -0.0089622572235975133 0 -0.025808991130434875 -0.0093666162609922221 0 -0.025969299204128465 -0.0090119502601544721 0 -0.018447100786307877 -0.0077925771092565415 0 -0.018340397722417773 -0.0078535536814377093 0 -0.018393303772334803 -0.0075021046931819362 0 -0.026014308307830244 -0.0096734597287915312 0 -0.026021568118784772 -0.0095725473311533138 0 -0.026528819346956032 -0.0088124041193327323 0 -0.018143463531976912 -0.0079432656605483414 0 -0.018340397722417773 -0.0078535536814377093 0 -0.018393303772334803 -0.0075021046931819362 0 -0.022626388044183827 -0.0088316482857065878 0 -0.022948179988651701 -0.008331633464805574 0 -0.026021568118784772 -0.0095725473311533138 0 -0.025969299204128465 -0.0090119502601544721 0 -0.026528819346956032 -0.0088124041193327323 0 -0.018386321880676917 -0.0079722233032346861 0 -0.018447100786307877 -0.0077925771092565415 0 -0.018340397722417773 -0.0078535536814377093 0 -0.025969299204128465 -0.0090119502601544721 0 -0.026528819346956032 -0.0088124041193327323 0 -0.025948809133768968 -0.0084577779059094721 0 -0.025542780791733007 -0.0089622572235975133 0 -0.025948809133768968 -0.0084577779059094721 0 -0.025427771784063479 -0.0083387062434336981 0 -0.025542780791733007 -0.0089622572235975133 0 -0.025969299204128465 -0.0090119502601544721 0 -0.025948809133768968 -0.0084577779059094721 0 -0.025948809133768968 -0.0084577779059094721 0 -0.026364073228233368 -0.0078592572314806434 0 -0.025693358607908709 -0.0078521170359083774 0 -0.025948809133768968 -0.0084577779059094721 0 -0.025693358607908709 -0.0078521170359083774 0 -0.025427771784063479 -0.0083387062434336981 0 -0.026528819346956032 -0.0088124041193327323 0 -0.025948809133768968 -0.0084577779059094721 0 -0.026364073228233368 -0.0078592572314806434 0 -0.029196648886870628 0.0019538240767083517 0 -0.030078007354299212 0.0026794639762467887 0 -0.030798483104688044 0.0017468575106706237 0 -0.029340262051803612 -0.0026064869130053938 0 -0.028447307222393064 -0.0025402837631914024 0 -0.030078007354299212 0.0026794639762467887 0 -0.030798483104688044 0.0017468575106706237 0 -0.031691969869300375 0.0025810552977620798 0 -0.030798483104688044 0.0017468575106706237 0 -0.031691969869300375 0.0025810552977620798 0 -0.031989292063272549 0.001695737082186463 0 -0.031989292063272549 0.001695737082186463 0 -0.033028360322980031 0.002466982641958263 0 -0.03250326286144848 0.0012398634649404649 0 -0.028447307222393064 -0.0025402837631914024 0 -0.029064772737718535 -0.004095914234403612 0 -0.031691969869300375 0.0025810552977620798 0 -0.031989292063272549 0.001695737082186463 0 -0.033028360322980031 0.002466982641958263 0 -0.025693358607908709 -0.0078521170359083774 0 -0.025427771784063479 -0.0083387062434336981 0 -0.024971896790561221 -0.0078310941461564084 0 -0.024961194196074052 -0.0085962718451342412 0 -0.025427771784063479 -0.0083387062434336981 0 -0.024971896790561221 -0.0078310941461564084 0 -0.02491472535931176 -0.010053664698841999 0 -0.029064772737718535 -0.004095914234403612 0 -0.025093603354640788 -0.0094488481211915387 0 -0.025206373699561479 -0.0095979746637385142 0 -0.025357831869699837 -0.0094362385211383161 0 -0.025299157858155782 -0.0097488441695707685 0 -0.025206373699561479 -0.0095979746637385142 0 -0.025357831869699837 -0.0094362385211383161 0 -0.032027976715694004 -0.0030394179338479369 0 -0.033205332558046627 -0.0030084561583689808 0 -0.03270938951251133 -0.0021702122231859917 0 -0.028692559958200962 -0.0073670854116225024 0 -0.029064772737718535 -0.004095914234403612 0 -0.029064772737718535 -0.004095914234403612 0 -0.033692866237521282 0.00072238310244288908 0 -0.033205332558046627 -0.0030084561583689808 0 -0.03270938951251133 -0.0021702122231859917 0 -0.033132161483284753 -0.0011751454061060189 0 -0.03270938951251133 -0.0021702122231859917 0 -0.033132161483284753 -0.0011751454061060189 0 -0.03242063473196579 -0.0015063238400528326 0 -0.033692866237521282 0.00072238310244288908 0 -0.032919555073822354 -0.00058882898315853246 0 -0.033132161483284753 -0.0011751454061060189 0 -0.032847162236445168 -0.0004540202087268499 0 -0.03242063473196579 -0.0015063238400528326 0 -0.033119592863062181 -0.0018305275758528411 0 -0.033315875856393867 -0.0032801050353198774 0 -0.032842840101006951 0.00060128129767655176 0 -0.032191379208195828 0.001249911066463246 0 -0.032470296231735633 0.0004991618175190193 0 -0.033091859847443734 0.00079143851385546653 0 -0.032842840101006951 0.00060128129767655176 0 -0.032835810784724528 0.00016684139132759767 0 -0.032834080418484103 0.00061535671062368453 0 -0.031465960986443116 0.0010528554011257434 0 -0.032842840101006951 0.00060128129767655176 0 -0.032470296231735633 0.0004991618175190193 0 -0.032835810784724528 0.00016684139132759767 0 -0.033028360322980031 0.002466982641958263 0 -0.033091859847443734 0.00079143851385546653 0 -0.03250326286144848 0.0012398634649404649 0 -0.031989292063272549 0.001695737082186463 0 -0.03250326286144848 0.0012398634649404649 0 -0.031422616987848949 0.00068171962154924828 0 -0.032842840101006951 0.00060128129767655176 0 -0.03250326286144848 0.0012398634649404649 0 -0.031422616987848949 0.00068171962154924828 0 -0.033091859847443734 0.00079143851385546653 0 -0.032842840101006951 0.00060128129767655176 0 -0.03250326286144848 0.0012398634649404649 0 -0.030798483104688044 0.0017468575106706237 0 -0.031989292063272549 0.001695737082186463 0 -0.031422616987848949 0.00068171962154924828 0 -0.030798483104688044 0.0017468575106706237 0 -0.031422616987848949 0.00068171962154924828 0 -0.029832555133511639 0.00097633956607866496 0 -0.032191379208195828 0.001249911066463246 0 -0.03076638829485849 0.0019050211456125804 0 -0.031139295984687895 0.00094926130742551751 0 -0.031465960986443116 0.0010528554011257434 0 -0.031798335479651323 0.0012188731637490147 0 -0.029196648886870628 0.0019538240767083517 0 -0.030798483104688044 0.0017468575106706237 0 -0.029832555133511639 0.00097633956607866496 0 -0.031139295984687895 0.00094926130742551751 0 -0.031851052371728035 0.0005148531229305142 0 -0.031196947057507324 -8.3357649671413355e-05 0 -0.032191379208195828 0.001249911066463246 0 -0.031139295984687895 0.00094926130742551751 0 -0.031851052371728035 0.0005148531229305142 0 -0.032191379208195828 0.001249911066463246 0 -0.031851052371728035 0.0005148531229305142 0 -0.032470296231735633 0.0004991618175190193 0 -0.031851052371728035 0.0005148531229305142 0 -0.032470296231735633 0.0004991618175190193 0 -0.032411369527593402 4.8835153045650706e-05 0 -0.031851052371728035 0.0005148531229305142 0 -0.032411369527593402 4.8835153045650706e-05 0 -0.031196947057507324 -8.3357649671413355e-05 0 -0.030046045150062775 0.00046982072721551813 0 -0.030442986976341745 0.00059986994723623319 0 -0.028899769982288069 0.00091690075941369719 0 -0.028515936213169536 0.0011954159708231266 0 -0.028775993265869926 0.0012538884815740897 0 -0.032411369527593402 4.8835153045650706e-05 0 -0.031196947057507324 -8.3357649671413355e-05 0 -0.032586669459291187 -0.00034342996235345113 0 -0.032411369527593402 4.8835153045650706e-05 0 -0.032586669459291187 -0.00034342996235345113 0 -0.032963081810912676 -0.00022871188088616708 0 -0.032963081810912676 -0.00022871188088616708 0 -0.033133754383898165 -0.00024247248827641036 0 -0.032986294404697511 0.00025164884288313665 0 -0.032963081810912676 -0.00022871188088616708 0 -0.033133754383898165 -0.00024247248827641036 0 -0.033073602135805881 -0.00019167757385485043 0 -0.03319746872440002 -0.00036359269636578409 0 -0.033119592863062181 -0.0018305275758528411 0 -0.033133754383898165 -0.00024247248827641036 0 -0.033073602135805881 -0.00019167757385485043 0 -0.032847162236445168 -0.0004540202087268499 0 -0.033133754383898165 -0.00024247248827641036 0 -0.033590019072394624 -0.0029375923553790592 0 -0.032590881643250774 -0.0016389385103323163 0 -0.033132161483284753 -0.0011751454061060189 0 -0.033073602135805881 -0.00019167757385485043 0 -0.032847162236445168 -0.0004540202087268499 0 -0.033091859847443734 0.00079143851385546653 0 -0.033073602135805881 -0.00019167757385485043 0 -0.032835810784724528 0.00016684139132759767 0 -0.032470296231735633 0.0004991618175190193 0 -0.032411369527593402 4.8835153045650706e-05 0 -0.032835810784724528 0.00016684139132759767 0 -0.032963081810912676 -0.00022871188088616708 0 -0.033073602135805881 -0.00019167757385485043 0 -0.032835810784724528 0.00016684139132759767 0 -0.032411369527593402 4.8835153045650706e-05 0 -0.032963081810912676 -0.00022871188088616708 0 -0.032835810784724528 0.00016684139132759767 0 -0.010818413575027514 -0.003445554179663874 0 -0.010397197036122326 -0.0038483733678542132 0 -0.0101810142429394 -0.0029744385240335815 0 -0.010818413575027514 -0.003445554179663874 0 -0.0101810142429394 -0.0029744385240335815 0 -0.010637081672567406 -0.002788425977513739 0 -0.010818413575027514 -0.003445554179663874 0 -0.010818154943386834 -0.0038861738567553673 0 -0.010397197036122326 -0.0038483733678542132 0 -0.010848771287221235 -0.0042579433587599065 0 -0.010818154943386834 -0.0038861738567553673 0 -0.010397197036122326 -0.0038483733678542132 0 -0.010812486298546526 -0.0024830494187721183 0 -0.010854976483439409 -0.0024044726893451187 0 -0.01080025722007214 -0.0024212370116837379 0 -0.010881257472953858 -0.0022805506519456872 0 -0.010854976483439409 -0.0024044726893451187 0 -0.010900800478379036 -0.0024180515345014228 0 -0.010881257472953858 -0.0022805506519456872 0 -0.010812486298546526 -0.0024830494187721183 0 -0.010854976483439409 -0.0024044726893451187 0 -0.010812486298546526 -0.0024830494187721183 0 -0.01080025722007214 -0.0024212370116837379 0 -0.010756393143440944 -0.0023679593303902588 0 -0.010509255420115382 -0.0030143713706702242 0 -0.010484208892051969 -0.0027258364455686451 0 -0.01080025722007214 -0.0024212370116837379 0 -0.010900800478379036 -0.0024180515345014228 0 -0.010652892497652002 -0.0023705234811658531 0 -0.01080025722007214 -0.0024212370116837379 0 -0.010652892497652002 -0.0023705234811658531 0 -0.010756393143440944 -0.0023679593303902588 0 -0.020242640030558853 -8.2570956367914309e-05 0 -0.01984264605590436 -0.00081127396228672659 0 -0.029229370643555096 0.0020684402162276477 0 -0.029415623394697263 0.0011929178906647749 0 -0.029121631271960543 0.00084144453185928773 0 -0.010854976483439409 -0.0024044726893451187 0 -0.01080025722007214 -0.0024212370116837379 0 -0.010900800478379036 -0.0024180515345014228 0 -0.029196648886870628 0.0019538240767083517 0 -0.029832555133511639 0.00097633956607866496 0 -0.028116878584831098 0.0014113797705236129 0 -0.031798335479651323 0.0012188731637490147 0 -0.020242640030558853 -8.2570956367914309e-05 0 -0.03076638829485849 0.0019050211456125804 0 -0.029229370643555096 0.0020684402162276477 0 -0.029415623394697263 0.0011929178906647749 0 -0.03076638829485849 0.0019050211456125804 0 -0.031139295984687895 0.00094926130742551751 0 -0.029415623394697263 0.0011929178906647749 0 -0.028899769982288069 0.00091690075941369719 0 -0.029415623394697263 0.0011929178906647749 0 -0.029121631271960543 0.00084144453185928773 0 -0.030046045150062775 0.00046982072721551813 0 -0.02940322125596468 0.0011909765010435329 0 -0.031139295984687895 0.00094926130742551751 0 -0.031196947057507324 -8.3357649671413355e-05 0 -0.029415623394697263 0.0011929178906647749 0 -0.028899769982288069 0.00091690075941369719 0 -0.028959063262041403 0.0010405321091217729 0 -0.029121631271960543 0.00084144453185928773 0 -0.028899769982288069 0.00091690075941369719 0 -0.028959063262041403 0.0010405321091217729 0 -0.028775993265869926 0.0012538884815740897 0 -0.028959063262041403 0.0010405321091217729 0 -0.029020063802728011 0.001175423618306044 0 -0.028775993265869926 0.0012538884815740897 0 -0.028959063262041403 0.0010405321091217729 0 -0.029020063802728011 0.001175423618306044 0 -0.029121631271960543 0.00084144453185928773 0 -0.010086264517716615 -0.0021085683512095518 0 -0.010193198006348415 -0.0021655614921157109 0 -0.010652892497652002 -0.0023705234811658531 0 -0.010086264517716615 -0.0021085683512095518 0 -0.010193198006348415 -0.0021655614921157109 0 -0.010331090866891674 -0.0021471155839972158 0 -0.010226902954095601 -0.0022183986685268943 0 -0.010484208892051969 -0.0027258364455686451 0 -0.010193198006348415 -0.0021655614921157109 0 -0.010652892497652002 -0.0023705234811658531 0 -0.010756393143440944 -0.0023679593303902588 0 -0.019563005829579882 -0.0001578818042245197 0 -0.01984264605590436 -0.00081127396228672659 0 -0.010193198006348415 -0.0021655614921157109 0 -0.0101810142429394 -0.0029744385240335815 0 -0.010324661084712515 -0.0024888404635612666 0 -0.010324661084712515 -0.0024888404635612666 0 -0.010535976767158707 -0.002406572517420338 0 -0.010637081672567406 -0.002788425977513739 0 -0.0101810142429394 -0.0029744385240335815 0 -0.010324661084712515 -0.0024888404635612666 0 -0.010637081672567406 -0.002788425977513739 0 -0.010193198006348415 -0.0021655614921157109 0 -0.010324661084712515 -0.0024888404635612666 0 -0.010331090866891674 -0.0021471155839972158 0 -0.010331090866891674 -0.0021471155839972158 0 -0.010535976767158707 -0.002406572517420338 0 -0.01063347374508318 -0.0021257160111613884 0 -0.010324661084712515 -0.0024888404635612666 0 -0.010331090866891674 -0.0021471155839972158 0 -0.010535976767158707 -0.002406572517420338 0 -0.010535976767158707 -0.002406572517420338 0 -0.01063347374508318 -0.0021257160111613884 0 -0.010872374538300623 -0.0024458999665143938 0 -0.01063347374508318 -0.0021257160111613884 0 -0.010872374538300623 -0.0024458999665143938 0 -0.011027508610816588 -0.0020573488195934761 0 -0.011083194745490913 -0.0029550442139594118 0 -0.010818413575027514 -0.003445554179663874 0 -0.010637081672567406 -0.002788425977513739 0 -0.011083194745490913 -0.0029550442139594118 0 -0.010872374538300623 -0.0024458999665143938 0 -0.010637081672567406 -0.002788425977513739 0 -0.010535976767158707 -0.002406572517420338 0 -0.010872374538300623 -0.0024458999665143938 0 -0.010637081672567406 -0.002788425977513739 0 -0.01094635477420444 -0.0013301224466616762 0 -0.010484953660077239 -0.0016899621694873377 0 -0.010579843364613243 -0.0010162909087653169 0 -0.011271060695636555 -0.0010200611647671991 0 -0.01094635477420444 -0.0013301224466616762 0 -0.010903068043039529 -0.00073103324679646647 0 -0.01094635477420444 -0.0013301224466616762 0 -0.010579843364613243 -0.0010162909087653169 0 -0.010903068043039529 -0.00073103324679646647 0 -0.01063347374508318 -0.0021257160111613884 0 -0.011027508610816588 -0.0020573488195934761 0 -0.010484953660077239 -0.0016899621694873377 0 -0.01094635477420444 -0.0013301224466616762 0 -0.011027508610816588 -0.0020573488195934761 0 -0.010484953660077239 -0.0016899621694873377 0 -0.010086264517716615 -0.0021085683512095518 0 -0.010484953660077239 -0.0016899621694873377 0 -0.010020981228442121 -0.0010362725598693709 0 -0.010086264517716615 -0.0021085683512095518 0 -0.010331090866891674 -0.0021471155839972158 0 -0.010484953660077239 -0.0016899621694873377 0 -0.010331090866891674 -0.0021471155839972158 0 -0.01063347374508318 -0.0021257160111613884 0 -0.010484953660077239 -0.0016899621694873377 0 -0.010484953660077239 -0.0016899621694873377 0 -0.010579843364613243 -0.0010162909087653169 0 -0.010020981228442121 -0.0010362725598693709 0 -0.019563005829579882 -0.0001578818042245197 0 -0.019656894005657274 -0.0010028181594665289 0 -0.029020063802728011 0.001175423618306044 0 -0.028919660821096035 0.0015722734062929864 0 -0.028816986108104296 0.0014458304084362858 0 -0.029020063802728011 0.001175423618306044 0 -0.028816986108104296 0.0014458304084362858 0 -0.028775993265869926 0.0012538884815740897 0 -0.028816986108104296 0.0014458304084362858 0 -0.028775993265869926 0.0012538884815740897 0 -0.028658724519488699 0.0015418545724859153 0 -0.028816986108104296 0.0014458304084362858 0 -0.028747105545375996 0.001661097555068012 0 -0.028658724519488699 0.0015418545724859153 0 -0.028919660821096035 0.0015722734062929864 0 -0.028816986108104296 0.0014458304084362858 0 -0.028747105545375996 0.001661097555068012 0 -0.028747105545375996 0.001661097555068012 0 -0.0286810677111413 0.0018441859699339605 0 -0.02861283197687035 0.0017123001845769997 0 -0.028747105545375996 0.001661097555068012 0 -0.0286810677111413 0.0018441859699339605 0 -0.028788225468529619 0.0017481845826337744 0 -0.02178355384345014 0.013618235813070093 0 -0.021606468171010442 0.013289153005693383 0 -0.020959884440659642 0.013366650213191765 0 -0.02187837343888048 0.013100635939875748 0 -0.021606468171010442 0.013289153005693383 0 -0.022074105336123102 0.013286644744051427 0 -0.02178355384345014 0.013618235813070093 0 -0.021606468171010442 0.013289153005693383 0 -0.022074105336123102 0.013286644744051427 0 -0.026996961274710761 0.007953758662333929 0 -0.01778045165541612 0.0065910201040425944 0 -0.0286810677111413 0.0018441859699339605 0 -0.028788225468529619 0.0017481845826337744 0 -0.028813605159724892 0.0018978752590029871 0 -0.019656894005657274 -0.0010028181594665289 0 -0.01778045165541612 0.0065910201040425944 0 -0.028919660821096035 0.0015722734062929864 0 -0.028788225468529619 0.0017481845826337744 0 -0.028813605159724892 0.0018978752590029871 0 -0.028919660821096035 0.0015722734062929864 0 -0.028747105545375996 0.001661097555068012 0 -0.028788225468529619 0.0017481845826337744 0 -0.010579843364613243 -0.0010162909087653169 0 -0.010020981228442121 -0.0010362725598693709 0 -0.010590642267018526 -0.00039937748770204836 0 -0.010020981228442121 -0.0010362725598693709 0 -0.010590642267018526 -0.00039937748770204836 0 -0.010125231612745445 0.0001158736169908412 0 -0.010590642267018526 -0.00039937748770204836 0 -0.010125231612745445 0.0001158736169908412 0 -0.010782255051025333 0.00024922970817220827 0 -0.01778045165541612 0.0065910201040425944 0 -0.0080527676413818042 0.010392546207372174 0 -0.011259479741401054 -0.00027807352165575927 0 -0.010590642267018526 -0.00039937748770204836 0 -0.010782255051025333 0.00024922970817220827 0 -0.0091140144275120138 0.0061086003187876946 0 -0.0080527676413818042 0.010392546207372174 0 -0.011259479741401054 -0.00027807352165575927 0 -0.010590642267018526 -0.00039937748770204836 0 -0.010903068043039529 -0.00073103324679646647 0 -0.010579843364613243 -0.0010162909087653169 0 -0.010590642267018526 -0.00039937748770204836 0 -0.010903068043039529 -0.00073103324679646647 0 -0.02826720207247458 0.0014898934920993126 0 -0.028493087051203951 0.0014751265722765148 0 -0.028310856365480343 0.0016746335516075082 0 -0.02826720207247458 0.0014898934920993126 0 -0.028310856365480343 0.0016746335516075082 0 -0.028049423831031609 0.0018033958035384772 0 -0.033286462289195025 0.00045760555345920916 0 -0.032661467679695015 0.0011281944475172452 0 -0.032986294404697511 0.00025164884288313665 0 -0.033286462289195025 0.00045760555345920916 0 -0.032661467679695015 0.0011281944475172452 0 -0.032853566229310752 0.0019781576818555025 0 -0.031031536366908356 0.00039586330449262077 0 -0.029530742889581428 0.0049967602934856241 0 -0.032661467679695015 0.0011281944475172452 0 -0.032986294404697511 0.00025164884288313665 0 -0.032423660405062699 0.00068911830383473554 0 -0.032986294404697511 0.00025164884288313665 0 -0.032628363078848047 7.9327632396491803e-05 0 -0.032423660405062699 0.00068911830383473554 0 -0.033133754383898165 -0.00024247248827641036 0 -0.032986294404697511 0.00025164884288313665 0 -0.032628363078848047 7.9327632396491803e-05 0 -0.032963081810912676 -0.00022871188088616708 0 -0.033286462289195025 0.00045760555345920916 0 -0.032986294404697511 0.00025164884288313665 0 -0.032586669459291187 -0.00034342996235345113 0 -0.032963081810912676 -0.00022871188088616708 0 -0.033286462289195025 0.00045760555345920916 0 -0.028515936213169536 0.0011954159708231266 0 -0.02826720207247458 0.0014898934920993126 0 -0.028493087051203951 0.0014751265722765148 0 -0.030442986976341745 0.00059986994723623319 0 -0.031031536366908356 0.00039586330449262077 0 -0.028775993265869926 0.0012538884815740897 0 -0.028658724519488699 0.0015418545724859153 0 -0.028493087051203951 0.0014751265722765148 0 -0.028515936213169536 0.0011954159708231266 0 -0.028775993265869926 0.0012538884815740897 0 -0.028493087051203951 0.0014751265722765148 0 -0.028658724519488699 0.0015418545724859153 0 -0.028493087051203951 0.0014751265722765148 0 -0.028492388025088911 0.0016683030571425349 0 -0.028493087051203951 0.0014751265722765148 0 -0.028492388025088911 0.0016683030571425349 0 -0.028310856365480343 0.0016746335516075082 0 -0.028492388025088911 0.0016683030571425349 0 -0.028399657649949776 0.0018378884750018516 0 -0.02861283197687035 0.0017123001845769997 0 -0.028492388025088911 0.0016683030571425349 0 -0.028399657649949776 0.0018378884750018516 0 -0.028310856365480343 0.0016746335516075082 0 -0.0286810677111413 0.0018441859699339605 0 -0.028399657649949776 0.0018378884750018516 0 -0.02861283197687035 0.0017123001845769997 0 -0.028747105545375996 0.001661097555068012 0 -0.028658724519488699 0.0015418545724859153 0 -0.02861283197687035 0.0017123001845769997 0 -0.028658724519488699 0.0015418545724859153 0 -0.028492388025088911 0.0016683030571425349 0 -0.02861283197687035 0.0017123001845769997 0 -0.022866201559090488 0.012774806949047916 0 -0.022119300117771631 0.013257576997055308 0 -0.026996961274710761 0.007953758662333929 0 -0.025136537784345662 0.0082288538258310975 0 -0.02178355384345014 0.013618235813070093 0 -0.022922668768530188 0.013358062382542888 0 -0.022074105336123102 0.013286644744051427 0 -0.023313889034126189 0.012557910501596086 0 -0.022922668768530188 0.013358062382542888 0 -0.022074105336123102 0.013286644744051427 0 -0.02178355384345014 0.013618235813070093 0 -0.023747591326613953 0.013972719838773545 0 -0.022922668768530188 0.013358062382542888 0 -0.023747591326613953 0.013972719838773545 0 -0.022922668768530188 0.013358062382542888 0 -0.023950301819459743 0.013239687739141463 0 -0.023313889034126189 0.012557910501596086 0 -0.022922668768530188 0.013358062382542888 0 -0.023950301819459743 0.013239687739141463 0 -0.023747591326613953 0.013972719838773545 0 -0.023950301819459743 0.013239687739141463 0 -0.024889165632073336 0.013866208507772503 0 -0.024056252791602027 0.012681295354931201 0 -0.023950301819459743 0.013239687739141463 0 -0.024662341629995036 0.012952510222618063 0 -0.024665324461210975 0.012867588671153937 0 -0.024889963385005417 0.013833325769903856 0 -0.023950301819459743 0.013239687739141463 0 -0.024662341629995036 0.012952510222618063 0 -0.024889165632073336 0.013866208507772503 0 -0.028399657649949776 0.0018378884750018516 0 -0.028310856365480343 0.0016746335516075082 0 -0.028049423831031609 0.0018033958035384772 0 -0.025136537784345662 0.0082288538258310975 0 -0.029530742889581428 0.0049967602934856241 0 -0.023747591326613953 0.013972719838773545 0 -0.024889165632073336 0.013866208507772503 0 -0.02560583949947183 0.014146941391990202 0 -0.032661467679695015 0.0011281944475172452 0 -0.032853566229310752 0.0019781576818555025 0 -0.032122847176807676 0.0020848218900658649 0 -0.024889165632073336 0.013866208507772503 0 -0.02560583949947183 0.014146941391990202 0 -0.025515623099813946 0.013443805989263719 0 -0.02560583949947183 0.014146941391990202 0 -0.025515623099813946 0.013443805989263719 0 -0.026156459367366325 0.013228681645263928 0 -0.024836478529549469 0.013178503426085489 0 -0.024889165632073336 0.013866208507772503 0 -0.025515623099813946 0.013443805989263719 0 -0.02536155613021631 0.013086404651750351 0 -0.024836478529549469 0.013178503426085489 0 -0.025515623099813946 0.013443805989263719 0 -0.02536155613021631 0.013086404651750351 0 -0.025819221692584313 0.012977502123661597 0 -0.025515623099813946 0.013443805989263719 0 -0.029530742889581428 0.0049967602934856241 0 -0.029417110104647971 0.010081303913193113 0 -0.033120156774905318 0.0054440572725000594 0 -0.031958877096331301 0.004191135659657892 0 -0.033186600589982282 0.002986961919179713 0 -0.025819221692584313 0.012977502123661597 0 -0.025515623099813946 0.013443805989263719 0 -0.026156459367366325 0.013228681645263928 0 -0.030373988903324812 0.0060902793271200555 0 -0.031608656148978349 0.0056937829112284084 0 -0.030944179970456769 0.0049468420353696403 0 -0.033120156774905318 0.0054440572725000594 0 -0.031608656148978349 0.0056937829112284084 0 -0.031958877096331301 0.004191135659657892 0 -0.031958877096331301 0.004191135659657892 0 -0.030944179970456769 0.0049468420353696403 0 -0.030565226892658906 0.0035879728181246349 0 -0.031608656148978349 0.0056937829112284084 0 -0.031958877096331301 0.004191135659657892 0 -0.030944179970456769 0.0049468420353696403 0 -0.031958877096331301 0.004191135659657892 0 -0.03135249614260037 0.0024977098359585323 0 -0.030565226892658906 0.0035879728181246349 0 -0.031958877096331301 0.004191135659657892 0 -0.03135249614260037 0.0024977098359585323 0 -0.033186600589982282 0.002986961919179713 0 -0.031315897281559819 0.0024180303091040382 0 -0.033133392354268841 0.002768219173535372 0 -0.034831013765204179 0.0033444973395567032 0 -0.033120156774905318 0.0054440572725000594 0 -0.033186600589982282 0.002986961919179713 0 -0.029530742889581428 0.0049967602934856241 0 -0.033133392354268841 0.002768219173535372 0 -0.032661467679695015 0.0011281944475172452 0 -0.032122847176807676 0.0020848218900658649 0 -0.031793306604405998 0.0013485830742508223 0 -0.032661467679695015 0.0011281944475172452 0 -0.031793306604405998 0.0013485830742508223 0 -0.032423660405062699 0.00068911830383473554 0 -0.03135249614260037 0.0024977098359585323 0 -0.031793306604405998 0.0013485830742508223 0 -0.03065679188923821 0.0011226902832952746 0 -0.03135249614260037 0.0024977098359585323 0 -0.03065679188923821 0.0011226902832952746 0 -0.030063952515051801 0.0021077636056082804 0 -0.03135249614260037 0.0024977098359585323 0 -0.032122847176807676 0.0020848218900658649 0 -0.031793306604405998 0.0013485830742508223 0 -0.031793306604405998 0.0013485830742508223 0 -0.03065679188923821 0.0011226902832952746 0 -0.031361332203660844 0.0006855207538221654 0 -0.031793306604405998 0.0013485830742508223 0 -0.031361332203660844 0.0006855207538221654 0 -0.031930991174401575 0.00036493284972416239 0 -0.03065679188923821 0.0011226902832952746 0 -0.031361332203660844 0.0006855207538221654 0 -0.03103025965112504 -0.00012251667795108782 0 -0.031361332203660844 0.0006855207538221654 0 -0.03103025965112504 -0.00012251667795108782 0 -0.031930991174401575 0.00036493284972416239 0 -0.03103025965112504 -0.00012251667795108782 0 -0.031930991174401575 0.00036493284972416239 0 -0.032154068074321876 -0.0005939195199329303 0 -0.032628363078848047 7.9327632396491803e-05 0 -0.031930991174401575 0.00036493284972416239 0 -0.032154068074321876 -0.0005939195199329303 0 -0.032628363078848047 7.9327632396491803e-05 0 -0.032423660405062699 0.00068911830383473554 0 -0.031930991174401575 0.00036493284972416239 0 -0.031793306604405998 0.0013485830742508223 0 -0.032423660405062699 0.00068911830383473554 0 -0.031930991174401575 0.00036493284972416239 0 -0.02825880894743537 0.00023302410968305669 0 -0.029246410627572342 0.0013244046953982313 0 -0.027959978941877517 0.0014946687916456793 0 -0.02825880894743537 0.00023302410968305669 0 -0.029595479970184066 0.00010003231686135292 0 -0.029246410627572342 0.0013244046953982313 0 -0.02825880894743537 0.00023302410968305669 0 -0.029595479970184066 0.00010003231686135292 0 -0.028362539754219377 -0.00093419201266834275 0 -0.03065679188923821 0.0011226902832952746 0 -0.029595479970184066 0.00010003231686135292 0 -0.029246410627572342 0.0013244046953982313 0 -0.03065679188923821 0.0011226902832952746 0 -0.03103025965112504 -0.00012251667795108782 0 -0.029595479970184066 0.00010003231686135292 0 -0.03065679188923821 0.0011226902832952746 0 -0.029246410627572342 0.0013244046953982313 0 -0.030063952515051801 0.0021077636056082804 0 -0.029246410627572342 0.0013244046953982313 0 -0.030063952515051801 0.0021077636056082804 0 -0.028762797902196182 0.0025889577161574305 0 -0.029246410627572342 0.0013244046953982313 0 -0.028762797902196182 0.0025889577161574305 0 -0.027959978941877517 0.0014946687916456793 0 -0.028762797902196182 0.0025889577161574305 0 -0.027959978941877517 0.0014946687916456793 0 -0.027740262191856133 0.0026889042326583919 0 -0.028273173330628298 0.0038656563478576093 0 -0.029625352966745542 0.0031767381038970495 0 -0.029460588321879949 0.0046856328913997512 0 -0.028762797902196182 0.0025889577161574305 0 -0.028273173330628298 0.0038656563478576093 0 -0.029625352966745542 0.0031767381038970495 0 -0.028762797902196182 0.0025889577161574305 0 -0.028273173330628298 0.0038656563478576093 0 -0.027740262191856133 0.0026889042326583919 0 -0.030063952515051801 0.0021077636056082804 0 -0.029625352966745542 0.0031767381038970495 0 -0.030565226892658906 0.0035879728181246349 0 -0.03135249614260037 0.0024977098359585323 0 -0.030063952515051801 0.0021077636056082804 0 -0.030565226892658906 0.0035879728181246349 0 -0.030063952515051801 0.0021077636056082804 0 -0.028762797902196182 0.0025889577161574305 0 -0.029625352966745542 0.0031767381038970495 0 -0.029625352966745542 0.0031767381038970495 0 -0.030565226892658906 0.0035879728181246349 0 -0.029460588321879949 0.0046856328913997512 0 -0.030373988903324812 0.0060902793271200555 0 -0.030944179970456769 0.0049468420353696403 0 -0.029460588321879949 0.0046856328913997512 0 -0.030944179970456769 0.0049468420353696403 0 -0.030565226892658906 0.0035879728181246349 0 -0.029460588321879949 0.0046856328913997512 0 -0.029155133821971047 0.0062169519512761231 0 -0.030373988903324812 0.0060902793271200555 0 -0.029460588321879949 0.0046856328913997512 0 -0.028273173330628298 0.0038656563478576093 0 -0.028460767637832712 0.0050586871706476185 0 -0.02757301702494035 0.0049497178078546046 0 -0.028273173330628298 0.0038656563478576093 0 -0.029460588321879949 0.0046856328913997512 0 -0.028460767637832712 0.0050586871706476185 0 -0.029155133821971047 0.0062169519512761231 0 -0.029460588321879949 0.0046856328913997512 0 -0.028460767637832712 0.0050586871706476185 0 -0.029155133821971047 0.0062169519512761231 0 -0.028460767637832712 0.0050586871706476185 0 -0.02796528405838274 0.0060440241314458571 0 -0.02796528405838274 0.0060440241314458571 0 -0.02757301702494035 0.0049497178078546046 0 -0.027297470987633098 0.0059550601226041966 0 -0.028460767637832712 0.0050586871706476185 0 -0.02796528405838274 0.0060440241314458571 0 -0.02757301702494035 0.0049497178078546046 0 -0.02757301702494035 0.0049497178078546046 0 -0.026675610356569637 0.0054873268945190455 0 -0.026917810797453281 0.0037596182092714675 0 -0.026934996874274662 0.0068626936539330106 0 -0.026675610356569637 0.0054873268945190455 0 -0.027297470987633098 0.0059550601226041966 0 -0.02757301702494035 0.0049497178078546046 0 -0.026675610356569637 0.0054873268945190455 0 -0.027297470987633098 0.0059550601226041966 0 -0.025897892214686729 0.0067635479538262844 0 -0.026934996874274662 0.0068626936539330106 0 -0.026675610356569637 0.0054873268945190455 0 -0.025897892214686729 0.0067635479538262844 0 -0.026675610356569637 0.0054873268945190455 0 -0.025924836361950358 0.004734983549517768 0 -0.025897892214686729 0.0067635479538262844 0 -0.025924836361950358 0.004734983549517768 0 -0.02454367739818588 0.0053389676813830013 0 -0.026675610356569637 0.0054873268945190455 0 -0.025924836361950358 0.004734983549517768 0 -0.026917810797453281 0.0037596182092714675 0 -0.02545774185580053 0.0030436389361332083 0 -0.026917810797453281 0.0037596182092714675 0 -0.026743841272158227 0.0017752109511763486 0 -0.025924836361950358 0.004734983549517768 0 -0.02545774185580053 0.0030436389361332083 0 -0.026917810797453281 0.0037596182092714675 0 -0.025924836361950358 0.004734983549517768 0 -0.02545774185580053 0.0030436389361332083 0 -0.02454367739818588 0.0053389676813830013 0 -0.028273173330628298 0.0038656563478576093 0 -0.02757301702494035 0.0049497178078546046 0 -0.026917810797453281 0.0037596182092714675 0 -0.028273173330628298 0.0038656563478576093 0 -0.027740262191856133 0.0026889042326583919 0 -0.026917810797453281 0.0037596182092714675 0 -0.027740262191856133 0.0026889042326583919 0 -0.026917810797453281 0.0037596182092714675 0 -0.026743841272158227 0.0017752109511763486 0 -0.024787719584100733 0.0081314961190170273 0 -0.022264736458668846 0.0064268020069060596 0 -0.02454367739818588 0.0053389676813830013 0 -0.022264736458668846 0.0064268020069060596 0 -0.02454367739818588 0.0053389676813830013 0 -0.023094002966819058 0.0037050158135863427 0 -0.02545774185580053 0.0030436389361332083 0 -0.02454367739818588 0.0053389676813830013 0 -0.023094002966819058 0.0037050158135863427 0 -0.02545774185580053 0.0030436389361332083 0 -0.023094002966819058 0.0037050158135863427 0 -0.02422732962283642 0.0018096723718157674 0 -0.020101028592158794 0.0041784935333547737 0 -0.023094002966819058 0.0037050158135863427 0 -0.02230567863179448 0.0013286189769389815 0 -0.021535284144197253 0.0042415813507826932 0 -0.023472438630432458 0.00093142863737437397 0 -0.020101028592158794 0.0041784935333547737 0 -0.022264736458668846 0.0064268020069060596 0 -0.023094002966819058 0.0037050158135863427 0 -0.023094002966819058 0.0037050158135863427 0 -0.02230567863179448 0.0013286189769389815 0 -0.02422732962283642 0.0018096723718157674 0 -0.02230567863179448 0.0013286189769389815 0 -0.02422732962283642 0.0018096723718157674 0 -0.024571553764138141 0.00046450474117879165 0 -0.02545774185580053 0.0030436389361332083 0 -0.02422732962283642 0.0018096723718157674 0 -0.025522432287870666 0.00096915034594492321 0 -0.02422732962283642 0.0018096723718157674 0 -0.024571553764138141 0.00046450474117879165 0 -0.025522432287870666 0.00096915034594492321 0 -0.02230567863179448 0.0013286189769389815 0 -0.024571553764138141 0.00046450474117879165 0 -0.024835045386004933 -0.0012613199335621817 0 -0.024571553764138141 0.00046450474117879165 0 -0.025522432287870666 0.00096915034594492321 0 -0.025531917850350385 -0.00036072919915167574 0 -0.024571553764138141 0.00046450474117879165 0 -0.025531917850350385 -0.00036072919915167574 0 -0.024835045386004933 -0.0012613199335621817 0 -0.023472438630432458 0.00093142863737437397 0 -0.024726056408289881 -0.0010900864758209678 0 -0.024681780152570148 0.00040219732750069374 0 -0.023976990405605636 -0.0012821958888170138 0 -0.024835045386004933 -0.0012613199335621817 0 -0.027959978941877517 0.0014946687916456793 0 -0.026743841272158227 0.0017752109511763486 0 -0.027147584289075065 0.00027251541865334509 0 -0.027959978941877517 0.0014946687916456793 0 -0.027740262191856133 0.0026889042326583919 0 -0.026743841272158227 0.0017752109511763486 0 -0.02545774185580053 0.0030436389361332083 0 -0.026743841272158227 0.0017752109511763486 0 -0.025522432287870666 0.00096915034594492321 0 -0.026743841272158227 0.0017752109511763486 0 -0.025522432287870666 0.00096915034594492321 0 -0.026228943358643817 0.00022867532353213586 0 -0.026228943358643817 0.00022867532353213586 0 -0.027147584289075065 0.00027251541865334509 0 -0.0261353429849773 -0.0013157640255909086 0 -0.026228943358643817 0.00022867532353213586 0 -0.025531917850350385 -0.00036072919915167574 0 -0.0261353429849773 -0.0013157640255909086 0 -0.025522432287870666 0.00096915034594492321 0 -0.026228943358643817 0.00022867532353213586 0 -0.025531917850350385 -0.00036072919915167574 0 -0.027067587393951018 0.00025384070134840277 0 -0.027195395251830182 -0.0021227175734474953 0 -0.026743841272158227 0.0017752109511763486 0 -0.026228943358643817 0.00022867532353213586 0 -0.027147584289075065 0.00027251541865334509 0 -0.02825880894743537 0.00023302410968305669 0 -0.027959978941877517 0.0014946687916456793 0 -0.027147584289075065 0.00027251541865334509 0 -0.02825880894743537 0.00023302410968305669 0 -0.027147584289075065 0.00027251541865334509 0 -0.027425968651052825 -0.00083890994974876855 0 -0.02637282894522032 -0.00087923195125743725 0 -0.024620061510016122 -0.00087141153805957671 0 -0.025501833497883746 -0.0030721867763760478 0 -0.027147584289075065 0.00027251541865334509 0 -0.027425968651052825 -0.00083890994974876855 0 -0.026349260264752098 -0.00081212592394763511 0 -0.026665348621789695 -0.00091033365608294062 0 -0.027195395251830182 -0.0021227175734474953 0 -0.025531917850350385 -0.00036072919915167574 0 -0.0261353429849773 -0.0013157640255909086 0 -0.024835045386004933 -0.0012613199335621817 0 -0.027195395251830182 -0.0021227175734474953 0 -0.026450403964595508 -0.0044824065121191609 0 -0.024620061510016122 -0.00087141153805957671 0 -0.025501833497883746 -0.0030721867763760478 0 -0.023290325872537085 -0.0027668414041851948 0 -0.025501833497883746 -0.0030721867763760478 0 -0.027518258698513109 -0.0038128923204349017 0 -0.027219750250223052 -0.0022909875526720904 0 -0.02637282894522032 -0.00087923195125743725 0 -0.025501833497883746 -0.0030721867763760478 0 -0.027219750250223052 -0.0022909875526720904 0 -0.024897057641919098 -0.0048576328643034385 0 -0.022633867562574194 -0.0030931839054072251 0 -0.027110121168827717 -0.0036772771610944516 0 -0.022633867562574194 -0.0030931839054072251 0 -0.023976990405605636 -0.0012821958888170138 0 -0.02444258090390335 -0.0016880846640298891 0 -0.022548571396434267 -0.0029869566033340705 0 -0.026027762845559167 -0.0027790531961827251 0 -0.023976990405605636 -0.0012821958888170138 0 -0.02444258090390335 -0.0016880846640298891 0 -0.024835045386004933 -0.0012613199335621817 0 -0.024897057641919098 -0.0048576328643034385 0 -0.027110121168827717 -0.0036772771610944516 0 -0.02655681566450627 -0.0050581735375854432 0 -0.027110121168827717 -0.0036772771610944516 0 -0.02655681566450627 -0.0050581735375854432 0 -0.027883481283842073 -0.0053236484595156099 0 -0.031167570035694873 -0.0038135583985550196 0 -0.027110121168827717 -0.0036772771610944516 0 -0.027883481283842073 -0.0053236484595156099 0 -0.027195395251830182 -0.0021227175734474953 0 -0.026027762845559167 -0.0027790531961827251 0 -0.0261353429849773 -0.0013157640255909086 0 -0.02444258090390335 -0.0016880846640298891 0 -0.024835045386004933 -0.0012613199335621817 0 -0.031167570035694873 -0.0038135583985550196 0 -0.029432744163168073 -0.0062959080166851656 0 -0.027883481283842073 -0.0053236484595156099 0 -0.029432744163168073 -0.0062959080166851656 0 -0.026317578241397081 -0.0063817101103272617 0 -0.027617479068204883 -0.0089007297803005703 0 -0.029432744163168073 -0.0062959080166851656 0 -0.027883481283842073 -0.0053236484595156099 0 -0.026317578241397081 -0.0063817101103272617 0 -0.023500819450706509 -0.0073810986624080043 0 -0.024897057641919098 -0.0048576328643034385 0 -0.026317578241397081 -0.0063817101103272617 0 -0.023500819450706509 -0.0073810986624080043 0 -0.026317578241397081 -0.0063817101103272617 0 -0.027617479068204883 -0.0089007297803005703 0 -0.02655681566450627 -0.0050581735375854432 0 -0.027883481283842073 -0.0053236484595156099 0 -0.026317578241397081 -0.0063817101103272617 0 -0.024897057641919098 -0.0048576328643034385 0 -0.02655681566450627 -0.0050581735375854432 0 -0.026317578241397081 -0.0063817101103272617 0 -0.024191869012102664 -0.0079479096659851086 0 -0.024553338092897236 -0.0068997835525644599 0 -0.023500819450706509 -0.0073810986624080043 0 -0.023586044781228097 -0.0080660489631664903 0 -0.024068635297221374 -0.0080149349689245964 0 -0.023586044781228097 -0.0080660489631664903 0 -0.024068635297221374 -0.0080149349689245964 0 -0.023547701550000581 -0.008479635758166881 0 -0.023290325872537085 -0.0027668414041851948 0 -0.021997336239958185 -0.0045940895713237669 0 -0.024142752302768699 -0.0054587571655909817 0 -0.024553338092897236 -0.0068997835525644599 0 -0.024117053217551448 -0.0063836689845132343 0 -0.026450403964595508 -0.0044824065121191609 0 -0.024553338092897236 -0.0068997835525644599 0 -0.023821619859147602 -0.0075949034706172848 0 -0.023972628613432762 -0.0084056145870330685 0 -0.02471566050798641 -0.0075996673998055143 0 -0.023821619859147602 -0.0075949034706172848 0 -0.023972628613432762 -0.0084056145870330685 0 -0.023547701550000581 -0.008479635758166881 0 -0.024553338092897236 -0.0068997835525644599 0 -0.023358123242666427 -0.0087117450846470688 0 -0.025501833497883746 -0.0030721867763760478 0 -0.026115538307012996 -0.0047633059019065137 0 -0.027518258698513109 -0.0038128923204349017 0 -0.025501833497883746 -0.0030721867763760478 0 -0.026115538307012996 -0.0047633059019065137 0 -0.024142752302768699 -0.0054587571655909817 0 -0.025501833497883746 -0.0030721867763760478 0 -0.023290325872537085 -0.0027668414041851948 0 -0.024142752302768699 -0.0054587571655909817 0 -0.024450777297997009 -0.0092541441934294744 0 -0.023972628613432762 -0.0084056145870330685 0 -0.02471566050798641 -0.0075996673998055143 0 -0.024450777297997009 -0.0092541441934294744 0 -0.02471566050798641 -0.0075996673998055143 0 -0.026086588777293095 -0.0075624093454431645 0 -0.026115538307012996 -0.0047633059019065137 0 -0.024142752302768699 -0.0054587571655909817 0 -0.026229169640681192 -0.0063477485776498943 0 -0.024117053217551448 -0.0063836689845132343 0 -0.026324003031877527 -0.0070157139046540589 0 -0.026115538307012996 -0.0047633059019065137 0 -0.026229169640681192 -0.0063477485776498943 0 -0.027317170417537152 -0.005298978344986648 0 -0.028073051702511509 -0.007505809490899306 0 -0.026324003031877527 -0.0070157139046540589 0 -0.028219302161009312 -0.0074939930955115284 0 -0.026229169640681192 -0.0063477485776498943 0 -0.027317170417537152 -0.005298978344986648 0 -0.028219302161009312 -0.0074939930955115284 0 -0.027317170417537152 -0.005298978344986648 0 -0.028882278726885612 -0.005058656486155352 0 -0.026115538307012996 -0.0047633059019065137 0 -0.027317170417537152 -0.005298978344986648 0 -0.027518258698513109 -0.0038128923204349017 0 -0.027518258698513109 -0.0038128923204349017 0 -0.028882278726885612 -0.005058656486155352 0 -0.029059730280380475 -0.0028244409437815799 0 -0.027317170417537152 -0.005298978344986648 0 -0.027518258698513109 -0.0038128923204349017 0 -0.028882278726885612 -0.005058656486155352 0 -0.028882278726885612 -0.005058656486155352 0 -0.030789506987731603 -0.0049128990085384261 0 -0.030180485608914058 -0.0036901712412295198 0 -0.028882278726885612 -0.005058656486155352 0 -0.030180485608914058 -0.0036901712412295198 0 -0.029059730280380475 -0.0028244409437815799 0 -0.028219302161009312 -0.0074939930955115284 0 -0.028882278726885612 -0.005058656486155352 0 -0.030005722290149774 -0.0066746362245901428 0 -0.028882278726885612 -0.005058656486155352 0 -0.030005722290149774 -0.0066746362245901428 0 -0.030789506987731603 -0.0049128990085384261 0 -0.031087653616599573 -0.0074197396882345326 0 -0.030005722290149774 -0.0066746362245901428 0 -0.031176106214278455 -0.0063609386900011873 0 -0.031087653616599573 -0.0074197396882345326 0 -0.031176106214278455 -0.0063609386900011873 0 -0.032098188680573396 -0.0068448396609002175 0 -0.031176106214278455 -0.0063609386900011873 0 -0.032004365133419393 -0.0055710868488023637 0 -0.030789506987731603 -0.0049128990085384261 0 -0.030005722290149774 -0.0066746362245901428 0 -0.031176106214278455 -0.0063609386900011873 0 -0.030789506987731603 -0.0049128990085384261 0 -0.031176106214278455 -0.0063609386900011873 0 -0.032098188680573396 -0.0068448396609002175 0 -0.032004365133419393 -0.0055710868488023637 0 -0.032098188680573396 -0.0068448396609002175 0 -0.032004365133419393 -0.0055710868488023637 0 -0.033378707174155538 -0.0058173794975999562 0 -0.032004365133419393 -0.0055710868488023637 0 -0.033378707174155538 -0.0058173794975999562 0 -0.032283311180754927 -0.0041628275108371582 0 -0.033590019072394624 -0.0029375923553790592 0 -0.033378707174155538 -0.0058173794975999562 0 -0.032283311180754927 -0.0041628275108371582 0 -0.032283311180754927 -0.0041628275108371582 0 -0.031305761394638955 -0.0032650811163989395 0 -0.032293429147575298 -0.0027374842711985542 0 -0.032004365133419393 -0.0055710868488023637 0 -0.032283311180754927 -0.0041628275108371582 0 -0.030789506987731603 -0.0049128990085384261 0 -0.032283311180754927 -0.0041628275108371582 0 -0.030789506987731603 -0.0049128990085384261 0 -0.031305761394638955 -0.0032650811163989395 0 -0.030789506987731603 -0.0049128990085384261 0 -0.030180485608914058 -0.0036901712412295198 0 -0.031305761394638955 -0.0032650811163989395 0 -0.030180485608914058 -0.0036901712412295198 0 -0.031305761394638955 -0.0032650811163989395 0 -0.030579221788244345 -0.0023425030715330288 0 -0.030579221788244345 -0.0023425030715330288 0 -0.03170193130813645 -0.0019037519167290063 0 -0.031071752104995673 -0.0011465331025153486 0 -0.031305761394638955 -0.0032650811163989395 0 -0.030579221788244345 -0.0023425030715330288 0 -0.03170193130813645 -0.0019037519167290063 0 -0.033590019072394624 -0.0029375923553790592 0 -0.032293429147575298 -0.0027374842711985542 0 -0.032590881643250774 -0.0016389385103323163 0 -0.033590019072394624 -0.0029375923553790592 0 -0.032283311180754927 -0.0041628275108371582 0 -0.032293429147575298 -0.0027374842711985542 0 -0.031305761394638955 -0.0032650811163989395 0 -0.032293429147575298 -0.0027374842711985542 0 -0.03170193130813645 -0.0019037519167290063 0 -0.032293429147575298 -0.0027374842711985542 0 -0.03170193130813645 -0.0019037519167290063 0 -0.032590881643250774 -0.0016389385103323163 0 -0.033133754383898165 -0.00024247248827641036 0 -0.032628363078848047 7.9327632396491803e-05 0 -0.032154068074321876 -0.0005939195199329303 0 -0.033133754383898165 -0.00024247248827641036 0 -0.032590881643250774 -0.0016389385103323163 0 -0.032154068074321876 -0.0005939195199329303 0 -0.03170193130813645 -0.0019037519167290063 0 -0.032154068074321876 -0.0005939195199329303 0 -0.031071752104995673 -0.0011465331025153486 0 -0.03170193130813645 -0.0019037519167290063 0 -0.032590881643250774 -0.0016389385103323163 0 -0.032154068074321876 -0.0005939195199329303 0 -0.030579221788244345 -0.0023425030715330288 0 -0.031071752104995673 -0.0011465331025153486 0 -0.029986466105629762 -0.0011983896152161478 0 -0.03103025965112504 -0.00012251667795108782 0 -0.032154068074321876 -0.0005939195199329303 0 -0.031071752104995673 -0.0011465331025153486 0 -0.03103025965112504 -0.00012251667795108782 0 -0.031071752104995673 -0.0011465331025153486 0 -0.029986466105629762 -0.0011983896152161478 0 -0.03103025965112504 -0.00012251667795108782 0 -0.029595479970184066 0.00010003231686135292 0 -0.029986466105629762 -0.0011983896152161478 0 -0.029595479970184066 0.00010003231686135292 0 -0.029986466105629762 -0.0011983896152161478 0 -0.028362539754219377 -0.00093419201266834275 0 -0.029986466105629762 -0.0011983896152161478 0 -0.028362539754219377 -0.00093419201266834275 0 -0.029059730280380475 -0.0028244409437815799 0 -0.02825880894743537 0.00023302410968305669 0 -0.027425968651052825 -0.00083890994974876855 0 -0.028362539754219377 -0.00093419201266834275 0 -0.026665348621789695 -0.00091033365608294062 0 -0.028241359969775399 -0.00092236004978290469 0 -0.02637282894522032 -0.00087923195125743725 0 -0.028362539754219377 -0.00093419201266834275 0 -0.027219750250223052 -0.0022909875526720904 0 -0.027518258698513109 -0.0038128923204349017 0 -0.027219750250223052 -0.0022909875526720904 0 -0.029059730280380475 -0.0028244409437815799 0 -0.028362539754219377 -0.00093419201266834275 0 -0.027219750250223052 -0.0022909875526720904 0 -0.029059730280380475 -0.0028244409437815799 0 -0.030180485608914058 -0.0036901712412295198 0 -0.030579221788244345 -0.0023425030715330288 0 -0.029059730280380475 -0.0028244409437815799 0 -0.030579221788244345 -0.0023425030715330288 0 -0.029986466105629762 -0.0011983896152161478 0 -0.029059730280380475 -0.0028244409437815799 0 
</DataArray>
</PointData>
<CellData Scalars="region_id,cross_section_updated," Vectors="" Tensors="stress,">
<DataArray type="Float64" Name="region_id" format="ascii">
5 5 5 5 5 5 5 6 5 6 5 5 5 5 5 5 5 5 5 6 5 5 5 5 5 5 5 5 5 5 5 6 5 5 6 5 5 6 5 5 5 5 5 5 5 5 5 5 5 6 5 5 5 5 5 5 5 5 5 5 5 5 5 6 5 5 5 5 5 5 5 5 5 5 5 5 5 5 5 6 5 5 5 6 5 5 5 5 5 6 5 5 5 5 5 5 5 5 5 5 5 5 5 5 5 5 5 5 5 5 5 6 5 6 5 5 5 5 5 5 5 5 5 5 5 5 5 6 5 6 5 6 5 5 5 6 5 5 5 5 5 5 5 6 5 5 5 5 5 5 5 5 5 5 5 5 5 5 5 5 5 5 5 5 5 5 5 5 5 5 5 5 5 5 5 5 5 6 5 6 5 6 5 5 6 5 5 5 5 5 5 5 6 5 5 5 5 5 5 5 6 5 5 5 5 5 5 5 5 5 5 5 6 5 5 6 5 5 5 5 5 5 5 5 5 5 5 5 5 5 5 5 5 5 5 5 5 5 5 5 5 5 5 5 5 5 5 5 5 5 5 6 5 5 5 5 5 6 5 5 5 5 5 5 5 5 5 5 5 5 5 5 5 5 6 5 5 5 5 5 5 5 5 6 5 5 5 5 5 6 5 5 5 5 5 5 5 5 5 5 5 5 6 5 5 5 5 6 5 5 5 6 5 5 5 5 5 5 5 5 5 5 5 5 5 5 5 5 5 5 5 5 5 5 5 5 5 5 5 5 5 5 5 5 5 5 5 6 5 6 5 5 5 5 5 5 5 5 5 5 5 5 5 5 5 5 5 5 6 5 5 5 5 5 5 5 5 5 5 5 5 5 5 5 5 5 5 5 6 6 5 5 6 5 5 5 5 5 5 6 5 5 5 5 5 5 6 5 5 6 5 6 5 5 5 5 5 5 6 5 5 6 5 5 5 5 5 5 5 5 5 5 5 5 5 5 5 5 5 5 5 5 5 5 6 5 5 5 5 5 6 5 5 5 5 5 5 5 5 5 5 5 5 5 5 5 5 5 5 5 5 5 5 6 5 5 5 6 5 5 5 5 5 5 5 5 5 6 5 6 5 5 6 5 5 5 6 5 6 5 5 5 5 5 6 5 5 5 5 6 5 6 6 5 5 5 5 5 5 5 5 5 6 5 5 6 5 5 5 5 5 6 5 5 5 5 6 5 5 5 6 5 6 5 6 5 5 5 5 5 5 5 5 5 5 5 5 6 5 5 5 6 5 5 5 5 5 5 5 5 5 5 5 5 6 5 5 5 5 5 6 5 5 6 5 5 6 5 5 5 5 5 5 5 5 5 5 5 5 5 5 5 5 5 6 5 6 5 6 5 6 5 5 5 5 6 5 5 5 5 6 5 5 5 5 6 5 5 5 5 5 6 5 5 6 5 6 6 6 5 5 5 5 5 5 5 5 5 5 5 5 5 5 5 5 5 5 6 5 5 5 5 5 5 5 5 5 6 5 5 5 5 5 6 5 5 5 5 5 5 5 6 5 5 6 6 5 5 5 5 5 6 5 6 5 5 5 5 5 5 5 6 5 5 6 5 5 5 5 5 5 6 5 6 5 5 6 5 5 5 5 5 5 5 5 5 5 5 5 5 5 5 5 5 5 5 5 5 5 6 5 5 5 5 5 5 5 6 5 5 5 6 5 6 5 5 5 6 5 5 5 6 5 5 5 5 5 5 5 5 5 6 5 5 5 5 5 5 5 5 6 5 6 6 6 5 5 6 5 6 5 5 5 5 5 5 5 5 5 5 5 5 5 5 5 5 5 5 5 5 5 5 5 5 5 6 6 6 5 5 5 5 5 5 5 5 5 5 5 5 5 5 5 5 5 5 5 5 5 5 5 5 5 5 5 5 5 6 5 5 5 5 5 6 5 5 5 6 5 5 6 6 5 6 5 5 5 5 5 5 6 5 5 5 5 5 6 5 6 5 5 5 6 5 6 5 6 5 5 5 5 5 6 5 5 5 6 5 5 5 5 5 5 5 5 6 5 5 5 5 5 5 6 5 5 5 5 5 5 5 5 6 5 5 6 5 5 5 5 5 5 6 5 6 5 6 5 5 5 5 5 5 5 5 5 5 5 6 6 6 5 5 6 5 5 5 5 5 6 6 5 5 6 6 6 5 5 5 5 5 5 5 5 5 5 5 5 5 5 5 5 5 5 5 5 5 5 5 5 5 5 5 5 5 5 5 5 5 6 5 5 5 5 5 5 5 6 5 5 5 5 5 5 6 5 5 5 5 5 5 5 5 5 5 5 5 5 5 5 5 5 5 5 5 5 5 5 5 5 5 5 5 5 5 5 5 5 5 5 5 5 5 5 5 5 5 5 5 5 5 5 5 5 5 5 5 5 5 6 5 5 5 6 5 5 6 5 5 5 5 5 5 6 5 5 5 5 5 5 5 5 5 5 6 5 5 5 5 6 5 5 5 5 5 5 5 5 5 5 5 5 5 5 5 5 5 5 5 5 5 5 5 5 6 5 5 5 5 6 5 5 5 5 5 5 5 5 5 5 5 5 5 5 5 5 5 5 5 5 5 5 5 5 5 5 5 5 5 5 5 5 5 5 5 5 5 5 6 5 5 5 5 5 6 5 5 5 6 6 5 5 5 5 5 5 5 5 5 6 5 5 5 6 5 5 5 5 5 5 6 5 5 5 5 5 5 5 5 5 5 6 6 5 5 5 5 5 5 5 5 5 6 5 5 6 5 5 5 6 6 5 5 6 5 5 6 6 5 5 5 6 5 5 5 5 5 6 5 5 5 5 5 5 5 5 5 6 5 5 5 5 5 5 5 5 5 5 5 5 5 5 5 6 5 5 5 5 5 5 6 5 5 5 5 5 5 5 5 5 5 5 5 5 5 5 5 6 6 5 5 5 5 5 5 5 5 5 5 5 5 5 5 5 5 5 5 5 5 5 5 5 5 5 5 5 5 5 5 5 5 5 5 5 5 5 5 5 5 5 5 5 5 6 5 6 5 5 5 6 5 5 5 5 5 5 5 5 5 6 5 5 6 5 5 5 5 5 6 5 5 5 5 5 5 5 6 5 5 6 5 5 5 5 5 5 6 5 5 5 5 5 5 5 5 5 5 5 5 6 5 5 5 5 5 5 5 5 5 5 5 5 5 5 5 5 5 5 5 5 5 5 5 5 5 5 5 5 5 5 5 5 5 5 5 5 5 5 5 5 5 5 5 5 5 5 5 5 5 5 5 5 5 5 5 5 5 5 5 5 5 5 5 5 5 5 5 5 5 5 5 5 5 5 5 5 5 5 5 5 5 5 5 5 5 5 5 5 5 6 5 5 5 5 5 5 5 5 5 5 5 6 5 5 5 6 5 5 5 5 5 5 5 5 5 5 5 5 5 5 5 5 5 5 5 5 5 5 5 5 5 5 5 5 5 5 5 5 5 5 5 5 5 5 5 5 5 5 5 5 5 5 5 5 5 5 5 5 5 5 5 5 5 5 5 5 5 5 5 5 5 5 5 5 5 5 5 5 5 5 5 5 5 5 5 5 5 5 5 5 5 5 5 5 5 5 5 5 5 5 5 5 5 5 5 5 5 5 5 5 5 5 5 5 5 5 5 5 6 5 5 5 5 5 5 5 5 5 5 6 5 5 5 5 6 5 5 5 6 6 5 5 5 5 5 5 5 5 5 5 5 5 5 5 5 5 5 5 5 6 6 5 5 6 5 5 5 5 5 5 6 5 5 5 5 5 6 5 5 5 5 5 5 6 5 5 5 5 5 5 6 5 6 5 5 5 5 5 5 5 5 5 5 5 5 5 5 5 5 5 6 5 5 5 5 5 5 5 6 5 5 5 5 5 6 5 5 5 5 5 5 5 6 5 5 5 6 5 5 6 5 5 5 5 5 5 5 5 5 5 5 5 5 5 6 5 5 5 5 5 5 5 5 6 5 5 5 5 5 5 6 5 5 5 5 5 6 5 5 5 5 5 5 5 5 5 5 5 5 5 5 5 5 5 5 5 6 5 5 5 6 5 6 5 5 5 5 5 5 5 5 5 5 5 5 5 5 5 5 5 5 5 5 5 5 5 5 5 6 5 5 6 5 5 5 5 5 5 5 5 6 5 5 5 5 5 5 5 5 5 5 5 6 5 5 5 5 5 5 5 5 5 5 5 5 5 5 5 5 5 6 5 5 5 5 5 5 5 5 5 5 6 5 5 5 5 5 5 5 5 6 5 5 5 5 5 5 6 5 5 5 5 5 5 5 5 5 5 5 5 5 5 5 5 5 5 5 5 5 5 5 5 5 5 5 5 5 6 5 6 5 5 5 5 5 5 5 6 5 6 5 5 5 5 5 5 5 5 5 5 5 5 5 5 6 5 6 5 5 5 5 5 5 6 5 5 5 5 5 5 5 5 5 6 5 6 5 5 5 5 5 5 5 5 6 5 5 6 5 5 5 5 5 6 5 5 5 5 6 6 5 6 6 5 5 5 5 6 5 5 5 5 5 5 5 5 5 5 5 5 5 5 5 5 5 5 5 5 5 6 6 5 5 5 5 5 6 5 5 5 6 5 5 5 5 5 5 5 6 5 5 5 5 5 6 5 5 5 6 5 5 5 5 5 5 5 5 5 6 5 5 5 5 5 5 6 6 5 5 5 5 5 5 6 5 5 5 5 5 5 5 5 5 5 5 5 5 6 5 5 5 5 5 6 5 5 6 5 5 5 5 5 5 5 6 5 5 5 5 6 5 5 5 5 5 5 5 5 5 5 5 5 5 5 5 5 5 5 5 5 5 5 5 5 5 5 5 5 5 5 5 6 5 5 5 6 5 5 6 5 5 5 5 5 5 6 6 5 5 5 5 6 5 5 5 5 5 5 5 6 5 5 5 5 5 5 5 6 5 5 5 5 5 5 5 5 5 5 5 5 5 5 5 6 5 5 6 5 5 5 5 5 5 5 5 5 6 5 6 5 5 6 5 5 5 5 5 5 5 5 5 5 5 5 5 5 5 5 6 5 5 5 5 5 6 5 5 5 5 5 5 5 5 5 5 5 6 5 5 5 5 5 5 5 6 5 5 5 5 6 5 5 5 5 5 6 5 5 6 5 5 5 5 5 5 6 5 6 6 5 6 5 5 6 6 5 6 5 6 5 5 5 5 5 5 5 6 5 5 5 5 5 5 5 5 5 5 5 5 5 5 5 5 5 5 5 5 5 5 5 6 5 5 5 5 5 5 5 5 5 5 5 5 5 5 6 5 6 5 5 5 5 5 5 5 5 5 5 5 5 5 5 5 5 5 5 5 5 5 5 5 5 5 5 5 5 5 5 5 5 5 5 5 5 5 5 5 6 5 5 5 5 5 5 5 5 5 5 5 6 5 5 5 5 5 5 5 5 5 5 5 5 5 5 5 5 5 5 5 5 5 5 5 5 5 5 5 6 5 5 5 5 5 5 5 5 5 6 5 5 5 5 6 5 5 5 5 5 5 5 5 5 5 5 5 5 5 6 5 5 5 5 6 5 5 5 5 5 5 5 5 5 5 5 5 6 5 5 5 5 5 5 6 5 5 5 5 5 5 5 5 5 5 6 5 5 5 5 5 5 5 5 5 5 5 5 5 5 5 5 5 5 5 5 5 5 5 5 5 5 5 5 5 5 5 5 5 5 6 5 5 5 5 6 6 5 5 6 5 5 5 5 6 5 5 5 5 5 5 5 5 5 5 5 5 5 5 5 5 6 5 5 5 6 5 5 5 5 5 6 5 5 6 5 5 5 5 5 5 5 5 5 5 5 5 5 5 5 5 5 6 5 5 5 5 5 5 5 5 5 5 5 6 5 5 5 6 5 5 5 5 6 6 5 5 5 5 5 5 5 5 5 5 5 5 5 5 5 6 5 5 5 5 5 5 5 5 5 5 5 6 5 5 5 5 5 6 5 5 5 5 5 5 5 5 5 6 5 5 5 5 5 5 5 5 5 5 5 5 5 5 5 5 5 5 5 5 5 5 5 5 5 6 5 5 5 5 5 5 6 5 5 5 5 5 5 5 5 5 5 5 5 5 5 5 5 5 5 5 5 5 5 5 5 5 5 5 5 5 5 5 5 5 5 5 5 5 5 5 5 5 5 5 5 5 5 5 5 5 5 5 5 5 5 5 5 5 5 5 6 5 5 5 5 5 5 5 6 5 5 5 6 5 6 5 5 5 5 5 6 6 5 5 5 5 5 5 5 5 6 5 5 5 5 5 5 5 6 5 6 5 5 6 6 5 5 5 6 5 5 5 5 5 5 5 5 6 5 5 5 5 6 5 5 5 5 5 5 5 5 5 5 5 5 5 5 5 6 5 5 5 5 6 6 5 5 5 5 6 5 5 5 5 5 6 5 5 5 5 5 5 5 5 5 5 5 5 6 5 5 5 5 5 5 5 5 6 5 6 5 5 5 5 5 5 5 5 5 5 5 5 5 5 5 5 6 5 5 5 5 5 5 5 6 5 6 5 5 5 6 5 5 5 5 5 5 5 5 5 5 5 5 5 5 5 5 5 5 5 5 5 5 5 5 5 5 5 5 5 5 5 6 5 5 5 5 5 5 5 6 5 5 5 6 5 5 5 5 5 6 5 5 5 5 5 6 5 5 5 5 6 5 5 5 6 5 5 6 5 5 5 5 6 5 5 6 5 5 5 6 5 5 5 5 5 6 5 5 5 5 5 5 5 6 5 5 5 5 5 5 5 5 5 5 5 5 6 5 5 5 6 5 5 6 5 5 6 5 5 5 6 5 5 6 6 5 5 5 5 6 5 5 5 5 5 5 5 5 6 5 5 5 5 5 6 6 5 5 5 5 6 5 5 5 5 5 5 5 6 5 5 5 5 5 5 5 5 5 6 5 5 6 5 5 5 5 6 6 5 6 5 5 5 5 5 6 5 5 6 5 5 6 5 6 5 5 5 5 5 5 6 5 5 5 5 5 5 5 5 5 5 5 5 5 5 6 5 5 5 5 5 5 5 5 6 5 5 5 5 5 5 5 5 5 5 5 5 5 6 5 5 5 5 5 5 5 5 5 5 6 5 5 5 6 5 6 5 5 5 5 6 5 5 5 5 5 6 5 5 5 5 5 5 5 5 5 5 5 5 5 5 5 5 5 5 5 5 5 6 5 5 5 5 5 5 5 5 5 5 5 5 5 5 6 5 6 5 5 6 5 5 6 5 6 5 5 5 5 5 6 5 6 5 5 6 5 6 5 5 5 5 6 6 5 5 5 5 5 5 5 5 6 5 5 5 5 6 5 6 5 5 5 5 5 5 5 5 5 5 6 5 5 6 6 5 5 5 5 6 5 5 5 5 5 5 5 5 5 5 5 5 5 6 5 6 5 5 5 6 5 5 5 6 5 5 5 5 5 5 6 5 5 5 5 5 5 5 6 5 5 5 6 5 5 5 5 5 5 5 5 5 5 5 5 5 5 5 5 5 5 5 6 5 5 6 5 5 5 5 5 5 5 5 5 5 5 5 5 5 5 5 5 5 5 5 5 5 5 5 6 5 6 6 5 5 5 6 5 6 5 5 6 5 5 5 5 5 6 5 5 5 5 5 6 5 6 5 5 5 5 5 6 5 5 5 5 5 5 5 5 5 6 5 5 6 5 5 6 5 5 6 5 6 5 5 5 5 5 5 6 6 5 5 5 6 6 6 6 5 5 5 6 5 5 5 5 5 5 5 6 5 5 5 5 5 5 5 5 5 6 5 5 5 6 5 5 5 5 5 5 5 5 5 6 5 5 6 5 5 6 5 5 5 5 5 5 5 5 5 5 5 5 5 5 5 5 5 5 5 5 5 5 5 5 5 5 5 5 5 5 5 5 5 5 5 5 5 5 5 5 5 6 5 6 5 5 5 5 5 5 5 6 6 5 5 5 5 5 5 6 5 5 5 5 5 5 5 5 5 5 5 5 5 5 5 5 5 5 6 5 6 6 5 5 5 5 5 6 5 5 5 5 6 5 5 5 5 5 5 5 5 5 5 6 5 5 6 5 6 5 5 6 6 5 5 6 5 5 5 5 5 5 5 5 6 5 5 6 5 6 5 6 5 5 5 6 5 5 6 5 6 5 5 5 5 5 5 5 5 5 5 5 5 6 6 5 6 5 5 5 5 5 5 5 5 5 5 5 5 5 5 5 5 5 5 5 5 5 6 5 5 5 5 5 5 5 5 5 6 5 5 5 5 6 5 5 5 5 5 5 5 5 5 5 5 5 5 5 5 5 5 5 5 5 5 5 5 5 5 5 5 5 5 5 5 6 5 5 5 6 5 6 5 5 5 5 6 5 6 5 5 6 6 6 6 5 5 5 6 6 5 5 5 5 5 5 5 6 5 5 5 5 5 5 5 5 5 5 6 5 5 5 5 5 5 5 5 5 5 5 5 5 5 5 5 5 5 5 5 5 5 5 6 5 6 5 5 5 5 5 5 6 5 5 5 5 5 5 5 6 5 6 6 5 5 5 6 5 6 6 5 6 5 5 5 5 5 5 5 5 5 5 5 5 5 5 5 5 5 5 5 5 5 5 5 5 5 5 5 5 5 5 5 5 5 5 5 5 5 6 5 6 5 6 5 5 5 5 6 5 5 5 6 5 6 6 6 5 5 6 5 5 5 5 6 5 5 6 5 6 6 5 5 5 5 5 5 5 5 5 5 5 5 5 5 5 6 5 5 5 5 6 5 5 5 6 5 5 6 5 6 5 6 6 5 6 5 6 5 5 5 5 6 6 5 6 6 5 5 5 5 5 6 5 5 5 5 6 5 5 6 5 6 5 5 6 5 5 5 6 5 6 6 6 5 6 5 5 6 5 5 5 5 5 5 5 5 5 6 5 5 5 5 5 5 5 5 5 5 5 6 5 5 5 6 5 5 5 6 6 5 6 5 6 5 6 5 5 6 5 6 5 5 6 5 5 5 6 5 6 5 5 5 5 5 5 5 5 5 5 6 6 6 6 5 5 6 5 5 5 5 5 5 5 5 5 5 5 5 5 6 5 5 5 5 5 6 5 5 5 5 5 5 5 5 5 6 6 5 5 5 5 5 6 5 5 5 5 6 5 6 5 5 5 6 6 5 5 5 5 5 5 5 5 5 5 5 5 5 5 5 5 5 5 5 5 5 5 5 5 5 5 5 5 5 6 6 5 5 5 5 5 5 5 5 5 5 6 5 5 6 5 5 6 5 5 6 5 5 5 5 6 6 5 5 5 5 5 6 5 5 5 5 5 5 5 5 5 5 6 5 5 5 6 5 5 5 5 5 5 6 6 5 5 5 5 5 5 5 5 5 5 5 5 5 5 5 5 5 5 5 5 5 5 5 5 5 5 5 5 5 5 5 5 5 5 5 6 5 5 5 5 5 5 5 5 5 5 5 5 5 5 5 5 5 5 5 5 5 5 5 6 5 5 5 5 5 5 5 5 6 5 5 5 5 5 5 5 6 6 5 6 5 5 5 6 5 5 5 6 5 5 5 5 5 5 5 6 5 5 5 5 5 5 5 5 5 5 5 5 5 5 5 5 5 5 5 5 5 5 5 5 5 5 5 5 5 5 6 5 5 5 5 6 5 5 5 6 5 5 5 5 5 5 5 6 5 6 5 5 5 5 5 5 5 5 5 6 5 5 5 5 5 5 5 5 5 5 5 5 5 5 5 5 5 6 5 5 5 5 5 6 5 5 6 5 6 5 5 5 6 5 5 5 6 5 5 5 5 6 5 5 5 6 5 5 5 5 6 5 5 5 5 5 5 5 5 6 5 6 5 5 5 5 5 5 5 5 5 5 5 5 5 5 5 5 5 5 5 5 5 5 5 5 5 5 5 5 5 5 5 5 5 5 5 5 5 5 6 5 5 6 5 5 5 6 6 5 5 5 5 5 5 5 6 5 5 5 5 6 5 5 5 5 5 5 5 5 5 5 5 5 5 5 5 5 5 5 5 5 5 5 5 5 5 5 5 5 5 5 5 5 5 5 5 5 6 5 5 6 5 5 5 5 5 5 5 5 5 5 5 5 5 6 5 5 5 5 5 5 5 6 5 6 5 5 5 5 5 5 5 5 5 5 5 5 5 5 5 5 5 5 5 5 5 5 5 5 5 5 5 5 5 5 5 5 5 5 5 5 5 5 5 5 5 5 5 5 5 5 5 5 5 5 5 5 5 5 5 5 5 5 5 5 5 5 5 5 5 5 5 5 5 5 5 5 5 5 5 5 5 5 5 6 6 5 5 5 5 5 5 5 5 5 5 5 5 5 5 5 6 5 6 5 5 6 5 5 5 5 5 6 5 5 5 5 5 5 5 5 5 5 5 5 5 5 5 5 5 5 5 5 5 5 5 5 5 5 5 5 5 5 5 5 5 5 5 5 5 5 5 5 5 5 5 5 5 5 5 5 6 5 5 5 5 6 6 5 5 5 5 5 5 5 5 6 5 5 5 5 5 5 6 5 5 5 5 5 5 5 5 5 5 5 5 5 5 5 5 5 5 5 5 5 5 5 6 5 5 5 5 5 5 5 5 5 5 5 5 5 6 6 5 5 5 5 5 5 6 5 6 5 5 5 5 5 5 5 5 5 5 5 5 5 5 5 5 5 5 5 5 5 5 5 5 5 5 5 5 6 5 6 5 5 5 5 5 5 5 5 5 5 5 5 6 5 5 5 5 5 5 5 5 5 5 5 5 5 5 5 5 5 5 5 5 5 5 5 5 5 5 5 5 5 5 5 5 5 5 5 5 5 5 5 5 5 5 5 5 5 5 5 5 5 5 5 5 5 5 5 5 5 6 5 6 5 5 5 5 5 5 5 5 5 5 6 5 5 5 5 5 5 5 5 5 5 5 5 5 5 5 5 5 5 5 5 5 5 5 5 5 5 5 5 5 5 5 5 5 5 5 5 5 5 5 5 5 6 5 5 5 6 5 5 5 5 5 5 5 5 5 5 5 5 5 5 5 5 5 5 5 5 5 5 5 5 5 5 5 5 5 5 5 5 5 5 5 5 5 5 5 6 5 5 5 5 5 6 6 5 5 5 5 5 5 5 5 5 5 5 5 6 5 5 5 6 5 5 5 5 5 5 5 5 5 5 5 5 5 5 5 5 5 5 5 5 5 5 5 5 5 5 5 5 5 5 5 5 5 5 5 5 5 5 5 5 5 5 5 5 5 5 5 5 5 5 5 5 5 5 5 5 5 5 5 5 5 5 5 5 5 5 5 5 5 5 5 5 5 5 5 6 5 5 5 5 5 6 5 5 5 5 5 5 5 5 5 5 5 5 5 5 6 5 5 6 5 5 6 6 5 5 6 6 5 5 5 5 5 5 5 5 6 5 5 5 5 5 5 5 5 5 5 5 5 5 5 5 5 5 5 5 5 5 5 5 5 5 5 5 5 5 5 5 5 5 5 5 5 5 5 5 5 5 5 5 5 5 5 5 5 5 6 5 5 5 6 5 5 5 5 5 5 5 6 5 5 6 5 5 5 6 5 5 5 5 5 5 5 6 5 6 5 6 5 5 5 5 5 5 5 5 5 5 5 6 5 5 5 6 5 6 5 5 5 6 5 5 5 5 5 5 5 5 5 6 5 5 5 5 5 5 6 5 5 5 5 6 5 5 5 5 5 5 5 5 6 5 5 5 5 5 5 5 5 5 5 5 5 6 5 5 5 5 5 5 5 5 5 5 5 5 5 5 5 5 5 5 5 5 5 5 5 6 5 5 5 5 5 5 5 5 5 5 5 5 5 5 5 5 5 5 5 5 5 5 5 5 5 5 5 5 5 5 5 5 5 5 5 5 5 5 5 5 5 5 5 5 5 5 5 5 5 5 5 5 5 5 5 6 5 5 5 5 5 5 5 6 5 5 5 5 5 5 5 5 6 6 5 5 6 5 5 6 5 5 5 6 5 6 5 6 5 5 6 5 5 5 5 5 5 5 5 5 5 5 5 5 5 5 5 6 5 5 5 5 5 5 5 6 5 5 5 5 5 5 5 5 6 5 6 5 5 6 6 5 6 5 5 5 5 5 5 5 5 5 6 6 5 5 5 5 5 5 5 5 5 5 5 5 5 6 5 6 5 5 5 6 5 5 5 5 6 5 6 5 6 5 5 5 5 6 5 5 5 5 5 5 6 5 5 5 5 5 6 5 5 5 6 5 5 5 5 5 5 5 5 5 5 5 6 5 5 5 5 5 5 6 5 5 5 5 5 5 5 5 5 6 6 5 5 5 6 6 5 5 5 5 5 5 5 5 5 5 5 5 5 5 5 5 5 5 5 5 5 5 5 5 5 5 5 5 5 5 5 5 5 5 5 5 5 5 5 5 5 5 6 5 5 5 5 6 5 5 5 5 5 5 5 5 5 6 5 5 6 5 6 5 5 5 5 5 5 5 5 5 5 5 5 5 5 5 5 5 6 5 5 5 5 5 5 5 5 5 5 5 6 5 6 6 5 5 6 5 5 6 5 5 6 5 5 5 5 5 5 5 5 5 5 5 5 5 5 6 5 5 5 5 5 5 5 5 5 6 5 5 6 5 5 5 5 5 5 5 5 5 6 6 5 5 5 5 5 6 5 5 5 5 5 6 6 5 5 5 5 5 5 5 5 5 5 5 5 5 5 5 5 5 5 5 5 5 5 5 5 5 5 5 5 5 6 5 5 6 5 5 6 5 6 5 5 6 5 6 5 5 5 5 5 5 5 5 5 5 5 5 5 5 5 5 5 5 5 5 5 5 5 5 5 5 5 5 5 5 6 5 5 5 5 5 5 5 5 5 5 5 5 5 5 6 5 5 6 5 5 5 5 5 5 5 5 5 5 5 5 5 5 5 5 5 5 5 5 5 5 5 5 5 6 5 6 5 5 5 5 5 5 5 6 5 5 6 5 5 5 6 5 5 5 5 5 5 5 5 5 5 5 5 5 5 5 6 5 5 5 5 5 5 5 5 6 5 5 6 5 5 5 5 6 5 5 6 5 5 5 5 6 5 5 5 6 5 5 6 5 6 5 5 5 5 5 5 5 5 5 5 5 5 5 5 5 5 5 5 6 5 5 5 5 5 5 5 5 5 6 5 5 6 5 5 5 5 5 6 5 5 6 5 5 5 5 5 5 5 5 6 5 5 6 5 6 5 5 6 5 5 5 5 5 5 5 6 5 5 6 5 5 6 6 6 5 5 5 6 5 5 6 5 5 5 6 5 6 5 5 6 6 6 5 6 5 6 5 5 5 5 5 5 5 5 6 6 5 5 5 5 5 5 5 6 5 5 6 5 5 6 5 5 5 5 6 5 5 5 5 5 5 5 5 5 5 5 5 5 5 5 6 5 5 6 5 5 6 5 5 5 6 5 5 6 5 6 5 5 5 5 5 5 5 5 5 5 5 6 5 5 5 5 5 6 5 5 5 6 5 5 5 6 5 5 6 5 6 5 5 5 5 5 5 5 5 5 5 6 5 5 5 6 5 6 5 5 6 6 5 6 5 5 5 6 5 5 5 6 5 5 6 5 5 5 6 5 6 5 5 5 5 5 5 5 5 5 6 5 5 6 5 5 6 5 5 5 5 5 6 5 5 5 5 5 5 6 5 5 5 5 5 5 5 5 6 5 5 6 5 5 5 5 5 5 5 5 6 5 6 6 5 5 5 6 5 5 5 5 5 5 5 5 5 5 5 5 5 6 5 5 6 5 5 6 5 5 5 6 6 5 5 5 5 6 6 5 5 5 5 5 5 6 5 6 5 5 5 5 5 5 5 5 6 5 5 5 5 5 5 5 5 5 5 5 5 5 5 5 5 5 5 5 5 5 5 5 5 5 5 5 5 5 5 5 5 5 5 5 5 5 5 5 5 6 6 5 5 5 5 6 5 5 5 5 5 5 5 5 5 5 6 5 5 5 5 5 5 5 5 6 5 5 5 5 5 5 5 5 5 5 5 5 5 5 5 6 5 5 5 5 5 5 5 5 5 5 6 5 5 5 5 6 5 5 5 6 5 5 6 5 5 6 5 6 6 5 6 5 5 5 5 6 6 5 5 5 5 5 5 5 5 5 5 5 5 5 5 5 5 5 5 5 5 5 5 5 5 5 5 5 5 5 5 5 5 6 5 5 5 5 5 5 5 5 5 5 5 5 5 5 5 5 5 5 5 5 5 5 6 6 5 5 5 5 5 5 5 5 6 5 5 5 5 5 5 5 6 5 5 5 5 5 6 5 5 5 5 5 5 5 5 5 5 5 5 5 5 5 5 5 5 5 5 5 5 5 5 5 5 5 5 5 5 5 6 5 5 5 5 5 5 6 5 5 6 5 5 5 5 5 5 5 5 5 5 6 5 5 5 5 5 5 6 5 5 5 6 5 5 5 5 5 5 5 6 5 5 5 6 6 5 5 5 5 5 5 6 5 5 5 5 5 6 5 5 5 6 5 5 5 5 6 5 5 5 6 5 5 5 5 5 5 5 5 5 5 5 5 5 5 5 6 5 6 5 5 5 5 5 5 5 5 6 5 5 5 6 6 5 5 5 5 5 5 6 6 5 5 5 5 5 5 5 5 6 5 5 5 5 5 5 5 5 5 5 6 5 5 6 5 5 6 6 5 5 5 5 5 5 5 6 5 5 5 6 6 6 5 5 5 5 5 5 5 5 5 6 5 5 5 5 5 6 5 5 5 5 5 5 5 6 5 5 5 6 5 5 5 5 5 5 5 5 5 5 5 5 5 5 6 5 5 5 5 5 5 5 5 6 5 5 6 5 5 6 5 5 5 5 5 5 6 5 5 6 5 5 5 5 5 5 5 5 5 5 5 5 6 5 5 6 5 5 5 5 5 6 6 5 5 5 6 5 5 5 5 6 5 5 6 5 5 5 5 5 5 5 5 5 5 5 5 6 5 5 5 5 5 5 6 5 5 6 5 6 6 5 5 5 5 5 5 5 5 5 5 5 5 5 5 5 6 5 6 5 5 5 5 5 6 5 5 5 5 6 5 6 5 5 5 5 5 5 5 5 5 5 5 5 5 5 5 5 6 5 5 6 5 5 5 5 5 5 5 5 5 5 5 5 6 5 5 5 5 5 5 6 5 5 5 5 6 5 5 5 5 5 6 5 5 6 5 5 5 5 5 5 5 5 6 5 5 6 5 5 5 5 5 5 5 5 5 5 5 5 5 5 5 5 6 5 5 5 5 5 5 5 5 5 6 5 6 5 5 5 5 5 5 5 6 5 6 5 5 5 6 6 5 5 5 5 5 5 6 5 5 5 6 6 5 5 5 5 5 5 5 5 5 5 5 5 5 5 5 6 5 5 5 5 6 5 5 6 5 5 5 5 5 5 5 5 6 5 5 5 5 5 6 5 5 6 5 5 5 5 5 6 5 5 5 5 5 5 5 5 5 5 5 5 5 6 5 5 5 5 6 5 5 6 6 5 5 5 5 5 6 5 5 6 5 5 6 5 5 6 5 5 5 5 5 5 5 5 5 5 5 5 5 5 5 6 5 5 5 5 5 5 6 5 5 5 5 5 6 5 5 5 5 5 5 5 6 5 6 5 5 5 6 5 5 5 5 6 5 5 5 5 5 5 5 5 6 5 5 5 5 6 5 5 5 5 5 5 5 6 5 5 5 5 5 5 5 5 5 5 5 5 5 5 6 5 5 5 5 5 5 6 5 5 5 5 5 5 5 6 5 5 5 5 5 5 6 5 5 5 6 5 5 6 5 5 5 5 6 5 5 5 5 6 5 5 5 5 5 5 5 6 6 5 5 5 5 5 6 5 5 5 5 5 5 5 5 6 5 5 5 5 5 5 5 5 6 5 5 5 5 5 5 5 5 5 5 5 5 5 5 5 5 5 5 5 5 5 5 5 6 5 6 5 5 5 5 6 6 5 5 5 5 5 5 5 5 5 5 6 5 5 6 5 6 5 6 5 5 6 5 5 6 5 6 5 6 6 5 6 6 5 6 5 5 5 5 6 5 5 6 5 5 6 5 6 5 5 5 6 5 5 5 6 5 5 5 5 5 5 5 5 5 5 5 5 5 5 5 5 5 5 5 5 5 5 5 5 5 5 5 5 5 5 5 5 5 5 5 5 5 5 5 5 5 5 6 5 5 5 5 6 5 5 5 5 5 5 5 5 5 6 5 5 5 5 5 5 5 5 5 5 5 5 5 5 5 5 5 5 5 5 5 5 5 5 5 5 5 5 5 5 5 5 5 5 5 5 5 5 5 5 5 5 5 5 5 5 5 5 5 5 5 5 6 5 5 5 5 5 5 5 5 5 5 5 6 5 5 5 5 5 6 6 5 5 5 6 5 6 5 5 6 5 5 5 5 5 5 5 5 5 5 5 6 5 6 5 5 5 5 5 5 6 5 5 5 5 5 5 5 5 5 5 5 5 6 5 5 5 5 6 5 5 5 5 5 5 5 5 5 6 5 5 6 5 5 5 6 5 5 5 5 5 6 5 5 5 5 5 5 5 5 5 5 5 5 6 5 5 5 5 5 5 5 5 5 5 5 5 6 5 5 5 5 5 5 5 5 5 5 5 5 5 5 5 5 5 5 6 5 5 5 6 5 5 5 5 5 5 5 5 5 5 5 6 5 5 6 5 5 5 5 5 5 5 5 5 5 5 5 5 5 5 5 5 5 5 5 5 5 5 5 5 5 5 5 5 5 5 5 5 5 5 6 5 5 5 5 5 6 5 6 5 5 5 5 5 5 5 6 6 5 5 5 5 5 5 6 5 6 5 5 5 5 5 5 5 5 5 5 5 5 5 5 5 6 5 5 6 5 5 5 6 5 5 5 5 6 6 5 5 5 5 5 5 6 5 5 5 5 6 5 5 5 5 5 5 5 5 5 5 5 5 5 5 5 5 5 5 5 5 5 5 5 5 5 5 5 6 5 5 5 5 6 5 6 5 5 5 5 5 5 5 5 5 5 5 5 5 6 5 5 6 5 5 5 5 5 5 5 5 5 5 5 5 5 6 5 5 5 6 5 6 5 5 5 5 5 5 6 5 6 5 5 5 5 5 5 5 6 5 5 5 5 5 6 5 5 5 5 5 5 5 5 5 6 5 5 5 6 5 6 5 5 5 5 6 5 5 5 5 6 6 5 5 5 5 6 5 5 6 5 5 5 5 5 5 5 6 5 5 5 6 5 5 5 5 5 5 5 5 5 6 5 5 6 5 5 6 5 5 5 6 5 6 6 5 5 6 6 5 5 5 6 5 5 5 6 5 6 6 6 5 5 5 5 5 5 5 6 5 5 5 6 5 5 5 5 6 5 5 5 5 6 5 5 5 6 6 5 5 5 5 6 5 5 5 5 5 5 5 5 5 5 5 5 5 6 5 5 5 5 6 5 5 6 5 5 5 5 5 5 5 6 5 6 5 5 5 5 5 5 5 6 5 5 6 5 5 5 5 6 6 6 5 5 5 5 5 5 5 5 5 5 5 6 5 5 5 5 6 5 5 5 5 5 5 5 5 5 5 5 5 5 5 5 5 5 5 5 5 5 5 5 5 5 5 5 5 5 5 5 5 5 5 5 5 5 6 6 5 6 5 5 5 5 5 5 5 5 6 6 5 5 5 5 5 5 5 5 5 5 5 6 6 6 5 6 5 5 5 6 6 5 5 6 6 5 5 5 5 6 5 5 5 5 6 5 5 5 5 5 6 5 5 5 6 5 6 5 5 5 5 6 5 5 5 5 5 6 5 6 5 5 5 5 5 6 5 6 5 5 5 5 5 5 5 6 5 6 5 5 5 5 5 5 5 5 5 5 5 5 5 5 5 5 5 5 5 5 5 5 5 5 6 5 5 5 5 5 6 6 5 5 5 5 5 6 5 5 5 5 5 5 6 5 5 5 5 5 5 5 5 5 5 5 5 5 5 5 5 5 5 5 5 5 5 5 6 5 5 5 6 5 6 5 5 5 5 6 6 5 6 5 6 5 5 5 5 5 5 5 5 5 5 5 5 5 5 5 5 5 5 5 5 5 5 6 5 5 5 5 6 5 5 5 5 5 5 5 5 5 6 5 5 5 5 5 5 5 5 5 5 5 5 5 5 5 5 5 5 5 5 5 5 6 5 5 5 5 5 6 5 5 5 5 6 5 5 5 6 5 5 6 5 5 5 5 5 6 5 6 6 5 5 5 5 5 5 6 5 5 6 5 6 5 5 6 5 5 5 6 5 5 5 5 5 6 5 5 6 5 5 6 5 5 5 5 5 6 5 5 5 5 5 5 5 5 5 5 5 6 6 5 6 5 5 6 5 5 5 6 5 6 5 5 6 5 5 5 6 5 5 5 5 6 6 5 5 5 5 5 5 5 6 5 5 5 5 5 5 6 5 5 5 5 5 5 5 5 5 5 5 5 5 5 5 5 5 5 5 5 5 5 5 5 5 5 5 5 5 5 5 6 6 5 5 5 5 5 5 5 5 5 5 5 5 5 5 5 5 5 5 5 5 5 5 5 5 5 5 5 5 5 5 5 5 5 5 5 5 5 5 5 5 5 5 5 5 5 6 5 5 5 5 5 5 5 5 5 5 5 5 5 5 5 6 5 5 5 5 5 5 6 6 5 5 5 5 5 5 6 6 6 5 5 5 6 5 6 5 5 5 5 5 5 5 5 5 5 5 5 5 5 6 5 5 5 5 5 6 5 6 5 6 5 5 5 5 5 5 5 5 5 5 5 5 5 5 6 5 5 6 5 5 5 5 5 5 5 5 5 5 5 6 5 5 6 5 5 6 5 5 5 5 5 5 5 5 5 5 5 5 5 5 5 5 5 5 5 5 5 5 6 5 5 6 6 5 6 5 6 5 5 5 6 6 5 5 6 5 6 5 5 6 6 5 5 5 5 5 5 6 5 5 5 5 5 5 6 5 5 6 5 6 5 5 5 5 5 5 5 5 6 5 5 5 6 5 5 5 5 6 5 5 5 5 5 5 5 5 5 5 6 5 5 5 5 6 5 5 6 5 5 6 5 5 6 5 5 5 5 5 5 5 5 6 5 5 6 5 5 5 5 5 5 5 5 5 5 6 5 6 5 5 5 5 6 5 5 5 5 5 5 5 5 5 5 5 5 5 5 5 5 5 5 5 5 6 5 6 5 5 5 5 5 5 5 5 5 5 5 6 5 6 6 5 5 5 5 5 5 5 5 5 5 5 6 5 5 5 5 5 5 6 5 6 5 6 5 5 5 6 6 5 6 5 6 5 5 6 5 5 5 6 5 5 5 5 6 5 5 5 5 6 6 5 5 5 5 5 6 5 5 5 5 5 5 5 5 5 5 5 5 6 5 5 5 5 5 5 5 5 5 5 5 6 5 5 5 5 5 6 5 5 5 5 5 6 5 5 5 5 5 6 5 5 6 5 5 5 6 5 6 5 6 5 5 5 6 5 5 6 6 5 5 5 5 5 5 6 5 5 5 5 6 5 5 5 5 5 5 5 5 5 5 5 5 5 5 5 5 6 5 5 6 5 5 5 5 5 6 5 5 5 5 6 5 6 5 5 5 5 5 5 5 5 5 5 6 6 6 5 6 5 5 5 5 5 5 5 5 5 5 5 5 5 6 5 5 5 5 5 5 5 5 5 5 5 5 6 6 5 5 5 6 5 6 5 5 5 5 5 5 5 5 5 5 5 5 5 6 5 6 5 5 5 5 5 5 5 6 5 5 5 5 5 5 5 6 5 5 5 5 5 5 5 5 5 5 5 5 5 5 5 5 5 5 5 5 5 5 5 5 5 6 6 5 5 5 5 5 5 5 5 5 5 5 5 5 5 6 5 5 6 5 5 5 5 5 5 5 5 5 5 5 5 5 5 5 5 5 5 5 5 5 5 5 6 5 6 5 5 5 5 5 6 5 5 5 5 5 5 5 5 5 5 5 5 5 5 5 5 5 5 5 5 5 5 5 6 5 5 5 5 5 5 6 5 5 5 5 5 5 5 6 5 5 5 6 5 5 5 5 5 5 6 5 5 5 5 5 6 5 5 5 5 5 5 5 5 5 6 5 5 5 6 5 5 5 5 5 5 6 5 5 5 6 5 5 5 5 5 5 5 5 5 5 5 6 5 6 5 5 5 6 5 5 6 6 5 5 5 5 5 5 5 6 5 5 5 6 5 5 6 6 5 6 5 5 5 6 5 5 5 5 5 5 5 5 6 6 5 5 5 5 6 5 5 5 5 5 5 5 5 5 5 5 5 5 5 5 5 5 5 5 5 5 5 5 5 5 5 5 5 5 5 5 5 6 5 5 5 5 5 5 6 5 5 5 5 5 5 5 5 5 6 5 5 5 5 5 5 5 5 5 5 5 5 5 5 5 5 5 5 5 5 5 5 5 5 5 6 5 5 5 5 5 5 5 5 5 5 5 5 6 5 5 5 6 5 5 5 5 5 5 5 5 5 5 5 5 5 5 5 5 5 5 5 5 5 5 6 5 5 6 5 6 5 5 5 5 5 5 6 5 5 5 5 5 5 5 5 5 5 5 5 5 5 5 5 5 5 5 5 6 5 5 5 6 5 5 5 5 5 6 5 5 5 5 6 5 5 6 5 5 5 5 5 5 5 5 5 5 5 5 5 5 5 5 5 6 6 5 5 5 5 5 5 5 5 5 5 5 5 5 6 5 6 5 5 5 5 5 5 5 5 5 5 5 5 5 5 5 5 5 5 5 5 5 5 5 5 5 5 5 6 5 5 5 5 5 5 6 5 5 5 5 5 5 5 5 5 6 5 5 5 5 6 5 5 5 5 5 5 5 5 5 5 5 5 5 5 5 5 5 5 5 5 5 5 5 5 6 5 5 6 6 5 5 5 5 5 5 5 5 5 6 5 5 5 5 6 5 5 5 5 5 6 5 5 5 6 5 5 6 6 6 5 5 5 5 6 5 5 6 6 5 6 5 5 5 6 5 5 6 6 5 5 5 5 5 5 5 5 5 5 5 5 5 6 5 5 5 5 5 5 5 6 5 5 5 5 5 5 5 5 6 5 5 5 5 5 5 5 5 5 5 5 5 5 5 5 5 5 5 5 5 5 5 5 5 5 5 6 5 5 5 5 5 5 5 5 5 5 5 5 6 5 5 5 5 5 5 5 5 5 5 5 5 6 5 5 5 5 5 5 5 5 5 5 5 5 5 5 5 5 5 5 5 5 5 5 5 5 5 5 5 5 5 5 5 5 5 5 5 5 6 5 5 5 5 5 6 5 6 5 6 6 5 5 5 5 5 5 5 6 5 5 5 5 5 5 5 5 5 5 5 5 5 5 5 5 5 5 5 5 6 5 5 5 5 6 5 6 5 5 5 5 5 5 5 5 5 6 5 5 5 5 5 5 6 5 5 6 5 5 5 5 5 5 6 5 5 5 5 5 5 5 5 5 5 5 5 5 5 5 5 5 5 5 5 5 5 5 5 5 5 5 5 5 5 5 5 5 5 5 5 6 5 5 5 5 6 5 5 5 5 5 6 5 6 5 5 5 5 5 5 5 5 5 5 5 5 5 5 5 5 5 5 5 5 5 5 5 5 5 5 5 5 6 6 5 5 5 5 5 5 5 5 5 5 5 5 6 5 5 5 5 5 5 5 5 5 5 5 5 5 5 6 5 5 6 5 5 5 5 5 5 6 5 5 5 5 5 6 5 5 5 5 6 5 6 5 5 5 5 5 5 5 5 5 5 6 5 6 6 5 5 5 5 6 5 5 6 5 5 5 6 5 5 5 5 5 5 5 5 5 6 5 6 5 5 5 5 5 5 6 5 6 5 5 5 6 5 5 5 5 5 5 5 5 6 5 5 5 5 5 6 6 5 5 5 5 6 6 6 5 5 6 5 5 5 5 5 5 5 5 5 6 5 5 5 5 6 6 6 5 5 5 5 5 5 6 5 5 6 5 5 5 5 5 5 5 5 5 6 5 6 5 6 5 5 5 5 5 5 6 5 5 5 6 6 5 5 5 5 5 5 5 5 5 5 5 5 5 5 5 5 5 5 5 5 6 5 5 5 5 5 5 5 5 6 5 6 5 6 5 5 5 6 5 5 5 5 5 5 6 5 5 5 6 5 5 5 5 5 6 5 5 5 5 6 5 5 5 6 5 5 6 5 5 6 5 5 5 5 5 6 5 6 5 5 5 5 5 5 5 5 5 5 5 5 5 5 6 5 5 6 6 5 5 5 5 5 5 5 5 5 5 5 5 5 5 5 6 5 5 5 5 5 5 5 5 5 5 5 5 5 5 5 5 5 5 5 5 5 5 5 5 5 5 5 5 5 6 5 5 5 5 5 5 5 6 5 5 5 5 5 6 5 5 5 5 5 6 5 5 5 5 5 5 5 5 5 5 6 5 6 5 5 5 5 5 5 5 5 5 5 5 5 5 6 5 5 5 5 5 5 6 5 5 5 5 5 5 5 5 5 5 5 5 5 5 5 5 5 5 5 5 5 5 5 5 6 6 5 5 6 5 5 6 5 5 5 5 5 5 6 5 5 5 5 5 5 5 6 6 5 5 5 5 5 5 5 5 5 5 5 5 5 5 5 5 5 5 5 5 5 5 5 5 5 5 5 5 5 5 5 5 5 5 5 5 5 5 5 5 5 5 5 5 6 5 5 5 5 5 5 5 5 5 5 5 6 5 5 5 5 5 5 5 5 5 5 5 5 5 5 5 5 5 5 5 5 5 5 5 5 5 5 5 5 5 5 5 5 5 5 5 6 5 6 5 5 5 5 5 5 5 6 5 6 5 5 5 5 6 5 5 5 5 5 5 5 5 5 5 5 5 5 5 5 5 5 5 5 5 5 5 5 5 6 5 5 5 5 5 5 5 5 5 5 5 5 5 5 5 5 5 5 5 5 5 5 5 5 5 5 5 5 5 5 5 5 5 5 5 5 5 5 5 5 5 5 5 5 5 5 5 5 5 5 5 5 5 6 5 5 5 5 5 5 5 5 5 5 5 6 6 5 5 5 5 5 5 5 5 5 5 5 5 5 5 5 5 5 5 5 5 6 5 5 5 6 5 6 6 5 5 5 5 5 5 5 5 5 5 6 5 5 5 5 5 5 5 5 5 5 5 5 5 5 5 5 5 5 5 5 5 5 5 5 5 5 5 5 5 5 5 5 5 5 5 5 5 5 5 5 5 5 5 6 5 5 5 5 5 6 5 5 6 5 5 5 5 5 5 5 5 5 5 5 5 5 6 5 5 5 5 5 5 5 5 5 5 5 5 6 5 5 5 5 5 5 5 5 5 6 5 6 5 5 5 6 5 5 6 5 5 5 5 5 5 5 5 5 5 5 5 5 5 5 5 5 5 5 5 5 5 5 5 5 5 5 5 5 5 5 5 5 5 5 5 6 5 6 5 5 5 5 6 5 6 5 5 5 5 6 5 5 5 5 6 5 5 5 6 5 5 5 5 6 5 5 5 5 5 5 6 5 5 6 5 6 6 5 5 6 5 5 6 5 5 6 5 6 5 5 5 5 5 6 6 6 5 5 5 6 5 5 5 5 6 6 5 5 5 5 5 5 5 5 5 5 5 5 5 5 5 6 5 6 5 6 5 6 6 5 6 5 5 5 5 6 5 5 5 5 6 6 5 5 5 5 5 5 5 5 5 5 5 5 5 5 5 5 5 5 5 5 5 5 6 6 5 5 5 5 5 6 5 5 5 5 5 6 5 5 5 5 5 5 5 5 5 5 5 5 5 5 6 5 5 5 6 5 6 6 6 5 5 5 5 6 6 5 5 5 5 6 6 6 5 5 5 5 6 5 5 5 5 5 5 5 5 5 5 5 5 5 6 5 5 6 5 6 5 5 6 5 5 5 5 5 5 6 5 5 5 5 5 5 5 5 5 5 5 5 6 5 5 5 5 5 5 5 5 5 6 5 5 5 6 5 5 5 6 5 5 5 6 6 5 5 6 5 6 5 5 6 5 5 5 5 5 5 5 5 6 5 5 5 5 5 5 6 5 5 5 5 5 6 5 5 5 5 5 5 5 5 5 5 5 5 5 5 5 6 5 5 6 5 5 5 6 5 5 5 6 5 5 5 5 5 5 5 6 5 6 5 5 5 5 5 5 5 5 5 5 5 5 5 5 5 5 5 5 5 5 6 5 5 5 5 5 5 5 5 5 5 6 5 6 5 5 5 5 5 6 5 6 5 5 5 5 5 5 6 5 5 5 5 5 5 6 5 5 5 5 5 5 5 5 5 6 6 5 5 5 5 5 5 5 6 5 5 6 5 5 5 5 5 5 5 6 5 5 5 5 5 5 5 5 6 5 6 5 5 5 5 5 5 5 5 5 5 5 5 5 5 5 5 5 5 5 5 5 5 5 5 5 5 5 5 5 5 5 5 5 5 5 5 5 5 5 5 5 5 5 5 5 5 5 5 5 5 5 5 5 5 5 5 6 5 5 5 5 5 5 5 5 6 5 5 5 5 5 5 5 5 6 5 5 5 5 5 6 5 6 5 5 5 5 5 6 5 5 5 5 6 5 5 5 5 5 5 5 5 6 5 5 5 6 6 5 5 6 5 5 5 5 5 5 6 5 6 5 5 5 5 5 5 5 5 5 5 5 5 5 5 5 5 5 5 5 5 5 5 5 5 5 5 5 5 5 5 5 5 5 5 5 5 5 5 5 6 5 5 5 5 5 
</DataArray>
<DataArray type="Float64" Name="stress" NumberOfComponents="9" format="ascii">
-1811.8990965964695 1818.5262373847218 0 1818.5262373847218 0.99378862397497869 0 0 0 0 -2499.1662346187659 2783.2251517811837 0 2783.2251517811837 -624.04477286306792 0 0 0 0 1.2608494978339877 1806.5285971153635 0 1806.5285971153635 -2016.7876679121182 0 0 0 0 -300.66205324155089 2458.7132942494227 0 2458.7132942494227 -3192.017613633041 0 0 0 0 -2558.945100220888 1833.6628668271005 0 1833.6628668271005 -465.51692868222017 0 0 0 0 -307.4425955685947 478.3049236084189 0 478.3049236084189 -517.40242069021042 0 0 0 0 -244.35202833489166 552.29689555349614 0 552.29689555349614 -87.21987822533265 0 0 0 0 -37.761217651261347 43.844463866179417 0 43.844463866179417 -22.473480421603995 0 0 0 0 -1288.4817335092666 -441.88830049103854 0 -441.88830049103854 279.68767480134557 0 0 0 0 -17.662964769319501 12.821836177551148 0 12.821836177551148 -12.758443376067902 0 0 0 0 434.32077800628031 -355.1324440144017 0 -355.1324440144017 -3231.1040219224742 0 0 0 0 -609.77621910296148 2078.5193996710514 0 2078.5193996710514 -3040.8049953210466 0 0 0 0 -874.27561958169099 1174.3420010626069 0 1174.3420010626069 -850.05788264243165 0 0 0 0 -267.40726707420072 1092.7677110652248 0 1092.7677110652248 -840.23768273209134 0 0 0 0 720.49020786320034 1048.4227172489336 0 1048.4227172489336 -9.5348682150797686 0 0 0 0 -21.992315665338538 2385.8547601759128 0 2385.8547601759128 -401.80002939869883 0 0 0 0 863.00916910212254 544.89406052173581 0 544.89406052173581 768.2532971247856 0 0 0 0 2003.0578950352356 1274.6954862999992 0 1274.6954862999992 -149.07261098136223 0 0 0 0 2413.0755793241115 -201.40385492534551 0 -201.40385492534551 -281.62744805161492 0 0 0 0 6.1088589472164472 6.3142490981047388 0 6.3142490981047388 2.7603104847364079 0 0 0 0 624.27428145668819 -20.276406146382215 0 -20.276406146382215 -92.677889326285367 0 0 0 0 575.46971496727565 1106.255738097263 0 1106.255738097263 -248.8739825207449 0 0 0 0 506.75050535601622 889.56754058264778 0 889.56754058264778 -3.1806289667001693 0 0 0 0 436.12366425335858 767.77953242789954 0 767.77953242789954 -391.12295044942584 0 0 0 0 -104.07044722551655 1419.7931282416612 0 1419.7931282416612 -310.75900772267778 0 0 0 0 981.90479975214839 979.50233680777455 0 979.50233680777455 -401.53849528568389 0 0 0 0 -277.89997440091975 944.94369986421952 0 944.94369986421952 -432.96635657070874 0 0 0 0 226.02241838008194 458.23171140683189 0 458.23171140683189 -388.2295257232181 0 0 0 0 -235.22854333992291 1010.430886322476 0 1010.430886322476 -332.46606983500533 0 0 0 0 -407.22751901633455 861.09675862264703 0 861.09675862264703 -1014.6509402990559 0 0 0 0 260.51087359479425 311.09104843778186 0 311.09104843778186 -321.14311992832518 0 0 0 0 17.011518455596701 15.987310754277388 0 15.987310754277388 10.462948841546677 0 0 0 0 38.261559169681277 305.18736370086117 0 305.18736370086117 -317.8168315314997 0 0 0 0 -173.14280468580546 54.322535018160124 0 54.322535018160124 -423.61876640885384 0 0 0 0 6.6907376604467856 36.550874372115089 0 36.550874372115089 13.33716207074383 0 0 0 0 -324.42377702448721 519.07005353707427 0 519.07005353707427 -309.38967437396786 0 0 0 0 -839.882394254877 796.29743836843409 0 796.29743836843409 1194.0515072960261 0 0 0 0 -55.601158849779694 54.89470210773078 0 54.89470210773078 -32.542883651319357 0 0 0 0 136.44840609516905 105.01574482644537 0 105.01574482644537 -156.60973547225876 0 0 0 0 221.91872126929229 575.21252021450346 0 575.21252021450346 -303.86916294388357 0 0 0 0 161.83110576838953 1385.3869141793184 0 1385.3869141793184 -4971.7882321767684 0 0 0 0 15.537951467384119 -1317.8504333699311 0 -1317.8504333699311 -893.53459724984714 0 0 0 0 -384.04806218168233 -436.27946574817179 0 -436.27946574817179 -789.46570253681239 0 0 0 0 -567.95183792329044 53.124040874958155 0 53.124040874958155 -741.16207160995873 0 0 0 0 -774.17459155155666 -9.4380378929854487 0 -9.4380378929854487 182.4604349759029 0 0 0 0 -1261.8303199617803 -498.80873904967302 0 -498.80873904967302 1298.8991147028573 0 0 0 0 -1000.5501752669734 1318.0423501525984 0 1318.0423501525984 -395.36827080319927 0 0 0 0 -543.10673361782392 797.45279908810335 0 797.45279908810335 -105.64201474406582 0 0 0 0 -668.02074557516607 606.40366524015553 0 606.40366524015553 -379.19100363668076 0 0 0 0 -24.635073935749801 22.913972001881987 0 22.913972001881987 -22.950559858685864 0 0 0 0 -896.0663767249207 285.8186995363576 0 285.8186995363576 315.64289712305617 0 0 0 0 -1767.5875270441757 1402.6403447221237 0 1402.6403447221237 -362.20041053181922 0 0 0 0 -871.94689056245261 2180.4071207739544 0 2180.4071207739544 -3790.5480383035319 0 0 0 0 -1980.3577090312465 1253.5530344314247 0 1253.5530344314247 38.617207423238142 0 0 0 0 -1112.3413800529379 1457.0619524650101 0 1457.0619524650101 -492.10793827997986 0 0 0 0 -2678.9566963781253 3033.7388837123435 0 3033.7388837123435 -1883.5321059634007 0 0 0 0 -1004.79359682841 2315.8263383413928 0 2315.8263383413928 -2198.8629817605542 0 0 0 0 -398.01128941630304 -555.57163223379757 0 -555.57163223379757 717.1898954831704 0 0 0 0 690.14792627936549 693.03861472700009 0 693.03861472700009 -1728.9996921814163 0 0 0 0 -183.7585124903635 2520.4335569445611 0 2520.4335569445611 -5511.5096020728233 0 0 0 0 1054.1326111291128 -1383.0714838529675 0 -1383.0714838529675 -3669.3269868548959 0 0 0 0 -156.06652881827904 -191.03658359860128 0 -191.03658359860128 -538.33757863919891 0 0 0 0 -1847.3734597699513 2917.9261826123402 0 2917.9261826123402 -3511.9014471664159 0 0 0 0 -44.194876614892053 73.228454314090129 0 73.228454314090129 -14.073132140222441 0 0 0 0 -21.719100770584191 54.901951825540891 0 54.901951825540891 69.062643328608829 0 0 0 0 -42.422400682495208 46.495645532217168 0 46.495645532217168 65.755796093777462 0 0 0 0 -35.919810027582571 29.683917488189763 0 29.683917488189763 127.6316412625456 0 0 0 0 -281.71426168954349 191.90066564665176 0 191.90066564665176 137.46790572687678 0 0 0 0 -93.438484190597592 128.5250909819481 0 128.5250909819481 60.943923674502003 0 0 0 0 -104.7683143048198 52.181378761990345 0 52.181378761990345 147.33162108638498 0 0 0 0 -917.30803681988618 1253.4363990660931 0 1253.4363990660931 -2165.4335847767943 0 0 0 0 -459.01226523797959 1308.1124875171445 0 1308.1124875171445 -3492.7282558451407 0 0 0 0 -809.12855713869794 1806.1118681039516 0 1806.1118681039516 -2666.1367184939008 0 0 0 0 -381.87906009728431 615.99064838294044 0 615.99064838294044 -2509.8174658745556 0 0 0 0 -1247.5317664779141 1232.4391397666477 0 1232.4391397666477 -3708.7105538239266 0 0 0 0 -504.99903484981769 770.5387275905523 0 770.5387275905523 -4063.6720244610624 0 0 0 0 -3342.5644791088998 4995.0270647545112 0 4995.0270647545112 -7283.2116640730674 0 0 0 0 -765.57643154720427 1909.5068963265803 0 1909.5068963265803 -4979.9907972771325 0 0 0 0 -5788.7517286773073 4272.1130397739762 0 4272.1130397739762 -1669.0644781257724 0 0 0 0 1.8540751570953091 8.3094410667684429 0 8.3094410667684429 -26.304693496261109 0 0 0 0 -5549.0421432186849 6337.2667995250376 0 6337.2667995250376 -6022.9388547606504 0 0 0 0 -5277.933705703279 4769.9860917158512 0 4769.9860917158512 -5681.5191409442341 0 0 0 0 -5096.0597692041192 5680.8038734575821 0 5680.8038734575821 -7072.7877189610153 0 0 0 0 -0.93231422048029344 1.6334284311066938 0 1.6334284311066938 3.5185763289197922 0 0 0 0 -2255.1502991092857 2257.3543472272286 0 2257.3543472272286 -3782.434875324223 0 0 0 0 -1711.5834204105195 2587.6916877035255 0 2587.6916877035255 -3944.754479562318 0 0 0 0 -1158.1044422450359 2235.1653913249611 0 2235.1653913249611 -4556.6272551449947 0 0 0 0 -1824.8644153501373 2467.7332030516845 0 2467.7332030516845 -3141.7565119982683 0 0 0 0 -2326.4738614751986 3093.3659132102257 0 3093.3659132102257 -2954.1123478361187 0 0 0 0 -8.8137387290471167 35.728434628757981 0 35.728434628757981 61.13299400513057 0 0 0 0 -62.076684167466738 136.28150035986801 0 136.28150035986801 47.784341931474046 0 0 0 0 -86.739038520725444 79.449497311958112 0 79.449497311958112 92.845525211669155 0 0 0 0 -9.2434439000207931 76.656027931319841 0 76.656027931319841 56.643505598520278 0 0 0 0 -2582.8978141082916 2717.3939572133895 0 2717.3939572133895 -2317.5700831241247 0 0 0 0 -917.28686729783658 1771.8569520748788 0 1771.8569520748788 -2621.1982459071878 0 0 0 0 -1482.5054412533063 1569.809040501088 0 1569.809040501088 -1756.9418178448977 0 0 0 0 -514.84287334275723 1935.2818532239107 0 1935.2818532239107 -2156.3101591759623 0 0 0 0 -1.6007669576938497 887.60194489533023 0 887.60194489533023 -1193.382630714892 0 0 0 0 266.48897996915912 1356.5222751732472 0 1356.5222751732472 -2091.7019462207245 0 0 0 0 -91.322296157042729 994.3764164072345 0 994.3764164072345 -1977.7778632295667 0 0 0 0 -522.38313095326521 1081.216584329366 0 1081.216584329366 -1778.8496748003381 0 0 0 0 -167.99163972235692 1160.1758407590823 0 1160.1758407590823 -150.01301859263913 0 0 0 0 -428.28683612600616 189.96015847574745 0 189.96015847574745 -553.34830385158421 0 0 0 0 1092.8281293843829 460.47527762183381 0 460.47527762183381 -1393.9653100862197 0 0 0 0 -194.4613087453763 925.54450364881995 0 925.54450364881995 -1284.8110414969633 0 0 0 0 -332.92137062449046 721.45356131757683 0 721.45356131757683 -702.55781368845783 0 0 0 0 -338.51990232453682 654.76391968083772 0 654.76391968083772 150.9311078561368 0 0 0 0 -981.52184178054995 1421.8971490773783 0 1421.8971490773783 -250.20101569110557 0 0 0 0 -674.77013009198345 702.46339621724292 0 702.46339621724292 166.95775469296495 0 0 0 0 338.27005871196161 -0.78691290078131715 0 -0.78691290078131715 -294.99120527305786 0 0 0 0 -417.35842227765534 340.44031799961886 0 340.44031799961886 153.81141654071689 0 0 0 0 -4.1019847376637415 31.369618713256614 0 31.369618713256614 13.192921165447558 0 0 0 0 -230.65407507977216 -59.789257823780645 0 -59.789257823780645 -197.10828282377429 0 0 0 0 5.3955529391114112 5.3645582102996627 0 5.3645582102996627 7.2844599483781849 0 0 0 0 -312.18526226880203 248.7917159250137 0 248.7917159250137 -524.31632458648528 0 0 0 0 413.38751214264812 -218.08717301128308 0 -218.08717301128308 42.765233336671372 0 0 0 0 209.22117607062683 973.31190266210615 0 973.31190266210615 -420.45305461277894 0 0 0 0 177.92018031385669 1180.8529465790125 0 1180.8529465790125 19.448430538803223 0 0 0 0 1302.3488900389129 961.64484920120594 0 961.64484920120594 -158.65988232243399 0 0 0 0 1842.8556438347878 969.13047676210408 0 969.13047676210408 -23.551509619494027 0 0 0 0 900.72613336593349 701.63199980448553 0 701.63199980448553 121.86734938444715 0 0 0 0 904.26176980887976 920.74276151949289 0 920.74276151949289 -243.9884029100358 0 0 0 0 1080.9723569420166 685.66804629834951 0 685.66804629834951 -254.68036530270911 0 0 0 0 1340.3198304234538 243.49309340343098 0 243.49309340343098 317.89259044721257 0 0 0 0 3307.9897908973508 201.68192965029448 0 201.68192965029448 -0.38985597133432748 0 0 0 0 2124.2247726181704 1033.3886448879566 0 1033.3886448879566 617.35277672338998 0 0 0 0 -3692.5177677704669 759.23003413754225 0 759.23003413754225 192.29755376826506 0 0 0 0 -12.778187122885031 6.4114621537630541 0 6.4114621537630541 -8.5408185629658533 0 0 0 0 1317.8087966267049 1168.1099331345904 0 1168.1099331345904 806.60396407483495 0 0 0 0 -19.416832914149353 9.5301211221522806 0 9.5301211221522806 7.2166458854826487 0 0 0 0 4416.9780900500191 97.664615167199372 0 97.664615167199372 -132.57036390705616 0 0 0 0 -3.0550681357094227 85.756513804888726 0 85.756513804888726 -19.968375856868988 0 0 0 0 -589.84966264434661 54.593058735148588 0 54.593058735148588 47.873389612475876 0 0 0 0 2737.0064078211544 214.15564197909407 0 214.15564197909407 -187.36586728375551 0 0 0 0 2332.6650424346008 301.10795842112566 0 301.10795842112566 41.454036815783184 0 0 0 0 -51.388749473870803 -36.362982029142813 0 -36.362982029142813 11.661440351647343 0 0 0 0 2364.4469398681467 294.31936973030679 0 294.31936973030679 -127.06354115807335 0 0 0 0 2043.1745837582348 595.51812423855881 0 595.51812423855881 -198.05196650041216 0 0 0 0 1494.4225262300424 459.54092147483607 0 459.54092147483607 22.091523754905211 0 0 0 0 1941.8397847239103 365.75574337446596 0 365.75574337446596 51.70144020539874 0 0 0 0 2235.5803693858143 49.625616794768575 0 49.625616794768575 36.906229796019034 0 0 0 0 -621.76338420876709 1308.3547052339054 0 1308.3547052339054 -1.5549462355884316 0 0 0 0 -358.6740952081891 110.46026894335228 0 110.46026894335228 -141.25432738260861 0 0 0 0 -23.74794682681204 -26.865787453460484 0 -26.865787453460484 35.297501971147994 0 0 0 0 -1695.828834111031 803.72270537810255 0 803.72270537810255 -355.27066099783406 0 0 0 0 -1688.5611456410406 922.52578418084158 0 922.52578418084158 -203.70248561445624 0 0 0 0 -1711.1167380368424 988.19023859707522 0 988.19023859707522 -302.77672568128401 0 0 0 0 -1220.8409911050694 1301.9128932364474 0 1301.9128932364474 -265.81546126259491 0 0 0 0 -1825.7243879340131 1079.0385340808425 0 1079.0385340808425 -175.15694849439024 0 0 0 0 -1824.0596406653858 1085.0911162439261 0 1085.0911162439261 -242.70723047126376 0 0 0 0 -2313.4740115230234 830.04212642653874 0 830.04212642653874 -177.53015769398189 0 0 0 0 -2179.879267485856 746.80829478436499 0 746.80829478436499 -197.60539928823709 0 0 0 0 -2282.7186427700217 769.60281689107069 0 769.60281689107069 -151.61659625066386 0 0 0 0 -2239.7194218248042 822.11429813189898 0 822.11429813189898 -246.16999418125488 0 0 0 0 -2018.6147042703669 1104.767823269638 0 1104.767823269638 116.6890183117066 0 0 0 0 -2623.4779675826285 493.99742314392643 0 493.99742314392643 -301.95309210373671 0 0 0 0 -2443.2684584092494 973.57123786781813 0 973.57123786781813 0.68758929107571021 0 0 0 0 -2755.8180468803839 1304.5224772083347 0 1304.5224772083347 -1.6579445334500633 0 0 0 0 -2185.1613365431695 751.79403971288411 0 751.79403971288411 -301.52040970700909 0 0 0 0 -1077.8723507307441 1432.4255489449279 0 1432.4255489449279 -181.44182884702604 0 0 0 0 -870.54085190525802 1180.6987081357111 0 1180.6987081357111 -91.601649391261162 0 0 0 0 -309.12543706822908 1651.9372908478908 0 1651.9372908478908 -65.8196672840877 0 0 0 0 -400.85863920329575 1211.6695434248541 0 1211.6695434248541 -318.70054385760159 0 0 0 0 -620.08764120675914 1487.0760651557284 0 1487.0760651557284 -339.11833202041453 0 0 0 0 -991.19910755425371 1185.514214371291 0 1185.514214371291 -455.71155816342798 0 0 0 0 -911.5554216665987 1420.330054064716 0 1420.330054064716 -315.63012577965856 0 0 0 0 -620.19169203361525 1406.2264939994093 0 1406.2264939994093 -385.63534244439506 0 0 0 0 -630.67868666752474 1348.6294977820871 0 1348.6294977820871 -567.62384202799785 0 0 0 0 -563.39597578272515 1393.103630277481 0 1393.103630277481 -563.68965234315237 0 0 0 0 -607.46755043276062 1540.0856246283947 0 1540.0856246283947 -906.20968786507729 0 0 0 0 -951.04755567543907 1222.1597589406956 0 1222.1597589406956 -435.39640767250239 0 0 0 0 -704.19411255851082 1213.8516603643693 0 1213.8516603643693 -645.43073274000199 0 0 0 0 -267.63976153729163 966.36249180163941 0 966.36249180163941 -742.03043951539439 0 0 0 0 -269.80229317798512 1342.0465340076407 0 1342.0465340076407 -911.67575327514965 0 0 0 0 -356.57495820819895 1181.6697287839743 0 1181.6697287839743 -1205.193328607842 0 0 0 0 143.51463864471589 542.76108577277409 0 542.76108577277409 -1453.7872985595459 0 0 0 0 274.29522507041474 270.3907687670071 0 270.3907687670071 -949.39735658666177 0 0 0 0 -71.572591449058791 76.14297493465773 0 76.14297493465773 -21.441066180932154 0 0 0 0 3.934251947212033 102.07199295713508 0 102.07199295713508 -30.914753097760695 0 0 0 0 -74.482262410660155 69.854873672975131 0 69.854873672975131 -7.3397654920102937 0 0 0 0 -221.61637535932095 132.97674516991174 0 132.97674516991174 23.64194413885707 0 0 0 0 -28.182752904629623 4.6660009465102803 0 4.6660009465102803 80.281039222788877 0 0 0 0 -348.22259442711947 -52.516732783464249 0 -52.516732783464249 113.40633643615001 0 0 0 0 -148.37999127087096 157.6454450598103 0 157.6454450598103 -288.30129393419179 0 0 0 0 -14.198000285892022 -3.3635485764550026 0 -3.3635485764550026 9.4582800058821377 0 0 0 0 -655.38851123448694 -396.10913612017612 0 -396.10913612017612 -193.30430397332566 0 0 0 0 502.26345289908204 -56.527436035015853 0 -56.527436035015853 -1587.0662820285652 0 0 0 0 -331.70816115902562 636.73968549216806 0 636.73968549216806 -889.3065408286966 0 0 0 0 -1086.8872347235156 -19.550922833266668 0 -19.550922833266668 719.98506747826468 0 0 0 0 -462.21783016049449 414.08889717826969 0 414.08889717826969 516.54800790997979 0 0 0 0 -204.39525691836752 323.84206273683594 0 323.84206273683594 90.622870416322257 0 0 0 0 -581.52694375661667 133.39344230670395 0 133.39344230670395 78.210876202967484 0 0 0 0 -19.606412193986074 -17.916671619130511 0 -17.916671619130511 61.008373610944886 0 0 0 0 -392.03838006216392 200.93424481609691 0 200.93424481609691 91.092469353663546 0 0 0 0 -356.36268892020962 138.16223524597808 0 138.16223524597808 -131.950232380128 0 0 0 0 -695.85573452823883 607.04574734161724 0 607.04574734161724 -270.24430410347441 0 0 0 0 -726.72118067320116 647.55446301604388 0 647.55446301604388 -307.37772451496858 0 0 0 0 -974.67445821521687 991.1452395022643 0 991.1452395022643 -364.52831173377854 0 0 0 0 -1490.9133263755793 709.23230372805119 0 709.23230372805119 -295.13828444230603 0 0 0 0 -531.89110411077854 84.32465652947576 0 84.32465652947576 27.513286513305502 0 0 0 0 5.3536949716221107 93.569787551454723 0 93.569787551454723 -49.578397956651145 0 0 0 0 2188.2862408445035 285.82388986343722 0 285.82388986343722 -182.04953631099488 0 0 0 0 2089.5408525193634 192.78219561618607 0 192.78219561618607 -170.47807606060815 0 0 0 0 1132.7831416406407 683.64612901051441 0 683.64612901051441 -52.651444259798154 0 0 0 0 1737.0251272555324 194.98936497787508 0 194.98936497787508 -19.178971085551893 0 0 0 0 1707.7676016317741 546.44746691151704 0 546.44746691151704 -188.68479382025544 0 0 0 0 1572.2110239246031 505.83490551178511 0 505.83490551178511 -158.09103526809486 0 0 0 0 1049.63581318059 558.56978053954663 0 558.56978053954663 -61.120764752857212 0 0 0 0 1354.3097740018638 382.1722296497137 0 382.1722296497137 -137.56385654953192 0 0 0 0 1328.9050854093803 383.596757189458 0 383.596757189458 -12.916581082416087 0 0 0 0 1495.5734597334113 181.99116797898023 0 181.99116797898023 51.379420882629347 0 0 0 0 1551.7794590482517 307.21557713694347 0 307.21557713694347 -192.61297565276618 0 0 0 0 4.1587228723316336 99.982168325277215 0 99.982168325277215 -76.39337739718701 0 0 0 0 1251.4911397193355 167.1675798502547 0 167.1675798502547 -68.169439823133871 0 0 0 0 756.20090887080005 337.75121140697956 0 337.75121140697956 -114.52701879340748 0 0 0 0 4.1244654065616055 101.16474559036371 0 101.16474559036371 -92.043946207735246 0 0 0 0 740.9560229474373 325.60173119778483 0 325.60173119778483 -60.438745665756869 0 0 0 0 858.66508226985025 497.94852670349064 0 497.94852670349064 -112.40411828896777 0 0 0 0 633.58061372960219 661.64171906632691 0 661.64171906632691 -131.32567182423372 0 0 0 0 999.84703483010526 506.31249891598054 0 506.31249891598054 -146.82303592185781 0 0 0 0 1009.2258205285289 523.93547927176769 0 523.93547927176769 -113.75340880456497 0 0 0 0 492.28573367337958 624.17096467473311 0 624.17096467473311 -148.18105123132773 0 0 0 0 693.3859405477524 797.25106271887489 0 797.25106271887489 -117.37919410412724 0 0 0 0 709.02687443318064 776.32104530944162 0 776.32104530944162 -204.3363833600306 0 0 0 0 323.09773519020382 805.30139954532933 0 805.30139954532933 -35.923619496359606 0 0 0 0 259.67693956120729 541.76843194471348 0 541.76843194471348 70.668007078085793 0 0 0 0 339.14787830051318 1065.9302938859091 0 1065.9302938859091 -276.45988689968362 0 0 0 0 255.33320221651593 725.98492858126338 0 725.98492858126338 -102.61738313313981 0 0 0 0 985.79298573587585 532.20234388111567 0 532.20234388111567 -86.970494314977259 0 0 0 0 1121.7755414022577 680.22667983827887 0 680.22667983827887 -246.45622089544486 0 0 0 0 666.69777402894215 963.08905429717743 0 963.08905429717743 -130.68954629843938 0 0 0 0 722.08149828214664 646.8012378268686 0 646.8012378268686 -26.532971512220684 0 0 0 0 220.260822286029 391.37107114047103 0 391.37107114047103 359.19217117998596 0 0 0 0 446.74697407293206 421.69567622981413 0 421.69567622981413 207.97998388780979 0 0 0 0 222.01964251455502 311.0522415235464 0 311.0522415235464 47.185126433505502 0 0 0 0 344.45580280807917 527.46942680468692 0 527.46942680468692 48.794841686976724 0 0 0 0 141.37270531378454 384.17787249695539 0 384.17787249695539 224.32913569819357 0 0 0 0 598.5460174703112 654.1865335950497 0 654.1865335950497 227.0442260590753 0 0 0 0 347.34983045002446 665.8155812721343 0 665.8155812721343 206.28833876446879 0 0 0 0 347.24560333116096 501.79221812064497 0 501.79221812064497 202.82280628633453 0 0 0 0 540.56658204080304 573.79334306149576 0 573.79334306149576 45.761924840204301 0 0 0 0 464.96016408094874 689.92027996633988 0 689.92027996633988 38.947702986224613 0 0 0 0 349.66679365075106 641.14118995104582 0 641.14118995104582 18.781070790748345 0 0 0 0 325.21875506350625 575.85970318988257 0 575.85970318988257 132.82073315314483 0 0 0 0 300.57097766696097 444.83649996802706 0 444.83649996802706 -41.399936790468928 0 0 0 0 337.51663332769385 484.98438569215796 0 484.98438569215796 -2.717859681812115 0 0 0 0 502.43218108594647 544.56477089537566 0 544.56477089537566 -49.227660089512938 0 0 0 0 536.04404875392356 532.85723960855103 0 532.85723960855103 -114.05938002288349 0 0 0 0 664.15364818602757 282.46699749753679 0 282.46699749753679 -113.65126798352867 0 0 0 0 31.025904849062499 284.88735747770625 0 284.88735747770625 10.748891953953716 0 0 0 0 123.62957297240791 -208.25993744656444 0 -208.25993744656444 -559.8434108881047 0 0 0 0 3.14772720919136 99.803255520753908 0 99.803255520753908 -90.151696269601189 0 0 0 0 312.71098928508854 218.04340341263105 0 218.04340341263105 -119.27805112655915 0 0 0 0 148.09725134284236 285.43420750570658 0 285.43420750570658 -98.620414571749279 0 0 0 0 129.39964794961998 251.30862371518015 0 251.30862371518015 -96.03655483226612 0 0 0 0 140.55756884656057 396.44859870740129 0 396.44859870740129 100.93670876759279 0 0 0 0 -82.79130738449021 281.92938911168676 0 281.92938911168676 66.585625973108108 0 0 0 0 2.703930742775821 98.268417512763847 0 98.268417512763847 -79.073734117149684 0 0 0 0 -304.35834856541624 81.880118159893755 0 81.880118159893755 -6.1207885307740071 0 0 0 0 146.68201795092318 52.959835898709571 0 52.959835898709571 -223.8695798088811 0 0 0 0 5.9646246884949505 125.19534315233614 0 125.19534315233614 -132.19132494260703 0 0 0 0 23.889971152530052 127.78521777562128 0 127.78521777562128 -176.11746874684673 0 0 0 0 -190.88354691625318 217.86014450808807 0 217.86014450808807 -245.15467101758986 0 0 0 0 -238.45224462627084 29.361144515416527 0 29.361144515416527 -136.16445450723404 0 0 0 0 -224.67619712365558 26.389579255570425 0 26.389579255570425 -172.92356492538238 0 0 0 0 -166.07146396553435 -32.882862438302254 0 -32.882862438302254 -302.05581929691834 0 0 0 0 -945.22031973981211 864.53164034476868 0 864.53164034476868 -103.50199345663714 0 0 0 0 -417.10352666437393 343.77305173648347 0 343.77305173648347 -102.9989354081481 0 0 0 0 -556.25506468820095 607.58552683866947 0 607.58552683866947 98.398978175406228 0 0 0 0 157.90941654893686 250.63157156626403 0 250.63157156626403 -1216.4576647327776 0 0 0 0 113.01927149904077 -74.814945220627123 0 -74.814945220627123 -391.10226591207902 0 0 0 0 5.8271927545156359 541.34487023167276 0 541.34487023167276 220.34619233384728 0 0 0 0 -58.489668611437082 -149.04065850992629 0 -149.04065850992629 -81.429678121465258 0 0 0 0 28.444758001103764 408.31130307375133 0 408.31130307375133 -280.03952167063835 0 0 0 0 -1.8747266991000515 -0.78952321675686221 0 -0.78952321675686221 -0.85049555840252822 0 0 0 0 47.062135702930391 14.56104064630199 0 14.56104064630199 -139.77166748989839 0 0 0 0 -141.55652404404827 42.334460281505017 0 42.334460281505017 -50.470970605185357 0 0 0 0 -250.08455039557884 -0.15927048315643333 0 -0.15927048315643333 106.03530330576177 0 0 0 0 -618.6178969945322 329.29657464734191 0 329.29657464734191 168.05548611443373 0 0 0 0 124.15360962296108 -174.03852282511252 0 -174.03852282511252 123.37463866383769 0 0 0 0 -642.61047927348409 715.33917384548113 0 715.33917384548113 277.58948720739863 0 0 0 0 -408.68317934902734 12.085160441216431 0 12.085160441216431 621.7503625433601 0 0 0 0 -514.51001423436537 375.64365099727911 0 375.64365099727911 -218.34634329893743 0 0 0 0 -9.0288175774235242 7.9132023782435397 0 7.9132023782435397 -21.175123115472729 0 0 0 0 -393.63997896269575 398.01225565118875 0 398.01225565118875 -214.21342846538755 0 0 0 0 -704.22605785212363 258.54732244271872 0 258.54732244271872 -34.386783138099418 0 0 0 0 -403.6535697471918 312.12300260154734 0 312.12300260154734 -63.287669351775548 0 0 0 0 -443.41322786419187 214.04170700046961 0 214.04170700046961 -97.75337285536807 0 0 0 0 135.62831462721806 -71.978390909469454 0 -71.978390909469454 -118.36443043239706 0 0 0 0 -0.66927987495390084 -1.7997698565269786 0 -1.7997698565269786 -3.8585225237912368 0 0 0 0 -925.38449984491308 512.11249780543403 0 512.11249780543403 97.025166047431412 0 0 0 0 -131.39479359006509 -119.19911089004745 0 -119.19911089004745 3.6825339620554587 0 0 0 0 286.27211847728904 -393.448341662046 0 -393.448341662046 73.443365188402822 0 0 0 0 17.143291070176929 51.352984878851203 0 51.352984878851203 -95.230361403737334 0 0 0 0 28.12432833519415 31.101435205520829 0 31.101435205520829 -72.775704860439873 0 0 0 0 98.478332787410181 53.515610479907991 0 53.515610479907991 -284.48881740977959 0 0 0 0 -28.311996641103178 184.70013264998397 0 184.70013264998397 -210.37393959087058 0 0 0 0 55.53753556853917 -26.000114368995128 0 -26.000114368995128 -211.04280966112128 0 0 0 0 55.071778156183427 4.589331595274416 0 4.589331595274416 -137.58245689475734 0 0 0 0 565.87708129352541 13.630490998832101 0 13.630490998832101 -137.52080188802393 0 0 0 0 54.183455275320739 286.49251302622724 0 286.49251302622724 109.67181474589597 0 0 0 0 50.215492391247608 46.480268939814323 0 46.480268939814323 -361.92034420152049 0 0 0 0 -5.8665809016571302 2.8533027798938662 0 2.8533027798938662 -0.34417269623613223 0 0 0 0 -178.88642758032074 547.93957895546191 0 547.93957895546191 -782.9976406049027 0 0 0 0 -1068.2708768497105 23.005906061676797 0 23.005906061676797 577.75011713744789 0 0 0 0 12.160923017625464 289.65183995616098 0 289.65183995616098 -496.2056683456758 0 0 0 0 -394.42200406445045 427.70125073680902 0 427.70125073680902 -374.06525876186788 0 0 0 0 -3.7222958640081174 0.48097029717732198 0 0.48097029717732198 1.0775603615329885 0 0 0 0 -449.67668613113347 381.91299147596874 0 381.91299147596874 -186.17325501705636 0 0 0 0 -186.56941949210886 189.99290573903272 0 189.99290573903272 -260.60025694890646 0 0 0 0 -107.51014798347387 284.10426044057385 0 284.10426044057385 -87.142846226743131 0 0 0 0 -1.246935057919984 1.2016333184776329 0 1.2016333184776329 1.0073005558655552 0 0 0 0 73.40319044435455 510.5663038420098 0 510.5663038420098 -501.06968506477278 0 0 0 0 -60.018365266325418 45.705250293882273 0 45.705250293882273 -227.28574581719568 0 0 0 0 -32.483815151987073 137.61830561789247 0 137.61830561789247 -75.762684715657088 0 0 0 0 61.859796428623667 53.634830737109951 0 53.634830737109951 -91.388273683878651 0 0 0 0 254.1756813370157 309.26875051154639 0 309.26875051154639 -148.34491763490223 0 0 0 0 196.58179913114145 315.8486900187454 0 315.8486900187454 -94.547237251506886 0 0 0 0 336.48397878482137 295.11765080610076 0 295.11765080610076 -190.63371613204072 0 0 0 0 276.48914558214528 110.9349254676381 0 110.9349254676381 -49.150237636145903 0 0 0 0 338.85776569743757 187.710029618509 0 187.710029618509 -1.3313777120783925 0 0 0 0 454.4315086696588 112.75928191108687 0 112.75928191108687 -25.228920105830184 0 0 0 0 348.94104279176645 268.5062041990177 0 268.5062041990177 241.92543844203465 0 0 0 0 365.58700731136014 147.05819836828323 0 147.05819836828323 52.775477401766693 0 0 0 0 458.87515054907999 266.67040710691072 0 266.67040710691072 148.90625884081237 0 0 0 0 464.96901566232555 270.84447464506229 0 270.84447464506229 132.23331756044354 0 0 0 0 480.7498679930286 346.45060865776759 0 346.45060865776759 158.59537205227389 0 0 0 0 291.39822061121231 132.30540946979454 0 132.30540946979454 62.019782509436482 0 0 0 0 395.09048499627534 47.303424921199621 0 47.303424921199621 112.11490441283968 0 0 0 0 272.90459346318312 33.197641369895791 0 33.197641369895791 -2.611616095789941 0 0 0 0 255.49559191337903 134.7605174214259 0 134.7605174214259 -76.067986438716616 0 0 0 0 69.447812072379747 75.935720401634171 0 75.935720401634171 11.836448645459313 0 0 0 0 -96.736220175851486 -23.072313463428145 0 -23.072313463428145 59.983188135840464 0 0 0 0 93.687469625641825 28.083896537107648 0 28.083896537107648 -55.562862562779628 0 0 0 0 1.4376009338593576 98.316441340823076 0 98.316441340823076 12.21002188545026 0 0 0 0 -178.26470781418902 29.243285554552131 0 29.243285554552131 198.17196411090845 0 0 0 0 96.662838304830075 -69.466367873690615 0 -69.466367873690615 242.97482269955799 0 0 0 0 -202.59128485240217 151.59281598522648 0 151.59281598522648 -99.4501431278768 0 0 0 0 -309.96944001105294 30.798727223937021 0 30.798727223937021 63.378651230537798 0 0 0 0 -143.06484344375713 84.770595404955202 0 84.770595404955202 -50.996967177510669 0 0 0 0 -83.903942417426151 0.56642318864032859 0 0.56642318864032859 -69.071130254753371 0 0 0 0 -70.388533035998535 2.84471370709025 0 2.84471370709025 -77.696144595865917 0 0 0 0 -71.479950191511307 23.534800248489773 0 23.534800248489773 -46.876372252467263 0 0 0 0 -123.12441227881936 85.386593417009863 0 85.386593417009863 -96.074012589910126 0 0 0 0 -83.523126678897825 -0.54308595562361006 0 -0.54308595562361006 -70.814742864007712 0 0 0 0 -23.085322377519333 129.27731707653584 0 129.27731707653584 -103.49728699919797 0 0 0 0 -66.568502890426316 106.72964506258359 0 106.72964506258359 -77.054185742075788 0 0 0 0 2.4385917465927012 97.215653141268731 0 97.215653141268731 -67.064027373278037 0 0 0 0 -327.63948262387567 51.143112495519745 0 51.143112495519745 12.999156513913476 0 0 0 0 2.2009464762352184 96.387967809904751 0 96.387967809904751 -57.36648678049022 0 0 0 0 -259.79588498269686 66.062806237181235 0 66.062806237181235 -27.248874692711979 0 0 0 0 -93.940146618944709 85.482291649397666 0 85.482291649397666 -87.91385850217921 0 0 0 0 -91.23834949482989 38.879376884480735 0 38.879376884480735 -54.325872206318309 0 0 0 0 -11.81832340119945 48.286922748433426 0 48.286922748433426 -99.157765362513601 0 0 0 0 -134.3139319211914 10.512281018280191 0 10.512281018280191 -58.626835752387706 0 0 0 0 67.914199015045597 46.183235635209712 0 46.183235635209712 -46.691673206172709 0 0 0 0 -11.125914450785785 41.02797000459168 0 41.02797000459168 -24.394435277572484 0 0 0 0 58.844690372570767 31.817976953097968 0 31.817976953097968 -90.937601494916635 0 0 0 0 51.791816318037945 95.444417143107103 0 95.444417143107103 -116.89937636564719 0 0 0 0 -20.25444191625138 120.21365381449687 0 120.21365381449687 -103.71109084288764 0 0 0 0 40.338674378970609 127.5201982850931 0 127.5201982850931 144.24953097788966 0 0 0 0 138.36636362015633 168.23476159854908 0 168.23476159854908 102.69736070163344 0 0 0 0 -62.10169386285088 76.637039654106047 0 76.637039654106047 65.924064796781749 0 0 0 0 15.789415326333256 252.31137072860838 0 252.31137072860838 182.30916775936203 0 0 0 0 129.53289613677043 143.4112985920583 0 143.4112985920583 -8.3748403511963261 0 0 0 0 84.872656694861689 253.22911306922924 0 253.22911306922924 302.21654582204064 0 0 0 0 430.72517726529622 507.4373808948003 0 507.4373808948003 747.29979182447278 0 0 0 0 210.55960839349427 -548.48381436830641 0 -548.48381436830641 1435.0346785772635 0 0 0 0 6.8228599220064439 6.6319348466027179 0 6.6319348466027179 7.937723931634963 0 0 0 0 907.79481275827857 560.25341073876916 0 560.25341073876916 180.50648864963478 0 0 0 0 27.430608944327105 -60.400677161633212 0 -60.400677161633212 -4.1254652423267544 0 0 0 0 89.677061737020267 -89.176673132744327 0 -89.176673132744327 297.68014750018756 0 0 0 0 -22.927023487442057 -73.249868322775001 0 -73.249868322775001 496.25147530401591 0 0 0 0 26.14699221207411 -70.20022647404403 0 -70.20022647404403 298.83056538922801 0 0 0 0 -62.690648681586026 442.80126503104475 0 442.80126503104475 399.46350021971011 0 0 0 0 -17.906459087957046 751.73615555138167 0 751.73615555138167 1745.6631241476825 0 0 0 0 1187.8097445961976 573.14498577554696 0 573.14498577554696 120.86798588933016 0 0 0 0 -0.31062027524603764 635.93819693948717 0 635.93819693948717 402.06181209996066 0 0 0 0 247.87013420424773 -91.33801434111956 0 -91.33801434111956 1299.6337652133238 0 0 0 0 -201.33075623617333 1459.585231652487 0 1459.585231652487 -819.0000184095843 0 0 0 0 -381.65530380506243 741.54070422738005 0 741.54070422738005 868.16547356000228 0 0 0 0 407.88679683774899 1348.5990890309204 0 1348.5990890309204 1324.6206212648685 0 0 0 0 -166.38944744445325 1399.3190623025876 0 1399.3190623025876 -3365.1526324588631 0 0 0 0 -663.5885060106084 1165.7355908134632 0 1165.7355908134632 -902.23244143126794 0 0 0 0 56.884437424705538 768.49570534499799 0 768.49570534499799 -1861.6838579874748 0 0 0 0 -164.35500084492378 1091.1591332008757 0 1091.1591332008757 -2176.4019391606998 0 0 0 0 -152.56674678799754 1333.7589624598149 0 1333.7589624598149 -1790.8777601110414 0 0 0 0 -445.70645472050819 1019.8464576062688 0 1019.8464576062688 -2165.4061331178964 0 0 0 0 -5.2090911490371354 -0.13023782945379025 0 -0.13023782945379025 -2.3830026561193165 0 0 0 0 -21.189023969474022 4.9630410282472894 0 4.9630410282472894 13.817291283916717 0 0 0 0 -446.01818425528472 1083.6222214628433 0 1083.6222214628433 -1902.1703539657137 0 0 0 0 -142.94261369828018 26.015826312755962 0 26.015826312755962 94.797191073172144 0 0 0 0 9.7009565826132302 21.326844442064186 0 21.326844442064186 22.594222379223936 0 0 0 0 -920.87569992683711 1277.714126842031 0 1277.714126842031 -1950.6454013402472 0 0 0 0 -761.52564035335672 1566.5051079579716 0 1566.5051079579716 -1968.4807340193729 0 0 0 0 -261.5889659976674 1434.002822483345 0 1434.002822483345 -1988.0249988303258 0 0 0 0 -764.47473767108931 1564.4646625776695 0 1564.4646625776695 -1840.5082091402583 0 0 0 0 -62.970544414129108 50.388501787634596 0 50.388501787634596 106.79849338944041 0 0 0 0 -971.01009980293566 1567.1425619424854 0 1567.1425619424854 -1819.0139500925434 0 0 0 0 -1.1444362659983369 26.672649813453347 0 26.672649813453347 51.480999756547135 0 0 0 0 3.2528918019088451 74.45484389115154 0 74.45484389115154 -14.457160679550725 0 0 0 0 -54.37083015996177 -26.04769564119124 0 -26.04769564119124 258.8389580571893 0 0 0 0 -12.195967500156257 37.775457596464548 0 37.775457596464548 131.73036554644932 0 0 0 0 -1.7905069326807279 64.709613742445072 0 64.709613742445072 164.80715822818456 0 0 0 0 -8.6971098981593968 -43.843309673320618 0 -43.843309673320618 94.558611586027837 0 0 0 0 -419.36824233803782 313.78625354667747 0 313.78625354667747 7.4117132549035887 0 0 0 0 -9.2167615559944807 1.604428405562885 0 1.604428405562885 0.55923217220554733 0 0 0 0 -54.081227156755631 -118.97353773728901 0 -118.97353773728901 21.451389958194341 0 0 0 0 -69.041804676846368 -68.274316653209098 0 -68.274316653209098 204.75747587390651 0 0 0 0 -11.652537307632542 2.6635438311338078 0 2.6635438311338078 13.672928317394692 0 0 0 0 83.289496921375758 -47.499148481042539 0 -47.499148481042539 116.23309987680113 0 0 0 0 -4.1148265262229984 1.7664452705753035 0 1.7664452705753035 0.79287824076564561 0 0 0 0 -125.31616656961705 -10.678684294718551 0 -10.678684294718551 382.49837337258941 0 0 0 0 17.660241088480689 -31.133912990204408 0 -31.133912990204408 158.21908779275509 0 0 0 0 41.981388027837966 38.235298154708289 0 38.235298154708289 115.03068772178085 0 0 0 0 -52.055073315226764 369.89104175723332 0 369.89104175723332 -567.70098401468567 0 0 0 0 -260.70271419986238 167.91354069307636 0 167.91354069307636 78.378834240334982 0 0 0 0 -42.988411454774905 371.18413464069454 0 371.18413464069454 -601.64532790635531 0 0 0 0 -10.297314295517936 5.388369722947786 0 5.388369722947786 -0.27109889907986684 0 0 0 0 147.71861331182299 15.539810632111767 0 15.539810632111767 196.55993224187841 0 0 0 0 -67.607349363839603 211.40453153492126 0 211.40453153492126 185.97642127100835 0 0 0 0 -4.357682211378858 3.2099328522755144 0 3.2099328522755144 -0.16476375574330149 0 0 0 0 -388.58164220336766 232.27859456219448 0 232.27859456219448 682.02146939802333 0 0 0 0 -97.22526328602271 383.60410214937315 0 383.60410214937315 -50.786965900639188 0 0 0 0 -92.535649547469802 464.86289661504634 0 464.86289661504634 -14.9073616935475 0 0 0 0 -77.590296787540865 166.55202950367857 0 166.55202950367857 -95.787258248354192 0 0 0 0 -103.23063868907047 73.847693256007915 0 73.847693256007915 316.59732323470234 0 0 0 0 -426.77833368252323 360.87778492546204 0 360.87778492546204 468.5907609753267 0 0 0 0 -406.54047666993574 423.98485367615649 0 423.98485367615649 369.33586674338585 0 0 0 0 -89.652898277409804 265.76131167614267 0 265.76131167614267 285.84099833095388 0 0 0 0 -315.39458747764002 482.92574663693813 0 482.92574663693813 106.02977717086469 0 0 0 0 -299.76540246838704 398.63111652093357 0 398.63111652093357 248.76678226935474 0 0 0 0 -349.73873672622722 352.22399885828418 0 352.22399885828418 831.39396597754239 0 0 0 0 -347.11879910860443 431.09055733144487 0 431.09055733144487 346.20838331834966 0 0 0 0 -208.16325579251134 641.34989432477596 0 641.34989432477596 -183.27053559791239 0 0 0 0 -292.25350132753783 731.14949157837691 0 731.14949157837691 -209.42517903655971 0 0 0 0 -307.3739167281019 555.21283314100583 0 555.21283314100583 214.72616573793766 0 0 0 0 -976.59364630153868 807.19239198265495 0 807.19239198265495 -195.57220859119843 0 0 0 0 70.998985062910378 475.6647790277849 0 475.6647790277849 -224.94837360578094 0 0 0 0 -97.552825185761321 461.94181374952313 0 461.94181374952313 37.674801243068941 0 0 0 0 33.49295641273784 472.59973412444742 0 472.59973412444742 -429.84400280860973 0 0 0 0 38.872027409102884 438.17142903081913 0 438.17142903081913 -217.60345344574671 0 0 0 0 224.23670905841846 546.29104857943685 0 546.29104857943685 -276.37922911724309 0 0 0 0 342.75234958410147 237.55816714615503 0 237.55816714615503 -140.99558083355441 0 0 0 0 -0.39447201999513481 0.3159599767463277 0 0.3159599767463277 -1.6941371143656738 0 0 0 0 29.084420452913037 124.67778499320411 0 124.67778499320411 -584.9596410689428 0 0 0 0 -156.72040679265592 158.92125417630268 0 158.92125417630268 -69.306786009474308 0 0 0 0 -177.61095689562717 37.967957887583452 0 37.967957887583452 17.095457009781967 0 0 0 0 372.22291589729139 359.12045978875904 0 359.12045978875904 321.83950329991058 0 0 0 0 -917.36421494385286 1017.6567928077939 0 1017.6567928077939 -814.64983459278301 0 0 0 0 -1.0760134285329315 3.7546875991150443 0 3.7546875991150443 -11.129152625267182 0 0 0 0 355.31834688001254 -76.860712786470685 0 -76.860712786470685 -813.51169991451388 0 0 0 0 99.754670392692788 443.09389809206914 0 443.09389809206914 -420.93908058344823 0 0 0 0 85.238267667315085 713.42081579970181 0 713.42081579970181 -1415.5032786149604 0 0 0 0 36.717272370828141 7.6893839418862626 0 7.6893839418862626 37.952528245521535 0 0 0 0 -87.889511752437102 526.50296496204464 0 526.50296496204464 -816.00418548544985 0 0 0 0 -53.836932272883132 285.42656060757508 0 285.42656060757508 -198.28893747834445 0 0 0 0 292.55348939934629 576.82452501386069 0 576.82452501386069 -997.93328219339674 0 0 0 0 2.8629106350563234 205.49140442435601 0 205.49140442435601 -1385.1325329639476 0 0 0 0 139.31503810654249 551.47209876261331 0 551.47209876261331 -514.79517838264292 0 0 0 0 419.56166315606242 397.56665585936571 0 397.56665585936571 -939.11155970155232 0 0 0 0 225.67630576084775 316.77579101709307 0 316.77579101709307 55.195921527360042 0 0 0 0 -401.75454557936609 594.94470833619198 0 594.94470833619198 448.96415257474291 0 0 0 0 487.3209125836438 448.7408648158962 0 448.7408648158962 -518.60443287071507 0 0 0 0 -15.728196586485865 503.47412326283848 0 503.47412326283848 35.884229728118953 0 0 0 0 329.78798069418553 594.59606605387307 0 594.59606605387307 -465.52396987829343 0 0 0 0 255.34383929528121 222.06106091543188 0 222.06106091543188 -248.30424027629851 0 0 0 0 -0.47638113180437358 756.9085207581611 0 756.9085207581611 -816.52840435250982 0 0 0 0 468.58220496457216 449.30154227760977 0 449.30154227760977 -989.81738164910348 0 0 0 0 133.94532213264029 68.773104001604224 0 68.773104001604224 -1236.5557171980909 0 0 0 0 441.48121923967119 303.32529144831369 0 303.32529144831369 -1766.7574321373322 0 0 0 0 0.034536979637039264 23.96469766449372 0 23.96469766449372 -6.4036650398338679 0 0 0 0 -57.307626916401205 -527.7118734217911 0 -527.7118734217911 -1310.7806122968777 0 0 0 0 -1.7323244540478129 3.3179332235276604 0 3.3179332235276604 -7.0788745075610962 0 0 0 0 0.30102452971914317 -134.66539615567308 0 -134.66539615567308 -206.29650939514249 0 0 0 0 -29.559671696952137 3.8843933266107342 0 3.8843933266107342 -23.472307988369721 0 0 0 0 97.219364425895037 93.434968262739858 0 93.434968262739858 -141.61023609778931 0 0 0 0 -3.0217935282007176 7.0824418692766073 0 7.0824418692766073 -19.37969358196969 0 0 0 0 64.987197535650921 28.160261930755951 0 28.160261930755951 -7.2099161153801106 0 0 0 0 31.236433351703454 120.97391862923541 0 120.97391862923541 -368.12366810419917 0 0 0 0 103.80654173687799 162.26393981075307 0 162.26393981075307 -347.48590752178279 0 0 0 0 -1.2854406697006198 -14.754839798511966 0 -14.754839798511966 -255.53226649014687 0 0 0 0 -30.010594515901175 115.52806091296588 0 115.52806091296588 -203.61166992727522 0 0 0 0 -51.574877675942844 -19.708510011736507 0 -19.708510011736507 -48.839211101912952 0 0 0 0 14.497344962059287 28.445792374837765 0 28.445792374837765 -20.417953833974025 0 0 0 0 12.890747274763271 -12.266263627055196 0 -12.266263627055196 11.110111310656066 0 0 0 0 -14.786642748902523 29.463465326467485 0 29.463465326467485 22.653803048320697 0 0 0 0 22.465039179485018 14.368197104986848 0 14.368197104986848 0.17567690952081705 0 0 0 0 3.3557057506113779 36.426141309795639 0 36.426141309795639 -30.693335635392941 0 0 0 0 22.270184452046351 9.9660160769328172 0 9.9660160769328172 5.9619972046005216 0 0 0 0 -0.012416411496815272 79.757583482809423 0 79.757583482809423 -12.902692507588654 0 0 0 0 39.630454390820887 19.010095907060531 0 19.010095907060531 -26.861223691506893 0 0 0 0 1.2328748755710421 11.600739516346124 0 11.600739516346124 -26.581324477180601 0 0 0 0 37.340613904423662 74.454836030117804 0 74.454836030117804 -4.3988784773437146 0 0 0 0 28.418653042026563 -47.291453028650722 0 -47.291453028650722 -63.102893465446869 0 0 0 0 0.010502502790744819 7.6106240047470504 0 7.6106240047470504 -2.7792742832898512 0 0 0 0 -1.7171569572624321 2.4670783118026947 0 2.4670783118026947 1.7965937854033314 0 0 0 0 -0.0036157529102638364 7.6207761999648937 0 7.6207761999648937 -2.7864430049266957 0 0 0 0 1.8610304663697548 -0.72281502175056289 0 -0.72281502175056289 -3.6788528311422581 0 0 0 0 184.31985239390633 255.1236387543031 0 255.1236387543031 188.20744160488175 0 0 0 0 5.8118184812483378 298.52946515907388 0 298.52946515907388 310.76696273311245 0 0 0 0 51.779419889011479 -27.864507902909281 0 -27.864507902909281 -2.6804115258128149 0 0 0 0 720.82140283726039 370.71696599829374 0 370.71696599829374 -108.63442709842366 0 0 0 0 186.15912864264101 627.27402041548157 0 627.27402041548157 843.9460322987652 0 0 0 0 -6.0501839716093713 22.337044335144554 0 22.337044335144554 -13.983065513448466 0 0 0 0 15.458596476513776 45.403424454734704 0 45.403424454734704 12.740625585600355 0 0 0 0 32.695970842090901 5.0871723972122709 0 5.0871723972122709 -20.677104124792095 0 0 0 0 10.493014801089885 9.8677775889154873 0 9.8677775889154873 -6.790355937780987 0 0 0 0 23.002698084856092 27.533555711499503 0 27.533555711499503 -19.611485921275744 0 0 0 0 -7.3089759266964904 11.532745228128732 0 11.532745228128732 -2.0197967675277653 0 0 0 0 34.067984920518938 23.961364225047873 0 23.961364225047873 -14.093815068044933 0 0 0 0 -2.0945431814312911 14.173941024071581 0 14.173941024071581 -10.86499211360649 0 0 0 0 13.475141227740949 6.1925293535403512 0 6.1925293535403512 -14.188866923190929 0 0 0 0 14.952825689048041 24.394363762519788 0 24.394363762519788 -4.2826936124984059 0 0 0 0 10.759668602593592 27.683575976116117 0 27.683575976116117 -16.860721816217847 0 0 0 0 0.68647952342871577 37.497201305279305 0 37.497201305279305 -21.884978783579072 0 0 0 0 11.134744668041094 28.221742615708536 0 28.221742615708536 -22.326099341968074 0 0 0 0 -0.51858406713290606 34.225078561206828 0 34.225078561206828 -26.203348838618695 0 0 0 0 4.6932955771044362 44.378449112253293 0 44.378449112253293 -35.776343095676566 0 0 0 0 -5.5910743849381106 42.94437375394773 0 42.94437375394773 -17.801397963573436 0 0 0 0 8.5383496982540237 25.282487464486621 0 25.282487464486621 -12.074432015229831 0 0 0 0 -33.500784772186307 21.410405631876074 0 21.410405631876074 92.738468187530088 0 0 0 0 -7.5584915458670991 15.972551975720677 0 15.972551975720677 10.70049786853226 0 0 0 0 9.0183166956267087 40.171894405817511 0 40.171894405817511 -50.171449537599983 0 0 0 0 -40.69807494658744 177.10476163920248 0 177.10476163920248 -32.014072215225042 0 0 0 0 -3.0267852709311569 28.902450752361347 0 28.902450752361347 16.601261203464105 0 0 0 0 -113.06446389647317 132.97361268133227 0 132.97361268133227 -22.211252520175549 0 0 0 0 -166.95823193152319 241.90133080294981 0 241.90133080294981 -48.550872317120138 0 0 0 0 -180.46183009268134 220.83730810478528 0 220.83730810478528 81.659624677415195 0 0 0 0 -150.65083427267382 -29.459976650040517 0 -29.459976650040517 54.807228211103393 0 0 0 0 -237.93535400810651 150.29408441433225 0 150.29408441433225 20.634439271820156 0 0 0 0 -6.7841875186107359 7.3095198771914056 0 7.3095198771914056 22.348051049772721 0 0 0 0 701.80341234491425 788.28245361291738 0 788.28245361291738 645.15362026699586 0 0 0 0 1657.8247715186735 1065.6741979879444 0 1065.6741979879444 303.28902820698579 0 0 0 0 0.028768856413080357 10.931868495477829 0 10.931868495477829 15.972444712389915 0 0 0 0 1571.009072600471 1142.6847272918421 0 1142.6847272918421 1269.4433204602465 0 0 0 0 -2.6232359478275953 4.7226234672155272 0 4.7226234672155272 8.1618448755633466 0 0 0 0 1199.2489677162375 1550.2386906848042 0 1550.2386906848042 852.85765183294279 0 0 0 0 -89.252276948362123 -51.396098691504449 0 -51.396098691504449 325.09701858099288 0 0 0 0 16.077102596158511 29.38550487046632 0 29.38550487046632 8.4772299728501821 0 0 0 0 -7.4569105810084011 15.558873014288537 0 15.558873014288537 2.7922522133597454 0 0 0 0 1146.858168676933 129.96816204210052 0 129.96816204210052 -209.02811840466893 0 0 0 0 6.5069927456828509 32.958543724761711 0 32.958543724761711 -1.5978096539365296 0 0 0 0 788.29191072574758 1064.4170555978326 0 1064.4170555978326 1526.6828243283162 0 0 0 0 4.6312779171489069 3.5109067670077252 0 3.5109067670077252 3.4322949790055617 0 0 0 0 204.0687274242664 70.050157858749117 0 70.050157858749117 -409.18824263797433 0 0 0 0 -126.01605488565838 102.78374520597754 0 102.78374520597754 -232.42739246263227 0 0 0 0 -139.16990418109344 156.95090768865794 0 156.95090768865794 -45.327177040278912 0 0 0 0 -144.16128537629265 49.889778442346142 0 49.889778442346142 -226.37508451008762 0 0 0 0 -83.587217494787183 145.64116635722166 0 145.64116635722166 -207.22414773109449 0 0 0 0 79.268925335738459 243.51707106361937 0 243.51707106361937 -182.48091472643137 0 0 0 0 -60.880850485438714 133.99278696748661 0 133.99278696748661 -259.31826327421004 0 0 0 0 83.414454231300624 239.27264411756914 0 239.27264411756914 -204.88261637135793 0 0 0 0 161.96707195539784 388.09674960434131 0 388.09674960434131 -18.282337062217266 0 0 0 0 178.24458668628358 -262.54936459656165 0 -262.54936459656165 186.46850491189616 0 0 0 0 -91.183083181411348 141.91487991724068 0 141.91487991724068 378.14854780699534 0 0 0 0 -300.98919937257597 -198.14072985819439 0 -198.14072985819439 -22.273011652872128 0 0 0 0 -11.765746122056584 34.914811946692964 0 34.914811946692964 -83.375814753202533 0 0 0 0 -322.65122696227627 27.339858096369426 0 27.339858096369426 -70.635545248282142 0 0 0 0 -94.339023074295255 93.446121613702417 0 93.446121613702417 -104.8977606474291 0 0 0 0 -201.49140311064548 138.2892192808722 0 138.2892192808722 -55.085510033088212 0 0 0 0 13.877921669496459 -8.1241772017654341 0 -8.1241772017654341 -14.660380450620906 0 0 0 0 163.09287679522822 166.2411407983891 0 166.2411407983891 -114.2400582668779 0 0 0 0 175.84050745301647 34.341204731763355 0 34.341204731763355 -70.259868346808616 0 0 0 0 75.667398991704431 125.87749658572955 0 125.87749658572955 -132.58107901128824 0 0 0 0 49.641510230925633 122.49197964907216 0 122.49197964907216 -112.98104649610468 0 0 0 0 88.15307197481161 197.19533311563828 0 197.19533311563828 -244.16087577343569 0 0 0 0 3.1780796673410805 390.31106556349732 0 390.31106556349732 -50.49470364427907 0 0 0 0 184.92138258178602 202.64470533612803 0 202.64470533612803 -132.30223333017238 0 0 0 0 81.984010810719155 238.79128908992027 0 238.79128908992027 -144.91978255991125 0 0 0 0 33.426246795046609 143.07672450785321 0 143.07672450785321 -261.56047615647731 0 0 0 0 -17.34431584419508 139.7121155678542 0 139.7121155678542 -214.05535144657188 0 0 0 0 5.5834556969930418 167.4430657946541 0 167.4430657946541 -181.79087584762965 0 0 0 0 -30.716727559323772 169.30267932910101 0 169.30267932910101 -183.63798900010534 0 0 0 0 -5.4268113984431707 40.624058304552563 0 40.624058304552563 -87.839412376834659 0 0 0 0 -55.534571599622723 17.554405147444413 0 17.554405147444413 -85.431783753942 0 0 0 0 73.054672780737747 172.89318701130651 0 172.89318701130651 -241.10891287124105 0 0 0 0 32.207579761219677 79.59859696343301 0 79.59859696343301 -309.14081186044677 0 0 0 0 12.855446097906679 176.28682275446499 0 176.28682275446499 -276.89611074054665 0 0 0 0 -1.5064322220277973 44.542677026242018 0 44.542677026242018 -28.67381656735779 0 0 0 0 2.2554851333531474 36.056150361311126 0 36.056150361311126 3.03674716740856 0 0 0 0 15.076958193167229 40.422597904245777 0 40.422597904245777 -28.353306084187352 0 0 0 0 1.3546868343401002 83.70570503516501 0 83.70570503516501 16.743326274583524 0 0 0 0 -13.545499963417242 35.168483463650716 0 35.168483463650716 -30.040158542521567 0 0 0 0 163.81938631516823 148.03926655224132 0 148.03926655224132 -30.245497228082968 0 0 0 0 98.731657455922686 90.268842017023417 0 90.268842017023417 -74.619751303216617 0 0 0 0 -3.1699528415899181 10.806581818307393 0 10.806581818307393 -16.721204403328144 0 0 0 0 47.949644290689321 137.21554285238926 0 137.21554285238926 59.737517907436995 0 0 0 0 32.350880959420465 122.04876199719729 0 122.04876199719729 -412.83483392480412 0 0 0 0 139.32888734523249 234.75734875453986 0 234.75734875453986 -300.38633605572977 0 0 0 0 225.02063316679414 374.98963496642682 0 374.98963496642682 -405.01862579410226 0 0 0 0 143.26109176542377 317.22492748364311 0 317.22492748364311 -209.69168724757606 0 0 0 0 136.43839273345657 -59.665099071988152 0 -59.665099071988152 -433.15697260475281 0 0 0 0 182.63441610826703 56.237625087655033 0 56.237625087655033 -196.75439702684525 0 0 0 0 5.899871110519598 -17.420317496407733 0 -17.420317496407733 -1.4152867420270923 0 0 0 0 41.618893426493742 31.786452421017202 0 31.786452421017202 1.5364943309105001 0 0 0 0 34.95715690588986 -58.408756361488486 0 -58.408756361488486 -130.21161317332007 0 0 0 0 72.218258285665797 29.787883869614234 0 29.787883869614234 -73.565863436480868 0 0 0 0 82.549684662910295 7.7168821100603964 0 7.7168821100603964 -45.609995626822638 0 0 0 0 43.105929957600893 38.126443060558813 0 38.126443060558813 -29.856009486808034 0 0 0 0 41.160912593521061 20.923302812352631 0 20.923302812352631 -21.363446961160662 0 0 0 0 36.002694935319596 5.109747295085981 0 5.109747295085981 -35.642832494595496 0 0 0 0 10.459552376865759 43.785901496117731 0 43.785901496117731 -41.022334165074426 0 0 0 0 3.3649081182156806 36.597643003879341 0 36.597643003879341 -29.523190864543722 0 0 0 0 -1.9802888678470083 34.508854417948271 0 34.508854417948271 -32.53672065919497 0 0 0 0 78.351814435933193 48.324046864596312 0 48.324046864596312 -44.423468285112904 0 0 0 0 44.205177716716662 27.761498706544245 0 27.761498706544245 0.20795352415397872 0 0 0 0 22.727543670410341 -23.350418690823972 0 -23.350418690823972 -13.7480487948269 0 0 0 0 16.626609496892399 15.657231865227743 0 15.657231865227743 -3.5993645023922198 0 0 0 0 87.720559474721085 32.197894123961305 0 32.197894123961305 -88.124627081768267 0 0 0 0 6.4655612491825281 15.606870269056884 0 15.606870269056884 -41.447984578098755 0 0 0 0 66.188785742397158 89.306983325070178 0 89.306983325070178 15.026024377293652 0 0 0 0 34.324059900420252 48.795618860141985 0 48.795618860141985 -24.495468830766185 0 0 0 0 15.222590289107757 38.264607924214943 0 38.264607924214943 5.956957841917756 0 0 0 0 204.70259981889103 184.19755569333574 0 184.19755569333574 -0.71817184531846578 0 0 0 0 -2.55234376647077 7.8861753256590532 0 7.8861753256590532 -29.834997743076798 0 0 0 0 -22.489020809749491 221.62774674842876 0 221.62774674842876 -267.57646932488933 0 0 0 0 12.003179765251843 22.921824100164486 0 22.921824100164486 -68.498495001789706 0 0 0 0 33.090415846352698 27.202595642971573 0 27.202595642971573 -18.339006071139011 0 0 0 0 9.921990352908324 22.367017699905773 0 22.367017699905773 0.45667349425639259 0 0 0 0 33.958857599754083 14.879121400771311 0 14.879121400771311 5.6071282742569508 0 0 0 0 51.094779415798257 17.850284924839798 0 17.850284924839798 -22.335456221771892 0 0 0 0 22.845249939229689 43.574996415081841 0 43.574996415081841 16.21383432411676 0 0 0 0 11.101961793785449 51.876501373306382 0 51.876501373306382 -28.737124041450443 0 0 0 0 -30.071752324176487 30.956690784209059 0 30.956690784209059 13.433223513231496 0 0 0 0 3.3067227056094453 3.7612424396717756 0 3.7612424396717756 -2.8294175598014135 0 0 0 0 9.4854231234930921 -7.2103934255501372 0 -7.2103934255501372 -21.682757420760026 0 0 0 0 4.7517392325753463 26.069160669634584 0 26.069160669634584 28.419504903242341 0 0 0 0 30.18808540207101 9.6313641167071182 0 9.6313641167071182 -4.3981533552287146 0 0 0 0 30.947961949867022 23.670216546075608 0 23.670216546075608 -4.3013748980374658 0 0 0 0 444.7743747644563 340.16272007423686 0 340.16272007423686 260.97007981326897 0 0 0 0 2.9320900559842045 0.55063576675954096 0 0.55063576675954096 2.8233276949082438 0 0 0 0 685.52810812665848 379.14613422530965 0 379.14613422530965 203.1037519778256 0 0 0 0 476.51455139138852 399.45841677461794 0 399.45841677461794 356.80189830853487 0 0 0 0 4.6283005504935772 1.1805689715537824 0 1.1805689715537824 1.2233483762876318 0 0 0 0 -50.840129553107545 -75.937909943488194 0 -75.937909943488194 130.71973158376204 0 0 0 0 11.201911799394907 5.0110731759679652 0 5.0110731759679652 -0.678637158411874 0 0 0 0 15.312065504512077 1.0569011283775609 0 1.0569011283775609 -11.347039884827865 0 0 0 0 12.025694264449278 3.0034135036418377 0 3.0034135036418377 2.6956165195425967 0 0 0 0 15.566490619210526 3.9442032259103144 0 3.9442032259103144 0.16028915690549184 0 0 0 0 619.36687220519525 -254.89636395156413 0 -254.89636395156413 176.37451465011327 0 0 0 0 601.90542965352324 -113.35771399980194 0 -113.35771399980194 -29.317149738868466 0 0 0 0 498.73640056175645 -78.227374333553598 0 -78.227374333553598 -40.498315565266239 0 0 0 0 581.16240456097876 424.21396552098122 0 424.21396552098122 165.80034506481024 0 0 0 0 467.19958726270124 189.50169705981534 0 189.50169705981534 -23.220318951382069 0 0 0 0 428.95078253818792 8.3683803546664421 0 8.3683803546664421 -30.935114957501355 0 0 0 0 583.62211760571699 25.547708608184621 0 25.547708608184621 -67.486320501295268 0 0 0 0 962.18796895831474 -29.758895223116269 0 -29.758895223116269 -68.057739950116229 0 0 0 0 51.051484639203409 273.3727581018029 0 273.3727581018029 144.08608644332708 0 0 0 0 242.84686546414741 -67.793857187109097 0 -67.793857187109097 507.47352356029296 0 0 0 0 772.72134521337284 89.656153738083958 0 89.656153738083958 93.774785201996565 0 0 0 0 4.4677922178962035 117.42478098354695 0 117.42478098354695 48.130121350630361 0 0 0 0 39.427099603883107 199.91550935780106 0 199.91550935780106 197.08518545979132 0 0 0 0 -228.16498262520327 210.72161229896665 0 210.72161229896665 32.111417871223239 0 0 0 0 -258.75597337826184 364.19041933031167 0 364.19041933031167 -297.1314446064498 0 0 0 0 -384.76183723106806 375.04262338444823 0 375.04262338444823 45.600243206048617 0 0 0 0 -219.33027802484139 133.12942850145191 0 133.12942850145191 129.57017568372248 0 0 0 0 -0.43316613459188602 43.297427387002116 0 43.297427387002116 -9.1974891417253719 0 0 0 0 -83.755659506714437 453.70774066058948 0 453.70774066058948 -207.15500328585767 0 0 0 0 -335.66998388501452 153.10338534768016 0 153.10338534768016 170.6135492848698 0 0 0 0 40.66452368748287 241.65616693975608 0 241.65616693975608 48.750629875066807 0 0 0 0 -110.57660414214479 469.00900656594604 0 469.00900656594604 -68.477676550308388 0 0 0 0 -99.961295481902198 317.60847345963339 0 317.60847345963339 56.253927309851861 0 0 0 0 -140.1228735584591 409.37037930837869 0 409.37037930837869 -152.94823307399929 0 0 0 0 -77.508174999602488 328.13675051986866 0 328.13675051986866 -129.71231189630635 0 0 0 0 -105.82576203504141 272.21597529025166 0 272.21597529025166 -74.806111885074642 0 0 0 0 33.627287650175276 170.1911671812195 0 170.1911671812195 -26.91974719081918 0 0 0 0 12.583152552278158 84.441140906190356 0 84.441140906190356 -18.605562468233416 0 0 0 0 84.384721965929202 84.856524662298398 0 84.856524662298398 -29.8334108156414 0 0 0 0 153.12827743009257 78.397531465565407 0 78.397531465565407 -120.29768324155157 0 0 0 0 -252.24860567756696 662.66894123794918 0 662.66894123794918 -690.27020128736058 0 0 0 0 -8.6400659219216323 261.78171890309386 0 261.78171890309386 -362.0454243223503 0 0 0 0 28.941930189554114 -41.675774333947629 0 -41.675774333947629 -119.4325250573238 0 0 0 0 -7.0032765661963197 4.847025298204656 0 4.847025298204656 -2.5675965186873952 0 0 0 0 30.310047145292629 29.717875940172235 0 29.717875940172235 -656.64932422399124 0 0 0 0 -463.21956350676192 309.43230017561109 0 309.43230017561109 96.809298558262526 0 0 0 0 618.56511543274974 -473.50553867265262 0 -473.50553867265262 -649.82273329055897 0 0 0 0 -320.56318713973451 843.66154945146991 0 843.66154945146991 -213.06551162547112 0 0 0 0 -75.686774182278896 183.59154268796556 0 183.59154268796556 -107.85835919747933 0 0 0 0 -29.24453648722556 -249.24462162096461 0 -249.24462162096461 27.006916900014403 0 0 0 0 1183.2243768088229 376.87359721605389 0 376.87359721605389 -319.78886435295863 0 0 0 0 2.5120005041235345 6.0943455379044451 0 6.0943455379044451 -20.764103351683474 0 0 0 0 108.22106491604063 10.153530980271171 0 10.153530980271171 -75.602927463478409 0 0 0 0 68.244995733010001 30.7515144760564 0 30.7515144760564 -24.014602380870201 0 0 0 0 -0.41464132888975769 0.19711301399016179 0 0.19711301399016179 5.1379284885199468 0 0 0 0 4.3194522328260518 -5.5737478999392351 0 -5.5737478999392351 10.437259814153919 0 0 0 0 519.6422069537366 -40.477624371418642 0 -40.477624371418642 -10.053615476266714 0 0 0 0 299.68793607968837 78.579725287992915 0 78.579725287992915 131.6776510640484 0 0 0 0 -83.956597046577372 137.19424559461186 0 137.19424559461186 67.593129713233793 0 0 0 0 -755.15674660910736 165.89520469104173 0 165.89520469104173 19.243079434992978 0 0 0 0 291.43016836812603 33.544820829825767 0 33.544820829825767 -24.501737290571327 0 0 0 0 26.491748621242493 30.421479516580632 0 30.421479516580632 14.827082000392437 0 0 0 0 31.694712171680294 149.40414093270374 0 149.40414093270374 -473.95342671268008 0 0 0 0 -38.263431069283939 10.088545926265979 0 10.088545926265979 4.1254425240606682 0 0 0 0 -83.908547617394106 130.90817966077429 0 130.90817966077429 55.063566845819878 0 0 0 0 28.781046438627527 60.831977457099129 0 60.831977457099129 -55.652468343425426 0 0 0 0 12.086181935308559 39.669281050119025 0 39.669281050119025 -54.630648734560282 0 0 0 0 14.909077489070114 53.25379291623176 0 53.25379291623176 -50.591367075030576 0 0 0 0 15.307280746710603 37.109723166548065 0 37.109723166548065 -91.427042105063265 0 0 0 0 -7.6538102873601019 40.931178423164965 0 40.931178423164965 -57.014025948592462 0 0 0 0 -62.372129344394125 91.167400989159432 0 91.167400989159432 -340.93315737330704 0 0 0 0 -4.2664571680957977 5.3244629153755341 0 5.3244629153755341 -7.919944934083361 0 0 0 0 -103.21401529606374 188.10222940282983 0 188.10222940282983 -291.34821730290423 0 0 0 0 -25.001915473752888 49.563822105803411 0 49.563822105803411 5.1113556252075796 0 0 0 0 -9.0072967100565222 23.763173947369239 0 23.763173947369239 3.0710094683876727 0 0 0 0 -46.283918262619409 8.6620870433980599 0 8.6620870433980599 -57.025613608910135 0 0 0 0 18.100237967704743 76.061707845721685 0 76.061707845721685 -190.19075537653407 0 0 0 0 24.683117419073824 46.297624369341065 0 46.297624369341065 -85.093414290153305 0 0 0 0 -39.421892714402929 21.960817917111854 0 21.960817917111854 -39.620446807035478 0 0 0 0 -4.1458296861947019 47.524220652712756 0 47.524220652712756 -77.728428854126832 0 0 0 0 -156.14098090035986 64.715251594392612 0 64.715251594392612 -36.418787061840703 0 0 0 0 3.0451953829678486 99.712589605503808 0 99.712589605503808 -51.103621723169283 0 0 0 0 -69.230225421342766 100.05919333331985 0 100.05919333331985 -61.506440892218961 0 0 0 0 -18.892691888739108 50.500039835665262 0 50.500039835665262 -6.6368075074881707 0 0 0 0 35.355568468163256 88.856592314827139 0 88.856592314827139 4.6797225698903731 0 0 0 0 89.434205242280768 96.380236375339337 0 96.380236375339337 -60.818753381157876 0 0 0 0 -5.7566035088796239 90.679191137671836 0 90.679191137671836 -6.6489276548872169 0 0 0 0 45.923350674660469 88.667829333535337 0 88.667829333535337 -29.688202136079781 0 0 0 0 5.6563839827067568 129.06683292858361 0 129.06683292858361 -22.13250967728527 0 0 0 0 -15.341927183340886 126.73683041759068 0 126.73683041759068 7.0326016272738343 0 0 0 0 5.3142499659029454 155.26768351154442 0 155.26768351154442 38.03476302252966 0 0 0 0 7.0027862676070072 107.42540736625233 0 107.42540736625233 -2.7784041580598569 0 0 0 0 -33.958537479556981 112.08426207500816 0 112.08426207500816 33.799063418133301 0 0 0 0 -18.750301339197904 122.45032798729517 0 122.45032798729517 -8.4692014589163591 0 0 0 0 -68.949850847959169 165.2842053696013 0 165.2842053696013 -29.628864647951559 0 0 0 0 -18.873095559174544 126.68112096082041 0 126.68112096082041 0.039533547023893334 0 0 0 0 -49.303429351712111 138.61479448136379 0 138.61479448136379 5.842682035818143 0 0 0 0 -123.8932287130956 141.73315661893866 0 141.73315661893866 -57.797999593996792 0 0 0 0 -64.159269439634954 145.85794936392085 0 145.85794936392085 -63.916430669356487 0 0 0 0 -13.633349277253728 117.32500925659406 0 117.32500925659406 -65.029701770552492 0 0 0 0 12.768701925000641 139.90566286767353 0 139.90566286767353 -76.698696392981219 0 0 0 0 -65.718284795089858 182.96418961261952 0 182.96418961261952 -144.44113999766705 0 0 0 0 -73.576410456895246 125.75771414339397 0 125.75771414339397 -258.69033287144703 0 0 0 0 -110.47709535017202 158.70053608197486 0 158.70053608197486 -45.987565605944837 0 0 0 0 -79.844034133384412 102.99317267219158 0 102.99317267219158 60.444366741256999 0 0 0 0 -125.07370513206843 160.59829469323449 0 160.59829469323449 53.776885992119787 0 0 0 0 -58.36355648382596 154.1565667521827 0 154.1565667521827 -47.001717275139526 0 0 0 0 -168.89709462206156 171.01631616932173 0 171.01631616932173 375.1357390635676 0 0 0 0 -1.3769111980927846 -91.482598590451744 0 -91.482598590451744 305.48894663547981 0 0 0 0 5.1916450301653327 6.4997817985485824 0 6.4997817985485824 5.2054400719841851 0 0 0 0 70.909390795590298 501.41414301109035 0 501.41414301109035 18.12364193369649 0 0 0 0 20.63956986105768 234.5438554792272 0 234.5438554792272 -279.18064172893355 0 0 0 0 -81.537194336342509 177.01565294506145 0 177.01565294506145 -329.72691867789399 0 0 0 0 9.5456360726757339 124.25302927674784 0 124.25302927674784 -305.31131786604237 0 0 0 0 348.64046452922048 -1467.5170158256587 0 -1467.5170158256587 2451.9560487604031 0 0 0 0 -252.98007772923665 293.2833329217865 0 293.2833329217865 -511.87580933952995 0 0 0 0 132.3159070105612 77.993049113079906 0 77.993049113079906 3001.0091349362192 0 0 0 0 -13.495082935311643 12.31570838669964 0 12.31570838669964 17.016515082708025 0 0 0 0 -234.99698397167231 311.48651905887891 0 311.48651905887891 -520.76504536365974 0 0 0 0 -578.01935794120072 417.40114892842394 0 417.40114892842394 -1123.0491175045008 0 0 0 0 -420.1834999232633 1090.9108057296307 0 1090.9108057296307 -1425.0097093852528 0 0 0 0 1.8128799791396659 5.7513853990598847 0 5.7513853990598847 7.238545583495096 0 0 0 0 -89.272562280322745 83.42710862358399 0 83.42710862358399 27.632261106351507 0 0 0 0 18.110850366584174 18.371501649484841 0 18.371501649484841 18.257964248883482 0 0 0 0 -59.779526416350564 88.065012055689294 0 88.065012055689294 28.013667576132775 0 0 0 0 -628.83891051688988 1080.1663886187125 0 1080.1663886187125 -107.71863385100733 0 0 0 0 130.69892332494092 -500.75345716943497 0 -500.75345716943497 -135.96976777994132 0 0 0 0 -19.459447428491131 12.899740976811273 0 12.899740976811273 15.354689729474231 0 0 0 0 -241.17163768078171 -347.60642405213002 0 -347.60642405213002 -198.87525405334964 0 0 0 0 -150.61441912584996 219.35927907527366 0 219.35927907527366 22.660171383671695 0 0 0 0 -15.021932030518656 123.86150815977453 0 123.86150815977453 -78.446588087697819 0 0 0 0 20.77882290413865 37.216353242481247 0 37.216353242481247 21.151432165252714 0 0 0 0 -16.880921964620939 92.860520158501458 0 92.860520158501458 -89.015328223384131 0 0 0 0 -9.9912752045638626 115.20827767313313 0 115.20827767313313 -36.362010010663653 0 0 0 0 -44.309016136059654 120.01507878288976 0 120.01507878288976 26.150751395729458 0 0 0 0 -56.575122052792722 87.036840016044152 0 87.036840016044152 -18.35271410032874 0 0 0 0 -84.767694106118142 116.02546885821175 0 116.02546885821175 27.52650359935069 0 0 0 0 -31.261367046328814 101.00804539481032 0 101.00804539481032 -44.187176849183743 0 0 0 0 -26.183542517057504 111.2645014121299 0 111.2645014121299 -23.473235843484872 0 0 0 0 42.616797824273817 152.85800362341979 0 152.85800362341979 1.6654312120372197 0 0 0 0 50.856037317238588 70.743609642062893 0 70.743609642062893 -45.678440253803274 0 0 0 0 -37.025807522104699 20.748841655293916 0 20.748841655293916 8.9535712099482225 0 0 0 0 17.415478000810253 105.43274522363208 0 105.43274522363208 -63.842707606643671 0 0 0 0 -4.7474246581987245 87.862148311680357 0 87.862148311680357 -46.160675191302289 0 0 0 0 1.6868262035713997 113.46606133733439 0 113.46606133733439 -76.55914189942996 0 0 0 0 -34.825453207115061 110.52463765354332 0 110.52463765354332 -69.868510130989307 0 0 0 0 -18.206170394878427 90.035693930847629 0 90.035693930847629 -65.912423669942655 0 0 0 0 -42.734675694628095 92.783598698297283 0 92.783598698297283 -64.036642413047957 0 0 0 0 -59.60859731065284 30.525008459706441 0 30.525008459706441 -37.391642291462631 0 0 0 0 17.502605790112284 48.816648848951445 0 48.816648848951445 -12.077198374288855 0 0 0 0 5.9602060291651355 58.395048878537779 0 58.395048878537779 -38.26642557044795 0 0 0 0 -22.673402920649096 44.101525719073834 0 44.101525719073834 -27.445746759141912 0 0 0 0 -20.57770567558174 51.562729178236168 0 51.562729178236168 8.0791763855076084 0 0 0 0 -13.004779510747881 25.478454725708229 0 25.478454725708229 20.155250778405488 0 0 0 0 -16.369943964612872 44.997919707443572 0 44.997919707443572 -7.3270335069422572 0 0 0 0 -29.472883183072554 56.250018651080609 0 56.250018651080609 -16.732243190788722 0 0 0 0 -31.693069965316681 51.485688649714575 0 51.485688649714575 -18.144732467641006 0 0 0 0 -13.977808260233985 34.047861716934875 0 34.047861716934875 4.3298789514954308 0 0 0 0 -11.358903004671447 49.38969236666162 0 49.38969236666162 -25.338411984877894 0 0 0 0 6.9468173788611125 24.960672633016642 0 24.960672633016642 6.5488836812215112 0 0 0 0 -117.44364400541235 312.58732378320929 0 312.58732378320929 -602.17181311629247 0 0 0 0 -396.53303383098682 774.05745474041032 0 774.05745474041032 -774.405239001273 0 0 0 0 -57.915837287437171 494.3468660172075 0 494.3468660172075 -934.16353043608251 0 0 0 0 -64.778591809430509 542.09872717902181 0 542.09872717902181 -752.08386521035573 0 0 0 0 -133.75412860914366 427.42227472997911 0 427.42227472997911 -735.27706526114162 0 0 0 0 -115.25262349992408 575.15202883485472 0 575.15202883485472 -610.61176882284053 0 0 0 0 -233.16079187842843 453.38512082360467 0 453.38512082360467 -716.7232613205997 0 0 0 0 -165.62847832962871 519.59232199088001 0 519.59232199088001 -676.00741647609539 0 0 0 0 -78.84784382507496 583.44130250321177 0 583.44130250321177 -845.33078232430853 0 0 0 0 4.0847567488090135 257.40865160554677 0 257.40865160554677 -978.91212604528118 0 0 0 0 10.181246242526868 361.77180315692817 0 361.77180315692817 -1530.4536992700305 0 0 0 0 -62.177315650085802 347.80451390860253 0 347.80451390860253 -1140.3974853441978 0 0 0 0 -557.53125636799678 124.90751553372115 0 124.90751553372115 -823.66152402684384 0 0 0 0 -522.85899388202233 691.39727851008502 0 691.39727851008502 -912.03203562756971 0 0 0 0 -246.1512952651392 207.99695893789612 0 207.99695893789612 -581.1131057469247 0 0 0 0 -123.58254820338334 325.14993791831512 0 325.14993791831512 -733.82321118974505 0 0 0 0 -42.915225691234809 258.77085899061785 0 258.77085899061785 -607.06252203683107 0 0 0 0 -110.75484447416875 170.69821957169324 0 170.69821957169324 -689.46590076225402 0 0 0 0 -12.85956009432266 277.18328207771265 0 277.18328207771265 -858.14522070280509 0 0 0 0 -64.663117688019156 377.3598852810203 0 377.3598852810203 -748.41334070061566 0 0 0 0 -172.47816772871738 428.33468616142454 0 428.33468616142454 -613.80935915210284 0 0 0 0 -70.491614718543133 344.343286011077 0 344.343286011077 -712.01294318763394 0 0 0 0 -269.4666627364204 221.74658302136959 0 221.74658302136959 -307.65146710059253 0 0 0 0 -718.54133462133177 747.16811482780031 0 747.16811482780031 -426.47799749148544 0 0 0 0 -12.779148646826798 18.548869057722186 0 18.548869057722186 -13.594646756522707 0 0 0 0 -10.141104096395111 11.559309159205498 0 11.559309159205498 4.8518767824849078 0 0 0 0 -2.6704864646111162 3.9746376691706224 0 3.9746376691706224 4.9659688598799789 0 0 0 0 -24.819071512289497 8.6569201086631438 0 8.6569201086631438 11.519232905140541 0 0 0 0 -152.87073441597749 369.12981608948758 0 369.12981608948758 -488.85996030997558 0 0 0 0 -151.83376303853584 258.23472150672023 0 258.23472150672023 -430.02519161619421 0 0 0 0 -121.07912700115412 263.10504936481084 0 263.10504936481084 -555.79294642771129 0 0 0 0 -129.54911370055925 273.89072710575783 0 273.89072710575783 -618.39426067346358 0 0 0 0 -105.34827871932066 314.86955057794694 0 314.86955057794694 -567.52384411015191 0 0 0 0 -100.34605855795235 312.26837925683503 0 312.26837925683503 -626.06713242504338 0 0 0 0 -73.027525204961421 328.65675895570894 0 328.65675895570894 -638.73350023241073 0 0 0 0 -43.505737620900618 284.58624938380672 0 284.58624938380672 -713.12891995333484 0 0 0 0 -18.055335375660434 253.22802580024563 0 253.22802580024563 -676.29362334094185 0 0 0 0 24.953086733774398 197.96076857369189 0 197.96076857369189 -693.3807867216492 0 0 0 0 -84.605906407756265 234.45538218077854 0 234.45538218077854 -633.04092647728976 0 0 0 0 -45.843952444382012 172.8158948691671 0 172.8158948691671 -550.08265950849454 0 0 0 0 -51.445881235500565 244.38183929860406 0 244.38183929860406 -634.64821557317919 0 0 0 0 -228.69870324070507 199.4513418942297 0 199.4513418942297 -599.52909137623283 0 0 0 0 -91.21711519434939 194.3672594905006 0 194.3672594905006 -612.11238471097022 0 0 0 0 -266.2729752457526 181.21994600270773 0 181.21994600270773 -516.14344424802403 0 0 0 0 -284.82939216252089 265.46461687308692 0 265.46461687308692 -619.87673673273093 0 0 0 0 -337.05108534028841 168.56581622347403 0 168.56581622347403 -582.13124655301363 0 0 0 0 -244.97231412283145 247.90518069819518 0 247.90518069819518 -545.0795072188921 0 0 0 0 -263.5858964232757 251.22008838485635 0 251.22008838485635 -541.7897653846012 0 0 0 0 -131.3259780011449 253.56912733282434 0 253.56912733282434 -583.25127359241014 0 0 0 0 -230.91157777227636 280.54723292213021 0 280.54723292213021 -538.99329664470861 0 0 0 0 -263.27173234714428 271.74973420421884 0 271.74973420421884 -539.12602997524664 0 0 0 0 -165.2547590231261 322.02733270839963 0 322.02733270839963 -530.94120028890029 0 0 0 0 -272.18271217355505 246.88862837693159 0 246.88862837693159 -537.22538683668245 0 0 0 0 -326.9995138961749 286.75998108330532 0 286.75998108330532 -471.53605607310601 0 0 0 0 262.86196462465159 -8.9071860763433506 0 -8.9071860763433506 -427.41352620998441 0 0 0 0 -404.3051132826804 55.134248296062651 0 55.134248296062651 55.190831053980219 0 0 0 0 -27.804844542704814 -101.04713423170506 0 -101.04713423170506 -154.27298180307844 0 0 0 0 -1.402842914258585 4.4238058465188033 0 4.4238058465188033 -7.4926130287080639 0 0 0 0 100.2679925887569 520.92220567461118 0 520.92220567461118 -197.17059914988931 0 0 0 0 -17.051637877564644 377.65210069221212 0 377.65210069221212 -360.7249404560007 0 0 0 0 142.7999165994479 113.54195122727469 0 113.54195122727469 59.233805759300594 0 0 0 0 177.74875521430658 120.15387086644114 0 120.15387086644114 -18.970454863308987 0 0 0 0 46.327271660789847 50.856015039687918 0 50.856015039687918 6.8503380994370673 0 0 0 0 -4.693376146149717 19.048578255067675 0 19.048578255067675 -9.135856119821085 0 0 0 0 49.040613571676658 71.54728469827387 0 71.54728469827387 25.741216385096777 0 0 0 0 49.450597170303809 71.596811332063226 0 71.596811332063226 -1.6217842661208124 0 0 0 0 46.220627379749203 49.412181377512752 0 49.412181377512752 32.061972099976629 0 0 0 0 21.563985310232624 59.053432891818034 0 59.053432891818034 -15.921762848830568 0 0 0 0 7.0328037165381829 62.744081841137813 0 62.744081841137813 -23.823203821950301 0 0 0 0 -1.6841583943751175 94.399074188637314 0 94.399074188637314 -45.649929655468441 0 0 0 0 -1.1178856651022908 53.84073717178137 0 53.84073717178137 -33.506183935245843 0 0 0 0 -0.16246105989625903 53.135815298250392 0 53.135815298250392 -39.911661035333239 0 0 0 0 -1.4185398213085136 94.210238367707461 0 94.210238367707461 -52.061642774104257 0 0 0 0 21.902514173181714 19.354595993546098 0 19.354595993546098 4.1197530264366264 0 0 0 0 204.03826069735806 -105.60705772690199 0 -105.60705772690199 -18.3887462219936 0 0 0 0 -24.670396576799249 60.839079531735479 0 60.839079531735479 6.2984433377932874 0 0 0 0 -65.582473929156549 105.71769634160955 0 105.71769634160955 -9.6233355641161324 0 0 0 0 -25.606216017971747 104.73388603297644 0 104.73388603297644 -57.376738901883073 0 0 0 0 9.7446023820666596 120.2968762829405 0 120.2968762829405 -50.375404927632189 0 0 0 0 -7.0155929913162254 104.0089141976423 0 104.0089141976423 -46.440619443379546 0 0 0 0 6.1947774559334796 59.073972956660867 0 59.073972956660867 -31.911519211059982 0 0 0 0 -6.7831942118646111 101.68596072680884 0 101.68596072680884 -31.286419674463104 0 0 0 0 -53.289420066721505 119.68936685821245 0 119.68936685821245 -38.107557228366204 0 0 0 0 2.9631800704046327 117.9225330068939 0 117.9225330068939 -92.265313657029765 0 0 0 0 18.300773412163835 94.908757826065994 0 94.908757826065994 -32.014966299815569 0 0 0 0 2.5470689770882018 116.08616731304937 0 116.08616731304937 -54.945831074292073 0 0 0 0 24.332908277752985 65.560581261228478 0 65.560581261228478 -25.791617919153992 0 0 0 0 50.877140280557796 87.747714385448489 0 87.747714385448489 -61.873529129807139 0 0 0 0 18.903986274174997 26.372241783674838 0 26.372241783674838 6.3119501494545602 0 0 0 0 -23.763329871580936 163.00270123360315 0 163.00270123360315 -161.05643479787614 0 0 0 0 -36.734380770940334 71.838013517168292 0 71.838013517168292 -94.231316472789331 0 0 0 0 -6.972331483833841 73.735925449014758 0 73.735925449014758 -49.905219432461308 0 0 0 0 10.00256004286056 3.6027414451814792 0 3.6027414451814792 -0.58420781571115299 0 0 0 0 13.463830881169997 87.278113936132286 0 87.278113936132286 -50.970214837740059 0 0 0 0 32.579114444992427 73.034139134757979 0 73.034139134757979 -17.359437420525296 0 0 0 0 97.55952989371508 129.01114947902306 0 129.01114947902306 -44.028971878753509 0 0 0 0 66.002136255838167 34.141969272774872 0 34.141969272774872 -22.471750814405311 0 0 0 0 -10.833349110680501 63.549719994684665 0 63.549719994684665 -38.554924164345721 0 0 0 0 -1.5055621396750212 82.138267028320115 0 82.138267028320115 -39.736932059109677 0 0 0 0 18.683390693273395 81.288991637004074 0 81.288991637004074 -67.615263941755984 0 0 0 0 37.689277097873855 106.27036507087178 0 106.27036507087178 -40.173005557095166 0 0 0 0 -0.87653306874199188 70.742279072941528 0 70.742279072941528 -46.172502222645562 0 0 0 0 59.74387540153117 17.413658157193623 0 17.413658157193623 -24.824212990899383 0 0 0 0 5.1208058034826536 79.68848240889929 0 79.68848240889929 -88.024362622061744 0 0 0 0 25.895600921066944 275.28832888975739 0 275.28832888975739 -901.93786979965807 0 0 0 0 -217.60268541357073 524.97466474671819 0 524.97466474671819 -756.27748794424042 0 0 0 0 40.993116971989565 39.940410683482014 0 39.940410683482014 -14.078309014903823 0 0 0 0 -282.99116952248733 441.2857156685568 0 441.2857156685568 -712.13774475646642 0 0 0 0 -87.569042509272549 61.664930072892275 0 61.664930072892275 -52.558345892983198 0 0 0 0 -117.57165784171957 155.32443107280778 0 155.32443107280778 -63.592500778531303 0 0 0 0 -232.69295137202425 70.938597969743569 0 70.938597969743569 70.388469849465764 0 0 0 0 -142.08020359270449 284.74014182010069 0 284.74014182010069 -268.63495117324783 0 0 0 0 -47.843720304952512 -72.450121209737063 0 -72.450121209737063 179.21109416392574 0 0 0 0 16.172379676776472 78.841324316017563 0 78.841324316017563 -56.013434716576739 0 0 0 0 391.12431931872561 -184.2820790413025 0 -184.2820790413025 74.55551562600067 0 0 0 0 9.2502985560354887 3.5111253677072227 0 3.5111253677072227 2.6978743028623597 0 0 0 0 -29.56522571638925 248.44516812905204 0 248.44516812905204 223.99813587163408 0 0 0 0 472.77245488084736 344.37459638476867 0 344.37459638476867 -84.967451946293295 0 0 0 0 728.08657030754694 -1.0104283000400756 0 -1.0104283000400756 -251.6766090148667 0 0 0 0 216.90818873356329 164.96576681967599 0 164.96576681967599 -202.64631852570892 0 0 0 0 390.57878165718284 312.52214966726206 0 312.52214966726206 -556.81328021144873 0 0 0 0 -289.6301112358924 136.20947717859235 0 136.20947717859235 706.96072436781833 0 0 0 0 5.1479517546969191 4.1292022466836329 0 4.1292022466836329 2.5246552369485045 0 0 0 0 113.28384754399303 18.630539995090658 0 18.630539995090658 -378.32529502911348 0 0 0 0 -541.82439956482267 595.62708419383853 0 595.62708419383853 803.85102355227718 0 0 0 0 -10.982710068079541 55.068384816925573 0 55.068384816925573 -5.9316760927795258 0 0 0 0 636.01870597382367 555.18971457265616 0 555.18971457265616 130.11196337998263 0 0 0 0 341.37415413372946 -138.81390944713894 0 -138.81390944713894 -377.09225861079176 0 0 0 0 240.59784152405336 342.91874745441601 0 342.91874745441601 -1233.8017050717535 0 0 0 0 -463.40715857298346 -256.18891888530925 0 -256.18891888530925 -433.24953761206416 0 0 0 0 -639.24993990961229 426.14391892336425 0 426.14391892336425 644.93512637232197 0 0 0 0 1.6805068151330502 36.038270062397345 0 36.038270062397345 15.295621043667055 0 0 0 0 -268.49846600560704 453.91413094552263 0 453.91413094552263 -486.86362978564284 0 0 0 0 -160.765570590891 250.74691008114678 0 250.74691008114678 -181.95192093266814 0 0 0 0 33.412673452377504 21.42894047315599 0 21.42894047315599 12.370148121372971 0 0 0 0 2.9447194143722299 72.977039892663015 0 72.977039892663015 -32.855255047677929 0 0 0 0 4.0482042806397658 67.4743339973611 0 67.4743339973611 -34.186801979034499 0 0 0 0 4.016377905398258 72.673630060093274 0 72.673630060093274 -41.528878562023237 0 0 0 0 -65.525903314104653 566.18264594242646 0 566.18264594242646 35.073608138773125 0 0 0 0 -368.65783393799211 -114.18628041816919 0 -114.18628041816919 -44.114160525954503 0 0 0 0 507.09606004680973 72.016236867602856 0 72.016236867602856 -302.14291716946173 0 0 0 0 16.587441640787858 10.532536793665059 0 10.532536793665059 6.5673690913040872 0 0 0 0 0.96068960426782724 59.935207093996723 0 59.935207093996723 -49.62476010460523 0 0 0 0 58.747187453722006 23.82865943275587 0 23.82865943275587 -21.301627296563908 0 0 0 0 63.045450753765181 139.08338079613895 0 139.08338079613895 -82.881433870289584 0 0 0 0 20.727587117527349 27.777722539343074 0 27.777722539343074 12.2266895202904 0 0 0 0 -24.479879423728562 82.062260741280625 0 82.062260741280625 -67.126336592657026 0 0 0 0 -509.41971520624065 785.34481762594442 0 785.34481762594442 -320.56539433744911 0 0 0 0 -108.38519180729782 447.42187891839421 0 447.42187891839421 -573.63098044598883 0 0 0 0 -240.43749111109355 685.26678039953913 0 685.26678039953913 -319.11477559545892 0 0 0 0 -462.71415627037641 460.36412691889564 0 460.36412691889564 -533.03427021690732 0 0 0 0 -252.96045258181402 752.72110876924125 0 752.72110876924125 -405.72999018347036 0 0 0 0 -234.00605944741983 496.14594511487303 0 496.14594511487303 -204.423174312029 0 0 0 0 -443.36336561024655 194.25504962424748 0 194.25504962424748 -35.158676972800095 0 0 0 0 -443.06613867527102 224.60299465474031 0 224.60299465474031 830.66455809840409 0 0 0 0 63.748732448097144 749.06580582368406 0 749.06580582368406 -1.1094975934174727 0 0 0 0 -666.33409485752782 351.04536333185388 0 351.04536333185388 0.52521616538797389 0 0 0 0 34.63972068071206 41.258640882617556 0 41.258640882617556 -36.264057408522689 0 0 0 0 -29.117345311218401 -16.434066367584222 0 -16.434066367584222 -62.299751622929591 0 0 0 0 -81.469351201256757 100.39763180017118 0 100.39763180017118 -15.485505372400041 0 0 0 0 -629.01817429676885 422.67240874866229 0 422.67240874866229 -180.18039851548019 0 0 0 0 -487.0837071398073 968.83706929945902 0 968.83706929945902 -1697.819279225263 0 0 0 0 -15.158809323361666 27.039146488425374 0 27.039146488425374 -31.029361045185169 0 0 0 0 -372.98587982332629 309.61041738825656 0 309.61041738825656 -795.88748801618931 0 0 0 0 -1951.9063246756705 1427.3810599022545 0 1427.3810599022545 -787.83701066459037 0 0 0 0 -417.39809476886876 637.54054913043058 0 637.54054913043058 -356.12129597488598 0 0 0 0 -419.072088808025 153.09532442549244 0 153.09532442549244 -444.69586960954649 0 0 0 0 -22.440325821575243 636.74796186564799 0 636.74796186564799 556.63429242838356 0 0 0 0 -3.1081980496578581 1.3476415173091141 0 1.3476415173091141 3.07721087180777 0 0 0 0 -9.9035948382288268 33.00800604823867 0 33.00800604823867 -21.355843089023516 0 0 0 0 -11.67208548931012 65.394414922954184 0 65.394414922954184 -18.993822738846575 0 0 0 0 -38.635641344495525 69.781296167447181 0 69.781296167447181 -11.806178730965257 0 0 0 0 -17.335412244831673 44.187192656389499 0 44.187192656389499 3.2420101187816188 0 0 0 0 -2.3337393837148852 42.290392273603672 0 42.290392273603672 1.3890238071660974 0 0 0 0 -17.781076515406824 30.364703892107755 0 30.364703892107755 40.41515399774228 0 0 0 0 287.33890141305164 -92.615823509890106 0 -92.615823509890106 392.91701735702009 0 0 0 0 -586.33342168955642 356.2900484234051 0 356.2900484234051 168.42747135461832 0 0 0 0 -613.90594072368185 468.33529936984814 0 468.33529936984814 -229.60505254262534 0 0 0 0 -419.28307796554145 306.06315273943392 0 306.06315273943392 -498.04116006816184 0 0 0 0 -89.333275291442988 157.26713118651969 0 157.26713118651969 -517.56663473458684 0 0 0 0 -99.168488656803675 9.5330840929782426 0 9.5330840929782426 -128.16906792241207 0 0 0 0 -432.00486014627859 213.03835046055019 0 213.03835046055019 -246.20488029143598 0 0 0 0 125.22681543012732 250.55583836595179 0 250.55583836595179 -326.98791344244978 0 0 0 0 -100.64780559357314 163.17670008701771 0 163.17670008701771 -331.04704825370573 0 0 0 0 -27.651843864878174 277.49207797123927 0 277.49207797123927 -353.6513307516434 0 0 0 0 50.025583921087673 180.46338654312422 0 180.46338654312422 -549.6122129882624 0 0 0 0 -33.046876044201781 294.23637542467259 0 294.23637542467259 13.816659711199463 0 0 0 0 352.20064612149872 715.78174598003716 0 715.78174598003716 568.4631890920391 0 0 0 0 145.61093325131515 210.37325601090924 0 210.37325601090924 44.148718572709186 0 0 0 0 -36.370599090318137 207.4333839703213 0 207.4333839703213 719.71670693581837 0 0 0 0 -4.1360888294875622 221.974146151897 0 221.974146151897 54.974875526262622 0 0 0 0 93.792799330170965 575.51352178296293 0 575.51352178296293 423.48891598666887 0 0 0 0 113.83039821781858 164.33034825838695 0 164.33034825838695 -291.74046032380284 0 0 0 0 9.6061281279344257 417.26945060645903 0 417.26945060645903 -163.36574317477061 0 0 0 0 -11.241212906461442 152.21180230693426 0 152.21180230693426 -539.18362181696648 0 0 0 0 -61.106915517260859 361.28887145624321 0 361.28887145624321 -478.4749395360559 0 0 0 0 -75.745748061701306 212.12140511665348 0 212.12140511665348 -326.60795795993181 0 0 0 0 9.6915662658429937 254.03741681332758 0 254.03741681332758 -195.26136488527118 0 0 0 0 -56.855132249786493 460.78613454133824 0 460.78613454133824 -402.97089870589843 0 0 0 0 -79.308981583206332 360.72392533720995 0 360.72392533720995 -510.04283591327112 0 0 0 0 -166.74909068229317 426.80251363212301 0 426.80251363212301 -357.81796145218686 0 0 0 0 -42.129702085596364 554.50440585427532 0 554.50440585427532 -604.55558208498405 0 0 0 0 33.410206712200306 555.87008347086521 0 555.87008347086521 -279.58079397635811 0 0 0 0 -33.682881535176421 393.52027501151679 0 393.52027501151679 581.69049627108416 0 0 0 0 240.60691917214717 272.18172027630862 0 272.18172027630862 -83.769059084577748 0 0 0 0 -49.430646055676334 226.42374028985432 0 226.42374028985432 520.6167919932268 0 0 0 0 4.3787533953463935 429.28646033051132 0 429.28646033051132 9.2963773574447259 0 0 0 0 -390.00761964289268 718.17879948033351 0 718.17879948033351 -1329.2745063835682 0 0 0 0 -84.784013163189456 48.3005009352241 0 48.3005009352241 -20.996601257239238 0 0 0 0 202.50047740203081 446.94120022218522 0 446.94120022218522 297.5604503842842 0 0 0 0 126.36297085128899 465.68977089573491 0 465.68977089573491 -1779.6580646216844 0 0 0 0 -42.622152697033016 810.86895943751188 0 810.86895943751188 -2367.0673008234007 0 0 0 0 145.18826159466698 274.38118234490867 0 274.38118234490867 -2933.7999356107921 0 0 0 0 500.42138745568809 1078.054608860919 0 1078.054608860919 -2840.5771483475164 0 0 0 0 -180.34093125299114 575.8184573525723 0 575.8184573525723 1453.4104323766987 0 0 0 0 120.47649967704274 510.52523410198955 0 510.52523410198955 -3628.6454229189821 0 0 0 0 -57.843761699726628 38.266604595742578 0 38.266604595742578 -7.6867948648554467 0 0 0 0 114.65401806362206 741.04830888460856 0 741.04830888460856 -3336.7241645978447 0 0 0 0 -556.42409829497046 469.51169452169779 0 469.51169452169779 -3186.0642588380688 0 0 0 0 -978.96979963383637 2422.1115100079842 0 2422.1115100079842 -7066.3346797992508 0 0 0 0 -1212.7427461947009 1531.7982169180159 0 1531.7982169180159 -3931.3579315811694 0 0 0 0 -531.77919889268651 275.16137858143804 0 275.16137858143804 -4212.9946833532777 0 0 0 0 -1635.76873077247 426.41735737915042 0 426.41735737915042 2374.6084088764219 0 0 0 0 -21.847552984713303 14.45587768611913 0 14.45587768611913 -5.7946179927738726 0 0 0 0 -1009.3075250558941 340.66434945059427 0 340.66434945059427 -1405.1258797795526 0 0 0 0 -1636.145247085602 671.73583616068936 0 671.73583616068936 -1574.8333705330879 0 0 0 0 -913.41739506890008 1074.07222583783 0 1074.07222583783 -2699.375063136089 0 0 0 0 -1634.2633378646788 825.50219255014963 0 825.50219255014963 -2353.9905056230491 0 0 0 0 -1459.9119460186921 495.71157494666113 0 495.71157494666113 -1763.2948799951046 0 0 0 0 -2700.9567018875678 1310.908012954882 0 1310.908012954882 -2411.7198547563048 0 0 0 0 -584.3796613086306 644.56538545358126 0 644.56538545358126 -2942.6301319355662 0 0 0 0 -532.05739664404427 851.54419731821145 0 851.54419731821145 -2873.3884827822112 0 0 0 0 216.00384820241015 574.75597681625004 0 574.75597681625004 -2797.2893945098076 0 0 0 0 -703.50216778133108 684.73576571159902 0 684.73576571159902 -1979.4579031532958 0 0 0 0 -1128.1258830904117 477.58434645467605 0 477.58434645467605 -1094.7680600935128 0 0 0 0 -145.3927529292705 560.63875230733538 0 560.63875230733538 -1959.8412445676149 0 0 0 0 -43.954469051474007 267.79387448752641 0 267.79387448752641 -1237.1189558275364 0 0 0 0 618.76540599296277 635.831024645875 0 635.831024645875 -2311.4393648642235 0 0 0 0 774.6813854638458 433.02899024205908 0 433.02899024205908 -2363.6521952843614 0 0 0 0 91.204485166112136 743.72569984826896 0 743.72569984826896 -2919.7442330381054 0 0 0 0 272.67816728979324 934.10043700327265 0 934.10043700327265 -2850.0024015913368 0 0 0 0 385.75553307167866 1284.7413230955062 0 1284.7413230955062 -3158.9932830544567 0 0 0 0 313.54841418798605 1393.6997665050148 0 1393.6997665050148 -2370.3145140347701 0 0 0 0 916.54215393979393 1111.8183361778283 0 1111.8183361778283 -3322.5138489412166 0 0 0 0 1607.6990186761541 450.58658782405473 0 450.58658782405473 -2824.6990897155956 0 0 0 0 630.88892968791333 434.30230323182332 0 434.30230323182332 -1533.6437829564529 0 0 0 0 1564.8350331372349 281.53393908572434 0 281.53393908572434 -1875.2692767274566 0 0 0 0 1849.6895582364814 497.22877893136138 0 497.22877893136138 -1898.1168009216271 0 0 0 0 1302.2879861407127 -25.942833924180377 0 -25.942833924180377 -630.37372287591279 0 0 0 0 1274.8164115834006 178.48528896105199 0 178.48528896105199 -1433.5917238885231 0 0 0 0 801.04576253479172 528.22051897303754 0 528.22051897303754 77.013271873125632 0 0 0 0 1560.5122141503525 888.88701582713475 0 888.88701582713475 279.4866531437292 0 0 0 0 1880.7885376753839 853.77737009594057 0 853.77737009594057 253.43081142714436 0 0 0 0 1421.8932448982086 1028.9377334703604 0 1028.9377334703604 126.51280194391074 0 0 0 0 915.11663505385513 671.55260455425741 0 671.55260455425741 318.21011911297683 0 0 0 0 901.0448615642963 744.08653822062479 0 744.08653822062479 213.61793990351543 0 0 0 0 1624.1089257610183 807.12178757740548 0 807.12178757740548 -227.01198312130873 0 0 0 0 433.21699165053724 798.34661892230724 0 798.34661892230724 -387.59294870475424 0 0 0 0 867.18373920012164 485.70178019706236 0 485.70178019706236 -182.23391442179854 0 0 0 0 297.56477398482821 579.81805492721469 0 579.81805492721469 263.21458280892693 0 0 0 0 726.26325644119061 926.55377106501692 0 926.55377106501692 52.668397942004958 0 0 0 0 219.97259216524253 775.67419447279462 0 775.67419447279462 -230.64727465837132 0 0 0 0 -177.62220544020965 413.40841962211744 0 413.40841962211744 -74.500038899837818 0 0 0 0 772.78602755701286 731.12748440467294 0 731.12748440467294 -744.91607532646594 0 0 0 0 347.81009200234257 222.10453536725981 0 222.10453536725981 -559.06879679411577 0 0 0 0 117.26309423929342 624.63892058750025 0 624.63892058750025 -1223.2878357881418 0 0 0 0 -501.50837155492627 450.49388640649704 0 450.49388640649704 -1111.0912132094963 0 0 0 0 -451.99548129342293 266.64886755830412 0 266.64886755830412 -591.20129513717256 0 0 0 0 -312.61756838981819 681.53580384916495 0 681.53580384916495 -580.41216606795524 0 0 0 0 -568.43746451469633 344.02616083075736 0 344.02616083075736 -534.95068971406727 0 0 0 0 -911.70420167464181 681.26368021754388 0 681.26368021754388 -179.69617890477821 0 0 0 0 -937.47092533810064 494.12153549282448 0 494.12153549282448 -632.71203851792598 0 0 0 0 -1369.7287219457357 451.2166636893744 0 451.2166636893744 -563.60237279324792 0 0 0 0 -1095.0429156839391 301.4235465642322 0 301.4235465642322 -921.82468141336722 0 0 0 0 -1075.8454922856617 548.34453198226038 0 548.34453198226038 -588.35583425355799 0 0 0 0 -1562.5780961710989 364.15874389844612 0 364.15874389844612 -895.4651838359714 0 0 0 0 -1109.473449707446 1901.7831766544941 0 1901.7831766544941 -2150.7405503269747 0 0 0 0 -1077.3291184836307 2134.8763419233328 0 2134.8763419233328 -2685.1333083955014 0 0 0 0 15.483481542681062 3.8405598377329255 0 3.8405598377329255 -19.560973345424831 0 0 0 0 -339.92955235343834 1534.6113631535386 0 1534.6113631535386 -1083.4994589420512 0 0 0 0 -1107.0402021137706 2072.3935548534691 0 2072.3935548534691 -2623.5302243921205 0 0 0 0 -452.42614945508831 -404.64433901038683 0 -404.64433901038683 -527.71175901739116 0 0 0 0 -5.3269993996449614 3.979077802866243 0 3.979077802866243 7.1224661444577171 0 0 0 0 -258.98182909449679 -252.76062882171675 0 -252.76062882171675 -409.95270009200067 0 0 0 0 -657.36882313081878 -288.09477999713204 0 -288.09477999713204 -368.07633720552985 0 0 0 0 0.93134204106826246 -15.739383108008241 0 -15.739383108008241 -30.791790419801739 0 0 0 0 -1133.7174435257475 1065.2194562671316 0 1065.2194562671316 -142.13465527945027 0 0 0 0 -588.32710576930549 380.12195286396036 0 380.12195286396036 -2070.5423641854341 0 0 0 0 -609.30690101221262 1613.9274752313677 0 1613.9274752313677 -2295.3441020461214 0 0 0 0 -1440.0948044698889 467.59205193660455 0 467.59205193660455 -3486.1340085884021 0 0 0 0 -2582.1946176607162 3134.0303665793272 0 3134.0303665793272 -3351.447706036377 0 0 0 0 11.443318978243042 1823.642477807336 0 1823.642477807336 -2697.6551284844245 0 0 0 0 -2.1246348429658752 11.244551588449795 0 11.244551588449795 -31.854181742064867 0 0 0 0 3590.5791227123991 -7.2498632630631619 0 -7.2498632630631619 -2868.8904711539362 0 0 0 0 2590.9611393134255 1660.3469794885023 0 1660.3469794885023 -5025.6687424569081 0 0 0 0 -4141.7134839019636 3481.4462785227488 0 3481.4462785227488 -2087.7116575300461 0 0 0 0 -921.32380488210765 1773.9437340802433 0 1773.9437340802433 -2886.126136366147 0 0 0 0 -1599.2996922921157 3057.7547830831591 0 3057.7547830831591 -5108.0520123002962 0 0 0 0 37.356208780067391 -355.89557330825846 0 -355.89557330825846 -681.18215546322267 0 0 0 0 -2535.4571036205743 2910.3007736056734 0 2910.3007736056734 -2845.5458165888094 0 0 0 0 -2829.0127511249757 2171.2128365926355 0 2171.2128365926355 -808.08759703042051 0 0 0 0 1816.6167150370748 -79.548133375477846 0 -79.548133375477846 1030.880457099207 0 0 0 0 2757.5315214360598 1578.7567742462415 0 1578.7567742462415 1.0388931390552898 0 0 0 0 -3.9687236823014942 26.535514728244465 0 26.535514728244465 -69.591603159678172 0 0 0 0 3508.3495053654624 1278.7618238325449 0 1278.7618238325449 -406.34928907536232 0 0 0 0 246.68265428090672 255.14631389396573 0 255.14631389396573 -145.8758665299174 0 0 0 0 2759.3252937805519 533.24968092357449 0 533.24968092357449 17.226238677278161 0 0 0 0 -1243.2478981063759 1108.0645439320488 0 1108.0645439320488 374.51874993903402 0 0 0 0 -6.334691454212134 7.0569113062793178 0 7.0569113062793178 -6.1425673350155137 0 0 0 0 -1496.0715200790873 2067.8677957640393 0 2067.8677957640393 -329.91552349080303 0 0 0 0 312.64631199868745 -123.65240170124162 0 -123.65240170124162 850.90900210523523 0 0 0 0 -504.95106181676965 832.32838691352572 0 832.32838691352572 136.60220228115622 0 0 0 0 -1199.7680786975834 1519.6347132727951 0 1519.6347132727951 -286.73435141425944 0 0 0 0 -1131.4415313471072 1810.1327069152235 0 1810.1327069152235 -1200.4663276761657 0 0 0 0 -1177.0753488497576 2163.7109181722171 0 2163.7109181722171 -938.3810753439684 0 0 0 0 -1076.31643861677 2178.5783711014869 0 2178.5783711014869 -1900.6422495683255 0 0 0 0 -1014.2979656747048 1963.5834081657258 0 1963.5834081657258 -2006.5690543863093 0 0 0 0 -1193.4410164139881 2164.1270255055924 0 2164.1270255055924 -2084.4698863836566 0 0 0 0 -1114.2875220926944 1859.214495171118 0 1859.214495171118 -2070.565750562695 0 0 0 0 -1311.8431783648703 1736.9849973419341 0 1736.9849973419341 -2768.6765116372881 0 0 0 0 -1178.0231066182023 2069.7141251417988 0 2069.7141251417988 -2048.1735257977289 0 0 0 0 -976.80963422748027 2112.8157358462322 0 2112.8157358462322 -2611.8956494972235 0 0 0 0 -1126.6195200495131 1868.7827058300081 0 1868.7827058300081 -2132.925432740828 0 0 0 0 -1661.0542531683313 1847.9605718922094 0 1847.9605718922094 -1199.152818025188 0 0 0 0 -1218.6185696477187 1952.9498720818724 0 1952.9498720818724 -1149.7049216043688 0 0 0 0 -1396.8769684774161 1579.7105625567037 0 1579.7105625567037 -410.27211683206224 0 0 0 0 -1121.2478010855266 1777.1654155720016 0 1777.1654155720016 -1243.0064736224049 0 0 0 0 -1500.4371805891278 1839.0886674897888 0 1839.0886674897888 -789.05667271595757 0 0 0 0 -1309.5531230067427 1702.6493406936561 0 1702.6493406936561 -1198.2196318759734 0 0 0 0 -1358.1021742410376 2130.8819232096239 0 2130.8819232096239 -1779.9653112636188 0 0 0 0 894.34658658331318 1723.3786579487319 0 1723.3786579487319 -1504.7947657643231 0 0 0 0 -815.84996853377379 2757.0796040868136 0 2757.0796040868136 -2098.8635865883234 0 0 0 0 1247.9004266253178 672.42976256610018 0 672.42976256610018 -342.17431657564612 0 0 0 0 8.9462221635573655 5.4213798898888541 0 5.4213798898888541 -5.5727176372082283 0 0 0 0 2417.8767334910444 460.84195649256208 0 460.84195649256208 -672.06021793914806 0 0 0 0 2520.9437526762049 579.26330156850372 0 579.26330156850372 -594.7944155317382 0 0 0 0 -2427.9077620362659 1780.253026840935 0 1780.253026840935 -1823.3697077724419 0 0 0 0 -2062.9405134947301 3102.2107973943553 0 3102.2107973943553 -1922.2799061637822 0 0 0 0 6.0589509135978119 5.2728835944946297 0 5.2728835944946297 4.9515033260036247 0 0 0 0 -890.33836700920074 -216.25083151436797 0 -216.25083151436797 -780.28765911528637 0 0 0 0 -986.84490635871043 469.48570347097507 0 469.48570347097507 17.349592404783834 0 0 0 0 2123.6569000272575 643.17481789173189 0 643.17481789173189 -477.85092882244044 0 0 0 0 2499.052280565832 -281.19988419831805 0 -281.19988419831805 -396.53340763935194 0 0 0 0 2517.4344171991834 67.41684946206351 0 67.41684946206351 -453.23904322076123 0 0 0 0 1460.6511248292518 250.35249446068883 0 250.35249446068883 -199.37529229410029 0 0 0 0 1779.3165067485606 -351.43472603417058 0 -351.43472603417058 228.50517633221352 0 0 0 0 1559.5588373113715 453.27059168668598 0 453.27059168668598 -246.71852798309192 0 0 0 0 1042.0625280137174 483.71036010345051 0 483.71036010345051 -82.931556873457339 0 0 0 0 1143.9161146027618 603.00108249865934 0 603.00108249865934 -198.92139471276369 0 0 0 0 1255.8139881015522 426.8880057080969 0 426.8880057080969 -49.555736210602845 0 0 0 0 606.23453094033175 95.830053886589667 0 95.830053886589667 196.88924115336329 0 0 0 0 224.64311155425094 194.62571104032941 0 194.62571104032941 43.462107137231214 0 0 0 0 365.46766204384039 442.7214919541434 0 442.7214919541434 -302.84174186960263 0 0 0 0 527.56210549203388 708.7515512152072 0 708.7515512152072 -105.13448409199009 0 0 0 0 1060.9179803269508 514.661777146247 0 514.661777146247 -275.62537185756435 0 0 0 0 200.23662337253336 744.84285715807437 0 744.84285715807437 -148.45726223918018 0 0 0 0 1100.1533127548773 640.01146023582839 0 640.01146023582839 -268.88043586962067 0 0 0 0 1082.2669524137018 455.7168151686933 0 455.7168151686933 -109.83452428953933 0 0 0 0 -208.13772424860508 900.22707864708138 0 900.22707864708138 -171.78393384409583 0 0 0 0 173.59635686022011 667.69131102602273 0 667.69131102602273 -200.7371227495164 0 0 0 0 516.62088328953541 692.02000467989183 0 692.02000467989183 -391.51652777470986 0 0 0 0 1268.8745127893926 778.0472320037602 0 778.0472320037602 -453.10117699244165 0 0 0 0 526.19659745087847 1108.6465834360506 0 1108.6465834360506 -1013.9171658809173 0 0 0 0 1250.703126993234 1283.8874848572407 0 1283.8874848572407 -971.5569223553448 0 0 0 0 259.78930597310682 1028.9939473166837 0 1028.9939473166837 -789.4739784315002 0 0 0 0 137.04878228268353 836.53055463956207 0 836.53055463956207 -445.37040157271417 0 0 0 0 56.767818727981648 1666.2839237347821 0 1666.2839237347821 -443.16983778116219 0 0 0 0 -570.49098824812972 1172.7627333175355 0 1172.7627333175355 -51.658467543686811 0 0 0 0 -24.135231590527837 1785.0677848937894 0 1785.0677848937894 634.06583481819234 0 0 0 0 -538.93243318868917 879.11135460644664 0 879.11135460644664 -168.05323445386102 0 0 0 0 -14.203098036465235 981.57047161584626 0 981.57047161584626 -813.20659563387562 0 0 0 0 -193.75694216159172 1101.0430398775361 0 1101.0430398775361 390.93483802182027 0 0 0 0 577.51909629146394 1413.1196948686172 0 1413.1196948686172 -553.88048684874275 0 0 0 0 0.53993523681856459 1260.1930533487339 0 1260.1930533487339 305.20886138232709 0 0 0 0 843.45479763734329 282.6052459127377 0 282.6052459127377 1147.1602184090862 0 0 0 0 808.44978106887584 1537.980457434707 0 1537.980457434707 568.48735040477641 0 0 0 0 574.40534980474331 112.25386952310964 0 112.25386952310964 -38.767556648137543 0 0 0 0 10.044212010267302 12.040652858881799 0 12.040652858881799 5.2764483880342397 0 0 0 0 17.203955409924674 508.68267881999645 0 508.68267881999645 1834.8755835318627 0 0 0 0 0.16357236099429429 773.15087063467399 0 773.15087063467399 2019.0337252637228 0 0 0 0 766.69080976313853 724.43156794261131 0 724.43156794261131 374.88228221146892 0 0 0 0 136.38993216920062 457.75383535371543 0 457.75383535371543 26.04110408885947 0 0 0 0 -1344.8729397322932 178.61707128263311 0 178.61707128263311 -57.930686118970698 0 0 0 0 1.4915708978219726 9.1058835185633882 0 9.1058835185633882 -2.8282908774721456 0 0 0 0 -1112.1737430457724 648.13012007736734 0 648.13012007736734 26.400868966548842 0 0 0 0 -693.63714772936146 296.57792778636349 0 296.57792778636349 -328.31625303902729 0 0 0 0 -630.38439821766588 466.60706848136192 0 466.60706848136192 -47.038920878068893 0 0 0 0 10.300679024410783 17.746071378601016 0 17.746071378601016 12.792741681313462 0 0 0 0 -3.9353353384580601 15.746614055277576 0 15.746614055277576 -2.1407228781948717 0 0 0 0 18.793989562458592 62.758900758371965 0 62.758900758371965 69.443443970063527 0 0 0 0 126.61967292895133 -87.856353877034962 0 -87.856353877034962 144.4830967965836 0 0 0 0 -63.560662689164019 284.62325377978573 0 284.62325377978573 1428.713920637776 0 0 0 0 61.841746167876408 202.88500888397357 0 202.88500888397357 255.57397561389962 0 0 0 0 -101.11905064991151 -139.14257492918841 0 -139.14257492918841 128.08588323083632 0 0 0 0 233.35750589575036 130.1586580327903 0 130.1586580327903 4.3938266854966059 0 0 0 0 31.860773255320964 -28.081668120469658 0 -28.081668120469658 -75.679866547127858 0 0 0 0 0.62946662185277091 99.433185626265185 0 99.433185626265185 85.694174933791146 0 0 0 0 77.81165188094019 67.089218896943748 0 67.089218896943748 24.156779775352334 0 0 0 0 -7.4089332814205022 6.3257416320320203 0 6.3257416320320203 8.0281515787182229 0 0 0 0 -216.15582871194783 -31.989957956338003 0 -31.989957956338003 590.97428297401348 0 0 0 0 636.54314618486387 431.3330397862519 0 431.3330397862519 289.96724489910895 0 0 0 0 789.62313499513766 818.8307341011182 0 818.8307341011182 582.27114063967747 0 0 0 0 -5.3866266571957908 5.481741436599151 0 5.481741436599151 12.855471530603467 0 0 0 0 7.0068531438228092 5.8480346086671489 0 5.8480346086671489 4.8596942792664777 0 0 0 0 -0.070039568920865283 16.480053761510813 0 16.480053761510813 -8.2466494097352552 0 0 0 0 -701.38318389567576 547.99093811745843 0 547.99093811745843 751.90984217739242 0 0 0 0 408.95052202754596 861.89527016974353 0 861.89527016974353 998.01819617244109 0 0 0 0 1698.5897415892832 1425.6822583234016 0 1425.6822583234016 451.53187021821668 0 0 0 0 1216.5046316088119 551.00744586980363 0 551.00744586980363 76.605002397038334 0 0 0 0 -3.2423733390560869 2.7221385542986809 0 2.7221385542986809 6.9623553403664928 0 0 0 0 -1027.1027561826922 -191.46178832569876 0 -191.46178832569876 171.38762681453591 0 0 0 0 170.19872507488617 354.35214670598725 0 354.35214670598725 198.09676110181317 0 0 0 0 160.48433013877366 284.15390463890981 0 284.15390463890981 -61.107862216664898 0 0 0 0 37.686632879136596 1072.4884869083016 0 1072.4884869083016 1122.1199021191205 0 0 0 0 894.97617242459091 459.80238162057958 0 459.80238162057958 194.69736816443071 0 0 0 0 534.04387547582155 33.60776117435762 0 33.60776117435762 732.87459970071177 0 0 0 0 401.82582605580683 363.79799912226372 0 363.79799912226372 134.78225390010266 0 0 0 0 229.40908668481279 86.805983401889534 0 86.805983401889534 173.02710142294586 0 0 0 0 482.68032436557405 157.31788195571971 0 157.31788195571971 -76.419553480005561 0 0 0 0 108.43582072643039 178.2230562894174 0 178.2230562894174 -77.529622600348375 0 0 0 0 -3.8753991055016286 16.710415565675802 0 16.710415565675802 -49.794659911915261 0 0 0 0 -9.0173585357173209 20.764514371400793 0 20.764514371400793 -32.001711823140198 0 0 0 0 46.109694969723932 21.68067464978958 0 21.68067464978958 -30.455781867989572 0 0 0 0 71.988229518727167 -14.88665911445969 0 -14.88665911445969 -11.880915320602071 0 0 0 0 252.33012071032499 -16.86434323643175 0 -16.86434323643175 -88.482168579408608 0 0 0 0 -212.43717705670497 56.226431435471568 0 56.226431435471568 11.788584523339523 0 0 0 0 106.31376056777663 -11.559329617932235 0 -11.559329617932235 -279.95869958937692 0 0 0 0 115.78397557462449 77.425348269433016 0 77.425348269433016 220.67014722540625 0 0 0 0 -58.172936781818862 -315.31720125450011 0 -315.31720125450011 -95.528011959342621 0 0 0 0 -65.084782506062766 -64.211548129525909 0 -64.211548129525909 -260.043181353205 0 0 0 0 3.9677719450410223 33.983950186060611 0 33.983950186060611 -24.146230643797026 0 0 0 0 -13.881298462508965 28.466506184965311 0 28.466506184965311 -36.338037121328369 0 0 0 0 4.8047960510011762 -141.87542051607306 0 -141.87542051607306 -210.34217958888621 0 0 0 0 452.93908185175496 -614.8099262928481 0 -614.8099262928481 193.30511056311661 0 0 0 0 -13.193985523044319 22.484998105964458 0 22.484998105964458 -21.35198993724649 0 0 0 0 84.338030507584335 24.833886929871369 0 24.833886929871369 -480.31701097768382 0 0 0 0 -4.5586901339265751 66.540121890284354 0 66.540121890284354 75.256173489806315 0 0 0 0 8.1775878256157739 44.043567427723247 0 44.043567427723247 -34.406607157614872 0 0 0 0 -6.0022044750607364 17.851848709829085 0 17.851848709829085 -31.266675729830013 0 0 0 0 1.1367091592052816 2.5849163236466008 0 2.5849163236466008 -5.9411510444600868 0 0 0 0 377.77606262539575 -0.1917547989815489 0 -0.1917547989815489 -137.248444181987 0 0 0 0 553.67711636745662 585.14414787898841 0 585.14414787898841 510.27382848158459 0 0 0 0 -4.2736211558448929 9.6261136854606661 0 9.6261136854606661 1.9205710333936352 0 0 0 0 533.56432742182369 443.67016513880753 0 443.67016513880753 181.3931503986405 0 0 0 0 -32.102081400313182 67.819455190219287 0 67.819455190219287 34.11324345104731 0 0 0 0 -14.524888932779987 38.262121201464979 0 38.262121201464979 -9.5092548758069668 0 0 0 0 2.4133225858415699 39.085983975028057 0 39.085983975028057 -15.817383910939775 0 0 0 0 0.74896211255691014 44.346308236079494 0 44.346308236079494 -6.8240637091148528 0 0 0 0 -63.388299708240083 38.561412401490998 0 38.561412401490998 11.555377929773613 0 0 0 0 305.65640216437168 91.428602094642883 0 91.428602094642883 -106.0566411231739 0 0 0 0 2.8067879736403683 20.627893916882755 0 20.627893916882755 16.278169328006634 0 0 0 0 -57.195019152532041 80.450052921504607 0 80.450052921504607 19.124455555502664 0 0 0 0 267.48240169827477 492.09170739804085 0 492.09170739804085 15.096206891601469 0 0 0 0 -50.69963877167902 -49.394798997014732 0 -49.394798997014732 12.861001179103368 0 0 0 0 -328.14177351201943 114.5551431736194 0 114.5551431736194 92.639354558072228 0 0 0 0 995.35002347519912 468.89700704582719 0 468.89700704582719 150.84137559708461 0 0 0 0 -0.41596228559846793 2.7118019123863633 0 2.7118019123863633 0.38111925702403227 0 0 0 0 1298.5257870560163 567.58326646721639 0 567.58326646721639 -124.96478533173286 0 0 0 0 771.00345319448388 770.67558490833017 0 770.67558490833017 -230.00348029862471 0 0 0 0 954.05861236507189 533.1922009895593 0 533.1922009895593 -30.022975119529292 0 0 0 0 521.38242595356132 497.41808877139465 0 497.41808877139465 -229.29236576945914 0 0 0 0 877.68804005128914 743.67786727476891 0 743.67786727476891 -156.16696620835319 0 0 0 0 793.939320596779 835.68971045889612 0 835.68971045889612 -428.70235132717062 0 0 0 0 189.37498976774805 798.05221239405137 0 798.05221239405137 -173.48701945677499 0 0 0 0 85.627539141001762 586.25692856711657 0 586.25692856711657 -281.317234538923 0 0 0 0 486.54935857989767 979.56261337742762 0 979.56261337742762 -635.34019196430381 0 0 0 0 6.284126273810557 6.1561858446846998 0 6.1561858446846998 5.9300599475682318 0 0 0 0 536.62604047565401 1186.6182930403365 0 1186.6182930403365 190.31419425394415 0 0 0 0 395.76248179201502 869.71124471893017 0 869.71124471893017 1084.970920746784 0 0 0 0 488.49620363809663 734.36770907531263 0 734.36770907531263 278.85582600345515 0 0 0 0 768.49697462370386 817.35573381137783 0 817.35573381137783 255.1158515111274 0 0 0 0 -365.45013379197917 308.7892844539856 0 308.7892844539856 17.910850591651979 0 0 0 0 -107.71511407343496 85.702120958270825 0 85.702120958270825 72.327371253278216 0 0 0 0 -144.03763156554305 231.58679180011268 0 231.58679180011268 -57.978149609043612 0 0 0 0 -33.317160702048568 157.42772093980966 0 157.42772093980966 -118.04670713191445 0 0 0 0 31.141862693941221 260.65800099294211 0 260.65800099294211 -368.60727421957927 0 0 0 0 -65.860762291044011 245.84184590623954 0 245.84184590623954 -178.77187577355653 0 0 0 0 -51.096139247792962 287.15053909863036 0 287.15053909863036 -332.95870283311524 0 0 0 0 -429.46111395810658 381.74641116844214 0 381.74641116844214 -62.299974009212747 0 0 0 0 -243.55607895296998 434.24800047364624 0 434.24800047364624 -376.90358514006221 0 0 0 0 -643.34613132642698 303.60910404262177 0 303.60910404262177 -90.554637103204186 0 0 0 0 -355.21696034806519 209.72224814692891 0 209.72224814692891 -67.471914677559653 0 0 0 0 -3.1059602706839442 13.33309595379275 0 13.33309595379275 -21.232884757937484 0 0 0 0 794.01976912876307 522.8117743063267 0 522.8117743063267 -345.05653829443327 0 0 0 0 -186.88982831238536 441.63488766729097 0 441.63488766729097 206.42089370252143 0 0 0 0 1.2824000041218824 -74.562842824405379 0 -74.562842824405379 -46.411478775138676 0 0 0 0 -550.19721928965737 174.18389176011988 0 174.18389176011988 472.21167293725739 0 0 0 0 1149.0648554911641 1090.2616810485142 0 1090.2616810485142 -1965.1381405993452 0 0 0 0 -2556.8932326648955 2119.0137773164952 0 2119.0137773164952 -1058.2575572042551 0 0 0 0 -2.7004246941265286 8.6446017591645301 0 8.6446017591645301 -11.440347303335216 0 0 0 0 -658.78531931304315 2802.7503868174754 0 2802.7503868174754 -3110.0272448973628 0 0 0 0 -1099.5643916637782 1424.77917516663 0 1424.77917516663 -711.67849495604605 0 0 0 0 -962.66270535821241 1057.4334392394812 0 1057.4334392394812 -1126.3471774087375 0 0 0 0 -831.48005575741718 36.405674414326313 0 36.405674414326313 345.60465010456392 0 0 0 0 -342.90548817081071 228.28805758317685 0 228.28805758317685 154.70224816614791 0 0 0 0 -489.18141385156287 1.7960622727391637 0 1.7960622727391637 236.058621015276 0 0 0 0 281.10875652956747 446.52301743817952 0 446.52301743817952 542.92243924309878 0 0 0 0 146.16590301394899 -172.65334645533949 0 -172.65334645533949 342.98267787957593 0 0 0 0 -49.041947404519306 388.33961515002011 0 388.33961515002011 505.44747273387839 0 0 0 0 133.68136707990197 173.25085648299864 0 173.25085648299864 580.00145400647853 0 0 0 0 -103.24842110458849 309.45506291921265 0 309.45506291921265 673.76150419623809 0 0 0 0 -23.078225505415503 173.18324437381716 0 173.18324437381716 219.16040277556021 0 0 0 0 -74.752738222457992 281.21643520837824 0 281.21643520837824 156.04541610764863 0 0 0 0 15.14224759519675 336.28311400326857 0 336.28311400326857 267.41639046533965 0 0 0 0 248.48271511767234 167.79115897427982 0 167.79115897427982 114.6123653209288 0 0 0 0 -75.768149801420805 97.498158562746539 0 97.498158562746539 144.39841611951852 0 0 0 0 -1.547222363890711 10.739597282339631 0 10.739597282339631 -9.2080012239375577 0 0 0 0 -64.737917188765749 42.109526104093518 0 42.109526104093518 -23.932624330349952 0 0 0 0 -119.71141365659423 213.67021062079584 0 213.67021062079584 576.61584845311882 0 0 0 0 28.922750066732988 391.17197270588076 0 391.17197270588076 514.09068740258863 0 0 0 0 137.61462094257786 167.5839494352831 0 167.5839494352831 -119.18489255285385 0 0 0 0 34.872396533384745 267.60613032866968 0 267.60613032866968 431.85766899603186 0 0 0 0 89.852763170478283 366.68883540768002 0 366.68883540768002 455.06687750808487 0 0 0 0 113.27190500475263 316.01609540108257 0 316.01609540108257 441.79872485273518 0 0 0 0 8.2003337892529089 362.97574870052631 0 362.97574870052631 469.19040654059791 0 0 0 0 18.202141457353719 290.06583599992155 0 290.06583599992155 436.40866382102467 0 0 0 0 46.73564698449627 220.77984255467891 0 220.77984255467891 487.39938394491037 0 0 0 0 -48.676862370906747 272.83211977730389 0 272.83211977730389 484.20957418376656 0 0 0 0 3.5752466205449309 354.07847974130345 0 354.07847974130345 326.17576626774098 0 0 0 0 -10.79300235628034 208.91783619057242 0 208.91783619057242 148.08359386858501 0 0 0 0 9.9821816022495113 353.15148750534308 0 353.15148750534308 55.99006368497794 0 0 0 0 14.248946191713912 255.13624012153014 0 255.13624012153014 233.43404114716395 0 0 0 0 206.96342241761886 300.10809169356435 0 300.10809169356435 182.50826012854668 0 0 0 0 32.851411598036066 255.59623819453554 0 255.59623819453554 514.55258184074728 0 0 0 0 44.918222223146586 281.21099238895113 0 281.21099238895113 316.05351536034868 0 0 0 0 -4.3396223727813776 345.81829200639368 0 345.81829200639368 261.5283627321769 0 0 0 0 118.31038251789869 287.69783314494634 0 287.69783314494634 19.391474108531838 0 0 0 0 54.176710139483475 413.97394123274717 0 413.97394123274717 98.513438514564768 0 0 0 0 50.447229383204103 385.69161663857813 0 385.69161663857813 -198.40478967096715 0 0 0 0 30.605693731500651 308.42277359148284 0 308.42277359148284 4.8551457706125802 0 0 0 0 -2.1348679764923872 313.3257090956904 0 313.3257090956904 14.979473935021815 0 0 0 0 27.290401416146779 366.75157940436475 0 366.75157940436475 -273.81223445363867 0 0 0 0 -45.886899046658073 264.20520142280293 0 264.20520142280293 54.074983061547641 0 0 0 0 -7.9850816626421874 292.87456562165244 0 292.87456562165244 -217.90469028157531 0 0 0 0 -275.22878942496754 371.40014088781754 0 371.40014088781754 -240.48045585048385 0 0 0 0 166.34379103276297 247.84729063184204 0 247.84729063184204 -698.76858910492228 0 0 0 0 -7.0748522954891087 445.23992754274877 0 445.23992754274877 -611.66589957245742 0 0 0 0 59.311684489599429 292.44298525585327 0 292.44298525585327 -273.5053160146141 0 0 0 0 78.393466781977622 252.81889075541039 0 252.81889075541039 -513.10770883184159 0 0 0 0 170.01466805968084 188.12361857812721 0 188.12361857812721 -521.21843454778082 0 0 0 0 -68.975451519829221 248.43235617778919 0 248.43235617778919 -235.10520619695308 0 0 0 0 36.283265250196564 181.22962915725111 0 181.22962915725111 -179.28215887290571 0 0 0 0 -8.5622408315903158 254.82030580211722 0 254.82030580211722 -244.18267710266809 0 0 0 0 -15.646439849653689 241.0072842779482 0 241.0072842779482 -220.88000832272519 0 0 0 0 -98.825024070421932 279.82864728917048 0 279.82864728917048 108.30779673542929 0 0 0 0 -212.92293493092257 117.65001149730097 0 117.65001149730097 -247.84741166802996 0 0 0 0 -24.109401797730243 258.91566288640752 0 258.91566288640752 -756.9898780562653 0 0 0 0 39.824036239559064 285.92795283498344 0 285.92795283498344 -591.15687511854048 0 0 0 0 -37.351895092619088 171.25305492072675 0 171.25305492072675 -337.10702832107199 0 0 0 0 -96.413457788061351 388.02589187310514 0 388.02589187310514 -479.45518101598282 0 0 0 0 41.5098466477275 249.68742289281909 0 249.68742289281909 -345.79510149703856 0 0 0 0 -121.2696499802405 244.62757067351777 0 244.62757067351777 -269.05256853534229 0 0 0 0 -0.36282545765693897 -0.90540441515378234 0 -0.90540441515378234 -3.913321019911308 0 0 0 0 -596.79255244968954 650.43042969293674 0 650.43042969293674 -586.9805212140709 0 0 0 0 19.242394085721429 3.6619374846405037 0 3.6619374846405037 -16.991467604859935 0 0 0 0 -161.52532208919001 254.28988688305435 0 254.28988688305435 -258.67874596743786 0 0 0 0 -72.663731767999707 145.862687972407 0 145.862687972407 -133.07241854248332 0 0 0 0 -46.324234443920432 84.542456415394554 0 84.542456415394554 61.958636557101272 0 0 0 0 -4.0687204851361116 17.761728274005279 0 17.761728274005279 7.9623243980791258 0 0 0 0 -60.085966623053537 124.49606603861321 0 124.49606603861321 -46.264531226195686 0 0 0 0 -4.4673615279716614 176.71771149569304 0 176.71771149569304 -178.67979677135008 0 0 0 0 3.7101427033776417 162.89759944610705 0 162.89759944610705 -204.85700727238873 0 0 0 0 -89.442710149014601 241.07398380565428 0 241.07398380565428 -171.45281183470797 0 0 0 0 -4.5323249555076472 257.06389822209894 0 257.06389822209894 -335.10812381947471 0 0 0 0 -53.582896789943334 259.80563332168094 0 259.80563332168094 -78.734391558893549 0 0 0 0 55.825276147551676 -8.6881694155407558 0 -8.6881694155407558 -56.628827178137726 0 0 0 0 45.933760191313922 110.72409855837395 0 110.72409855837395 -78.307763817558225 0 0 0 0 272.48763645785948 -145.17827030652552 0 -145.17827030652552 -238.99868158189201 0 0 0 0 81.977877320812567 32.405094043723842 0 32.405094043723842 5.6459135770330775 0 0 0 0 77.444431133662874 36.537015367994172 0 36.537015367994172 36.910364508963539 0 0 0 0 131.98970539208131 51.624325335596041 0 51.624325335596041 -38.46544642453955 0 0 0 0 73.788776278809166 27.478691582056925 0 27.478691582056925 2.7924056017722236 0 0 0 0 63.974785191989213 67.015167302983173 0 67.015167302983173 -15.671892217149434 0 0 0 0 83.051882031512832 42.236763428648828 0 42.236763428648828 -18.742174012753821 0 0 0 0 87.712988750074146 60.180263496491534 0 60.180263496491534 7.0224521340096544 0 0 0 0 88.621430712053552 94.256370746097673 0 94.256370746097673 -19.736952742518497 0 0 0 0 85.873534481968818 50.253872234781738 0 50.253872234781738 -11.883257477045845 0 0 0 0 -2.7380735091476396 0.1786691722840672 0 0.1786691722840672 2.1651588650618692 0 0 0 0 -47.713204860650876 60.803267596256774 0 60.803267596256774 14.731611855051597 0 0 0 0 -47.018199573038146 51.168320203309122 0 51.168320203309122 38.426295100012794 0 0 0 0 106.55837619324302 45.680229009136383 0 45.680229009136383 -21.123942171529052 0 0 0 0 6.4846710378133139 44.085929149907315 0 44.085929149907315 -27.87369156962086 0 0 0 0 1.445375954708652 82.746045164215957 0 82.746045164215957 -34.191174233070342 0 0 0 0 -27.558926676443662 90.931124718823412 0 90.931124718823412 -78.304859784635482 0 0 0 0 96.908761281991247 47.421661054082506 0 47.421661054082506 18.833266157078469 0 0 0 0 34.077877745087669 50.588754617010821 0 50.588754617010821 32.761476347250209 0 0 0 0 54.341444625526492 65.860765378303768 0 65.860765378303768 24.719117659962649 0 0 0 0 0.00015828497271286324 -5.2264148701906379 0 -5.2264148701906379 94.508453842267045 0 0 0 0 0.70539380416669673 1.2632729348125338 0 1.2632729348125338 1.1637074081367018 0 0 0 0 241.75604962209763 168.80807684117462 0 168.80807684117462 21.144698435453392 0 0 0 0 36.087201672729861 67.594822327340808 0 67.594822327340808 62.441290141985519 0 0 0 0 -101.27030339241173 14.173988761540386 0 14.173988761540386 64.382788884009642 0 0 0 0 34.111972257363959 88.060906577735295 0 88.060906577735295 90.940502970544912 0 0 0 0 -130.44820808774193 169.30446736419685 0 169.30446736419685 -135.52276748446457 0 0 0 0 269.6995226531435 13.867000452057255 0 13.867000452057255 -86.106542569879821 0 0 0 0 -0.1406688125808877 1.3458551803501138 0 1.3458551803501138 2.2325895260388791 0 0 0 0 159.26788711181871 155.66669751521749 0 155.66669751521749 -264.73508890810626 0 0 0 0 88.916184846768374 123.29715127910731 0 123.29715127910731 13.150083892120165 0 0 0 0 76.216058975376654 58.504100865800865 0 58.504100865800865 -40.684476032784005 0 0 0 0 80.159582262924232 89.644212073217204 0 89.644212073217204 -168.13745783048944 0 0 0 0 87.877242390841275 163.63304460384097 0 163.63304460384097 -380.89342038035102 0 0 0 0 25.412565152168099 218.42910201759878 0 218.42910201759878 -273.98430216081397 0 0 0 0 138.5326744824597 197.33446862405253 0 197.33446862405253 -645.15933873187896 0 0 0 0 -16.548880837741308 365.02878466758557 0 365.02878466758557 -394.00436026398438 0 0 0 0 -305.68660350024584 689.00914464826201 0 689.00914464826201 -748.83005887269246 0 0 0 0 -18.246967314516951 351.99800475081065 0 351.99800475081065 -493.67594892336638 0 0 0 0 27.052197079181497 338.63784842474888 0 338.63784842474888 -520.04958089143474 0 0 0 0 1149.7235817246292 117.6155162500404 0 117.6155162500404 -889.10319687364972 0 0 0 0 -1.5061970188987708 5.7183034454483135 0 5.7183034454483135 -9.428083855648083 0 0 0 0 -1459.9315930301091 861.48739302782269 0 861.48739302782269 -390.77511775774474 0 0 0 0 -89.484087520984758 548.89039068882084 0 548.89039068882084 -1027.5273720196274 0 0 0 0 -572.4405159388989 42.790191465006501 0 42.790191465006501 -376.78453049084783 0 0 0 0 89.5068446138539 501.84554826590829 0 501.84554826590829 -1019.5093885994847 0 0 0 0 -591.75150854037361 589.71282391110799 0 589.71282391110799 -608.5803851978053 0 0 0 0 -403.51836096493207 362.46061710760114 0 362.46061710760114 -314.94713077961205 0 0 0 0 -87.742655811656732 285.8565342821712 0 285.8565342821712 -472.3120650200508 0 0 0 0 -181.00927818813216 17.672850074890448 0 17.672850074890448 -396.23292525314537 0 0 0 0 -257.99562986983074 111.47280512101497 0 111.47280512101497 30.669349687625072 0 0 0 0 -103.89121434911794 -78.068555608591851 0 -78.068555608591851 -48.648117309310692 0 0 0 0 -181.92140400198696 132.97864871867205 0 132.97864871867205 -160.14188091613687 0 0 0 0 -119.95231008637347 125.51002193880413 0 125.51002193880413 -168.41128577417658 0 0 0 0 -195.47154253235203 155.45023761381162 0 155.45023761381162 8.4155830407617032 0 0 0 0 -145.62910894733795 70.078054866007733 0 70.078054866007733 -206.87980550290376 0 0 0 0 -110.91668761646724 -1.8583941940451041 0 -1.8583941940451041 -165.18554931142717 0 0 0 0 -160.16642660962498 118.38519973465645 0 118.38519973465645 -302.49694254265341 0 0 0 0 -98.613699011082645 126.50034026532921 0 126.50034026532921 -301.9669010202997 0 0 0 0 -192.64069750279396 246.44971447357375 0 246.44971447357375 -261.84873764408985 0 0 0 0 0.43441549843555549 232.07233297717539 0 232.07233297717539 -796.81554935944587 0 0 0 0 -102.26983557544736 172.76441907877597 0 172.76441907877597 -516.02250334660494 0 0 0 0 -101.49121783561714 322.39425383867638 0 322.39425383867638 -515.4753391685291 0 0 0 0 -22.000693569065334 145.03773627253759 0 145.03773627253759 -776.2488104011718 0 0 0 0 -11.208101744727173 205.27055992888927 0 205.27055992888927 -611.71188324630396 0 0 0 0 -32.865393546475389 122.18385304919502 0 122.18385304919502 -609.94953333467231 0 0 0 0 -98.419760006974684 105.89901648130217 0 105.89901648130217 -371.66269390564412 0 0 0 0 -137.82092131991521 53.886940043703362 0 53.886940043703362 -107.82864902765141 0 0 0 0 1.8518215404328657 28.540986883537698 0 28.540986883537698 -365.16593068213069 0 0 0 0 -133.05461339250178 107.14153470312522 0 107.14153470312522 -491.11451705148647 0 0 0 0 -55.932543192342564 82.667359283823316 0 82.667359283823316 -110.43733420118224 0 0 0 0 117.77366275696841 -136.79138515305385 0 -136.79138515305385 -216.04928652937087 0 0 0 0 57.38386574749893 112.8133871002974 0 112.8133871002974 -498.19416196070233 0 0 0 0 -60.854552933808009 421.4155803297981 0 421.4155803297981 -850.80747062236878 0 0 0 0 -220.74000146315666 -42.509918562107487 0 -42.509918562107487 -482.99909886426394 0 0 0 0 33.203579838451333 307.98764665735052 0 307.98764665735052 -116.57713326941303 0 0 0 0 -354.19664048535196 299.52771449096144 0 299.52771449096144 -866.57910780575912 0 0 0 0 -389.93917846431577 599.36471469517255 0 599.36471469517255 -1070.9434519217757 0 0 0 0 10.043544368651055 109.37919959458668 0 109.37919959458668 -727.61235064551875 0 0 0 0 -164.01447443606594 272.71926801282825 0 272.71926801282825 -881.76389929769357 0 0 0 0 -205.04154380412365 305.08538781350944 0 305.08538781350944 -745.07886847203099 0 0 0 0 -469.79547149669088 514.03576420704485 0 514.03576420704485 -910.81321808786743 0 0 0 0 -201.77949227067438 335.12782398157287 0 335.12782398157287 -906.52109207238391 0 0 0 0 -790.50255037729221 668.89194870157371 0 668.89194870157371 -893.81404087389819 0 0 0 0 -509.38236170819073 473.86623614506789 0 473.86623614506789 -936.84587389937951 0 0 0 0 -700.75398428266635 795.43069029427352 0 795.43069029427352 -1029.1516728569886 0 0 0 0 -830.86360759380841 708.40292323376252 0 708.40292323376252 -1007.1584543201316 0 0 0 0 -625.91567096336075 535.04051845755203 0 535.04051845755203 -710.38743363149479 0 0 0 0 -93.670020000368822 326.14998993758854 0 326.14998993758854 -709.31150787978004 0 0 0 0 238.4346862925413 238.76581824512596 0 238.76581824512596 -799.83292166375031 0 0 0 0 -222.65830714819458 335.2711015573841 0 335.2711015573841 -772.63709463305713 0 0 0 0 -40.080785389829543 126.66059087582471 0 126.66059087582471 -666.25638054459068 0 0 0 0 -1790.6337705511251 181.7664867763815 0 181.7664867763815 -860.39599591912338 0 0 0 0 -1485.6910693184618 188.41219596584779 0 188.41219596584779 -1115.8807697406301 0 0 0 0 -1638.7803182014759 482.79586727602145 0 482.79586727602145 -678.99587174072076 0 0 0 0 -1430.2274168426593 204.90922423035181 0 204.90922423035181 -940.77370000185329 0 0 0 0 -1705.232552706264 115.72066313497999 0 115.72066313497999 -1566.3936041214292 0 0 0 0 -2591.2866551950428 13.505843430182722 0 13.505843430182722 -876.01268608175269 0 0 0 0 -1875.8750031084564 214.6750739987383 0 214.6750739987383 -828.97618331972626 0 0 0 0 -1801.0316860167623 216.72005490315496 0 216.72005490315496 -977.64961086033873 0 0 0 0 -1533.2365074450354 928.48113557448232 0 928.48113557448232 -810.62963534821756 0 0 0 0 -2117.2974135966651 385.71291279095749 0 385.71291279095749 -889.52237012202932 0 0 0 0 -2790.3149571369477 884.85415578521406 0 884.85415578521406 -713.11117390130676 0 0 0 0 -838.00787397517706 1353.7852318524328 0 1353.7852318524328 -1853.7446519041223 0 0 0 0 -112.23314013436175 96.644392038011574 0 96.644392038011574 -980.91948349040831 0 0 0 0 -303.13322265344323 193.51576983321138 0 193.51576983321138 -83.434100633690832 0 0 0 0 -605.03766131645534 943.85366138086101 0 943.85366138086101 -1217.2570227252008 0 0 0 0 -1270.8520758980449 632.23182538569472 0 632.23182538569472 -953.30915241793264 0 0 0 0 -1082.8586040317605 844.15892116514442 0 844.15892116514442 -981.71165040540973 0 0 0 0 -771.7231605908928 674.23322915193785 0 674.23322915193785 -1201.6799084121667 0 0 0 0 -1081.6450981154849 746.66718868126372 0 746.66718868126372 -1006.0407208855286 0 0 0 0 -885.37825265008723 906.3597101351661 0 906.3597101351661 -1285.490316774747 0 0 0 0 -1114.8382049824468 849.3559944043991 0 849.3559944043991 -1233.07957916749 0 0 0 0 -1271.2810091176798 642.07004546129247 0 642.07004546129247 -1503.8934791751308 0 0 0 0 -1448.7616956864294 612.29214579030668 0 612.29214579030668 -1201.9068760466289 0 0 0 0 -1466.9772164960377 621.41814364695529 0 621.41814364695529 -1038.5349582252238 0 0 0 0 -1804.7282303076718 427.48738508074166 0 427.48738508074166 -889.6207396045229 0 0 0 0 -1449.7576620142545 559.01942072548718 0 559.01942072548718 -1233.9183230931885 0 0 0 0 -1779.9807810867351 296.24018951713151 0 296.24018951713151 -1032.372637594086 0 0 0 0 -1699.105950821955 190.65669125896966 0 190.65669125896966 -1310.5048777174088 0 0 0 0 -1506.1228263510711 422.1245819863434 0 422.1245819863434 -1830.4578102310697 0 0 0 0 -1351.2420509018266 871.65778901410158 0 871.65778901410158 -1776.2848360699736 0 0 0 0 -1704.1470587293807 357.49757639430754 0 357.49757639430754 -1365.3925424694025 0 0 0 0 -1689.9466962885344 340.20639920167014 0 340.20639920167014 -2047.7919074697668 0 0 0 0 -2419.5351326086675 454.79476035380139 0 454.79476035380139 -2053.4919020405059 0 0 0 0 -2050.8126278852033 448.40557604072637 0 448.40557604072637 -1564.815917085587 0 0 0 0 -1502.4753816976736 228.03807689862151 0 228.03807689862151 -1487.4957488553064 0 0 0 0 -1753.9474282456104 309.17745564616871 0 309.17745564616871 -1166.3168041649769 0 0 0 0 -1931.0390295274738 2765.9886021825296 0 2765.9886021825296 -1758.7612088562601 0 0 0 0 -2811.1167307775395 643.69321782604675 0 643.69321782604675 -3333.7952705467542 0 0 0 0 -2714.745154384349 1952.3190307127261 0 1952.3190307127261 234.74414523852101 0 0 0 0 -3.4550048876185429 1.9930109002640819 0 1.9930109002640819 -3.7042027634661423 0 0 0 0 -1292.441830446769 1290.8906418418519 0 1290.8906418418519 -2576.2920622953216 0 0 0 0 -1587.3557599953419 412.3818670420369 0 412.3818670420369 -2661.8864737959084 0 0 0 0 -1278.687023703962 1458.1409980625963 0 1458.1409980625963 -1564.9160858233299 0 0 0 0 -1261.0944140012944 918.04066470810176 0 918.04066470810176 -2019.5753425757575 0 0 0 0 -1362.5253302700439 1342.819784817837 0 1342.819784817837 -1307.9014217435561 0 0 0 0 -1343.1756434913077 1390.2371860442363 0 1390.2371860442363 -1434.724513084886 0 0 0 0 -1222.6435160265974 1083.8353557446826 0 1083.8353557446826 -1412.4704762229239 0 0 0 0 -1122.2835187957244 1024.4321262072153 0 1024.4321262072153 -1433.3205851339117 0 0 0 0 -1134.5832858788308 1074.4666779956206 0 1074.4666779956206 -1083.4396919226929 0 0 0 0 -1379.864339325708 1506.7837862065498 0 1506.7837862065498 -1517.8030057520809 0 0 0 0 -1209.1464257512707 1213.6098770757762 0 1213.6098770757762 -1338.7628853773931 0 0 0 0 -2.3847490720069828 2.6041019560144179 0 2.6041019560144179 -1.3747628214818235 0 0 0 0 -1624.9464316459125 1602.7033648090255 0 1602.7033648090255 -1463.2266074984436 0 0 0 0 -1814.9621406046208 787.32918538211197 0 787.32918538211197 -1263.162234444957 0 0 0 0 -1633.2609704185452 1551.8575151851001 0 1551.8575151851001 -1079.1578696752404 0 0 0 0 -4.6401924941675077 2.7865667091764266 0 2.7865667091764266 -2.5622238427102815 0 0 0 0 -1326.6562995211352 1685.6790105737073 0 1685.6790105737073 -747.40746856833357 0 0 0 0 -1348.3859856382114 1838.6314761759877 0 1838.6314761759877 -1290.8644881368746 0 0 0 0 -907.44072290456097 1187.6108364645006 0 1187.6108364645006 -1348.6320929021094 0 0 0 0 -1070.0621885887813 1132.7367580734026 0 1132.7367580734026 -1177.3021768297353 0 0 0 0 -830.35024750466255 607.57636708685823 0 607.57636708685823 -521.21300152365438 0 0 0 0 -870.37455136636709 754.06752110856542 0 754.06752110856542 -707.31706247379771 0 0 0 0 -527.98555728893552 253.8921771240457 0 253.8921771240457 -442.35830245410034 0 0 0 0 -936.26141826878302 418.71069075636478 0 418.71069075636478 -134.57551847001014 0 0 0 0 -1941.0391969773555 1397.9165930289128 0 1397.9165930289128 -274.61704077217291 0 0 0 0 -1384.190035017833 576.26837976390379 0 576.26837976390379 595.05215875105387 0 0 0 0 -807.60131251451094 759.77221836570607 0 759.77221836570607 -206.42452905705068 0 0 0 0 -883.6158476491255 1240.9540705371219 0 1240.9540705371219 -747.53876739805855 0 0 0 0 152.11598904300627 -129.30368761919817 0 -129.30368761919817 -77.638216500585258 0 0 0 0 -270.45472590238933 449.65630285913358 0 449.65630285913358 124.39609037138143 0 0 0 0 -238.99268826558091 560.99525054796231 0 560.99525054796231 -586.39956677208829 0 0 0 0 -467.2124045186938 339.76037731911674 0 339.76037731911674 -346.38317209356319 0 0 0 0 -892.24928223350435 921.88434774375128 0 921.88434774375128 -600.10707564713266 0 0 0 0 -490.67674449829019 608.09399305759348 0 608.09399305759348 -900.89571106040967 0 0 0 0 -990.12912260059966 1048.3447678892553 0 1048.3447678892553 -951.31611196174208 0 0 0 0 -1005.9680405645959 961.94709231520756 0 961.94709231520756 -1206.817183043313 0 0 0 0 -1215.7808940682517 1262.7260118166705 0 1262.7260118166705 -1156.7061556240346 0 0 0 0 -1110.6918894222181 1022.6958638707183 0 1022.6958638707183 -971.63020029545805 0 0 0 0 -829.47796640825982 915.46143735554324 0 915.46143735554324 -1132.7325180342668 0 0 0 0 -718.89354028516573 975.66057985217958 0 975.66057985217958 -981.25721481686196 0 0 0 0 -1025.7656339563691 1234.3387225220431 0 1234.3387225220431 -1225.9704535792243 0 0 0 0 -903.98428761238756 1131.831856240693 0 1131.831856240693 -834.30286891429569 0 0 0 0 -873.36013932708465 1188.76472672411 0 1188.76472672411 -1253.9003117719985 0 0 0 0 -751.35992310601068 1217.955483829428 0 1217.955483829428 -1329.7134179368295 0 0 0 0 -1097.6666542455569 1103.0891369681458 0 1103.0891369681458 -1456.3951293686187 0 0 0 0 -956.82155155634973 1156.8195716549271 0 1156.8195716549271 -1669.72983814279 0 0 0 0 -1618.2505893373673 1181.6314180998597 0 1181.6314180998597 -1399.4895006713814 0 0 0 0 -965.78542752029898 1186.9477331332782 0 1186.9477331332782 -1520.8333481137815 0 0 0 0 -770.82002896490303 1157.0033557523548 0 1157.0033557523548 -1518.5204816494079 0 0 0 0 -750.12231209977472 1283.6577417810113 0 1283.6577417810113 -1551.6734554435225 0 0 0 0 -681.20466145810497 1206.9162741086948 0 1206.9162741086948 -1618.5393248755718 0 0 0 0 -415.86020541752805 1253.3634704428187 0 1253.3634704428187 -1702.8689727640085 0 0 0 0 -537.84287226619199 1359.7768694364277 0 1359.7768694364277 -1773.6447244863157 0 0 0 0 -545.57774345500366 1335.5651004373722 0 1335.5651004373722 -1498.8119356888201 0 0 0 0 -699.00398725788546 1568.6769861014473 0 1568.6769861014473 -1335.4416715065017 0 0 0 0 -763.17420403590859 1221.5724861150188 0 1221.5724861150188 -826.42320405897044 0 0 0 0 -739.55266669352568 1309.306902970824 0 1309.306902970824 -1251.1855321733747 0 0 0 0 -597.43880126799195 289.8999943689887 0 289.8999943689887 137.36965396855885 0 0 0 0 -1842.0532630574962 1314.5415654850876 0 1314.5415654850876 -177.1220522470885 0 0 0 0 -713.07928252693455 1642.395633604584 0 1642.395633604584 -1690.2421696961683 0 0 0 0 -867.91416300629498 1705.9454093568638 0 1705.9454093568638 -1708.6843391486727 0 0 0 0 -259.3320728388062 1414.2474834359309 0 1414.2474834359309 -2184.2999334912311 0 0 0 0 -426.31246546683542 1307.6807900003078 0 1307.6807900003078 -1925.1094943125499 0 0 0 0 -802.98339890062925 2473.5432467361534 0 2473.5432467361534 -3642.6942468682537 0 0 0 0 -489.58402093527548 1828.6172646281739 0 1828.6172646281739 -2725.0632318549469 0 0 0 0 -1129.5556454550242 2058.4882685667762 0 2058.4882685667762 -2093.8297815478145 0 0 0 0 3.9219244213018101 1227.4009833626478 0 1227.4009833626478 -2394.1673042170587 0 0 0 0 298.79466864305869 858.43197519213936 0 858.43197519213936 -1937.7047532891884 0 0 0 0 -323.64086614709231 1071.4617559305043 0 1071.4617559305043 -1939.6073738271002 0 0 0 0 -278.23398479752359 917.48321892163949 0 917.48321892163949 -1612.4511791925324 0 0 0 0 -278.23171169718262 869.61868269047409 0 869.61868269047409 -1247.263320662154 0 0 0 0 -386.88691871854826 1077.3581814860081 0 1077.3581814860081 -1275.31458541135 0 0 0 0 -471.44852136963164 1035.2100671264416 0 1035.2100671264416 -1332.5527712500188 0 0 0 0 -346.79042214388028 1032.7282319942678 0 1032.7282319942678 -1635.3187111808802 0 0 0 0 -241.63339059390637 950.00721768155927 0 950.00721768155927 -1174.325035543603 0 0 0 0 -396.74611307470514 1037.4897406716636 0 1037.4897406716636 -1348.8752819879592 0 0 0 0 -492.66897966708348 1109.0189636663872 0 1109.0189636663872 -1130.120512279289 0 0 0 0 -445.59181709076074 1114.697379139543 0 1114.697379139543 -1135.1479046499007 0 0 0 0 -486.9698197953112 1124.3001562743812 0 1124.3001562743812 -1093.2766962938331 0 0 0 0 -554.84188259625807 1155.0937365377868 0 1155.0937365377868 -1337.0165384539723 0 0 0 0 -554.37249117809552 1165.8291404204574 0 1165.8291404204574 -1170.0191121184216 0 0 0 0 -719.60453876788961 1186.0759098132839 0 1186.0759098132839 -1070.8378282862686 0 0 0 0 -582.14058808759728 1117.049001700565 0 1117.049001700565 -1271.0745008967206 0 0 0 0 -601.75587165906836 1190.2672431151514 0 1190.2672431151514 -1543.266394100152 0 0 0 0 -489.49423443759588 1106.9051683686994 0 1106.9051683686994 -1580.5742911300913 0 0 0 0 -435.34317003739852 1067.2200683908923 0 1067.2200683908923 -1568.8335766435484 0 0 0 0 -565.88440900551723 1109.3116551173771 0 1109.3116551173771 -1539.3296577161236 0 0 0 0 -507.61425955237064 1182.8796017922505 0 1182.8796017922505 -1752.8703686214139 0 0 0 0 -660.98122204829997 1226.6700905705366 0 1226.6700905705366 -1630.1691121904332 0 0 0 0 -752.81208271756259 1112.9392507522261 0 1112.9392507522261 -1579.0785425254144 0 0 0 0 -811.53702694861568 1262.7370698181112 0 1262.7370698181112 -1569.5847926295473 0 0 0 0 -1318.4896347676549 1220.8196419093329 0 1220.8196419093329 -1516.3696108737677 0 0 0 0 -1293.0835021443418 1274.8335563958281 0 1274.8335563958281 -824.61038516947156 0 0 0 0 -1562.1038687175605 1618.9865588294233 0 1618.9865588294233 -1264.7524769981246 0 0 0 0 -1010.4386896147862 1252.0503398941255 0 1252.0503398941255 -1688.9818081539561 0 0 0 0 -705.06239346467191 1113.4164233592237 0 1113.4164233592237 -1365.2320596188074 0 0 0 0 -1005.7159264539696 1205.3456259819559 0 1205.3456259819559 -1349.0853874697787 0 0 0 0 -822.72768699638254 1233.3388367674124 0 1233.3388367674124 -1411.119353869628 0 0 0 0 -706.86384896684467 1135.7815316080669 0 1135.7815316080669 -1091.7662718075953 0 0 0 0 -842.03417557333159 1294.0482373548875 0 1294.0482373548875 -1251.8047180810499 0 0 0 0 -842.60048818583527 1233.1060864372157 0 1233.1060864372157 -1005.1193725425401 0 0 0 0 -1014.6986311751571 1053.053146905213 0 1053.053146905213 -648.94160925634787 0 0 0 0 -999.06969997117994 1086.9272138059096 0 1086.9272138059096 -789.30775554573665 0 0 0 0 -1424.2400785272475 976.7317462246865 0 976.7317462246865 -437.53097934750258 0 0 0 0 -997.31655755574775 703.6698928617925 0 703.6698928617925 -287.0806928921811 0 0 0 0 -839.09860798133741 696.19392015788617 0 696.19392015788617 -328.19214929260852 0 0 0 0 -679.97545832501783 851.54005379528826 0 851.54005379528826 -440.44113792466669 0 0 0 0 -896.0770304477046 949.42866528232844 0 949.42866528232844 -455.89787191498181 0 0 0 0 -894.49666554581927 1037.3268025927464 0 1037.3268025927464 -653.26284292275523 0 0 0 0 -632.2318687302286 858.3982050793893 0 858.3982050793893 -540.98575521267048 0 0 0 0 -685.58108353054922 1025.9747508464498 0 1025.9747508464498 -828.08146141080942 0 0 0 0 -558.79984764835535 953.81391079255263 0 953.81391079255263 -913.27819189948605 0 0 0 0 -600.20978779152028 968.31284498986315 0 968.31284498986315 -746.74295170276309 0 0 0 0 -493.5629409808862 1103.4655176943224 0 1103.4655176943224 -1137.2914052715641 0 0 0 0 -490.97006381001393 1122.8586985780153 0 1122.8586985780153 -1132.3496773999359 0 0 0 0 -605.20449487488804 1133.036566876377 0 1133.036566876377 -953.1716865999615 0 0 0 0 -755.28175518660282 1102.5867909152003 0 1102.5867909152003 -813.99591868825792 0 0 0 0 -599.28398258356538 1122.6532053383644 0 1122.6532053383644 -1037.9394100305071 0 0 0 0 -447.2664159559281 230.58043663818171 0 230.58043663818171 -396.52813046072697 0 0 0 0 -396.88932056477643 242.55537995053601 0 242.55537995053601 -498.71784835845028 0 0 0 0 -437.63331653588102 267.03647309689768 0 267.03647309689768 -505.41729965905506 0 0 0 0 -594.13906439777656 541.81226386853177 0 541.81226386853177 -824.58005198885076 0 0 0 0 -421.31415139995079 221.5694758907066 0 221.5694758907066 -670.77227338177909 0 0 0 0 -485.31464265175237 272.3299897444067 0 272.3299897444067 -492.00163926287496 0 0 0 0 -131.3552945340416 389.06498468984864 0 389.06498468984864 -925.95885143110354 0 0 0 0 -408.52479237465013 290.1779241521217 0 290.1779241521217 -489.72626854232658 0 0 0 0 -190.88803018474209 60.105165761925491 0 60.105165761925491 -248.63510807282 0 0 0 0 1514.0946439218969 -9.0186485328576964 0 -9.0186485328576964 -964.89106226579679 0 0 0 0 -1.9861139008184727 8.4282321646357303 0 8.4282321646357303 -15.168223546774442 0 0 0 0 -194.40270386837074 28.75850224504029 0 28.75850224504029 290.43325503409142 0 0 0 0 -280.00202795793575 1334.8619950721222 0 1334.8619950721222 -1958.8070600365754 0 0 0 0 -1361.3096235078992 1516.5200940620925 0 1516.5200940620925 -2065.0271925512061 0 0 0 0 -3753.1451068922106 1875.5771175755908 0 1875.5771175755908 -934.56353273388959 0 0 0 0 -1996.6530590300672 802.34715246787073 0 802.34715246787073 -385.93220078897866 0 0 0 0 -1121.4417817581307 539.83882654380977 0 539.83882654380977 -437.15959532564011 0 0 0 0 -1301.2980517241522 519.51959978038576 0 519.51959978038576 -206.80863424786548 0 0 0 0 -870.5186986106346 306.86352443888245 0 306.86352443888245 -62.177060332804103 0 0 0 0 -575.36787617279333 73.017169586149976 0 73.017169586149976 -4.8606122674973449 0 0 0 0 -716.92735559663561 459.80883802283643 0 459.80883802283643 260.59335173474756 0 0 0 0 -2.1474701183910341 18.254450719482222 0 18.254450719482222 -35.290703241609378 0 0 0 0 905.15608136323135 501.67918582632865 0 501.67918582632865 -532.27079925417638 0 0 0 0 -234.39890627918066 500.15186216791335 0 500.15186216791335 289.85768652171339 0 0 0 0 -420.17771267644275 354.50468087069385 0 354.50468087069385 -449.82011038665223 0 0 0 0 -238.45414563071972 554.73535868517865 0 554.73535868517865 -230.27949529447619 0 0 0 0 -2.2118575560880629 2.378233794372477 0 2.378233794372477 3.6601093702256549 0 0 0 0 -623.84912012558198 438.81143813116432 0 438.81143813116432 -407.24086012139014 0 0 0 0 -245.75062435770815 -1382.9628530548725 0 -1382.9628530548725 2155.5659998612464 0 0 0 0 -189.85716917245009 1089.4147465190499 0 1089.4147465190499 -1333.8756835786044 0 0 0 0 1.0436581731500212 17.096702643865285 0 17.096702643865285 21.105105359373439 0 0 0 0 -8.2827426401681521 8.4758879278028303 0 8.4758879278028303 11.90382815362635 0 0 0 0 654.45217375532957 -1039.8465357983587 0 -1039.8465357983587 1877.8660242333281 0 0 0 0 536.97965560942976 -522.69611420916044 0 -522.69611420916044 1828.1562173706347 0 0 0 0 -329.58390649131616 424.65325533165742 0 424.65325533165742 -655.326886689807 0 0 0 0 -472.09447066651774 652.22059459346929 0 652.22059459346929 -719.83836137746403 0 0 0 0 -520.05962724501296 497.00232377138491 0 497.00232377138491 -407.40836652892176 0 0 0 0 -417.89108915231191 314.48562147204211 0 314.48562147204211 -307.78086006054218 0 0 0 0 -419.98972782965575 334.66852747258963 0 334.66852747258963 -495.97798238953692 0 0 0 0 -40.270310178297223 124.57189558008395 0 124.57189558008395 -532.95049972553534 0 0 0 0 308.12004797947156 270.6869265171772 0 270.6869265171772 -641.00261305035383 0 0 0 0 -276.1897715963205 -41.921717984769202 0 -41.921717984769202 20.386532080330653 0 0 0 0 -62.311556120122987 1255.1994452340186 0 1255.1994452340186 -1152.6274470554708 0 0 0 0 -622.31219488415991 492.22551356238364 0 492.22551356238364 -470.80785569023283 0 0 0 0 -665.85093431179121 503.50905295615667 0 503.50905295615667 -473.11005714347993 0 0 0 0 -633.82001878965093 450.90241204183985 0 450.90241204183985 -456.33332860616792 0 0 0 0 -145.44803231395053 -31.921595381129009 0 -31.921595381129009 -488.85676481428027 0 0 0 0 -298.40589117453783 270.58998154236178 0 270.58998154236178 -1056.9689802220018 0 0 0 0 -819.80643834550574 550.08598873341543 0 550.08598873341543 -748.07034313157783 0 0 0 0 -640.40137964997848 367.27257133957028 0 367.27257133957028 -643.76111227533693 0 0 0 0 -320.66635412089818 563.77572776328543 0 563.77572776328543 -524.48876348108752 0 0 0 0 -1.3609564028635734 11.497125354360179 0 11.497125354360179 0.83718570336043285 0 0 0 0 -7.3659192312819641 21.57673339201196 0 21.57673339201196 22.518429295582123 0 0 0 0 78.052474564741715 212.37062856612465 0 212.37062856612465 246.43131123199055 0 0 0 0 152.21326910325297 412.82009613781702 0 412.82009613781702 756.07801509657293 0 0 0 0 0.3924662147232878 25.365448854714288 0 25.365448854714288 -39.955302053800636 0 0 0 0 -245.7933370980013 182.69916623982635 0 182.69916623982635 -235.2055007693998 0 0 0 0 -638.06462313959491 481.94545822849614 0 481.94545822849614 -468.70271315031277 0 0 0 0 -365.88040233314678 270.66196904210665 0 270.66196904210665 -122.87172367281164 0 0 0 0 -401.40196108339296 261.59104935252981 0 261.59104935252981 -87.619052251480753 0 0 0 0 -381.27343213040876 235.73459482836734 0 235.73459482836734 -150.52298578605405 0 0 0 0 -445.66241264417476 224.35134760687652 0 224.35134760687652 -113.95430811512051 0 0 0 0 13.36657879052953 12.809376880952399 0 12.809376880952399 -3.2815977490963064 0 0 0 0 -371.60836224313971 154.32940635189152 0 154.32940635189152 -63.242550530563676 0 0 0 0 79.73174084747734 251.52621121944685 0 251.52621121944685 -901.26098837078825 0 0 0 0 -33.636711305670588 205.34585003595294 0 205.34585003595294 -914.77562367422797 0 0 0 0 299.4696470820345 32.228117861675855 0 32.228117861675855 -696.95079151742539 0 0 0 0 -172.80473721178714 546.85734469857562 0 546.85734469857562 746.62919295116444 0 0 0 0 2.0958961300203178 7.7214529376018959 0 7.7214529376018959 11.836292891402024 0 0 0 0 1749.0435653535387 1246.1474921029694 0 1246.1474921029694 -52.849751016627124 0 0 0 0 329.76753844148334 560.81325167719478 0 560.81325167719478 423.90407266967668 0 0 0 0 -788.44154370890101 226.82955681376916 0 226.82955681376916 369.22927185497247 0 0 0 0 -123.89825066976664 574.51860201342242 0 574.51860201342242 -710.57125119183911 0 0 0 0 -404.89707278839342 -146.68904812505207 0 -146.68904812505207 -764.53885946705122 0 0 0 0 -188.85780070390319 -90.063487192768662 0 -90.063487192768662 205.84906207951781 0 0 0 0 -8.1901016155529192 0.80600884907789805 0 0.80600884907789805 -0.77108297278881643 0 0 0 0 -360.08411183058342 554.29551163568613 0 554.29551163568613 -1400.0261784833929 0 0 0 0 28.549453258510766 -8.6468494951041066 0 -8.6468494951041066 97.894184222241165 0 0 0 0 -117.43342175052385 78.589330822313059 0 78.589330822313059 88.711455373898389 0 0 0 0 -100.63561485878745 103.02552348057361 0 103.02552348057361 5.1682434358517639 0 0 0 0 -26.686951340398082 -13.598625970020294 0 -13.598625970020294 12.561053793513565 0 0 0 0 -96.507183560905105 222.39142818183609 0 222.39142818183609 -83.90954429393787 0 0 0 0 28.325022790843335 21.488502658557309 0 21.488502658557309 16.401763212345315 0 0 0 0 88.603572576608713 2.1413342681116774 0 2.1413342681116774 -775.2059186702827 0 0 0 0 -23.58164979785326 2.8862150954594199 0 2.8862150954594199 -0.99675521335635242 0 0 0 0 -98.143765857857943 62.434527829420404 0 62.434527829420404 236.45237682156971 0 0 0 0 -889.29328765894752 1055.8842643125899 0 1055.8842643125899 131.71670586220716 0 0 0 0 -876.54503982442839 784.07872977936859 0 784.07872977936859 -42.583084834608599 0 0 0 0 -856.16030090778077 737.7621125457008 0 737.7621125457008 -130.44704791725235 0 0 0 0 -398.45900794037152 257.42250854861777 0 257.42250854861777 222.91370096468745 0 0 0 0 -303.28699507694546 642.03182539858608 0 642.03182539858608 -670.44773969180824 0 0 0 0 -820.26284723940626 909.18910391103054 0 909.18910391103054 -348.6140638031211 0 0 0 0 -662.8185537768004 952.82368307846627 0 952.82368307846627 -344.47701230819439 0 0 0 0 -752.08437951797896 858.4600207663425 0 858.4600207663425 -369.69580387962924 0 0 0 0 -727.45933161729772 817.09971410702565 0 817.09971410702565 -320.51662244803447 0 0 0 0 -616.96668848685658 502.16158678266584 0 502.16158678266584 -188.77048209691202 0 0 0 0 -591.2620962508463 495.8548291324787 0 495.8548291324787 -220.41003748198273 0 0 0 0 -195.03366523053046 459.27974826519494 0 459.27974826519494 -462.62791776714585 0 0 0 0 -222.41010933047437 367.8416777571565 0 367.8416777571565 -231.6927636215114 0 0 0 0 44.529115978439222 875.32935520050887 0 875.32935520050887 -325.09920903631064 0 0 0 0 -509.75904877348512 1440.8052603892938 0 1440.8052603892938 -216.22895999070897 0 0 0 0 -914.52136480565241 1524.8721987786048 0 1524.8721987786048 -186.42722408501322 0 0 0 0 6.8412053948227651 3.4384841020269334 0 3.4384841020269334 0.91779799942078455 0 0 0 0 4.4655254054487159 1163.0596048948109 0 1163.0596048948109 146.61854369953653 0 0 0 0 -1287.2008110051538 406.84293626568615 0 406.84293626568615 -91.292364039109088 0 0 0 0 -186.79435966945312 1026.9637176378492 0 1026.9637176378492 257.8527210044449 0 0 0 0 -520.61542634234411 32.526239515752422 0 32.526239515752422 -627.36652088123083 0 0 0 0 -1511.8963617607296 272.62161303462926 0 272.62161303462926 -262.62540665917186 0 0 0 0 -1487.1867410108407 1268.3157272997896 0 1268.3157272997896 111.34669616015162 0 0 0 0 -1380.8479947818269 772.34685855704811 0 772.34685855704811 517.39825468913114 0 0 0 0 -21.172738336985162 3.3943266112195261 0 3.3943266112195261 2.2847358201389198 0 0 0 0 -481.02395125919429 -731.90345637100836 0 -731.90345637100836 1696.1046317330092 0 0 0 0 -636.75162735442427 -142.08804561717989 0 -142.08804561717989 1509.6656295029679 0 0 0 0 -402.02553211459599 1436.8707606313619 0 1436.8707606313619 -2971.1107396220905 0 0 0 0 -1134.9152780420263 2282.2083562080588 0 2282.2083562080588 -1320.3669416163539 0 0 0 0 -121.38200786520065 690.38479355661184 0 690.38479355661184 -1499.5137084331218 0 0 0 0 -48.777315116436299 6.3451069496293826 0 6.3451069496293826 6.9969297870084475 0 0 0 0 -527.54068025343076 240.57014237949625 0 240.57014237949625 1053.0184506154692 0 0 0 0 -892.24805718083371 658.9807252167011 0 658.9807252167011 -481.41116118872742 0 0 0 0 21.15253263348859 -123.85076815009234 0 -123.85076815009234 -517.71816754658357 0 0 0 0 -1305.1928490044083 1361.800523615464 0 1361.800523615464 -180.89146880854787 0 0 0 0 -358.22221291535971 686.43584194618143 0 686.43584194618143 24.391245775012067 0 0 0 0 586.36324396633427 -275.80464873786696 0 -275.80464873786696 281.30584548680054 0 0 0 0 -519.6164426640662 436.33713106039977 0 436.33713106039977 -291.00705267080048 0 0 0 0 -50.652756226599735 7.433265951902797 0 7.433265951902797 7.7999287359000391 0 0 0 0 -45.061966511230821 668.93699802656738 0 668.93699802656738 -1619.4738503921253 0 0 0 0 -166.0607419832304 1569.7298267210208 0 1569.7298267210208 -2143.3527469317451 0 0 0 0 68.901229432445689 1008.2103128921608 0 1008.2103128921608 -1293.6192108378382 0 0 0 0 -3.4323591464792855 6.91978548633017 0 6.91978548633017 2.6667240159493275 0 0 0 0 -1681.4769085247135 310.39003519037033 0 310.39003519037033 1008.323587982748 0 0 0 0 -917.11174799947185 944.51441682131008 0 944.51441682131008 -1549.4569899222406 0 0 0 0 3.2595023632318316 5.6044356554549637 0 5.6044356554549637 -0.67249842177940877 0 0 0 0 -2357.3728047583572 2152.9601201696405 0 2152.9601201696405 -771.86341664077918 0 0 0 0 -566.25529836805799 855.23256166374995 0 855.23256166374995 -372.11494625815794 0 0 0 0 -396.51879808671947 547.47765525523573 0 547.47765525523573 -116.36360959851299 0 0 0 0 -320.39451370811366 727.88814103610912 0 727.88814103610912 -329.29406516981544 0 0 0 0 -222.55264691283446 693.21236359304748 0 693.21236359304748 -447.07230458612321 0 0 0 0 -843.7705475965704 1477.364741862486 0 1477.364741862486 -70.464268484749482 0 0 0 0 -467.0220604994538 767.31744675800292 0 767.31744675800292 -911.61494568772468 0 0 0 0 -523.32900270206301 610.19910095580781 0 610.19910095580781 -394.09744646051331 0 0 0 0 -532.65051232676342 859.10198134410894 0 859.10198134410894 -1108.4554471905794 0 0 0 0 -857.70718914538884 1083.9489602068716 0 1083.9489602068716 -941.17623861157335 0 0 0 0 -545.12797842227883 1150.9527846934943 0 1150.9527846934943 -1158.824162594371 0 0 0 0 -874.3003293546717 1296.4070128559324 0 1296.4070128559324 -1264.3665970417196 0 0 0 0 -1250.2162170638767 910.12869689864601 0 910.12869689864601 -1128.613645494268 0 0 0 0 -675.74954747561605 1252.7863264570624 0 1252.7863264570624 -1091.4201282689173 0 0 0 0 11.075115490769491 9.3403724470553726 0 9.3403724470553726 -7.5462295057887161 0 0 0 0 -1548.0058649421117 1968.0392200674614 0 1968.0392200674614 -1417.0315197839714 0 0 0 0 -705.78859429210388 1212.6114744277202 0 1212.6114744277202 -966.28516648930963 0 0 0 0 -651.60954107417638 1144.9684649911906 0 1144.9684649911906 -955.09726336513268 0 0 0 0 -1263.1388777317989 1370.4761509087693 0 1370.4761509087693 -985.92145229724429 0 0 0 0 -1679.8672750639926 2162.9985305298924 0 2162.9985305298924 -2334.4798900790338 0 0 0 0 -25.151448761107531 185.57657217467931 0 185.57657217467931 -1587.9204967787737 0 0 0 0 -363.18756837212277 1377.2232819382443 0 1377.2232819382443 -2033.1016950461417 0 0 0 0 -1191.9194867057158 568.6990620757424 0 568.6990620757424 1837.436372216438 0 0 0 0 -18.932197788498257 10.739197476834264 0 10.739197476834264 -4.6943402792781939 0 0 0 0 -308.03275227804988 1161.5817251221142 0 1161.5817251221142 -4429.9122243920719 0 0 0 0 -1555.6860221576098 2618.5647725330618 0 2618.5647725330618 -2210.5625874651887 0 0 0 0 -1952.4673807019935 1797.5401259500431 0 1797.5401259500431 -134.03866517454662 0 0 0 0 -1397.9335485616321 2075.0764334964479 0 2075.0764334964479 -3055.5846929188992 0 0 0 0 -1922.2012310449936 2556.469692262679 0 2556.469692262679 -3531.9582792495221 0 0 0 0 -1614.1549135442765 3119.8494162297065 0 3119.8494162297065 -2509.9401956101938 0 0 0 0 4.7889587692465057 3.2140411481610442 0 3.2140411481610442 -10.941716304475648 0 0 0 0 -413.94583559571038 2092.7713150294039 0 2092.7713150294039 -2493.8096230198862 0 0 0 0 317.36819251603504 280.67886620071823 0 280.67886620071823 -1203.853877948226 0 0 0 0 -1754.924608843794 2640.1793193916164 0 2640.1793193916164 -2315.5274300367546 0 0 0 0 -383.44937910546469 664.06967482165237 0 664.06967482165237 -750.3724255595007 0 0 0 0 -610.99977057153956 904.44517544110386 0 904.44517544110386 -833.97866198356496 0 0 0 0 11.277652930690607 6.0793587220816931 0 6.0793587220816931 -15.585769135584798 0 0 0 0 -2035.9513161977238 739.36400869853605 0 739.36400869853605 -1474.9297725853248 0 0 0 0 -98.117917123352527 660.27330033307226 0 660.27330033307226 -632.49012926139403 0 0 0 0 -6.0200813482733793 299.87252550484118 0 299.87252550484118 -158.43592452464236 0 0 0 0 -364.33255004313105 514.10798614035593 0 514.10798614035593 -180.13132854131436 0 0 0 0 -234.90619874947879 303.41952088236576 0 303.41952088236576 -150.96999364883959 0 0 0 0 -337.58726328751982 307.09951273290062 0 307.09951273290062 -31.552613441264839 0 0 0 0 -170.84724701670712 252.1251245540152 0 252.1251245540152 154.49290059569466 0 0 0 0 -64.683609096966393 142.00362502835196 0 142.00362502835196 21.202372684154398 0 0 0 0 -134.07752098087803 162.27133968634735 0 162.27133968634735 201.36724189986126 0 0 0 0 17.259971917010262 77.732088479519007 0 77.732088479519007 246.68612448527711 0 0 0 0 147.77007057558512 182.53087308161776 0 182.53087308161776 307.03796966094524 0 0 0 0 -19.452765112317138 179.88072851577454 0 179.88072851577454 157.84456969553139 0 0 0 0 -110.49717533090734 170.87540373103548 0 170.87540373103548 415.60321848167223 0 0 0 0 55.376857538176409 305.86882093228996 0 305.86882093228996 401.67688216915121 0 0 0 0 -19.597827383018739 56.923288741498254 0 56.923288741498254 417.76227384014055 0 0 0 0 13.781547269432963 266.08838968009366 0 266.08838968009366 -280.14785547017527 0 0 0 0 -118.9465673497325 399.48818114240567 0 399.48818114240567 -105.13338713595294 0 0 0 0 -29.671768281899858 519.10446472892363 0 519.10446472892363 -395.76015599386301 0 0 0 0 9.2523949228052516 91.022122737245809 0 91.022122737245809 94.794711820046359 0 0 0 0 -15.845847227674966 -6.3212636667173854 0 -6.3212636667173854 17.618979573322207 0 0 0 0 32.899851693666278 119.40615825232453 0 119.40615825232453 -615.1905522813031 0 0 0 0 -90.960706001169456 62.461253665584081 0 62.461253665584081 45.643667314623599 0 0 0 0 -186.18812230104959 262.11181331628177 0 262.11181331628177 41.637801861601474 0 0 0 0 -65.519237288942563 36.770378852973778 0 36.770378852973778 -13.768256006737928 0 0 0 0 -177.21964607112022 452.51704412489926 0 452.51704412489926 -1117.1027575124554 0 0 0 0 -48.453324794004914 26.458787768916665 0 26.458787768916665 -7.7735910238772732 0 0 0 0 -51.871440865586919 444.80850750451646 0 444.80850750451646 1093.3326603574606 0 0 0 0 -96.502775375065539 856.48491036666019 0 856.48491036666019 -1016.6319770975169 0 0 0 0 -75.611987685195345 516.66488748614938 0 516.66488748614938 -384.41331028583227 0 0 0 0 -125.55835067433145 832.87748342691339 0 832.87748342691339 -1035.8126007856481 0 0 0 0 -184.60525118054829 1161.9551128519197 0 1161.9551128519197 -893.5237025081442 0 0 0 0 -221.10861818395279 1272.9423149093091 0 1272.9423149093091 -1215.8033325599627 0 0 0 0 -596.05911005801318 1476.8730479161095 0 1476.8730479161095 -1047.4333096318369 0 0 0 0 -607.57995215094707 1159.3482231122762 0 1159.3482231122762 -641.52862302545327 0 0 0 0 -465.64071205546134 964.40193163751974 0 964.40193163751974 -568.50829444110423 0 0 0 0 -523.49131729380315 1058.9509045210689 0 1058.9509045210689 -710.32476170429436 0 0 0 0 -345.2961263085017 471.91999459708313 0 471.91999459708313 -301.36625249528879 0 0 0 0 -772.392139568321 586.0109059726019 0 586.0109059726019 -140.95917060265492 0 0 0 0 -816.18723417881847 711.46851234938731 0 711.46851234938731 -344.00806196827034 0 0 0 0 -1272.9464523965985 876.62401479517121 0 876.62401479517121 -130.45078839348571 0 0 0 0 -1976.3110420632365 1751.0102363877122 0 1751.0102363877122 -1056.8345784288103 0 0 0 0 -1089.5234474350586 1630.9252225914433 0 1630.9252225914433 -1097.6422331860158 0 0 0 0 -979.23105335790751 1118.0649277160701 0 1118.0649277160701 -1293.06271335776 0 0 0 0 -923.98938440275742 1517.9118812045745 0 1517.9118812045745 -2506.9666791912896 0 0 0 0 -236.69043291520575 1079.0532742711075 0 1079.0532742711075 -929.10396730092179 0 0 0 0 1141.6617824228233 898.57959592762199 0 898.57959592762199 -1161.6940193412083 0 0 0 0 -51.108217948232777 1572.6952572183145 0 1572.6952572183145 -1246.4948685673007 0 0 0 0 -587.42568319858401 1265.779613947263 0 1265.779613947263 -1027.7851080741675 0 0 0 0 -732.46615514104451 1585.8237178138206 0 1585.8237178138206 -1686.723422164665 0 0 0 0 -552.23706686565129 867.06181516248398 0 867.06181516248398 -1303.8601921795234 0 0 0 0 -450.72707650708253 1624.6064039451512 0 1624.6064039451512 -1102.3305378318328 0 0 0 0 -5.8174727150317125 12.304092508760661 0 12.304092508760661 4.6605870250871533 0 0 0 0 -28.16247346763339 1246.6747480759113 0 1246.6747480759113 -1579.0259256693244 0 0 0 0 -444.94168296856878 734.86266109221469 0 734.86266109221469 -1980.8601340068908 0 0 0 0 -3.3836085415951516 6.9943801726199126 0 6.9943801726199126 1.4845611638596523 0 0 0 0 -539.77202058369949 336.05412599882766 0 336.05412599882766 -353.9641182134128 0 0 0 0 -319.35212915348166 743.0861067988626 0 743.0861067988626 -1020.2679809996789 0 0 0 0 -307.62065567652098 753.20432176017221 0 753.20432176017221 -1057.1465429795207 0 0 0 0 -1848.2298095696342 576.19868023980962 0 576.19868023980962 -1089.6636526774892 0 0 0 0 -1288.270329580967 667.02953947719107 0 667.02953947719107 -2269.9957877839624 0 0 0 0 -908.89680656195924 1341.3467128709453 0 1341.3467128709453 -2613.3249532382688 0 0 0 0 -1469.5464310734078 728.04770266361629 0 728.04770266361629 482.9147053665838 0 0 0 0 -1451.6518264529964 1069.2984413564564 0 1069.2984413564564 -933.24130215148034 0 0 0 0 -13.862151946601671 3.8040080584303411 0 3.8040080584303411 2.2045944930860486 0 0 0 0 -1240.9285161286953 1465.3821460985009 0 1465.3821460985009 -1892.6396439451782 0 0 0 0 -462.41855062822287 -318.937520719639 0 -318.937520719639 1377.8091696704796 0 0 0 0 -113.95774065099613 400.11022151447924 0 400.11022151447924 322.67078435316216 0 0 0 0 -413.92602585786335 -40.422770656199646 0 -40.422770656199646 409.62142795213731 0 0 0 0 293.98152089804717 230.94529630369288 0 230.94529630369288 385.27707833916429 0 0 0 0 -645.17773666335233 396.9851043202143 0 396.9851043202143 108.30588438475752 0 0 0 0 -430.99194596042253 5.1688455539297138 0 5.1688455539297138 13.79884909404791 0 0 0 0 -447.53730578962131 120.52072592887271 0 120.52072592887271 555.7863781017877 0 0 0 0 -340.66000204854026 15.183006572111481 0 15.183006572111481 357.12470026945084 0 0 0 0 -61.322478814603528 -240.52610445807659 0 -240.52610445807659 515.78905874890006 0 0 0 0 -202.86183645433175 229.2005264129466 0 229.2005264129466 575.2722549914397 0 0 0 0 -36.332894761299613 7.1336523789789226 0 7.1336523789789226 6.0887029907990566 0 0 0 0 -142.01919696783079 -47.751835888720962 0 -47.751835888720962 905.97442299392605 0 0 0 0 -182.39002967397391 283.46538329921532 0 283.46538329921532 216.59268958201574 0 0 0 0 -167.89603718972467 314.30916131482445 0 314.30916131482445 43.528853871830506 0 0 0 0 -374.82511273729324 172.28690387847746 0 172.28690387847746 470.28250597681836 0 0 0 0 -1133.4789409464029 1035.3569426511422 0 1035.3569426511422 79.102815999675158 0 0 0 0 -712.68027913669357 394.91850759478984 0 394.91850759478984 733.15727156343928 0 0 0 0 -3075.5108629562601 778.02256698722158 0 778.02256698722158 325.24206907643384 0 0 0 0 -1932.4931421149086 1828.2983665441279 0 1828.2983665441279 -1024.553201725721 0 0 0 0 -649.07300947179101 1071.4556745430018 0 1071.4556745430018 -794.59224132471718 0 0 0 0 -1181.9981676755542 788.98204398082453 0 788.98204398082453 -64.256383094267221 0 0 0 0 -1164.7366554763757 1053.740773049929 0 1053.740773049929 353.20539032607485 0 0 0 0 -1573.6683343565396 336.47274686428409 0 336.47274686428409 263.4587101645302 0 0 0 0 -1346.6777980786901 1325.6978352614715 0 1325.6978352614715 -49.209522386226581 0 0 0 0 -829.48763054247672 925.14973707989679 0 925.14973707989679 341.19347993461997 0 0 0 0 -1885.3922409128136 1496.1914072354193 0 1496.1914072354193 246.41477500239853 0 0 0 0 -831.22644659156583 903.038764909625 0 903.038764909625 553.76775766343053 0 0 0 0 -365.34576664428823 37.472229345970845 0 37.472229345970845 912.63669470565765 0 0 0 0 -6.7876638713151181 0.21849208799005737 0 0.21849208799005737 3.6006290265662528 0 0 0 0 -1893.4805461173955 1181.9600816118254 0 1181.9600816118254 -145.91269673239731 0 0 0 0 -971.21227042144346 -20.983949170466531 0 -20.983949170466531 16.238886404506047 0 0 0 0 -916.84116373146026 180.65096373231063 0 180.65096373231063 -1276.2132599375036 0 0 0 0 -2312.2539904462537 666.53656281955773 0 666.53656281955773 96.279072849116346 0 0 0 0 -2739.9448821646401 1890.9826971942894 0 1890.9826971942894 -779.43794239392628 0 0 0 0 -4488.067970612954 -246.77050845050871 0 -246.77050845050871 -8.7297955468820874 0 0 0 0 -672.45194049420343 740.93237795616506 0 740.93237795616506 523.87229030585149 0 0 0 0 1.4290997882708325 323.49743522460631 0 323.49743522460631 -329.33810011068272 0 0 0 0 -2048.4641674122045 1747.6140457963224 0 1747.6140457963224 -585.05439313583338 0 0 0 0 -669.25280400530028 741.6972914462458 0 741.6972914462458 -35.01142144858477 0 0 0 0 -9.2881723816371036 12.519040091426277 0 12.519040091426277 -16.551240141270512 0 0 0 0 1402.7175509532135 -240.44244854290446 0 -240.44244854290446 -276.26462974731839 0 0 0 0 189.46504265641852 470.48391488855486 0 470.48391488855486 -602.3945877831211 0 0 0 0 -176.25445755756664 160.30310008911329 0 160.30310008911329 -178.23781336720276 0 0 0 0 -119.91084909097481 -3.5171762401769229 0 -3.5171762401769229 274.0756844040443 0 0 0 0 -58.685003188158589 256.36319223893588 0 256.36319223893588 -241.6584679226944 0 0 0 0 4.5946491416973458 107.456232233582 0 107.456232233582 -47.561386229761411 0 0 0 0 -953.42599427576351 791.81983703698643 0 791.81983703698643 -151.64480816415744 0 0 0 0 0.80807374167852686 399.25852425285848 0 399.25852425285848 -877.44499741745676 0 0 0 0 -6.304324498972278 6.6564124989669011 0 6.6564124989669011 -4.5332144385843378 0 0 0 0 -1174.0514514635652 2223.123162095435 0 2223.123162095435 -944.13349442073377 0 0 0 0 -1277.8889612439816 -416.83372870472886 0 -416.83372870472886 1758.9176041710598 0 0 0 0 -1330.1763461440951 185.2829104654229 0 185.2829104654229 -249.90149409399601 0 0 0 0 869.46273176174873 876.98115832840995 0 876.98115832840995 -628.84330762049649 0 0 0 0 -1715.7161261502424 -355.92876120679284 0 -355.92876120679284 198.53427486044529 0 0 0 0 -773.97081533511118 -476.16761816189683 0 -476.16761816189683 -53.201381969018257 0 0 0 0 -20.958566564266693 30.896348884091378 0 30.896348884091378 -38.298918036043005 0 0 0 0 625.2699123102484 -150.2774411221435 0 -150.2774411221435 -116.29305950731214 0 0 0 0 -71.919324664446322 158.79284685190942 0 158.79284685190942 -37.681241546524689 0 0 0 0 324.90805365458709 -271.83992166620737 0 -271.83992166620737 426.75457463903876 0 0 0 0 -102.13234312514783 -161.99104743231374 0 -161.99104743231374 -28.151854205338168 0 0 0 0 -1189.098026052 837.09067981076714 0 837.09067981076714 -548.4129162941681 0 0 0 0 -1832.7289752329743 1456.7625339184451 0 1456.7625339184451 262.33294169223518 0 0 0 0 -1585.5347138315919 78.557511568709742 0 78.557511568709742 -281.38685991190141 0 0 0 0 -1926.2197488582933 200.00271865241666 0 200.00271865241666 -33.590754994816962 0 0 0 0 0.59537397123858682 600.83852453771397 0 600.83852453771397 -54.610930391738293 0 0 0 0 -907.4053390164554 1596.6641635548076 0 1596.6641635548076 680.10161698373122 0 0 0 0 -1619.1090784872649 373.04167983280786 0 373.04167983280786 38.964245796814794 0 0 0 0 -1028.6660290822638 1316.8336825254046 0 1316.8336825254046 601.73030812668731 0 0 0 0 -1002.6618462328006 1342.0001717658379 0 1342.0001717658379 243.93831627876716 0 0 0 0 -921.87081814196426 1408.8706697382077 0 1408.8706697382077 471.363911731587 0 0 0 0 -447.55880405090647 993.80309249613128 0 993.80309249613128 120.69090063853582 0 0 0 0 -1073.9006566779226 1214.7152786703118 0 1214.7152786703118 398.7118479526689 0 0 0 0 -409.13255826227032 1185.7788503283464 0 1185.7788503283464 760.34148632318829 0 0 0 0 -28.892388922082318 1350.7630330561005 0 1350.7630330561005 544.54065167110002 0 0 0 0 493.46747257465358 833.56770792781208 0 833.56770792781208 200.52833706258389 0 0 0 0 1615.7884913454436 996.5659065298205 0 996.5659065298205 163.15228052034945 0 0 0 0 -214.34928414921887 940.04217073662585 0 940.04217073662585 616.08260587141103 0 0 0 0 420.74510450947673 1522.7152166856831 0 1522.7152166856831 1059.02127075709 0 0 0 0 383.41870937600379 633.93128108029305 0 633.93128108029305 755.50536178260518 0 0 0 0 -602.96082388428476 824.85865979190567 0 824.85865979190567 1052.9328154206669 0 0 0 0 1408.7475351833255 2055.2034004108082 0 2055.2034004108082 2146.4677043261036 0 0 0 0 543.55680811265483 227.65217911101718 0 227.65217911101718 1297.9051310936993 0 0 0 0 313.79495676488568 643.04524665331337 0 643.04524665331337 750.34833899710793 0 0 0 0 18.342280929525259 3.248364959707942 0 3.248364959707942 326.77365413515508 0 0 0 0 -603.43757580786405 1211.0594016458381 0 1211.0594016458381 -450.089726352664 0 0 0 0 -9.0702776414397377 -0.049734135481287467 0 -0.049734135481287467 5.3538836685669935 0 0 0 0 -63.55460531591234 563.84740312637587 0 563.84740312637587 -787.29798280376781 0 0 0 0 -3.1090379701348709 0.32465267083269111 0 0.32465267083269111 1.4393119916923069 0 0 0 0 -116.00914119255458 -27.383620029011581 0 -27.383620029011581 918.46468225901481 0 0 0 0 302.68076080478204 642.51342966501397 0 642.51342966501397 401.99294597287371 0 0 0 0 -34.271208756897977 215.17758378556937 0 215.17758378556937 815.82927875412861 0 0 0 0 93.383038954932999 83.283436119851103 0 83.283436119851103 134.32317760383739 0 0 0 0 75.02169541274634 358.42676030488656 0 358.42676030488656 709.8659014212717 0 0 0 0 71.37883096389487 12.687940983581939 0 12.687940983581939 -44.076775703746534 0 0 0 0 146.76523589841963 309.72130681175986 0 309.72130681175986 -105.85739800746524 0 0 0 0 22.311211692327788 16.600589308941778 0 16.600589308941778 10.899655687691421 0 0 0 0 -30.560109904761703 242.34763667245988 0 242.34763667245988 25.433175521728117 0 0 0 0 10.404867777009798 6.2600761294804386 0 6.2600761294804386 3.6305076994509591 0 0 0 0 1511.2167166368163 -296.58705979327351 0 -296.58705979327351 -172.08012918898385 0 0 0 0 446.04743780073477 -33.228903660554352 0 -33.228903660554352 -222.27114235948102 0 0 0 0 730.57565215038994 494.24675092280449 0 494.24675092280449 -324.64555726131948 0 0 0 0 754.95631578036955 327.39202443640534 0 327.39202443640534 -461.07178647907131 0 0 0 0 532.91464096374693 202.97270889110587 0 202.97270889110587 -359.20879305205744 0 0 0 0 1733.5567571058345 853.87650693829346 0 853.87650693829346 -122.15455128297617 0 0 0 0 1570.3656681681568 2197.3771926017507 0 2197.3771926017507 -337.16927257814677 0 0 0 0 1782.5760219138465 650.30681074707536 0 650.30681074707536 2168.3816787856904 0 0 0 0 739.8988064715013 741.50957761300742 0 741.50957761300742 2203.4758569482656 0 0 0 0 381.77195374373696 1054.5604907359884 0 1054.5604907359884 1536.5807109977395 0 0 0 0 1789.9546754238618 671.42102258511295 0 671.42102258511295 595.10138392767112 0 0 0 0 788.33246045462147 1121.2096912418274 0 1121.2096912418274 1025.2579570014841 0 0 0 0 797.40335146669531 843.81077418956556 0 843.81077418956556 825.85033887648024 0 0 0 0 -3162.9438587528639 -1224.8610780359741 0 -1224.8610780359741 1005.3491023838869 0 0 0 0 -1.5267129641233197 6.2753076752393468 0 6.2753076752393468 25.367508654203675 0 0 0 0 2439.9530660552227 956.80578575069376 0 956.80578575069376 485.75648925126006 0 0 0 0 -0.99652273155022897 4.466014267294824 0 4.466014267294824 19.435986583049583 0 0 0 0 -2602.4859830860441 -1280.3587323923184 0 -1280.3587323923184 758.80312056410185 0 0 0 0 37.848884452116181 692.01700422676004 0 692.01700422676004 166.51976912558166 0 0 0 0 -249.72624932028884 642.31677217803372 0 642.31677217803372 741.77362485793856 0 0 0 0 -193.90200699998968 693.0992682271044 0 693.0992682271044 266.14368593264953 0 0 0 0 -374.51834416289785 328.38737125786429 0 328.38737125786429 -110.81409286331473 0 0 0 0 -2777.3568085462903 -931.79166294028983 0 -931.79166294028983 801.24685078268521 0 0 0 0 1.2655358248534796 13.565659843201374 0 13.565659843201374 30.724148161297563 0 0 0 0 -1060.3280030865553 278.88295272928281 0 278.88295272928281 158.67892995619331 0 0 0 0 -1431.9217704961993 1595.4581249168441 0 1595.4581249168441 765.842420643683 0 0 0 0 -548.30962112400448 178.83687224969617 0 178.83687224969617 -120.5560296423464 0 0 0 0 -636.24362921795546 429.08384598333942 0 429.08384598333942 9.9625460294810182 0 0 0 0 -425.54029139021077 280.09725624652856 0 280.09725624652856 38.368713952942926 0 0 0 0 -195.21104853374709 707.21644428770378 0 707.21644428770378 654.26337515699561 0 0 0 0 -341.37903248238945 367.9788549529585 0 367.9788549529585 -275.5844827389883 0 0 0 0 -235.52532409570995 59.300390254644299 0 59.300390254644299 322.20135460811434 0 0 0 0 1787.3880830523158 1339.7819923698371 0 1339.7819923698371 -1054.0308338229715 0 0 0 0 -4.1675220017658319 7.7088131673902538 0 7.7088131673902538 -6.4348886480863996 0 0 0 0 269.65820599495783 799.75575379958536 0 799.75575379958536 237.53254020200984 0 0 0 0 -8.4075255703329432 16.728892950483225 0 16.728892950483225 -9.0756161513807854 0 0 0 0 34.676693762561626 635.1839215689397 0 635.1839215689397 62.333485875751649 0 0 0 0 380.891051876868 945.77885043901551 0 945.77885043901551 213.10651751501064 0 0 0 0 -329.73542242316034 394.55041484347748 0 394.55041484347748 6.7148488335878938 0 0 0 0 337.55155757803732 248.40374555780727 0 248.40374555780727 380.27401677314811 0 0 0 0 1473.2024414219431 739.18929929370643 0 739.18929929370643 26.204357044713106 0 0 0 0 -16.306601943921123 529.82521342821565 0 529.82521342821565 575.46719569933339 0 0 0 0 -2421.4892063210427 389.09786934004842 0 389.09786934004842 1199.455889975201 0 0 0 0 1928.6407557734656 1938.8998000059664 0 1938.8998000059664 418.69351357026608 0 0 0 0 -3.0952139351420342 7.0079147953520717 0 7.0079147953520717 -4.0944077730651429 0 0 0 0 -167.07751406058378 2216.4761997383903 0 2216.4761997383903 1063.6331010586314 0 0 0 0 -93.039696864627331 -296.34201422437582 0 -296.34201422437582 961.23638811112323 0 0 0 0 7.9653775939977152 8.8774433829583046 0 8.8774433829583046 13.039775577698947 0 0 0 0 -241.23617118736456 286.49700389372083 0 286.49700389372083 12.044095955396187 0 0 0 0 -113.84344376754598 1229.5551313156393 0 1229.5551313156393 1124.3158496719989 0 0 0 0 46.905171477852036 164.99497255798042 0 164.99497255798042 -212.1175629565696 0 0 0 0 -146.79397129656718 390.983809952304 0 390.983809952304 -287.8467799983755 0 0 0 0 -120.3449086503897 264.80174763350078 0 264.80174763350078 -241.95336286672273 0 0 0 0 6.0415916444427111 5.5400683837935105 0 5.5400683837935105 -4.063181812884892 0 0 0 0 -419.00761123536358 223.01509741269547 0 223.01509741269547 -65.958081478063832 0 0 0 0 -177.56546113226432 57.878507500304295 0 57.878507500304295 27.034162551848567 0 0 0 0 -93.515940313336614 166.0128419395478 0 166.0128419395478 32.330902298839646 0 0 0 0 -5.9668986391916405 51.036957225853257 0 51.036957225853257 17.738415381099912 0 0 0 0 -24.414713163151148 25.977089267309218 0 25.977089267309218 21.509228514543807 0 0 0 0 -9.7170874119340667 37.442500295197959 0 37.442500295197959 31.845477050768949 0 0 0 0 -14.930723953519191 33.434080812927277 0 33.434080812927277 27.510118713747943 0 0 0 0 -22.0850699363221 68.853848140310589 0 68.853848140310589 -26.239863960646346 0 0 0 0 -12.673436783780186 46.663973850344568 0 46.663973850344568 8.667490428161102 0 0 0 0 226.6731931579634 161.97206055553397 0 161.97206055553397 -45.865862819104223 0 0 0 0 376.3136234406993 46.222250269260257 0 46.222250269260257 43.545588857319672 0 0 0 0 95.896789226313558 144.44758824284145 0 144.44758824284145 70.809845320483873 0 0 0 0 562.38619460140762 -51.663521365881024 0 -51.663521365881024 -22.7680334894103 0 0 0 0 12.558481826883749 29.943547476652384 0 29.943547476652384 39.203890914762894 0 0 0 0 558.49467611622094 -85.542868698415987 0 -85.542868698415987 113.95940264078672 0 0 0 0 1079.2427431816468 289.06246624365303 0 289.06246624365303 -260.38317286286838 0 0 0 0 190.04214623144071 424.81507108265214 0 424.81507108265214 -158.11961485107531 0 0 0 0 515.50173026810808 175.30863061017953 0 175.30863061017953 -134.68518317939015 0 0 0 0 247.20873648158158 348.19875677754317 0 348.19875677754317 -106.48567730316699 0 0 0 0 -238.1724964315581 584.76524504398549 0 584.76524504398549 -144.7186966283607 0 0 0 0 114.71041529681679 334.44675220577847 0 334.44675220577847 -205.63985801549279 0 0 0 0 -693.41789735806378 231.19716778173097 0 231.19716778173097 90.259539929393213 0 0 0 0 -441.03586616400662 117.67535177564878 0 117.67535177564878 -283.88702081239899 0 0 0 0 -507.54897267876368 793.31223545628382 0 793.31223545628382 -271.83874671939702 0 0 0 0 -232.88230374730847 624.50408138846069 0 624.50408138846069 439.57416417083004 0 0 0 0 2058.8017065226886 -418.11392620446713 0 -418.11392620446713 19.90067029990314 0 0 0 0 1487.7051406468163 1194.172515881779 0 1194.172515881779 425.87826302135363 0 0 0 0 1216.1334330810623 -311.26875244392249 0 -311.26875244392249 862.38122984569054 0 0 0 0 148.3273027216419 -382.83938369258249 0 -382.83938369258249 1577.6503773551776 0 0 0 0 4.413076953835116 888.84829312595662 0 888.84829312595662 -341.40011612452508 0 0 0 0 -2923.8939176878594 -1431.9952848538742 0 -1431.9952848538742 943.35594558179582 0 0 0 0 2055.8038256087129 534.5277684651337 0 534.5277684651337 186.84401512725162 0 0 0 0 783.50392180330527 336.77569247885913 0 336.77569247885913 176.4490143730909 0 0 0 0 1018.6355567346254 395.34347591149344 0 395.34347591149344 -93.89009306452499 0 0 0 0 -3142.3082576416673 612.35823891321343 0 612.35823891321343 1056.4010807182422 0 0 0 0 -4.5613289261008241 22.838418483692102 0 22.838418483692102 55.356060173951562 0 0 0 0 -5.1359539726589354 33.139969023882891 0 33.139969023882891 54.917090850201646 0 0 0 0 81.139507431485981 397.41182231006678 0 397.41182231006678 165.27292112682335 0 0 0 0 -1453.3472366925162 587.33493658424777 0 587.33493658424777 217.29117400904943 0 0 0 0 325.79622512584683 336.70099190176552 0 336.70099190176552 127.16330994280725 0 0 0 0 310.79264918419631 410.18176135605609 0 410.18176135605609 26.771602204797091 0 0 0 0 568.98056485919733 545.40943242753565 0 545.40943242753565 75.376772853793227 0 0 0 0 -2.3003587279778799 10.030488367071335 0 10.030488367071335 -0.9962594107306586 0 0 0 0 521.13015114209338 605.82248685643208 0 605.82248685643208 236.66516367515487 0 0 0 0 703.39195183958691 353.16729401566681 0 353.16729401566681 216.91488079840201 0 0 0 0 1565.2124741705557 929.75403904060659 0 929.75403904060659 219.28330163932696 0 0 0 0 -1.1246012427848839 5.95848835914056 0 5.95848835914056 0.220627960701961 0 0 0 0 -661.56030013303825 501.18512827639643 0 501.18512827639643 317.20276840972656 0 0 0 0 295.64825487436246 696.73664235148317 0 696.73664235148317 693.40148796762514 0 0 0 0 769.11216497472151 1000.2805357258611 0 1000.2805357258611 132.94118674169295 0 0 0 0 356.16188638199583 675.46513805851646 0 675.46513805851646 415.00408016254369 0 0 0 0 -289.72081543344757 808.84836786095184 0 808.84836786095184 77.264414561912417 0 0 0 0 88.668861213358468 995.38696936916676 0 995.38696936916676 -61.989413511013339 0 0 0 0 1479.6838157843777 715.85179331455311 0 715.85179331455311 -144.1712535488914 0 0 0 0 -1.3288514555664577 5.9157958678553726 0 5.9157958678553726 -0.49327964966823856 0 0 0 0 -892.47255299969038 688.95491794771806 0 688.95491794771806 144.52683171180252 0 0 0 0 182.35175358916604 414.06081536290003 0 414.06081536290003 326.38807461618126 0 0 0 0 -671.87632630421649 331.1562062549965 0 331.1562062549965 258.63517795281223 0 0 0 0 219.59582632771617 297.20052971875521 0 297.20052971875521 -41.740346246369882 0 0 0 0 -119.71299008735355 363.67634963639421 0 363.67634963639421 -174.54796197467658 0 0 0 0 -4.7549561653539634 35.083660464211796 0 35.083660464211796 42.295574105909736 0 0 0 0 -72.238679048577069 229.22093729181506 0 229.22093729181506 -138.42156527213228 0 0 0 0 -1186.0899492688186 410.2474410656796 0 410.2474410656796 94.07472102187603 0 0 0 0 486.47995632499078 199.23829635977017 0 199.23829635977017 -25.784949408654938 0 0 0 0 -4.2874699376610081 31.861748656781536 0 31.861748656781536 25.885601683259608 0 0 0 0 -279.35988231990086 459.79969349693329 0 459.79969349693329 196.8663956157252 0 0 0 0 -328.39408708060728 99.230298304108146 0 99.230298304108146 -54.984179135128215 0 0 0 0 -404.21129946586007 364.92294562076131 0 364.92294562076131 -14.161853877696558 0 0 0 0 -427.19041522424595 283.61346697726913 0 283.61346697726913 142.14285028431186 0 0 0 0 -387.62311582078837 258.70785761033767 0 258.70785761033767 -141.06024669641556 0 0 0 0 -365.32912119475805 233.0647622612305 0 233.0647622612305 81.319109399777517 0 0 0 0 -379.60681099318026 457.99187356104812 0 457.99187356104812 31.279205538936367 0 0 0 0 -381.42024157417836 451.08605058166722 0 451.08605058166722 504.95055947845685 0 0 0 0 175.83160977728403 235.52187227077593 0 235.52187227077593 33.037945474643493 0 0 0 0 -7.4978668279451597 -1.7954979796788848 0 -1.7954979796788848 4.9404524017051017 0 0 0 0 -46.180527332024212 43.762760128078298 0 43.762760128078298 -36.827979071866139 0 0 0 0 -158.0635655279948 343.28217037497961 0 343.28217037497961 -733.37356586141686 0 0 0 0 151.9056358896305 163.28848250903684 0 163.28848250903684 56.273624225199455 0 0 0 0 201.54688300541511 305.61110281142282 0 305.61110281142282 -100.15551328915171 0 0 0 0 280.55676210743695 259.40974506183557 0 259.40974506183557 129.88878077904519 0 0 0 0 69.468282139638177 103.77286779693532 0 103.77286779693532 -223.39925487115397 0 0 0 0 -16.567256782680531 52.474172901286281 0 52.474172901286281 -81.786796632649668 0 0 0 0 8.2211400449291148 8.5402417142144458 0 8.5402417142144458 -17.818092326040642 0 0 0 0 -38.550169427137007 177.20758538504015 0 177.20758538504015 29.746180254878709 0 0 0 0 -114.83573808961091 238.01223166084947 0 238.01223166084947 62.195302149644704 0 0 0 0 -123.23727183922165 145.31214179374365 0 145.31214179374365 18.76656840663054 0 0 0 0 -77.009712745449178 256.47098969122999 0 256.47098969122999 69.868054869468324 0 0 0 0 -17.714048966558948 498.49504856641215 0 498.49504856641215 -234.97705204437079 0 0 0 0 203.24764678043175 110.16418852886272 0 110.16418852886272 -197.01353011163883 0 0 0 0 -13.623718894432308 39.761273462514794 0 39.761273462514794 -60.818519668113368 0 0 0 0 655.57411506779863 259.7366438745812 0 259.7366438745812 -178.38452741705987 0 0 0 0 549.83191649388755 221.6340926319026 0 221.6340926319026 117.01131783555374 0 0 0 0 269.49906834245849 269.0338802869519 0 269.0338802869519 117.0103633076651 0 0 0 0 300.98211350501515 652.64414385164855 0 652.64414385164855 419.01399310863235 0 0 0 0 264.72091411089514 569.86751695554267 0 569.86751695554267 233.2207578048401 0 0 0 0 859.10642804114286 431.37906066076175 0 431.37906066076175 115.77864718860656 0 0 0 0 1178.9472207612853 574.35555018499144 0 574.35555018499144 117.76062973510489 0 0 0 0 680.77371549971849 378.45512566132857 0 378.45512566132857 171.98522360445349 0 0 0 0 512.70471066092796 750.31781625201984 0 750.31781625201984 269.66377855700557 0 0 0 0 752.17336562809669 579.01386525832459 0 579.01386525832459 200.64101937413216 0 0 0 0 849.41003142877116 865.7233408648035 0 865.7233408648035 0.42920649828738533 0 0 0 0 947.68535440773394 620.92109747936047 0 620.92109747936047 190.62839004653506 0 0 0 0 1429.0100895912547 429.57632489643584 0 429.57632489643584 147.18179515311203 0 0 0 0 -3.107968758967484 5.6987114237915648 0 5.6987114237915648 -3.1784770874575656 0 0 0 0 1568.0072219627691 711.31870390410768 0 711.31870390410768 0.17593917331522077 0 0 0 0 1836.768368316405 693.79462639941266 0 693.79462639941266 -113.44586203509243 0 0 0 0 -191.67232583836449 1033.9825308266591 0 1033.9825308266591 -4.4590875839593931 0 0 0 0 -2959.7266671963462 -243.12515617515419 0 -243.12515617515419 582.31897805944027 0 0 0 0 -326.86121790474863 289.64399534174299 0 289.64399534174299 -416.82395594257105 0 0 0 0 -7.8807151531076016 19.305842297670864 0 19.305842297670864 -14.282629025687186 0 0 0 0 -1863.8564531135053 -89.816535047837533 0 -89.816535047837533 384.8157210255813 0 0 0 0 -1144.1263364239057 156.74372454134209 0 156.74372454134209 195.5331492615951 0 0 0 0 -11.607056561658165 31.546465496060705 0 31.546465496060705 -34.955759822072253 0 0 0 0 -343.36060711514438 295.57453310941492 0 295.57453310941492 -166.65032798064931 0 0 0 0 -176.57603952721638 -25.422403716554982 0 -25.422403716554982 239.02429947949713 0 0 0 0 -732.6187358889656 1032.4498497217501 0 1032.4498497217501 0.56364566498896573 0 0 0 0 -1352.4751170719392 774.00114414025302 0 774.00114414025302 45.558496104509686 0 0 0 0 -1073.7337226959062 182.05561969706469 0 182.05561969706469 -118.73358433691465 0 0 0 0 -2488.5052811551941 401.37594408363657 0 401.37594408363657 364.09118429059163 0 0 0 0 1314.3364039978624 536.5388173822721 0 536.5388173822721 -260.46736196992424 0 0 0 0 -3.5769736251520357 23.008608872410505 0 23.008608872410505 10.366830464686416 0 0 0 0 -3073.7945101880341 230.30790581886708 0 230.30790581886708 262.20379519551352 0 0 0 0 -293.74157784055933 97.175925588595419 0 97.175925588595419 634.89213138159539 0 0 0 0 2369.3103622700546 393.73515225602023 0 393.73515225602023 -807.16793215325015 0 0 0 0 -191.76466086033815 1033.7738292547892 0 1033.7738292547892 4.4008331919030752 0 0 0 0 -1.5249785213947629 7.5737539759986277 0 7.5737539759986277 1.6051152613894715 0 0 0 0 -332.71784110861336 1176.5678057366677 0 1176.5678057366677 -47.046750936253375 0 0 0 0 -933.14643591184358 482.51097790381755 0 482.51097790381755 47.370190661415108 0 0 0 0 -556.61559913850942 960.62741242168158 0 960.62741242168158 -52.952905656318762 0 0 0 0 -231.96481697954732 651.488781029042 0 651.488781029042 -59.80789017652458 0 0 0 0 -1062.7187140486112 975.53172978524162 0 975.53172978524162 240.64410122879053 0 0 0 0 -427.8323954869702 1421.9628453015466 0 1421.9628453015466 230.88856835307888 0 0 0 0 -1394.9685258242789 1705.6417189728891 0 1705.6417189728891 204.31398894570157 0 0 0 0 -1115.3017297663282 1009.0173742541083 0 1009.0173742541083 347.77251851963956 0 0 0 0 -160.95657604606458 309.80478175829194 0 309.80478175829194 2.1135806325710291 0 0 0 0 -77.162723917570474 464.31587525724717 0 464.31587525724717 -106.95587925457221 0 0 0 0 9.7312518034741515 437.91982512592949 0 437.91982512592949 -99.482206102198688 0 0 0 0 -58.190592560622463 539.90299629452784 0 539.90299629452784 60.685889488311659 0 0 0 0 -26.406323112467362 493.04810207197443 0 493.04810207197443 11.133941033389419 0 0 0 0 -57.342215915257839 458.58099554243381 0 458.58099554243381 -25.473178280866705 0 0 0 0 -669.3184023013564 415.63381981604471 0 415.63381981604471 61.584149809852534 0 0 0 0 -416.52108346891328 985.31695031792333 0 985.31695031792333 240.22463837681607 0 0 0 0 -566.82956883930638 652.8218688893412 0 652.8218688893412 120.70112647234055 0 0 0 0 107.92860294060029 451.58563009702539 0 451.58563009702539 44.501962514448678 0 0 0 0 156.93095161733436 794.09607241382764 0 794.09607241382764 116.78034740380463 0 0 0 0 913.81705178831908 523.99575746423943 0 523.99575746423943 -15.034412139044434 0 0 0 0 -120.62594413240731 840.56626412423066 0 840.56626412423066 186.90909383208054 0 0 0 0 -116.8581367825991 1146.0032328343548 0 1146.0032328343548 246.79784008864954 0 0 0 0 572.520603172954 966.897341238433 0 966.897341238433 167.10691799293272 0 0 0 0 -498.06148150004992 1109.7262965260452 0 1109.7262965260452 485.95057976761018 0 0 0 0 -487.81436462043632 1268.0009886552989 0 1268.0009886552989 354.78456033661496 0 0 0 0 -673.37135683741872 1035.905529745949 0 1035.905529745949 284.0602032029783 0 0 0 0 -863.85191250224852 1327.7358671912843 0 1327.7358671912843 287.71124162035994 0 0 0 0 -912.16865159901317 1257.4926847643947 0 1257.4926847643947 196.30369255279948 0 0 0 0 -881.09855268086903 1118.9952466567847 0 1118.9952466567847 350.6874434750207 0 0 0 0 -1196.4150727438773 1244.4309872636368 0 1244.4309872636368 578.48242839597515 0 0 0 0 -1164.2618844385615 1339.3676655584422 0 1339.3676655584422 825.4097594872801 0 0 0 0 0.49801675580040894 14.070528984509433 0 14.070528984509433 19.383672222839664 0 0 0 0 2592.9804457489136 1065.7138642559294 0 1065.7138642559294 -684.32657433013082 0 0 0 0 -2201.4736950023052 812.85969196661608 0 812.85969196661608 570.11900592705206 0 0 0 0 -687.32871964502647 741.1664770424286 0 741.1664770424286 -52.731194377556676 0 0 0 0 -19.427916833667517 59.533576895057209 0 59.533576895057209 -39.87750571551652 0 0 0 0 -36.645527654465695 196.4871447079895 0 196.4871447079895 165.01218374594828 0 0 0 0 -11.260341537265049 303.18691623368795 0 303.18691623368795 311.17538481411702 0 0 0 0 -4.2040622337160869 56.08084708261984 0 56.08084708261984 111.67615901115255 0 0 0 0 418.14083928342188 1614.4485642705185 0 1614.4485642705185 1282.6544529705243 0 0 0 0 -520.74852753123014 0.5902278262492473 0 0.5902278262492473 192.91111729225668 0 0 0 0 1077.7571083523871 722.4433139227549 0 722.4433139227549 32.304375167428589 0 0 0 0 1430.7947573677429 281.91154124302739 0 281.91154124302739 -795.08509809621319 0 0 0 0 31.518786178981827 138.49644654160511 0 138.49644654160511 -260.07698500844708 0 0 0 0 -611.41097742362763 190.51839691866189 0 190.51839691866189 63.078042614039077 0 0 0 0 2.6615912846122818 20.51174506919584 0 20.51174506919584 9.0566528320886164 0 0 0 0 20.789089554246043 47.341617259934708 0 47.341617259934708 39.980683489232149 0 0 0 0 -57.184529467169341 93.034702839999227 0 93.034702839999227 -255.72322087871817 0 0 0 0 -384.82219194186473 837.41017578307219 0 837.41017578307219 1108.872766378714 0 0 0 0 2331.8747423870427 -1158.3975344148494 0 -1158.3975344148494 -539.11438575513603 0 0 0 0 -145.90859671130966 218.018400162342 0 218.018400162342 1759.9238245936285 0 0 0 0 13.305149959391791 13.047305053458146 0 13.047305053458146 14.963263297757294 0 0 0 0 2459.769991979425 2074.5269731588487 0 2074.5269731588487 -1378.6691586085071 0 0 0 0 194.16304338368718 2009.1894651977636 0 2009.1894651977636 2660.1583066567109 0 0 0 0 -565.20488234508957 322.71291186697636 0 322.71291186697636 328.16752244027157 0 0 0 0 -46.607567918257701 1207.3057369514572 0 1207.3057369514572 457.36958719014365 0 0 0 0 -360.83459954805039 858.93709956757812 0 858.93709956757812 -49.345777699649716 0 0 0 0 -308.8620633909577 1138.2836281739728 0 1138.2836281739728 3981.585291305033 0 0 0 0 44.231125749180137 947.55272843746934 0 947.55272843746934 -192.61204082708718 0 0 0 0 0.39619439571078374 19.289941858225571 0 19.289941858225571 41.558770128154094 0 0 0 0 531.657453465863 579.42056785430066 0 579.42056785430066 85.214929973109975 0 0 0 0 468.82776290351887 2152.6617187420993 0 2152.6617187420993 -225.18396583996946 0 0 0 0 1324.3952731949721 1455.6856467004018 0 1455.6856467004018 16.88614538947877 0 0 0 0 1019.7210009456412 1174.1779923087925 0 1174.1779923087925 787.44276650242682 0 0 0 0 3050.0120554753721 1062.6341434715905 0 1062.6341434715905 68.295972508014529 0 0 0 0 2312.4374444122541 567.56642677998025 0 567.56642677998025 11.125496344291605 0 0 0 0 -1407.4655889119538 -86.9759086491689 0 -86.9759086491689 379.51796275145898 0 0 0 0 1.2914436050666542 7.3481346062418993 0 7.3481346062418993 22.127539001712989 0 0 0 0 2153.779758837909 1535.6032535618433 0 1535.6032535618433 851.27079390773724 0 0 0 0 649.5189884365609 881.07507420578622 0 881.07507420578622 64.489924997105845 0 0 0 0 142.94291001064812 983.54507767944597 0 983.54507767944597 147.69630891209817 0 0 0 0 491.46479779655419 -56.018532583300839 0 -56.018532583300839 -1633.3144170246887 0 0 0 0 -186.12989133996234 934.87173478940531 0 934.87173478940531 1212.9911138429597 0 0 0 0 -193.04550222686885 418.91140601938969 0 418.91140601938969 430.05664439330576 0 0 0 0 349.67924303280597 524.47751991244149 0 524.47751991244149 -41.991072960241581 0 0 0 0 569.74627821753529 830.45832089448959 0 830.45832089448959 374.13881009237957 0 0 0 0 275.74697366925102 718.96883509218605 0 718.96883509218605 341.74736112247047 0 0 0 0 335.74628006389412 926.92454365308004 0 926.92454365308004 805.16884052814567 0 0 0 0 230.36807152178153 1176.3313586385921 0 1176.3313586385921 447.24907789792633 0 0 0 0 555.78408886316538 1669.7898135720825 0 1669.7898135720825 1136.2630075974239 0 0 0 0 608.23290064812863 1211.7319255581897 0 1211.7319255581897 0.16217457924358314 0 0 0 0 499.48076104773645 1058.5329225130408 0 1058.5329225130408 346.95537090015569 0 0 0 0 325.67421138916689 719.56479582300381 0 719.56479582300381 1758.3072826113348 0 0 0 0 -4.9628444741329396 9.0508847844931566 0 9.0508847844931566 -4.3458476397942718 0 0 0 0 861.29530957042789 1430.1184083955486 0 1430.1184083955486 125.94054971258447 0 0 0 0 1963.3037134785063 678.92793323065416 0 678.92793323065416 19.804864510544576 0 0 0 0 0.81881774348347136 2.6216977896795015 0 2.6216977896795015 -2.9581872862351588 0 0 0 0 -68.493916562943923 428.26264071252808 0 428.26264071252808 148.14377027069895 0 0 0 0 1321.5143151436878 761.95064250695941 0 761.95064250695941 -0.089978360927489121 0 0 0 0 -71.075962220550537 -136.35033202132036 0 -136.35033202132036 96.276530104107223 0 0 0 0 -726.01440806721621 814.14080012344493 0 814.14080012344493 0.16609574376251085 0 0 0 0 -2889.7125342458517 -117.75666596276642 0 -117.75666596276642 318.10008601633308 0 0 0 0 -104.93967165256663 196.00449686431239 0 196.00449686431239 -961.86175899198861 0 0 0 0 -3378.8233687041429 2031.9464418157659 0 2031.9464418157659 398.74067779302277 0 0 0 0 -2888.6746689672291 1453.219920288826 0 1453.219920288826 238.86000291154778 0 0 0 0 -1835.131046453178 1910.0778517869912 0 1910.0778517869912 271.85371591616422 0 0 0 0 -5.3755887008539354 7.1991744696495275 0 7.1991744696495275 -0.63465522472591829 0 0 0 0 169.06648568068795 1016.664242458166 0 1016.664242458166 681.5266902105941 0 0 0 0 -44.441823270959418 38.848630450091292 0 38.848630450091292 -29.667008323345414 0 0 0 0 -1054.3042197259365 84.093005637456372 0 84.093005637456372 270.56900135905016 0 0 0 0 -762.0125835619765 384.5336196831413 0 384.5336196831413 25.288773825959652 0 0 0 0 -19.238967426584598 15.219745856871754 0 15.219745856871754 -11.222977776433254 0 0 0 0 -4689.7163309520747 -194.31991227712933 0 -194.31991227712933 249.72997454240976 0 0 0 0 1029.3168877345424 1106.3323486795489 0 1106.3323486795489 -847.83285239280667 0 0 0 0 -968.7945178149705 111.48732132347504 0 111.48732132347504 723.68259152639075 0 0 0 0 -2908.193416391834 1426.8939028140217 0 1426.8939028140217 -167.21559912487282 0 0 0 0 -801.52839996535818 863.06871989576393 0 863.06871989576393 -775.73744153841108 0 0 0 0 -1649.0382334327596 1615.0990746981042 0 1615.0990746981042 -866.96473288037987 0 0 0 0 -1984.2410555039132 889.49151434885425 0 889.49151434885425 0.2785151265852619 0 0 0 0 -1726.2084868072634 872.93135791116947 0 872.93135791116947 -737.58883018016058 0 0 0 0 -213.87803470248218 508.52146272751997 0 508.52146272751997 -465.42023539148795 0 0 0 0 -1425.2865542381317 398.77829707735509 0 398.77829707735509 -0.58586119483516086 0 0 0 0 -279.40006550241469 122.75606309255818 0 122.75606309255818 22.344681464281166 0 0 0 0 -269.51922838858081 137.81536104109546 0 137.81536104109546 -49.172308771114331 0 0 0 0 -84.745663346135188 13.490374551161949 0 13.490374551161949 -81.667006706404209 0 0 0 0 -88.205711232943031 2.1218036883728928 0 2.1218036883728928 147.20714532441343 0 0 0 0 -237.68919079428451 97.171729427820537 0 97.171729427820537 -127.36210133753775 0 0 0 0 -1985.3026316651194 -109.24334119589548 0 -109.24334119589548 -162.39413267317286 0 0 0 0 -1.5956030697707964 1.6002934736888079 0 1.6002934736888079 -5.1442298999048717 0 0 0 0 303.21420388921069 197.29748032689531 0 197.29748032689531 -330.56530796482912 0 0 0 0 775.9064957571245 298.52951958184713 0 298.52951958184713 -72.513721979092225 0 0 0 0 367.60790508935861 442.75453191163979 0 442.75453191163979 0.037944892472296488 0 0 0 0 355.52119011021205 242.06035997270374 0 242.06035997270374 -0.10669181006960571 0 0 0 0 818.19641866723214 498.16138349572429 0 498.16138349572429 115.51551382811158 0 0 0 0 0.48102591741614198 0.003870587967007566 0 0.003870587967007566 3.5319794993973233 0 0 0 0 1323.8891735973721 157.8949183999066 0 157.8949183999066 -221.03952887188643 0 0 0 0 781.61961845253245 171.59727064805338 0 171.59727064805338 0.071062789748664937 0 0 0 0 -246.9173426796433 95.256867631200294 0 95.256867631200294 -60.492344188489369 0 0 0 0 473.75858543791037 39.942571804858744 0 39.942571804858744 102.34045527811395 0 0 0 0 575.78606800365287 314.24285907594822 0 314.24285907594822 44.735931819537655 0 0 0 0 416.17857415170238 531.57307419692006 0 531.57307419692006 -161.86423243492027 0 0 0 0 207.80125019606294 415.65462084863611 0 415.65462084863611 310.4308813039388 0 0 0 0 224.59195655467011 488.72135190339759 0 488.72135190339759 177.00338992432808 0 0 0 0 157.51194220822435 300.91730472732161 0 300.91730472732161 56.728255374575383 0 0 0 0 248.50769032018343 214.82384318357981 0 214.82384318357981 130.98468997998862 0 0 0 0 351.21089673541701 138.95664385410419 0 138.95664385410419 60.613605534104863 0 0 0 0 1.2428294901632611 2.1779749331713418 0 2.1779749331713418 10.070232491920081 0 0 0 0 199.63726813998574 34.156069332595507 0 34.156069332595507 0.58463015922461636 0 0 0 0 112.72632764302489 73.952643214171985 0 73.952643214171985 -48.371692040585913 0 0 0 0 31.424519519259775 6.2210867992980639 0 6.2210867992980639 36.969730089185759 0 0 0 0 38.973861565486004 191.82286549912897 0 191.82286549912897 233.88765769184101 0 0 0 0 89.58845280267451 58.00698895156529 0 58.00698895156529 4.2551107327235513 0 0 0 0 -1124.4065907029133 -361.53065024822354 0 -361.53065024822354 214.53062763769412 0 0 0 0 -612.36498674595532 -2.0658358581204084 0 -2.0658358581204084 -173.05119368985925 0 0 0 0 -5.5863791278836494 7.4317884091570292 0 7.4317884091570292 -12.091197129941008 0 0 0 0 148.53622318311454 192.65164546147571 0 192.65164546147571 43.832183341470227 0 0 0 0 4.7904540063359491 -82.608529966917558 0 -82.608529966917558 -83.674246663576923 0 0 0 0 -211.90954712470557 74.952367528880131 0 74.952367528880131 148.42109574827191 0 0 0 0 -59.864020852990507 135.07802368345438 0 135.07802368345438 60.250470076804049 0 0 0 0 -3.12104754736575 10.554860468124328 0 10.554860468124328 12.829501799240916 0 0 0 0 2.2727184727964413 52.055069022699172 0 52.055069022699172 0.94631333719007671 0 0 0 0 -347.14088371800653 135.90965950397367 0 135.90965950397367 -59.711392264274764 0 0 0 0 -340.37694662416925 54.132303954524104 0 54.132303954524104 203.498972239875 0 0 0 0 -506.84469159083574 222.92358352099109 0 222.92358352099109 403.50427217334072 0 0 0 0 -496.34554856904924 268.15703232691158 0 268.15703232691158 215.35123065517109 0 0 0 0 -58.127087209280056 54.816292713736203 0 54.816292713736203 -36.03805756464962 0 0 0 0 -142.95281612621511 480.25875121892022 0 480.25875121892022 125.21136724867392 0 0 0 0 -45.925853379369073 471.27590717811836 0 471.27590717811836 -267.2981542199559 0 0 0 0 -16.636875931037963 20.133801113578158 0 20.133801113578158 -0.30491286206982693 0 0 0 0 26.758471685141558 246.72828185968683 0 246.72828185968683 312.7352138038259 0 0 0 0 24.179495900770348 162.51330566948127 0 162.51330566948127 87.81204610815621 0 0 0 0 -13.121565883215226 383.21645046156482 0 383.21645046156482 23.493302696646424 0 0 0 0 86.185513057280332 481.90899826554232 0 481.90899826554232 -79.941093770088628 0 0 0 0 -47.130585478380453 52.248312754505605 0 52.248312754505605 10.264271029052907 0 0 0 0 -78.645368615399093 263.14564811388846 0 263.14564811388846 -95.518156759033445 0 0 0 0 -28.790993655805366 24.314833564858766 0 24.314833564858766 25.41890751668825 0 0 0 0 -207.53907228580283 47.439695457018388 0 47.439695457018388 53.775275187486841 0 0 0 0 -47.834288676872987 42.440987821950756 0 42.440987821950756 13.566263836359212 0 0 0 0 -37.639060350832565 40.256168431468353 0 40.256168431468353 14.202145200238817 0 0 0 0 -264.66071929621558 287.38576015233411 0 287.38576015233411 -106.79639961244538 0 0 0 0 -3.7076999751668955 19.002472235341031 0 19.002472235341031 -15.97685100766347 0 0 0 0 -552.51982891634577 15.377716640718063 0 15.377716640718063 29.91850254216115 0 0 0 0 -46.824740875880707 17.862614147656132 0 17.862614147656132 -17.217232057446381 0 0 0 0 -35.260746581979497 55.589349986724443 0 55.589349986724443 20.483451340576607 0 0 0 0 -92.727740228449619 63.962960380389234 0 63.962960380389234 28.311257576670187 0 0 0 0 -46.209383044999413 60.197246046474902 0 60.197246046474902 16.527782802295405 0 0 0 0 19.731264994801286 73.362412055044686 0 73.362412055044686 -2.4169114680588564 0 0 0 0 -156.65288358195721 88.924176819506101 0 88.924176819506101 36.084815153706586 0 0 0 0 54.143685274381056 39.240801521560059 0 39.240801521560059 1.365094156527789 0 0 0 0 48.780451052391072 85.247067342083028 0 85.247067342083028 -50.125688150976202 0 0 0 0 -273.68259533703531 171.36666403499839 0 171.36666403499839 -54.333771535835695 0 0 0 0 -224.24327264721433 634.77628966776319 0 634.77628966776319 -755.86175810171699 0 0 0 0 -25.438461724081208 343.87754755058268 0 343.87754755058268 -406.2266788827983 0 0 0 0 -413.55975470814883 539.01265919708385 0 539.01265919708385 -392.27903082387638 0 0 0 0 -254.75252801329043 416.22177313320572 0 416.22177313320572 -392.78932682820596 0 0 0 0 -431.41920208619194 533.18095224018907 0 533.18095224018907 -375.57097273976251 0 0 0 0 -55.83739513328085 92.967201223245539 0 92.967201223245539 -36.376482699948042 0 0 0 0 -334.70789584521845 382.06278045021463 0 382.06278045021463 -128.66646854830833 0 0 0 0 -230.01653875589909 441.04115840230952 0 441.04115840230952 -330.95408815867268 0 0 0 0 -277.5360749877982 329.48589899829676 0 329.48589899829676 -299.69388386441278 0 0 0 0 -382.5807960063612 426.60017436866474 0 426.60017436866474 -314.8877756028196 0 0 0 0 -335.17879092053772 508.78472672906355 0 508.78472672906355 -425.05643530937959 0 0 0 0 -242.01428245584975 382.87222043469228 0 382.87222043469228 -583.69488180056214 0 0 0 0 -403.22464149201551 194.39493874630352 0 194.39493874630352 -798.10939702711767 0 0 0 0 -526.1127167114937 411.28049130379804 0 411.28049130379804 -521.05686469911598 0 0 0 0 6.2189477725987672 88.8895706198673 0 88.8895706198673 -715.27724622376263 0 0 0 0 -279.05594998600282 123.04375037587306 0 123.04375037587306 -292.08674259536201 0 0 0 0 -541.57975410769359 477.91828224143683 0 477.91828224143683 -482.11451309053518 0 0 0 0 -537.94368113930614 538.20701080003346 0 538.20701080003346 -367.12026688954211 0 0 0 0 -503.15159919441794 392.33462489309022 0 392.33462489309022 -505.65461957536172 0 0 0 0 -447.94731386432977 473.4045271169889 0 473.4045271169889 -502.33365917956689 0 0 0 0 -610.86933391469211 412.81238554975425 0 412.81238554975425 -508.96437615651303 0 0 0 0 -521.48415931862291 403.71050253072826 0 403.71050253072826 -630.81078528513899 0 0 0 0 -545.54463005338584 509.96342785839079 0 509.96342785839079 -533.42772770448937 0 0 0 0 -822.43061663536719 399.52372580160954 0 399.52372580160954 -718.87927737200516 0 0 0 0 -579.84759572447001 356.05718728756619 0 356.05718728756619 -599.65775693912292 0 0 0 0 -580.61036582119414 416.13634337280382 0 416.13634337280382 -801.83161919607664 0 0 0 0 -743.98279061714129 303.73241458109987 0 303.73241458109987 -633.44108222291197 0 0 0 0 -749.17434252195017 483.45922496516141 0 483.45922496516141 -823.62391092777034 0 0 0 0 475.81250330304101 616.29270685729352 0 616.29270685729352 -1141.9788484042438 0 0 0 0 -65.27257491898223 88.792403402156268 0 88.792403402156268 -38.181577587005847 0 0 0 0 -827.41170801514454 196.15137824593694 0 196.15137824593694 -649.53127122073784 0 0 0 0 913.05785782590556 718.06917748219166 0 718.06917748219166 -1717.7317848806269 0 0 0 0 381.07153010328148 1724.8115909976368 0 1724.8115909976368 -291.75202190715936 0 0 0 0 -380.7090075550077 847.69795758382315 0 847.69795758382315 -977.6186582777591 0 0 0 0 -958.07032706722384 936.27695846300048 0 936.27695846300048 -529.15724220275297 0 0 0 0 -145.02035847796651 1016.952365168705 0 1016.952365168705 -899.56981548561453 0 0 0 0 353.04205451483722 171.15384149940655 0 171.15384149940655 83.401204369889456 0 0 0 0 752.35864927702642 158.47232655205153 0 158.47232655205153 70.589831144006894 0 0 0 0 476.82775283992669 550.30628636400797 0 550.30628636400797 -1.4446266053855652 0 0 0 0 373.62027405534172 176.98652338589454 0 176.98652338589454 21.907820799635374 0 0 0 0 140.17506773417699 481.45586982507666 0 481.45586982507666 -1.4884135995962424 0 0 0 0 273.29009608370689 284.93173281924101 0 284.93173281924101 20.983963012564345 0 0 0 0 151.98755992420774 174.00277786153674 0 174.00277786153674 76.541194302219083 0 0 0 0 -1165.7215944989948 798.09177926724806 0 798.09177926724806 -449.31049481223454 0 0 0 0 4.8425653984670607 46.187667965697585 0 46.187667965697585 33.637504742956509 0 0 0 0 -877.3492298360361 721.10564410823281 0 721.10564410823281 -357.27759896608768 0 0 0 0 4.4650028932016603 7.8475515216443625 0 7.8475515216443625 8.6134027293830684 0 0 0 0 -9.5793062170916983 187.53154099048379 0 187.53154099048379 -315.81258032639744 0 0 0 0 -152.04721565243926 159.03645636176952 0 159.03645636176952 -190.91723996649671 0 0 0 0 -215.62528876385295 262.80318633378192 0 262.80318633378192 -175.97040490797735 0 0 0 0 67.315213993143288 131.29386220838933 0 131.29386220838933 -191.47735290576384 0 0 0 0 77.377724355850944 228.84095959509978 0 228.84095959509978 -160.53257034553098 0 0 0 0 -9.7986762320724665 187.96718705633975 0 187.96718705633975 -233.1027785584447 0 0 0 0 24.803176186933115 156.2454706221979 0 156.2454706221979 -221.51531484836596 0 0 0 0 34.843933851387192 110.53595123295963 0 110.53595123295963 -276.40289641759591 0 0 0 0 27.489008862001356 43.378572494759283 0 43.378572494759283 -223.61362359864506 0 0 0 0 53.441782243696707 128.38253548550347 0 128.38253548550347 -261.8845069608069 0 0 0 0 47.94027130923314 51.088307403064391 0 51.088307403064391 -358.80461082572037 0 0 0 0 -6.7762085563790606 167.16740649203712 0 167.16740649203712 -333.45155908103334 0 0 0 0 -90.148164049959661 203.97714082137134 0 203.97714082137134 -418.71055008991971 0 0 0 0 -90.929106471003251 148.16640500519134 0 148.16640500519134 -291.19874346513097 0 0 0 0 -374.26355739036808 107.11425392638921 0 107.11425392638921 -435.98818805751353 0 0 0 0 -294.86852391179673 193.953127397348 0 193.953127397348 -354.49543755011837 0 0 0 0 -421.58959151491945 415.50106779351336 0 415.50106779351336 -461.90612074272121 0 0 0 0 -375.38502647211499 144.03557961579645 0 144.03557961579645 -855.47863214008248 0 0 0 0 -515.69038862866364 457.37046014222142 0 457.37046014222142 -603.19572212697676 0 0 0 0 -447.06479161257084 360.40124317292066 0 360.40124317292066 -490.62848614265386 0 0 0 0 -544.58730364146322 521.88030559170147 0 521.88030559170147 -300.42851025248819 0 0 0 0 -292.20650374785691 295.55018819516408 0 295.55018819516408 -291.06113820592145 0 0 0 0 -318.22190310592759 268.74131072067394 0 268.74131072067394 -253.57802928026649 0 0 0 0 -496.36473703118463 442.82665403174178 0 442.82665403174178 -263.58342674247024 0 0 0 0 -351.73106608269427 211.3944305540208 0 211.3944305540208 -4.8744727169687394 0 0 0 0 -550.09938491666071 497.5128655617882 0 497.5128655617882 -69.611461885826429 0 0 0 0 -879.74229470164209 720.69757075938105 0 720.69757075938105 -161.34697041794425 0 0 0 0 -664.48173152984464 318.22110607233481 0 318.22110607233481 248.06923617626308 0 0 0 0 -496.3460036458273 633.01523016879582 0 633.01523016879582 -297.63606693921611 0 0 0 0 -569.70194142288165 571.29193149229832 0 571.29193149229832 -342.42436479804019 0 0 0 0 -488.99456428939811 735.59685864969651 0 735.59685864969651 -376.6633130604896 0 0 0 0 -80.914029906574797 381.03830530792766 0 381.03830530792766 -653.01045066040024 0 0 0 0 -497.82292424571222 831.09400741664876 0 831.09400741664876 -189.48216439361568 0 0 0 0 -652.1965191491181 447.96125019527972 0 447.96125019527972 206.23570971148729 0 0 0 0 -1315.8443473090563 910.31172810774751 0 910.31172810774751 553.47088114677172 0 0 0 0 596.7980337052395 539.80666248586203 0 539.80666248586203 -2314.9216492451669 0 0 0 0 -1138.2774085847122 1582.7525502829012 0 1582.7525502829012 -840.28988449205644 0 0 0 0 -411.07182441004261 1093.2071946492943 0 1093.2071946492943 -1951.3793347994433 0 0 0 0 -207.33477836177008 -50.951461677934276 0 -50.951461677934276 820.22615687269717 0 0 0 0 -31.229463789643074 5.4076108978993034 0 5.4076108978993034 -2.8727194045908391 0 0 0 0 -824.87790384480832 415.81119572277385 0 415.81119572277385 1025.8214265866991 0 0 0 0 -658.31554392810722 321.21506087984017 0 321.21506087984017 576.02787839158555 0 0 0 0 -13.399283046515848 77.774688690296898 0 77.774688690296898 -26.707904839597177 0 0 0 0 -324.38220298947192 193.93690398578474 0 193.93690398578474 196.38985173936817 0 0 0 0 0.4130059625767899 30.973163662783918 0 30.973163662783918 267.34854580393585 0 0 0 0 -355.28814531994794 315.48374886011152 0 315.48374886011152 -36.974991214301554 0 0 0 0 33.697457003527461 227.96800069513847 0 227.96800069513847 97.512363245594315 0 0 0 0 94.027072879179286 254.43747990715929 0 254.43747990715929 -101.78257154167659 0 0 0 0 362.59461605941584 230.05883272198662 0 230.05883272198662 84.664440954482416 0 0 0 0 -59.712211445228604 -126.90901109357947 0 -126.90901109357947 22.990773263940355 0 0 0 0 155.42758087855464 -152.85684498977935 0 -152.85684498977935 485.21396054960496 0 0 0 0 -10.504575098110493 0.93604826625332294 0 0.93604826625332294 7.6260372945077393 0 0 0 0 -26.831708729775528 -15.418052885121142 0 -15.418052885121142 -44.018093107821187 0 0 0 0 -35.408858227528981 5.9744620408673654 0 5.9744620408673654 -31.520188571907056 0 0 0 0 -1075.5558483189739 1039.5098522157887 0 1039.5098522157887 -552.24443831443205 0 0 0 0 -196.64836517100048 253.90476468049019 0 253.90476468049019 -853.09181790353614 0 0 0 0 -1052.5839209501719 1123.3710883068125 0 1123.3710883068125 -988.71563474153299 0 0 0 0 -1251.1975909268294 1096.5166984198731 0 1096.5166984198731 -314.38656476707547 0 0 0 0 -1083.3098185016825 978.48187685555604 0 978.48187685555604 -475.26405980167328 0 0 0 0 -1068.5657755414359 882.97976410029514 0 882.97976410029514 -348.65301051558345 0 0 0 0 -1115.9395344088553 974.97481791116297 0 974.97481791116297 -467.42931128501368 0 0 0 0 -1014.7817866028745 682.29609662154689 0 682.29609662154689 -163.73238815378863 0 0 0 0 -1117.2690239241433 737.10513048709117 0 737.10513048709117 -36.564289383386495 0 0 0 0 -871.08352032161929 405.44863200592226 0 405.44863200592226 20.514876813074807 0 0 0 0 -905.27287129706747 652.06978162588348 0 652.06978162588348 -376.03988292368012 0 0 0 0 -987.77207552499749 606.36627756903181 0 606.36627756903181 -272.14190990448697 0 0 0 0 -939.76408254904527 710.81280474513187 0 710.81280474513187 -635.99369093767018 0 0 0 0 -973.44543131126557 676.95589234029467 0 676.95589234029467 -330.66840393411258 0 0 0 0 -1006.9718298732041 1050.2913461304561 0 1050.2913461304561 -703.34124543890357 0 0 0 0 -1024.0165677327714 673.93385995790413 0 673.93385995790413 -440.00393250858178 0 0 0 0 -1015.2592373381522 697.94640714982233 0 697.94640714982233 -406.44576408673311 0 0 0 0 -1034.7690426960908 595.73444917384768 0 595.73444917384768 -597.39983014052268 0 0 0 0 -1011.2523763888457 606.17821783632098 0 606.17821783632098 -700.10374094679719 0 0 0 0 -977.67186898041837 686.10824394033989 0 686.10824394033989 -905.34168805985246 0 0 0 0 -988.70727596554207 741.45727874856675 0 741.45727874856675 -595.90961483013325 0 0 0 0 -942.96740259835497 829.91442887089215 0 829.91442887089215 -825.43629074201453 0 0 0 0 -908.14911698992364 820.91354171259445 0 820.91354171259445 -957.09584139664366 0 0 0 0 -938.7034868339324 913.61586576502305 0 913.61586576502305 -654.94833349055261 0 0 0 0 -942.69066743749863 802.13773266106728 0 802.13773266106728 -537.14495189319132 0 0 0 0 22.797791403646514 6.5835352556581199 0 6.5835352556581199 4.4635109729463522 0 0 0 0 100.09298308960388 402.92950418700639 0 402.92950418700639 770.87918001464277 0 0 0 0 -338.27778651016342 -292.65555044048233 0 -292.65555044048233 949.19515452944324 0 0 0 0 -2526.251136097173 1579.3919736852476 0 1579.3919736852476 1465.5472388620838 0 0 0 0 -1734.4122400327979 2231.5745102817164 0 2231.5745102817164 -680.81971676592366 0 0 0 0 -1123.2891808035474 738.59107928233425 0 738.59107928233425 24.313334242775454 0 0 0 0 -1127.6911674207549 820.59336476716999 0 820.59336476716999 276.67997437992017 0 0 0 0 -375.67635674121811 127.67547298076533 0 127.67547298076533 -70.423043059381598 0 0 0 0 -916.48958769510045 414.05826150388384 0 414.05826150388384 279.98017334955512 0 0 0 0 -347.21433767339295 276.52590437608887 0 276.52590437608887 155.47254490523483 0 0 0 0 -1.9079190603506291 0.99359201661850705 0 0.99359201661850705 3.1613295560434835 0 0 0 0 27.702566500503508 708.86345686854474 0 708.86345686854474 331.50123005600472 0 0 0 0 203.75475907332429 605.94197146732859 0 605.94197146732859 -258.98701733870257 0 0 0 0 -594.39148716888667 385.17330991716153 0 385.17330991716153 -265.87937191737001 0 0 0 0 -488.26537048943374 405.78861167690775 0 405.78861167690775 -0.295551781920949 0 0 0 0 -3.1120994342720536 1.1421299140615986 0 1.1421299140615986 3.7176498108765941 0 0 0 0 130.59988689333568 459.86508469923137 0 459.86508469923137 90.572636701341253 0 0 0 0 -189.10782501018912 87.080419326528499 0 87.080419326528499 -198.90472263789343 0 0 0 0 -864.09001132172125 521.06797464219562 0 521.06797464219562 -248.797297940524 0 0 0 0 -825.13895743179182 653.50812643284371 0 653.50812643284371 -338.90381061495282 0 0 0 0 -893.01538954547141 621.79883179295575 0 621.79883179295575 -405.25473195558425 0 0 0 0 -1021.7866285626042 704.73525898777007 0 704.73525898777007 -349.32041826378554 0 0 0 0 -939.13581580332539 609.64922956311784 0 609.64922956311784 -278.29499500113889 0 0 0 0 -818.03121293106233 578.21813843841664 0 578.21813843841664 -370.83396123418424 0 0 0 0 -708.90897949716236 426.38265941728605 0 426.38265941728605 -273.89925424841931 0 0 0 0 -799.89482664134266 415.7350983015931 0 415.7350983015931 -181.66900457155862 0 0 0 0 -578.47202275595373 397.08505920868629 0 397.08505920868629 -274.41340196915212 0 0 0 0 -653.32173819391846 622.23703239618044 0 622.23703239618044 -202.6139939831919 0 0 0 0 -891.3789456968334 601.38869228710246 0 601.38869228710246 -0.22098187121446244 0 0 0 0 -828.58274135088686 551.53202639801384 0 551.53202639801384 -269.50998282966611 0 0 0 0 19.557837116681121 23.904317045778456 0 23.904317045778456 14.041505892448868 0 0 0 0 -997.76583528180345 739.49877756224305 0 739.49877756224305 -364.29645129406708 0 0 0 0 -933.28150325644674 745.9864266175864 0 745.9864266175864 -370.16678825840791 0 0 0 0 1034.3346353290835 396.48936472229252 0 396.48936472229252 -294.52032438157676 0 0 0 0 -782.40158126827191 436.93001848429412 0 436.93001848429412 -0.69282488988392288 0 0 0 0 10.82457677876755 7.0994639116498206 0 7.0994639116498206 5.3843506673814545 0 0 0 0 3786.0634520123549 -72.293019867636758 0 -72.293019867636758 -255.30685401612573 0 0 0 0 1705.2293523926128 1789.8571236881908 0 1789.8571236881908 1.4508634359183685 0 0 0 0 1050.3660445954138 1133.3457748870642 0 1133.3457748870642 -57.710158173620584 0 0 0 0 389.42635462146063 1477.2297200628309 0 1477.2297200628309 109.69924005524808 0 0 0 0 1547.6398847439668 1029.2836542847817 0 1029.2836542847817 -111.98835451091145 0 0 0 0 678.12119226644427 967.94460926257307 0 967.94460926257307 -109.51696749792904 0 0 0 0 290.49096298840959 1023.604858784518 0 1023.604858784518 305.61733588647621 0 0 0 0 890.65943437807073 696.08489345017006 0 696.08489345017006 179.01047941925935 0 0 0 0 552.49906367626681 387.15781738159421 0 387.15781738159421 93.106411849978031 0 0 0 0 643.8597926219536 352.69241385765417 0 352.69241385765417 -25.756266951211728 0 0 0 0 209.0518029655359 43.962373220369045 0 43.962373220369045 33.536042792373337 0 0 0 0 -37.518100581050021 -4.7581134536385434 0 -4.7581134536385434 -9.8989121840859298 0 0 0 0 -19.493996496187407 19.571410751509532 0 19.571410751509532 16.412792111461727 0 0 0 0 -17.198179161066946 -38.960289339778683 0 -38.960289339778683 7.2296957620419562 0 0 0 0 831.11396642911131 46.200877248920733 0 46.200877248920733 7.8909722245443845 0 0 0 0 784.89839587492315 379.66160038537055 0 379.66160038537055 -20.660720761763514 0 0 0 0 -4346.8930305915419 329.46821053803797 0 329.46821053803797 807.26566339957208 0 0 0 0 -775.41326434936036 1724.7908637297232 0 1724.7908637297232 -6.5469236136123072 0 0 0 0 -2990.2054183561968 722.47380658435031 0 722.47380658435031 450.17683568235952 0 0 0 0 -4.189182540226625 3.6510921531407945 0 3.6510921531407945 -1.2962277355242122 0 0 0 0 -405.00973975345551 928.34559777456889 0 928.34559777456889 265.23530253459103 0 0 0 0 -962.40817486332162 1812.0902186068306 0 1812.0902186068306 -0.7376932684564963 0 0 0 0 413.96317626596465 1769.5869908215645 0 1769.5869908215645 -0.14647923002485186 0 0 0 0 -585.16658773286326 1179.577729761666 0 1179.577729761666 89.655034162668017 0 0 0 0 389.47731286264917 1498.4384022664824 0 1498.4384022664824 -22.932462169716018 0 0 0 0 -360.54303577052997 1206.6028248128714 0 1206.6028248128714 431.77036667189532 0 0 0 0 -685.22865147066841 1197.6034536455263 0 1197.6034536455263 431.92158675380051 0 0 0 0 292.79515798225839 1001.2581847765032 0 1001.2581847765032 362.90268374581501 0 0 0 0 -418.99956585787186 1117.5672418281501 0 1117.5672418281501 367.95787573841517 0 0 0 0 -101.63056547840097 1093.9660602312215 0 1093.9660602312215 293.94705487608007 0 0 0 0 -3.6520338993694708 4.6485577226393531 0 4.6485577226393531 -0.85629502870449414 0 0 0 0 -947.93649084247591 1305.4534466215118 0 1305.4534466215118 509.92633374086654 0 0 0 0 -1474.102843496963 622.4334169797803 0 622.4334169797803 424.0042512579148 0 0 0 0 -1297.4265855143876 624.26210260197695 0 624.26210260197695 331.42668909698841 0 0 0 0 -2957.3827139768728 566.70087099343436 0 566.70087099343436 433.65555179111834 0 0 0 0 -2675.8061160378547 826.5761334210365 0 826.5761334210365 657.77306660306931 0 0 0 0 -940.67558832620853 686.34241223254503 0 686.34241223254503 388.32709092665755 0 0 0 0 -991.21456588564615 773.62537372106817 0 773.62537372106817 258.17413350981951 0 0 0 0 -1334.0269903920489 645.24655779252498 0 645.24655779252498 423.81574860993715 0 0 0 0 -1398.3757028762802 862.72059105922017 0 862.72059105922017 470.61990524501016 0 0 0 0 -699.12478917504632 1053.6266087280674 0 1053.6266087280674 192.14286684062972 0 0 0 0 -730.28963227466738 1054.4964080922728 0 1054.4964080922728 437.93116038318749 0 0 0 0 -467.9126836850628 1271.2045034855291 0 1271.2045034855291 342.13975572498748 0 0 0 0 -431.91513506690899 1026.4773329773016 0 1026.4773329773016 357.20717585475359 0 0 0 0 10.939363434845291 1286.3524868676905 0 1286.3524868676905 367.16009004239459 0 0 0 0 -391.99265117650793 1142.2942650233217 0 1142.2942650233217 622.15754617097264 0 0 0 0 -334.29884805169058 1072.0949844151219 0 1072.0949844151219 305.20942889551225 0 0 0 0 -385.29683156487226 1363.0880606409082 0 1363.0880606409082 134.70511134433764 0 0 0 0 -327.14484378698944 1255.3673174345167 0 1255.3673174345167 -522.540813599393 0 0 0 0 -415.40593436804193 1049.8453699110905 0 1049.8453699110905 -166.33338378124608 0 0 0 0 -516.73562901609694 700.84725175004132 0 700.84725175004132 -1231.1845442475169 0 0 0 0 77.683566322462866 1052.555932214942 0 1052.555932214942 -451.49206705229881 0 0 0 0 -70.833946712600664 803.7166007963242 0 803.7166007963242 -99.85247694455029 0 0 0 0 -276.47702735559506 1144.7283882784759 0 1144.7283882784759 140.99510220153024 0 0 0 0 -312.66974780852979 1275.7595463957114 0 1275.7595463957114 -333.18913656119548 0 0 0 0 -454.17392477559042 921.57303096679243 0 921.57303096679243 -113.58981732388202 0 0 0 0 -480.09075817098574 727.64782514092985 0 727.64782514092985 83.446484856191091 0 0 0 0 -110.45649790393509 727.96230085950083 0 727.96230085950083 -153.83075373489555 0 0 0 0 -260.35501004169419 514.86487322763423 0 514.86487322763423 40.302944355731597 0 0 0 0 -539.48530471675622 657.02168186948256 0 657.02168186948256 56.78294144337633 0 0 0 0 -618.79774726022515 553.38428990887587 0 553.38428990887587 117.48539485203219 0 0 0 0 -711.07272445656054 787.19314678243245 0 787.19314678243245 258.38797315071861 0 0 0 0 -820.9720424480256 571.01681812850802 0 571.01681812850802 198.97517089883331 0 0 0 0 559.99781860887742 68.973337740579154 0 68.973337740579154 -174.05881096827216 0 0 0 0 -9.310751478801194 183.53121450989147 0 183.53121450989147 0.13955590665864293 0 0 0 0 -90.894247963664981 81.304127964949259 0 81.304127964949259 6.6513643607700601 0 0 0 0 -18.142172636458781 158.99231932083057 0 158.99231932083057 153.24335920735757 0 0 0 0 -95.097232406569674 -3.6552905926291714 0 -3.6552905926291714 198.31982977914595 0 0 0 0 40.821921123187622 350.60617015368916 0 350.60617015368916 378.01323065225733 0 0 0 0 -42.987199122893799 45.664309757186857 0 45.664309757186857 115.28077198386745 0 0 0 0 -38.151154054999935 13.7710909370563 0 13.7710909370563 32.04214907814054 0 0 0 0 -78.246966453807758 34.082334269981232 0 34.082334269981232 0.49653407435089036 0 0 0 0 157.04540569068922 204.30110025979957 0 204.30110025979957 133.76806333117929 0 0 0 0 361.57816997120426 529.20052830160057 0 529.20052830160057 555.50775302413967 0 0 0 0 18.111144341911398 20.229879925394272 0 20.229879925394272 0.4132407914324574 0 0 0 0 462.57176092530426 623.7812474702514 0 623.7812474702514 166.94390152821143 0 0 0 0 -11.311319510346038 1182.8931590253142 0 1182.8931590253142 1756.2586358484987 0 0 0 0 463.00185540612802 643.9857269642016 0 643.9857269642016 620.98412042617201 0 0 0 0 -269.76904705625202 418.84426636672288 0 418.84426636672288 -914.82553968948923 0 0 0 0 1.5371175065253908 -1.3179857400446338 0 -1.3179857400446338 0.59406964741062041 0 0 0 0 209.253882114921 110.09860286115145 0 110.09860286115145 45.440248045484623 0 0 0 0 6.1357940419147781 -105.76019075396471 0 -105.76019075396471 -105.80429190372524 0 0 0 0 296.45282192690502 -334.9814749107536 0 -334.9814749107536 -48.803538880427368 0 0 0 0 -643.19560018870106 -101.30958784362883 0 -101.30958784362883 284.74120098381536 0 0 0 0 -1080.9031255416121 363.3565325131276 0 363.3565325131276 191.44278178282548 0 0 0 0 -325.70863244406064 167.85322855578124 0 167.85322855578124 -206.19491712070885 0 0 0 0 -783.88149312977475 887.42542845903517 0 887.42542845903517 -400.50242897421413 0 0 0 0 -797.14454295125324 757.17056928375678 0 757.17056928375678 -27.392565950285643 0 0 0 0 -1582.5709906121483 934.55133910950099 0 934.55133910950099 -24.872408263374382 0 0 0 0 -833.74864103458094 1137.5065493492948 0 1137.5065493492948 -359.38278056018316 0 0 0 0 -896.2942117651146 1388.1293398424677 0 1388.1293398424677 -996.79723615510738 0 0 0 0 -2004.6074494208879 1392.5705712855852 0 1392.5705712855852 -517.04149814657285 0 0 0 0 -551.83664605485683 682.13858506864926 0 682.13858506864926 -2468.6923047418677 0 0 0 0 -1466.7026619345852 1941.8261946305793 0 1941.8261946305793 -1532.46809524126 0 0 0 0 -1681.1453176232026 444.76074903930567 0 444.76074903930567 8.3587315443946864 0 0 0 0 79.867691166622535 105.41375155188871 0 105.41375155188871 -920.10756360030791 0 0 0 0 12.284714932404817 21.306976140033512 0 21.306976140033512 -19.430089419117394 0 0 0 0 261.95666632284701 79.039748543189489 0 79.039748543189489 -366.16083839187922 0 0 0 0 59.18005828953028 390.20255926807295 0 390.20255926807295 -618.72471267988294 0 0 0 0 -37.663526023159648 -253.52059417828423 0 -253.52059417828423 77.890735424560262 0 0 0 0 100.88632369695232 58.224770298052874 0 58.224770298052874 7.0046695129904037 0 0 0 0 -2.2850655209567776 237.95212250605982 0 237.95212250605982 -45.16557720034325 0 0 0 0 105.28624803609432 175.50369758190209 0 175.50369758190209 -98.85895893421548 0 0 0 0 59.685768478144382 281.62498134496127 0 281.62498134496127 20.635639425774571 0 0 0 0 -6.3338834856125175 159.51492400234088 0 159.51492400234088 -131.01294517534552 0 0 0 0 176.9694544296508 43.094048475875752 0 43.094048475875752 -114.37006773419853 0 0 0 0 82.781038012647599 24.949484972142898 0 24.949484972142898 1.5474856921586593 0 0 0 0 69.172372277070281 216.51540282736096 0 216.51540282736096 -260.49104636596167 0 0 0 0 -88.942229119282274 249.24106286236929 0 249.24106286236929 -713.9480141341046 0 0 0 0 0.40368866056954289 2.6076387425968335 0 2.6076387425968335 -1.1659138098642714 0 0 0 0 64.015308632559027 265.02026234213918 0 265.02026234213918 197.41134261940897 0 0 0 0 17.554503034840309 28.773608171599335 0 28.773608171599335 -87.251671090816671 0 0 0 0 10.649581672169006 462.05292100692532 0 462.05292100692532 -459.67029835266294 0 0 0 0 -344.13751478585073 375.63955633789374 0 375.63955633789374 74.469157178871683 0 0 0 0 -129.86350002640393 379.95878265672218 0 379.95878265672218 -286.75931600690819 0 0 0 0 -415.56579413199142 530.82195036488702 0 530.82195036488702 -262.61103743409421 0 0 0 0 -579.29198188904411 639.40365751595527 0 639.40365751595527 -159.51417625192698 0 0 0 0 -492.54947365746193 521.93823220691047 0 521.93823220691047 -11.310209478833713 0 0 0 0 -208.53922393204164 704.29887703102418 0 704.29887703102418 -774.95963970840967 0 0 0 0 -216.95792896944477 450.13949869537464 0 450.13949869537464 -330.80991292784165 0 0 0 0 -151.07845510990956 395.6838064683252 0 395.6838064683252 -427.83241660153726 0 0 0 0 -440.5179063991236 1159.3059978326564 0 1159.3059978326564 -1554.123431522843 0 0 0 0 -2265.90028844474 1272.5800512814967 0 1272.5800512814967 -312.07626908502425 0 0 0 0 -1151.3573695414598 -57.774101888673613 0 -57.774101888673613 158.94206807170121 0 0 0 0 -59.942416981270071 1633.9496846974216 0 1633.9496846974216 -636.50929111687583 0 0 0 0 -2176.2466764721757 -223.99416662117437 0 -223.99416662117437 -128.76034134216025 0 0 0 0 -1972.6329520089857 197.83072448673192 0 197.83072448673192 729.60529572143423 0 0 0 0 -1.1878407384213272 -0.6254354364301804 0 -0.6254354364301804 23.359754339842766 0 0 0 0 -889.4759936815426 117.69721613765432 0 117.69721613765432 38.187269019821542 0 0 0 0 -885.66611089072103 764.46306227969762 0 764.46306227969762 -202.30219574602961 0 0 0 0 -1392.5997576265618 535.16864920057924 0 535.16864920057924 49.472385429471615 0 0 0 0 -864.01237304278766 701.31895733516285 0 701.31895733516285 -82.361737838633417 0 0 0 0 -788.85723938376032 443.90239195273898 0 443.90239195273898 57.227430901391017 0 0 0 0 -871.7245828207524 530.33295184226881 0 530.33295184226881 36.657198946311837 0 0 0 0 -717.55884263104599 371.94077154582919 0 371.94077154582919 63.925106556489482 0 0 0 0 -537.56992198845546 498.54686002340168 0 498.54686002340168 38.699031200274476 0 0 0 0 -1076.8846121378701 202.57435524162793 0 202.57435524162793 82.733128333187778 0 0 0 0 -512.31163205853954 221.55060367310944 0 221.55060367310944 81.487486730398814 0 0 0 0 -2259.3371726297974 551.53662449375042 0 551.53662449375042 448.15959047255456 0 0 0 0 -11.400444714174593 9.2284632713576968 0 9.2284632713576968 60.785842574637002 0 0 0 0 -452.15699490422412 265.61090327201237 0 265.61090327201237 4.6163759530172683 0 0 0 0 -496.34755770385618 354.83776458932698 0 354.83776458932698 56.347339292129618 0 0 0 0 -1532.5571463146553 344.10925912603852 0 344.10925912603852 -495.56499856928713 0 0 0 0 -38.473921279495386 68.476125683307799 0 68.476125683307799 -56.502949223572713 0 0 0 0 -298.99287664761869 291.88314979951974 0 291.88314979951974 34.861963355309854 0 0 0 0 -464.4962443480108 610.84743748104665 0 610.84743748104665 5.2698520181002095 0 0 0 0 -336.61570751095496 676.33072570417789 0 676.33072570417789 28.62714302472159 0 0 0 0 -341.7656071790833 703.47051309346443 0 703.47051309346443 -103.2167112436 0 0 0 0 -38.615544473531664 67.302402369968888 0 67.302402369968888 -60.346709421445155 0 0 0 0 -37.620555197098582 67.771590269262106 0 67.771590269262106 -61.994568191311004 0 0 0 0 -597.9658266813567 619.6580023910501 0 619.6580023910501 50.234267977786658 0 0 0 0 -462.51895831130241 630.28308981771261 0 630.28308981771261 -257.00518918150919 0 0 0 0 -741.66345925133646 958.94414951271028 0 958.94414951271028 -206.44008218451199 0 0 0 0 -774.53973902477708 584.94170968138701 0 584.94170968138701 68.910620848837425 0 0 0 0 -706.57907415179943 589.75164202047381 0 589.75164202047381 126.61284787012846 0 0 0 0 -500.85343552248378 505.39892378465447 0 505.39892378465447 29.548894748048042 0 0 0 0 -461.91972128539783 578.05324378550722 0 578.05324378550722 102.30106363071536 0 0 0 0 -28.516355535677576 444.41259165658994 0 444.41259165658994 45.03459165863751 0 0 0 0 -63.943447060642939 857.789384286516 0 857.789384286516 -186.3460458273039 0 0 0 0 -485.83783665297233 649.22949945977598 0 649.22949945977598 328.23657306249515 0 0 0 0 -3.3703526883473387 582.89759130237508 0 582.89759130237508 630.12542071689677 0 0 0 0 1041.8584334970219 233.63750922576583 0 233.63750922576583 96.907550002717471 0 0 0 0 475.81066935886702 1311.2787940813223 0 1311.2787940813223 -95.013787586503895 0 0 0 0 30.889522814428346 668.44033652771577 0 668.44033652771577 132.23483575767023 0 0 0 0 309.92859894921276 485.39548756702425 0 485.39548756702425 -42.204138030705508 0 0 0 0 -7.1430788318613665 10.770061028996253 0 10.770061028996253 -4.5764668195448621 0 0 0 0 1669.8467918956248 1186.6280376974173 0 1186.6280376974173 -304.04970945644891 0 0 0 0 -2722.5572464199722 800.01745979925909 0 800.01745979925909 855.44009353214642 0 0 0 0 578.23666308353131 375.55318820447064 0 375.55318820447064 -1296.598654261732 0 0 0 0 -1753.5258081130137 446.13403635647683 0 446.13403635647683 216.83731130133674 0 0 0 0 -427.88364323314454 -179.23823953770625 0 -179.23823953770625 -344.75119505485782 0 0 0 0 -2090.5628390469883 226.91257880514604 0 226.91257880514604 652.03533221717225 0 0 0 0 -974.4926661249483 12.11404302916344 0 12.11404302916344 100.21534075288218 0 0 0 0 -1523.636970023239 457.0875015661295 0 457.0875015661295 26.064652950328309 0 0 0 0 -749.04456118926828 541.36477575930621 0 541.36477575930621 4.1361606691498309 0 0 0 0 -132.15546921244822 -264.1135860842187 0 -264.1135860842187 911.7941007374684 0 0 0 0 60.910615290268652 1007.7802956423657 0 1007.7802956423657 129.99900907202391 0 0 0 0 -11.701786109069111 18.33541014075945 0 18.33541014075945 -8.9056823674353609 0 0 0 0 -198.76000020790161 1087.1753644590863 0 1087.1753644590863 206.51699571458448 0 0 0 0 -327.06162647156452 652.56452621012431 0 652.56452621012431 -313.80108058241603 0 0 0 0 -513.83419757064257 1792.767321529569 0 1792.767321529569 -483.78731051113573 0 0 0 0 -1724.4283825413622 -728.45897980016161 0 -728.45897980016161 605.33017074197141 0 0 0 0 -329.07302344748678 1179.7825392844024 0 1179.7825392844024 1091.0243353496626 0 0 0 0 5.273861172458794 9.6479877015051727 0 9.6479877015051727 7.973567161066228 0 0 0 0 -431.10818203422969 -426.0181532659044 0 -426.0181532659044 3576.1005406120967 0 0 0 0 -236.96520596084156 1829.1384538978527 0 1829.1384538978527 -2092.2831120845876 0 0 0 0 -586.53470612552701 584.48734687295291 0 584.48734687295291 -1169.8446489072085 0 0 0 0 -382.44271744751313 655.35069235288393 0 655.35069235288393 -1280.2269495975961 0 0 0 0 54.074368437472913 663.24373779766393 0 663.24373779766393 -1309.8542939818508 0 0 0 0 -593.76413841329486 1449.8216968509441 0 1449.8216968509441 -58.434581057808828 0 0 0 0 -785.45588064022013 1038.6005479447667 0 1038.6005479447667 -477.54169499376439 0 0 0 0 1721.1187822536376 678.19232614302382 0 678.19232614302382 -810.37677130737575 0 0 0 0 507.53140075454576 1120.0241729458066 0 1120.0241729458066 -580.82013954348804 0 0 0 0 -5.2007390551409713 7.6092628235875708 0 7.6092628235875708 -4.195819904167621 0 0 0 0 -1080.55837902856 334.18079505358764 0 334.18079505358764 -275.81600343325408 0 0 0 0 -526.12783585905709 -256.85255332672386 0 -256.85255332672386 174.18988286011154 0 0 0 0 -1696.4156552349523 -141.03544888562465 0 -141.03544888562465 30.884681258879823 0 0 0 0 -1422.5429590369904 424.95898049485004 0 424.95898049485004 -472.91587115362927 0 0 0 0 -1796.2535298715211 592.70260855018932 0 592.70260855018932 -390.62556109773868 0 0 0 0 -1395.3875575888669 60.644810263736872 0 60.644810263736872 -183.44244408278428 0 0 0 0 -441.64607835044444 597.08731647524837 0 597.08731647524837 -663.19522245462576 0 0 0 0 -1545.0823859658412 795.58706867785804 0 795.58706867785804 -675.07673342843191 0 0 0 0 -1157.1805118776792 1367.3405872543863 0 1367.3405872543863 -1534.8033369889454 0 0 0 0 -906.71460719431343 572.75187292281043 0 572.75187292281043 -875.0455327223026 0 0 0 0 -159.29652439200072 628.16173503285972 0 628.16173503285972 -1165.1059233330161 0 0 0 0 -699.84082547113576 1010.4647696986394 0 1010.4647696986394 -1183.1116127768109 0 0 0 0 -577.92541116003122 823.55223666108577 0 823.55223666108577 -900.93790767667815 0 0 0 0 -584.96693184743833 585.73300251929641 0 585.73300251929641 -777.28308218349412 0 0 0 0 -143.24351089207994 144.71669686615496 0 144.71669686615496 -491.90067498666394 0 0 0 0 -242.82114309522694 122.95668149140693 0 122.95668149140693 -251.88877860196226 0 0 0 0 -433.27966356845718 631.494006983703 0 631.494006983703 -786.16665749343156 0 0 0 0 -638.67242642081692 660.48297304765219 0 660.48297304765219 -501.72127797717985 0 0 0 0 -284.91246053186023 597.06765669298329 0 597.06765669298329 -99.350616483745398 0 0 0 0 -171.88785688575081 419.3231795980646 0 419.3231795980646 -139.1745278942708 0 0 0 0 -321.87265344992829 588.60642905930763 0 588.60642905930763 -40.330009706944111 0 0 0 0 -228.00580015882588 505.16231070766298 0 505.16231070766298 31.276904377780738 0 0 0 0 -155.01960107353443 473.10115388274789 0 473.10115388274789 8.9572212304301502 0 0 0 0 -271.80835245624985 446.22399797067919 0 446.22399797067919 -18.31604925270949 0 0 0 0 -2580.3663225299933 113.37142001818938 0 113.37142001818938 105.85237180348486 0 0 0 0 -3.0240326225852128 19.780423773049144 0 19.780423773049144 -34.302597470869841 0 0 0 0 318.28751122615722 305.59481952801434 0 305.59481952801434 -135.69678088987712 0 0 0 0 204.62581336859512 234.131713711271 0 234.131713711271 -3.7433213776675984 0 0 0 0 -1683.756952361844 -221.07801759166614 0 -221.07801759166614 -370.17147450553784 0 0 0 0 209.11387976731567 417.4907312518917 0 417.4907312518917 -37.119230037698799 0 0 0 0 82.832723138025358 177.02849583103671 0 177.02849583103671 -213.30911027333786 0 0 0 0 1091.0064030045176 429.87092805838029 0 429.87092805838029 -1212.1829097767622 0 0 0 0 -1.4594439360502811 1.4151287642098751 0 1.4151287642098751 -11.550245879926479 0 0 0 0 -3480.6397717511209 1167.5096467747935 0 1167.5096467747935 -524.12567483841485 0 0 0 0 15.262540021642963 500.64582154602613 0 500.64582154602613 -915.20111215186625 0 0 0 0 -137.18735439227567 439.61719273314156 0 439.61719273314156 -552.75899636361646 0 0 0 0 -85.40606459879541 548.09877572150253 0 548.09877572150253 -458.94816612642899 0 0 0 0 34.448308421398679 718.54437291835893 0 718.54437291835893 -266.63448942287505 0 0 0 0 514.72917953897286 794.24064818520492 0 794.24064818520492 -748.78670403400247 0 0 0 0 64.403094605422496 714.70288946323399 0 714.70288946323399 -636.63209732546238 0 0 0 0 -338.32491045548932 692.80362824314579 0 692.80362824314579 -261.53796135750963 0 0 0 0 278.25135862969455 935.28205949479889 0 935.28205949479889 -418.2048790529625 0 0 0 0 274.0353982703989 884.14859661772061 0 884.14859661772061 -487.17028973830384 0 0 0 0 -209.37864645423815 989.51307497872222 0 989.51307497872222 -144.971372171236 0 0 0 0 440.28532794533965 792.85658848266667 0 792.85658848266667 87.488672516134102 0 0 0 0 410.04949934858178 1051.4446913120955 0 1051.4446913120955 -311.41504850061028 0 0 0 0 389.88062982833526 532.90260105295602 0 532.90260105295602 227.24284952447852 0 0 0 0 299.06499312644928 1001.4186883529401 0 1001.4186883529401 -333.43719770027383 0 0 0 0 499.2740548844522 1098.2629227296711 0 1098.2629227296711 -765.15931437865584 0 0 0 0 452.13439725705973 970.50803080168771 0 970.50803080168771 -680.18157256767154 0 0 0 0 441.94474938849316 974.78283596404253 0 974.78283596404253 -519.00530076974246 0 0 0 0 520.13943109592014 828.70598785027869 0 828.70598785027869 -990.60765729898412 0 0 0 0 628.44250837943991 971.47841024248919 0 971.47841024248919 -903.00888851360651 0 0 0 0 456.29769416939598 1227.276709783062 0 1227.276709783062 -970.41754526604291 0 0 0 0 222.67764090726587 1161.6842981562031 0 1161.6842981562031 -485.01711375987361 0 0 0 0 234.94578555505814 1200.7838931076567 0 1200.7838931076567 -905.87890129444713 0 0 0 0 485.64961207045144 1111.3655231359116 0 1111.3655231359116 -607.19022760394728 0 0 0 0 -544.16896463700687 627.90019171775202 0 627.90019171775202 -874.51812096912363 0 0 0 0 -714.21812403948388 1162.7299327177061 0 1162.7299327177061 -593.75401096692076 0 0 0 0 -250.83692924535899 1443.3316279157443 0 1443.3316279157443 -1022.9173141422216 0 0 0 0 -163.46639093415797 1366.2532431845211 0 1366.2532431845211 -285.19062900848439 0 0 0 0 -256.25197758115064 972.6683739153741 0 972.6683739153741 -515.16335660174082 0 0 0 0 -131.46112775204892 938.39986181346831 0 938.39986181346831 -786.85824528324702 0 0 0 0 -7.2210546148180583 928.09502663937383 0 928.09502663937383 109.78563585476513 0 0 0 0 147.51183969649719 1192.4243271463965 0 1192.4243271463965 216.57879866436269 0 0 0 0 -168.82994789019722 1107.4569206501155 0 1107.4569206501155 741.28486254396557 0 0 0 0 331.65926840781685 1127.1221712212173 0 1127.1221712212173 -309.59774015241419 0 0 0 0 277.69468113029052 969.05738173695863 0 969.05738173695863 135.41096997575369 0 0 0 0 212.28081596868105 1254.6106478299371 0 1254.6106478299371 -487.0109814820911 0 0 0 0 -84.387290054176447 1011.2345671383628 0 1011.2345671383628 981.10640940965823 0 0 0 0 52.587446558691227 1057.5427321347597 0 1057.5427321347597 170.86131862792899 0 0 0 0 233.21933483752855 724.65038941173407 0 724.65038941173407 660.32134559603583 0 0 0 0 292.48305347506539 924.30977875746612 0 924.30977875746612 261.38440737777273 0 0 0 0 306.33206788108419 531.77866385951347 0 531.77866385951347 953.74003433046164 0 0 0 0 306.16628299605338 852.16479837217275 0 852.16479837217275 936.29318145565048 0 0 0 0 152.66513878278965 743.70645359627451 0 743.70645359627451 670.86915932124975 0 0 0 0 -336.57442235751114 792.71423838106057 0 792.71423838106057 1027.9972234241213 0 0 0 0 -79.963319444539593 574.2919236756461 0 574.2919236756461 1117.7370293112035 0 0 0 0 -345.22391759151287 706.40006045296468 0 706.40006045296468 1161.4855449204515 0 0 0 0 -446.91043371929482 746.08711523758757 0 746.08711523758757 1631.8137163299016 0 0 0 0 -433.98302157571106 614.36242347805091 0 614.36242347805091 1294.7429350131861 0 0 0 0 -599.11468806588528 984.39000316869351 0 984.39000316869351 1259.6325935803602 0 0 0 0 81.688341708120788 331.84909526683623 0 331.84909526683623 1489.2085475112908 0 0 0 0 37.532893622651955 1009.7208029026351 0 1009.7208029026351 1491.859950983111 0 0 0 0 647.83260397434549 811.24007430214692 0 811.24007430214692 938.28020512826333 0 0 0 0 669.07014376039297 521.55818415254907 0 521.55818415254907 954.02778830338457 0 0 0 0 1418.3732869519808 1185.6418189053111 0 1185.6418189053111 744.52949065184112 0 0 0 0 -522.73384965017613 1803.7093692563294 0 1803.7093692563294 1994.7774237348203 0 0 0 0 -763.83905801405854 809.19921726763641 0 809.19921726763641 1255.3012265416983 0 0 0 0 -3728.3655484307255 971.69691184842304 0 971.69691184842304 1781.7322793391213 0 0 0 0 4395.6587799821027 1134.1464553903206 0 1134.1464553903206 180.25391328775731 0 0 0 0 1350.5142475139328 290.78708063311205 0 290.78708063311205 237.36207526997896 0 0 0 0 3.6462598082018083 13.5873453419836 0 13.5873453419836 17.958016558185733 0 0 0 0 -1421.353234110431 -404.00353808397631 0 -404.00353808397631 -12.389324900243082 0 0 0 0 -1057.7923839580581 1017.4238893380243 0 1017.4238893380243 -1018.8485007884956 0 0 0 0 -858.5969340902775 411.50514448960894 0 411.50514448960894 786.05982156196842 0 0 0 0 -3570.4729624436673 1378.5466497053239 0 1378.5466497053239 993.28477701771772 0 0 0 0 -1660.2357203112588 132.74043545304448 0 132.74043545304448 -28.700234007104882 0 0 0 0 -1561.1110882722344 1119.0093233587918 0 1119.0093233587918 1087.4263366930245 0 0 0 0 1401.2422312607432 353.80643673051327 0 353.80643673051327 40.742991159495432 0 0 0 0 9.9595985769023354 36.547876055109775 0 36.547876055109775 37.62421865782477 0 0 0 0 2038.7381864982799 1656.8296631135345 0 1656.8296631135345 208.64557293794496 0 0 0 0 -1450.6012636491505 -17.19862261959679 0 -17.19862261959679 554.2410223464467 0 0 0 0 646.88483952358001 145.4701324969792 0 145.4701324969792 939.80510761296318 0 0 0 0 -18.537659581492143 4.1028182341944124 0 4.1028182341944124 16.181010086903484 0 0 0 0 -978.88059435410378 698.56422767452386 0 698.56422767452386 1552.439513147343 0 0 0 0 -0.89817958083112615 5.2213655544456543 0 5.2213655544456543 -1.6988946465174308 0 0 0 0 1393.3439553139178 1874.3833327054745 0 1874.3833327054745 295.07568922332939 0 0 0 0 247.3223728861376 1801.4152578000285 0 1801.4152578000285 639.93105342448689 0 0 0 0 1593.4449880440789 992.05380818867343 0 992.05380818867343 898.72566400816868 0 0 0 0 1110.4541153029786 1302.6778836125595 0 1302.6778836125595 76.742666968806589 0 0 0 0 850.12751475981668 1826.2774726726193 0 1826.2774726726193 2620.4019154509733 0 0 0 0 11.047443683660255 27.839356705214499 0 27.839356705214499 -8.9150814922061183 0 0 0 0 -94.468077748292671 48.102933849488082 0 48.102933849488082 -3.8714494698439132 0 0 0 0 -895.14180291809134 -88.718320361134829 0 -88.718320361134829 17.552758372301469 0 0 0 0 -405.97795513466008 358.86450047005565 0 358.86450047005565 -1165.5477440371906 0 0 0 0 -566.41648936961974 0.77600635151611641 0 0.77600635151611641 -169.82143823032311 0 0 0 0 -276.98386964093925 153.00079190639008 0 153.00079190639008 -37.477908613145701 0 0 0 0 -258.21525307382399 156.03301147127058 0 156.03301147127058 -91.716925480766804 0 0 0 0 -716.24165487910432 232.56041273227311 0 232.56041273227311 361.79346159928537 0 0 0 0 -140.13623405568433 685.30116870755592 0 685.30116870755592 377.62209564652653 0 0 0 0 -120.7731480036004 398.56813822151094 0 398.56813822151094 -48.824564912662026 0 0 0 0 -5.4806873545409882 12.800741507835994 0 12.800741507835994 -11.138842874464601 0 0 0 0 104.10861409482209 390.0637999833707 0 390.0637999833707 1003.5636609677131 0 0 0 0 24.047978112647115 185.77683339299983 0 185.77683339299983 938.06023304515475 0 0 0 0 -226.3511226458287 287.43015555886086 0 287.43015555886086 -165.62377614842262 0 0 0 0 155.6701978019795 185.74414505953609 0 185.74414505953609 601.279784972161 0 0 0 0 -99.009141719838226 179.98599913131329 0 179.98599913131329 -411.67972662662214 0 0 0 0 -251.05343169319229 119.7339938564055 0 119.7339938564055 -274.68437892113434 0 0 0 0 -85.957250082760254 38.809345886576921 0 38.809345886576921 -235.16622913405172 0 0 0 0 -38.828912297378935 43.519680680882587 0 43.519680680882587 -17.066639569111029 0 0 0 0 -5.5488110753285582 34.630402734241216 0 34.630402734241216 -134.64082264335593 0 0 0 0 38.477207832321852 -25.226990887407624 0 -25.226990887407624 -71.511808193056041 0 0 0 0 56.207837783891591 93.917143002487137 0 93.917143002487137 -337.60038636966237 0 0 0 0 -70.543525808769118 98.154604727271362 0 98.154604727271362 -237.96397029270884 0 0 0 0 47.850851157194185 12.113130989778483 0 12.113130989778483 -22.28495271646841 0 0 0 0 2.4786899450722046 16.087095484411407 0 16.087095484411407 -25.422211913903542 0 0 0 0 40.706524567816814 117.00913907650101 0 117.00913907650101 -119.9401654057292 0 0 0 0 48.637759657922288 66.695497846012586 0 66.695497846012586 -230.61271217165631 0 0 0 0 -15.968129873374892 -132.16311629673874 0 -132.16311629673874 271.94950180427259 0 0 0 0 -34.957632033365329 67.123620418362393 0 67.123620418362393 -64.898598794789223 0 0 0 0 8.0529885305513744 167.34867972054053 0 167.34867972054053 -145.74738262724713 0 0 0 0 -168.53824073876945 -79.631616742273764 0 -79.631616742273764 669.47428986185696 0 0 0 0 -14.252397465704263 326.99608684014675 0 326.99608684014675 785.03221492904413 0 0 0 0 -248.00411815719508 394.89691084321385 0 394.89691084321385 395.47897378725884 0 0 0 0 43.84647011067932 156.9096459778375 0 156.9096459778375 895.74111770683157 0 0 0 0 -165.94056665784865 177.34076122803526 0 177.34076122803526 909.17279170441907 0 0 0 0 -169.78447119115981 476.24928222732706 0 476.24928222732706 246.85297187043761 0 0 0 0 -484.74635502808997 918.44257885798652 0 918.44257885798652 430.12822504918768 0 0 0 0 -1.3720926513760778 6.8198466853320383 0 6.8198466853320383 -4.1434851913539603 0 0 0 0 -401.87283016136553 617.23653514663192 0 617.23653514663192 1132.7493839626331 0 0 0 0 210.42407169526905 758.4943334119198 0 758.4943334119198 1079.2303611461975 0 0 0 0 300.98773832658117 641.85240893474838 0 641.85240893474838 586.05506738893018 0 0 0 0 334.60954655031674 967.79245505896688 0 967.79245505896688 1106.5444446150941 0 0 0 0 -3.978290585512319 10.403922369299067 0 10.403922369299067 -4.8845724974519982 0 0 0 0 -33.727681606199042 739.95541479863095 0 739.95541479863095 1175.389682324505 0 0 0 0 439.92468905813746 568.57177324113218 0 568.57177324113218 914.00761144512217 0 0 0 0 281.95857554197119 221.02359699163935 0 221.02359699163935 794.43432417174336 0 0 0 0 41.134836419878411 228.31462695328719 0 228.31462695328719 75.604097656039812 0 0 0 0 1.5534381009674689 505.2517616044961 0 505.2517616044961 1213.1117296939119 0 0 0 0 108.80488078748022 147.50470099872018 0 147.50470099872018 78.896802790666698 0 0 0 0 116.88879034529964 414.04084676364982 0 414.04084676364982 322.0566508906486 0 0 0 0 431.60763507467345 133.74763871516188 0 133.74763871516188 -19.558852775076957 0 0 0 0 79.075345325953094 96.760821211884831 0 96.760821211884831 4.554087856595288 0 0 0 0 58.67680842820846 60.601301116403192 0 60.601301116403192 -25.792403394323628 0 0 0 0 61.354442592783016 107.17814754494975 0 107.17814754494975 25.599961405793692 0 0 0 0 -48.619416710163932 29.748877629281196 0 29.748877629281196 32.018235024239402 0 0 0 0 -84.366021621855907 94.666163988164044 0 94.666163988164044 -29.320052276008937 0 0 0 0 -75.298038005072158 74.785882823794964 0 74.785882823794964 -17.766464739659568 0 0 0 0 -92.188006678188685 69.659594587341417 0 69.659594587341417 6.7315409397124313 0 0 0 0 -3.1605806273352925 10.289926720062624 0 10.289926720062624 10.064125657771854 0 0 0 0 14.006165373946715 29.462113507890535 0 29.462113507890535 -60.58587154581619 0 0 0 0 -33.166416230626055 104.89584347250275 0 104.89584347250275 -121.73628730377823 0 0 0 0 -108.16650799592389 140.5590083642237 0 140.5590083642237 -66.704582152015064 0 0 0 0 -86.625087215303211 -52.393503767183574 0 -52.393503767183574 -28.338727403264784 0 0 0 0 9.2970736834410275 11.453268654560063 0 11.453268654560063 14.215070692417896 0 0 0 0 4.4705759132434366 4.8524975664762167 0 4.8524975664762167 3.9873892019479058 0 0 0 0 -166.98055180100346 253.40550308647471 0 253.40550308647471 340.0388097470568 0 0 0 0 -68.671073576973868 419.2296465440304 0 419.2296465440304 227.7636456915061 0 0 0 0 -91.961771039677842 405.58947384012208 0 405.58947384012208 440.74384717264911 0 0 0 0 -84.249636500388988 57.105635599217521 0 57.105635599217521 229.37603102321737 0 0 0 0 1.0979720346640534 1.545152107327624 0 1.545152107327624 4.9556062882105039 0 0 0 0 261.18001221529266 155.15448948585981 0 155.15448948585981 90.585186895848892 0 0 0 0 -84.495177403328626 29.680387911601201 0 29.680387911601201 137.55052277556388 0 0 0 0 -65.570921236816503 201.37106294240766 0 201.37106294240766 138.20693797091371 0 0 0 0 -73.437822084844811 218.36865182601468 0 218.36865182601468 304.13896797654161 0 0 0 0 115.86374578406685 436.47451510052633 0 436.47451510052633 -118.52794902343885 0 0 0 0 27.453928210493302 16.722992283099188 0 16.722992283099188 -8.4649998053373565 0 0 0 0 365.69819558295421 -102.27159586886046 0 -102.27159586886046 -955.73226157533645 0 0 0 0 30.167729448003229 -241.99417799623188 0 -241.99417799623188 188.0833862627951 0 0 0 0 204.09176422728342 -619.07751208118862 0 -619.07751208118862 -882.87843827559846 0 0 0 0 -153.30792851046135 -561.30518318561735 0 -561.30518318561735 -60.536708508559968 0 0 0 0 395.40222254852415 611.520852189773 0 611.520852189773 -203.82234490252449 0 0 0 0 225.36380324154743 466.5748065947555 0 466.5748065947555 750.52791134728614 0 0 0 0 822.00456235624733 205.71640141584066 0 205.71640141584066 -61.697072607232258 0 0 0 0 49.333860965751228 59.812546169883717 0 59.812546169883717 -70.691189153498271 0 0 0 0 85.4062798592131 230.48818995163219 0 230.48818995163219 -118.44007314497139 0 0 0 0 140.10620314136759 41.096296278363297 0 41.096296278363297 -556.25847304053605 0 0 0 0 591.16195460598101 2486.0747583078992 0 2486.0747583078992 5823.639637896671 0 0 0 0 1331.4216347539768 2324.1392170480285 0 2324.1392170480285 2729.5315210244589 0 0 0 0 10.347551706352988 5.947350246846554 0 5.947350246846554 -0.080958318921702244 0 0 0 0 -1388.4267853518541 2270.3606448397295 0 2270.3606448397295 4135.6434913322373 0 0 0 0 0.55617796645674389 1309.7392321196585 0 1309.7392321196585 1056.5037608132843 0 0 0 0 1113.8537779059407 2008.3373262591267 0 2008.3373262591267 4315.2120780959958 0 0 0 0 1088.3069575643167 1806.4067645461264 0 1806.4067645461264 3696.3103479759011 0 0 0 0 814.73240413432359 1875.8721898997028 0 1875.8721898997028 3786.0590752285352 0 0 0 0 2526.8815590031445 2469.8410085483629 0 2469.8410085483629 1802.0787751575699 0 0 0 0 1605.2475131497631 1238.429061534669 0 1238.429061534669 278.8223188176471 0 0 0 0 2869.2887875361776 3129.2919990469891 0 3129.2919990469891 2818.1604165111276 0 0 0 0 0.18580881096720248 8.6144503027817052 0 8.6144503027817052 6.5713792022082771 0 0 0 0 465.58168474622653 606.6748961369085 0 606.6748961369085 166.35319948570941 0 0 0 0 0.28620236631876139 7.6405598673560462 0 7.6405598673560462 6.3550314213501906 0 0 0 0 -1490.465073225645 1036.5993219629891 0 1036.5993219629891 647.9318086549174 0 0 0 0 2461.7064706247584 3188.5691259621626 0 3188.5691259621626 -0.94531778436794411 0 0 0 0 1115.6987281135716 1859.4141839211352 0 1859.4141839211352 310.91319606381876 0 0 0 0 312.44770113420964 1831.4675793389542 0 1831.4675793389542 -0.80567840792682133 0 0 0 0 998.326092262163 1450.7560527488749 0 1450.7560527488749 38.006583189402591 0 0 0 0 908.4854817869691 2080.04909489887 0 2080.04909489887 764.55050076042244 0 0 0 0 985.58152871656057 1574.183557865952 0 1574.183557865952 593.5895075401786 0 0 0 0 1287.7381783252349 1841.5052925223863 0 1841.5052925223863 726.94076981797116 0 0 0 0 1032.2964224227253 1970.5101058598193 0 1970.5101058598193 1771.6858007356786 0 0 0 0 913.70454305346357 1326.6813731359434 0 1326.6813731359434 2598.5748385217448 0 0 0 0 796.70991764556675 1565.2651441676353 0 1565.2651441676353 2234.6672143260948 0 0 0 0 1178.0846360144351 1753.8602127670893 0 1753.8602127670893 900.35116706675763 0 0 0 0 1225.4527118309343 2442.669338250671 0 2442.669338250671 2723.0003075582499 0 0 0 0 473.64116651313498 1394.7229570875534 0 1394.7229570875534 3641.5297906194173 0 0 0 0 587.04970339959254 1958.0946928966005 0 1958.0946928966005 4369.0583168978919 0 0 0 0 914.3103033239895 1973.2871620867227 0 1973.2871620867227 2578.9066379805226 0 0 0 0 39.702735641353286 31.865796063267112 0 31.865796063267112 -8.3730263003380969 0 0 0 0 472.09557884266178 1473.7260429303462 0 1473.7260429303462 2932.1766394599981 0 0 0 0 835.70791829543305 1435.6991132470939 0 1435.6991132470939 2586.5266037624388 0 0 0 0 137.40396620098909 140.46875925374479 0 140.46875925374479 -337.55126472850679 0 0 0 0 797.21994466465549 1105.8550777953787 0 1105.8550777953787 3215.3462227998534 0 0 0 0 1450.1501711934689 1038.9894165899022 0 1038.9894165899022 2514.2238871282025 0 0 0 0 648.33502710663015 1424.7789909304265 0 1424.7789909304265 2628.9712460473093 0 0 0 0 1196.4805738551077 2074.3409351553128 0 2074.3409351553128 2778.5104698165087 0 0 0 0 -33.227150767483693 21.640918018069527 0 21.640918018069527 6.602993892731206 0 0 0 0 178.18249064005795 714.07655798341875 0 714.07655798341875 1592.7261873320094 0 0 0 0 4.8484636009235942 3.171756941451747 0 3.171756941451747 -9.4420565794859783 0 0 0 0 83.117134953470668 520.55790373127093 0 520.55790373127093 2120.2736015320988 0 0 0 0 -113.0852753657673 797.40784642363724 0 797.40784642363724 4219.4668665272184 0 0 0 0 1173.7550868424005 1752.8979639120225 0 1752.8979639120225 2355.9340946121083 0 0 0 0 11.122675876293826 13.342924073688323 0 13.342924073688323 8.9434616513011633 0 0 0 0 118.70249080187932 -216.80586720614519 0 -216.80586720614519 120.02478212821734 0 0 0 0 118.60512577636109 189.74496433391323 0 189.74496433391323 51.693643407208583 0 0 0 0 373.1711097408479 1350.6324474389621 0 1350.6324474389621 583.86885664805595 0 0 0 0 148.78362539485533 560.8732148189556 0 560.8732148189556 547.42574647912988 0 0 0 0 185.56772701221053 801.09648078279861 0 801.09648078279861 1639.5844589994231 0 0 0 0 531.28852223859576 1627.425170401737 0 1627.425170401737 1060.2721366643364 0 0 0 0 98.182542318070773 1648.7090245042782 0 1648.7090245042782 275.55332920263754 0 0 0 0 1105.3580414899043 1621.9057388786387 0 1621.9057388786387 1500.5387361626781 0 0 0 0 522.8081103315053 1328.2647254594922 0 1328.2647254594922 2116.78230216066 0 0 0 0 357.93584258810733 1051.9053654718591 0 1051.9053654718591 1090.4797761897498 0 0 0 0 489.45505676072207 1417.4999533901719 0 1417.4999533901719 1884.7101208003369 0 0 0 0 746.45939449525031 1526.0824243294046 0 1526.0824243294046 826.68167173163965 0 0 0 0 760.56080803732038 1703.5378987954027 0 1703.5378987954027 1523.139253008565 0 0 0 0 697.21275795552356 1584.3818627323562 0 1584.3818627323562 389.58017990716326 0 0 0 0 923.54023688444249 1842.241461299418 0 1842.241461299418 677.71281219486264 0 0 0 0 591.93431798480742 1699.6719863390535 0 1699.6719863390535 460.38506836796296 0 0 0 0 689.69903604374849 1524.207300918526 0 1524.207300918526 0.091041326129925437 0 0 0 0 1065.0270850345769 1657.2240492746714 0 1657.2240492746714 0.21631172317574965 0 0 0 0 931.78627780014358 1789.7716282322799 0 1789.7716282322799 254.9736418444154 0 0 0 0 638.01843554840161 1151.4783832001485 0 1151.4783832001485 1.4302082669455558 0 0 0 0 256.46768875840644 1457.3608977338517 0 1457.3608977338517 331.69049580561114 0 0 0 0 471.44701708291177 1089.9353191239788 0 1089.9353191239788 502.46888572537864 0 0 0 0 -627.59521981456783 1221.7237117896293 0 1221.7237117896293 487.58284904924949 0 0 0 0 59.582138609894173 328.65154420358522 0 328.65154420358522 153.19648371284711 0 0 0 0 24.374679801680031 825.71589239733294 0 825.71589239733294 -1154.2027131219947 0 0 0 0 -1394.0322299842373 140.72361227071087 0 140.72361227071087 -82.876302213837334 0 0 0 0 332.57330776363233 599.38066311505827 0 599.38066311505827 36.522027277969755 0 0 0 0 130.74870528216707 1010.8076350148476 0 1010.8076350148476 -707.73669908723969 0 0 0 0 28.536732801650942 1230.3820943690725 0 1230.3820943690725 185.57752675554366 0 0 0 0 -879.0802374631312 1598.6261522727582 0 1598.6261522727582 36.645286719518481 0 0 0 0 -845.33224340347806 167.95151900031487 0 167.95151900031487 279.30343398466357 0 0 0 0 -14.17554179548705 3.8234063973969228 0 3.8234063973969228 -1.7009046071377441 0 0 0 0 -1057.4406684284913 229.2657290333882 0 229.2657290333882 287.89800911153725 0 0 0 0 -460.25599057193904 126.10225135617657 0 126.10225135617657 123.20112876271014 0 0 0 0 -1184.8960998800758 831.85739523410484 0 831.85739523410484 13.699031665630173 0 0 0 0 -450.77459874504711 608.36939297137724 0 608.36939297137724 60.654990755585459 0 0 0 0 -292.33205194411858 502.09185798085309 0 502.09185798085309 -80.973728635697626 0 0 0 0 -334.87723082742014 407.61578553943036 0 407.61578553943036 -149.91989976986952 0 0 0 0 -250.35309158311429 538.28393209307251 0 538.28393209307251 -360.8376369579637 0 0 0 0 25.767161435027049 43.016351393544369 0 43.016351393544369 14.826497810576939 0 0 0 0 9.5681503521354898 79.265772522333464 0 79.265772522333464 -35.016097116080346 0 0 0 0 17.770858759657131 58.085446559598495 0 58.085446559598495 -16.277294407780573 0 0 0 0 -288.14329876569172 306.32681562923972 0 306.32681562923972 -9.367736443731701 0 0 0 0 26.310688251205477 38.008552577627938 0 38.008552577627938 36.415679450078358 0 0 0 0 -375.17450529721827 188.25987472227644 0 188.25987472227644 -8.8526836599921808 0 0 0 0 -411.1661863428526 186.71601349446428 0 186.71601349446428 -0.90674434592074249 0 0 0 0 -702.93359173604404 333.51563697936217 0 333.51563697936217 4.5857678389875218 0 0 0 0 25.516809788940009 82.648574558683322 0 82.648574558683322 -4.1991867839096813 0 0 0 0 23.976597974513425 118.74979757385154 0 118.74979757385154 8.093429075604945 0 0 0 0 69.177787496812812 56.181880467762099 0 56.181880467762099 25.323884629755895 0 0 0 0 33.793296804331476 94.730118899758963 0 94.730118899758963 -54.277872253500391 0 0 0 0 -2.9365043122525094 112.69320163006341 0 112.69320163006341 41.874161025814828 0 0 0 0 -26.870791644032579 164.56724491230852 0 164.56724491230852 -53.096120788893359 0 0 0 0 25.351573932504834 79.380303661430844 0 79.380303661430844 55.248729136626935 0 0 0 0 -34.67968715907773 18.839684649239643 0 18.839684649239643 -3.0270369514146296 0 0 0 0 -10.60532070966633 36.511647121342435 0 36.511647121342435 -11.786428702578121 0 0 0 0 29.753637060712208 98.005252419257886 0 98.005252419257886 25.668704391282517 0 0 0 0 31.188093574535742 71.23010898839857 0 71.23010898839857 -24.976869028010697 0 0 0 0 36.270177876242087 50.966299338251702 0 50.966299338251702 -23.363822849714779 0 0 0 0 36.741415756856441 52.602904044331808 0 52.602904044331808 -20.463904210366309 0 0 0 0 -16.708538432519106 34.11787134837769 0 34.11787134837769 -29.060595992489397 0 0 0 0 39.378398834138352 60.291842360289593 0 60.291842360289593 -27.848065280355513 0 0 0 0 -18.32242190510442 70.491584970361146 0 70.491584970361146 -16.642268311290536 0 0 0 0 25.879032419703435 59.293679298876668 0 59.293679298876668 -27.742987795412773 0 0 0 0 25.566616125218474 33.498655328986722 0 33.498655328986722 -22.491455076825986 0 0 0 0 26.096714379913465 49.23018727266026 0 49.23018727266026 -80.835355746516143 0 0 0 0 -104.60458040161757 92.487722889316501 0 92.487722889316501 3.5151746017127152 0 0 0 0 12.069286353561694 0.89785025493932835 0 0.89785025493932835 -2.2265679190077776 0 0 0 0 39.781681389373261 51.941807857321692 0 51.941807857321692 -26.455527121986961 0 0 0 0 31.683229206537362 65.365408614416083 0 65.365408614416083 -18.342703767841158 0 0 0 0 36.682040002318899 65.327177950281566 0 65.327177950281566 -14.781340716013801 0 0 0 0 52.486516166944057 66.906499217126111 0 66.906499217126111 -17.559362000298279 0 0 0 0 -15.302006154727849 29.390262391151566 0 29.390262391151566 -44.50040178611971 0 0 0 0 20.764771494745219 61.282566190886428 0 61.282566190886428 -31.272736673185136 0 0 0 0 487.78158723446541 825.50053721477161 0 825.50053721477161 886.10796313455648 0 0 0 0 -21.585837056053379 40.835065808145941 0 40.835065808145941 -40.942605684287116 0 0 0 0 13.134248754213331 59.944947716699971 0 59.944947716699971 -16.009327672123618 0 0 0 0 3917.5378109953162 -2772.367391611504 0 -2772.367391611504 851.47669383263928 0 0 0 0 4302.0070436172909 1532.1572266782032 0 1532.1572266782032 -1413.1213575417205 0 0 0 0 3.2422822567762921 9.0863807087002044 0 9.0863807087002044 14.69933074313002 0 0 0 0 -3127.2082053212507 642.82928229376193 0 642.82928229376193 1586.7739201599616 0 0 0 0 -1683.731124679849 1236.3696222095241 0 1236.3696222095241 1285.7688048329292 0 0 0 0 -1540.7964580671251 47.507925066303869 0 47.507925066303869 -322.59530869944138 0 0 0 0 1103.4238354377449 764.57565250681364 0 764.57565250681364 -396.91441263582965 0 0 0 0 -1200.3438864565542 847.88986448595097 0 847.88986448595097 1217.1579478049825 0 0 0 0 1.6333249312812086 9.8814825977686596 0 9.8814825977686596 -23.571025669105779 0 0 0 0 462.35423840241856 880.2125984946324 0 880.2125984946324 1252.0154232765344 0 0 0 0 394.0533271033346 405.2545306453685 0 405.2545306453685 704.00833887259796 0 0 0 0 391.63494482520036 811.21543380832736 0 811.21543380832736 890.12477745614342 0 0 0 0 215.02028976468137 1100.3447113727689 0 1100.3447113727689 614.71210419549607 0 0 0 0 2057.9853720433894 773.34921008002857 0 773.34921008002857 30.053335294811404 0 0 0 0 888.43539373420936 1805.0488271420218 0 1805.0488271420218 1321.998435869391 0 0 0 0 -550.66902193742862 1061.7728163838656 0 1061.7728163838656 2267.6631854920997 0 0 0 0 -1.4468852041586331 0.93925924288544138 0 0.93925924288544138 4.0105446446804649 0 0 0 0 -821.80494644974533 1859.4854036457109 0 1859.4854036457109 -79.219816158647518 0 0 0 0 511.94957533495472 -664.45870828815896 0 -664.45870828815896 868.34959515038645 0 0 0 0 -239.56227711678366 50.101674366655061 0 50.101674366655061 290.98161148879444 0 0 0 0 -332.09084452785464 539.78486507205525 0 539.78486507205525 1670.5117348265048 0 0 0 0 -338.99916874682094 34.437749714430538 0 34.437749714430538 14.904360637447098 0 0 0 0 2559.6939392665663 151.83451366517693 0 151.83451366517693 -2287.8508798977346 0 0 0 0 2029.2737488616258 2234.4344925570549 0 2234.4344925570549 1235.6967100526308 0 0 0 0 196.82981542946072 599.96636697291979 0 599.96636697291979 -185.07123349056747 0 0 0 0 684.48609894234687 827.82884656490205 0 827.82884656490205 -232.41813999344595 0 0 0 0 916.48207656845625 3251.6088330837811 0 3251.6088330837811 3108.7540594608536 0 0 0 0 2797.8321787240857 3690.5932707329048 0 3690.5932707329048 1870.5138574145967 0 0 0 0 315.86981795939209 -865.27580642381508 0 -865.27580642381508 -1640.7406509281936 0 0 0 0 -6.3280631158027631 15.433809137180731 0 15.433809137180731 -12.049709337879563 0 0 0 0 192.2249981509085 285.50248545643262 0 285.50248545643262 -726.054996375271 0 0 0 0 -264.75842425206793 202.20259633813112 0 202.20259633813112 -493.44570349486457 0 0 0 0 -303.68237679506274 536.57761078674412 0 536.57761078674412 -332.42056390841026 0 0 0 0 47.38090318818729 88.817738849723781 0 88.817738849723781 66.932505531210438 0 0 0 0 -347.28322480446877 99.184098045538121 0 99.184098045538121 -83.791738721716683 0 0 0 0 70.43741962493732 764.83636033169387 0 764.83636033169387 -196.72551886002475 0 0 0 0 -34.468228448766887 3.6459827112770995 0 3.6459827112770995 1.8881427854218487 0 0 0 0 -247.81000655663956 293.31679516718759 0 293.31679516718759 -223.34024340345059 0 0 0 0 -666.16083737946974 278.37032731459476 0 278.37032731459476 159.90602794009465 0 0 0 0 19.68842603617361 42.286891269880215 0 42.286891269880215 -35.567542981510286 0 0 0 0 2476.4570270726836 3018.1437913213158 0 3018.1437913213158 2818.0676132177759 0 0 0 0 -820.3589693466638 1558.6294917691339 0 1558.6294917691339 3294.8061416215787 0 0 0 0 3246.3533918213361 1775.1889763973959 0 1775.1889763973959 -969.01497237349395 0 0 0 0 2.6356237769968374 26.055132340200359 0 26.055132340200359 -15.937593380164344 0 0 0 0 -159.85689856989484 317.60526650260363 0 317.60526650260363 -418.16156942649832 0 0 0 0 -11.08595137190423 -293.59274034250484 0 -293.59274034250484 1084.9775934869249 0 0 0 0 -5.4036416241195866 18.531150370503269 0 18.531150370503269 -4.0022768132746478 0 0 0 0 2.2187334930772877 48.592827333820054 0 48.592827333820054 44.125286740766342 0 0 0 0 2791.893099251698 1457.9177428085168 0 1457.9177428085168 -151.57297626906075 0 0 0 0 3700.7019069353846 2228.5097230753599 0 2228.5097230753599 495.13550064479932 0 0 0 0 -743.07208581749001 1170.9230962315269 0 1170.9230962315269 -481.81074608344261 0 0 0 0 4838.8053661198646 2069.1597386045032 0 2069.1597386045032 -2624.863224518791 0 0 0 0 -3.4861948197369657 56.557064428326214 0 56.557064428326214 -76.860454129538198 0 0 0 0 -546.12483130980399 833.88122753796051 0 833.88122753796051 -393.74971362410997 0 0 0 0 -274.73240159179113 367.39576489142928 0 367.39576489142928 -271.86854199568916 0 0 0 0 173.49324967753637 459.78374146072019 0 459.78374146072019 -272.31513929407447 0 0 0 0 -193.73048198652396 638.64474200442965 0 638.64474200442965 -70.447491430604714 0 0 0 0 144.82633050488948 109.16182287716401 0 109.16182287716401 7.7674507089104736 0 0 0 0 -569.62340673286235 444.67718660821993 0 444.67718660821993 -119.17114249779843 0 0 0 0 -1112.7462961347701 475.93764330244812 0 475.93764330244812 200.52110436567455 0 0 0 0 1353.9089268662719 251.83847214114212 0 251.83847214114212 -529.75613980283379 0 0 0 0 4.7720008696153187 12.426731084657433 0 12.426731084657433 -11.989643745686521 0 0 0 0 2146.5319976851533 155.43387618212728 0 155.43387618212728 35.953647409896803 0 0 0 0 -509.28522502291889 239.13824363489402 0 239.13824363489402 -448.68068170928746 0 0 0 0 -557.7949308102543 272.03991836623027 0 272.03991836623027 -448.14087133843964 0 0 0 0 -1718.5488643563513 658.98257749988989 0 658.98257749988989 -351.84667338326108 0 0 0 0 -703.09972142918559 469.71538660215447 0 469.71538660215447 -0.65513162173738237 0 0 0 0 -0.54964594845105808 4.4131558609269987 0 4.4131558609269987 3.6793117478502495 0 0 0 0 1.4269484374563248 5.4311310166126674 0 5.4311310166126674 -4.7544608066382921 0 0 0 0 -1804.3790335031299 2016.7887949250126 0 2016.7887949250126 -13.232296340749599 0 0 0 0 1656.7400328482217 102.24226743265899 0 102.24226743265899 -440.42484907229664 0 0 0 0 -41.059191042862949 725.52581126785662 0 725.52581126785662 -0.25396528058822671 0 0 0 0 -500.81257676775567 302.06731441911325 0 302.06731441911325 -380.87231741551659 0 0 0 0 6.9279484145426977 9.0984610398661374 0 9.0984610398661374 6.3985882664732685 0 0 0 0 -490.39749808379202 305.06442822213194 0 305.06442822213194 -495.86305659569916 0 0 0 0 -425.45120183420659 1153.7060667547121 0 1153.7060667547121 -600.43700738761254 0 0 0 0 -554.18518119047508 341.12070829604204 0 341.12070829604204 -496.67597398233193 0 0 0 0 2454.0484570247645 942.82051807981043 0 942.82051807981043 -921.98600547867136 0 0 0 0 -468.59051380226447 237.87878353036649 0 237.87878353036649 -157.25853461919905 0 0 0 0 2050.4616907232412 -151.48956236933009 0 -151.48956236933009 -1066.9135542683216 0 0 0 0 2064.2471373885219 379.2165531200543 0 379.2165531200543 151.99105072999373 0 0 0 0 6.2870204409005908 5.3396647184082227 0 5.3396647184082227 2.9377806331370095 0 0 0 0 -94.028287328823353 1013.2150142756 0 1013.2150142756 856.67383984182379 0 0 0 0 746.48191137437243 1679.1827779081796 0 1679.1827779081796 902.52029655628576 0 0 0 0 628.5004502468073 536.49816657150222 0 536.49816657150222 122.8237008993965 0 0 0 0 -405.4927191586321 -101.43422770107281 0 -101.43422770107281 224.44776082833414 0 0 0 0 -556.16532842061315 543.9687043993772 0 543.9687043993772 609.95100916130468 0 0 0 0 1562.6577987919445 0.29088994282938074 0 0.29088994282938074 -299.49331613769755 0 0 0 0 2357.2970885581744 1961.1892587310758 0 1961.1892587310758 113.51985449365748 0 0 0 0 2725.0683553716226 1305.5817538642368 0 1305.5817538642368 211.43057974457042 0 0 0 0 1647.3814024282292 1575.4784513546222 0 1575.4784513546222 444.88260730514594 0 0 0 0 -81.308714359446014 64.71693738667301 0 64.71693738667301 14.92894837851054 0 0 0 0 -131.07532654046372 57.06870554186753 0 57.06870554186753 38.346101093789002 0 0 0 0 -74.76877785162651 122.10080318705877 0 122.10080318705877 45.227259563116604 0 0 0 0 -59.979690504620294 44.164273336305513 0 44.164273336305513 -16.588949554084991 0 0 0 0 -120.81393320171628 -0.39558734135061968 0 -0.39558734135061968 -33.88873899328064 0 0 0 0 -71.896484641954885 63.276453516213223 0 63.276453516213223 -21.767603755950404 0 0 0 0 -173.14000963145298 34.242938057627043 0 34.242938057627043 37.167435138486326 0 0 0 0 -771.68306022616423 -157.35649105894356 0 -157.35649105894356 -129.41446392962825 0 0 0 0 -17.567660882842091 2.3104851245187135 0 2.3104851245187135 0.58186694642876091 0 0 0 0 -60.665863617555289 37.050852988561331 0 37.050852988561331 -12.600016477763432 0 0 0 0 2671.612853235998 1271.01610130275 0 1271.01610130275 885.01054494621349 0 0 0 0 -25.848029844210274 14.530906495293436 0 14.530906495293436 15.477222290410623 0 0 0 0 -270.11886823997338 -4.2086803190977662 0 -4.2086803190977662 94.531256696325727 0 0 0 0 -120.88930488371261 228.51330309571495 0 228.51330309571495 22.227744437157526 0 0 0 0 2635.2161719672295 1564.9473201466317 0 1564.9473201466317 245.67527268533013 0 0 0 0 122.76511854811542 34.601768659362278 0 34.601768659362278 -148.85723116416193 0 0 0 0 -98.822900849382506 72.661274962565784 0 72.661274962565784 32.38919484904909 0 0 0 0 -22.721541646037807 3.5479505724511 0 3.5479505724511 7.5907614377798041 0 0 0 0 449.96739591776344 744.35237114753704 0 744.35237114753704 -3.3306597875780426 0 0 0 0 -254.55900982796635 33.991451459553275 0 33.991451459553275 60.888124489079928 0 0 0 0 -0.043895344926238922 -2.5622544481791891 0 -2.5622544481791891 2.219506524864812 0 0 0 0 -613.66847757856885 -44.804476016528497 0 -44.804476016528497 277.83018030345556 0 0 0 0 1995.6328242645432 989.95206602409598 0 989.95206602409598 1.097791135776788 0 0 0 0 3.5471572932004136 5.1486348090958813 0 5.1486348090958813 2.3328412983494218 0 0 0 0 3802.9611867174826 741.84756219190967 0 741.84756219190967 -850.96261958991818 0 0 0 0 -18.075497586848712 7.5955022518073747 0 7.5955022518073747 -5.5039426653942201 0 0 0 0 -4355.3866427702815 -1845.8149011540954 0 -1845.8149011540954 -613.95296034469357 0 0 0 0 23.92928080198908 85.479699817209621 0 85.479699817209621 0.13830828492131717 0 0 0 0 -121.02386881365965 -14.94194593733846 0 -14.94194593733846 32.389194849063642 0 0 0 0 -110.12898570694961 70.349360022213659 0 70.349360022213659 -0.11687199551537637 0 0 0 0 23.406155307377048 21.415962625353131 0 21.415962625353131 -28.615801635518437 0 0 0 0 -1563.5763620271609 -465.89870914727362 0 -465.89870914727362 -125.71695700194687 0 0 0 0 -42.180233089272861 26.163303567428414 0 26.163303567428414 -13.404997554672121 0 0 0 0 -1566.6305698735159 -423.98135708986956 0 -423.98135708986956 87.783953794467379 0 0 0 0 -1867.4925697993385 -359.66842272981012 0 -359.66842272981012 77.063512464053929 0 0 0 0 -1222.3830301099006 -401.94334521601559 0 -401.94334521601559 -129.76880573169819 0 0 0 0 -1509.3622215504911 -100.21626255223237 0 -100.21626255223237 100.13003640029638 0 0 0 0 -1312.4388353269969 -34.610425484745065 0 -34.610425484745065 119.41677102231188 0 0 0 0 -1419.8885933283309 -189.22180686576758 0 -189.22180686576758 112.08891999489151 0 0 0 0 -1887.9209732888085 307.23718569480116 0 307.23718569480116 405.96038423443679 0 0 0 0 -1278.4380912845736 376.24554784598786 0 376.24554784598786 371.25288744198042 0 0 0 0 -1196.2279894216408 388.03676330448798 0 388.03676330448798 335.69191428657723 0 0 0 0 -1039.0891524359758 531.78456491171528 0 531.78456491171528 273.72205591990496 0 0 0 0 -909.98978282373719 424.56198045266501 0 424.56198045266501 298.5216792944957 0 0 0 0 -946.31424514569517 325.35197301537846 0 325.35197301537846 200.05199838482076 0 0 0 0 -1190.2718481841007 96.34325828472231 0 96.34325828472231 187.31564416149922 0 0 0 0 -1075.4139027608144 58.707539863687998 0 58.707539863687998 156.14140796104402 0 0 0 0 0.68520144205513933 0.07931309432478173 0 0.07931309432478173 0.27788054325895928 0 0 0 0 -271.63386608877408 10.46392816286243 0 10.46392816286243 38.734000063108397 0 0 0 0 37.142268419429456 114.91217227877314 0 114.91217227877314 -46.282791319812532 0 0 0 0 -218.22726788743057 70.224827331980123 0 70.224827331980123 105.51437696462381 0 0 0 0 -255.06116484100494 203.63568764542288 0 203.63568764542288 -72.659178691348643 0 0 0 0 -389.27546180036734 270.03635756091535 0 270.03635756091535 41.266900884264032 0 0 0 0 -316.17187055446266 224.36869983126962 0 224.36869983126962 -0.04144080027617747 0 0 0 0 -657.47396583602676 181.08325304034224 0 181.08325304034224 197.44603782106878 0 0 0 0 -661.00112193806854 150.04309525952704 0 150.04309525952704 101.47722099411658 0 0 0 0 58.320864532172436 82.551274604213248 0 82.551274604213248 72.627500019187551 0 0 0 0 -462.46065604456817 246.58656653782236 0 246.58656653782236 35.970502209884216 0 0 0 0 -891.95991884967225 503.84455779313976 0 503.84455779313976 566.80531790792884 0 0 0 0 -44.543352487038646 182.29812605258485 0 182.29812605258485 -125.93879976842436 0 0 0 0 -494.93896238081652 337.99306286121282 0 337.99306286121282 38.061084081447916 0 0 0 0 -572.99605557140603 342.73869582127736 0 342.73869582127736 42.62834354613733 0 0 0 0 -643.87469465737377 418.49340556756943 0 418.49340556756943 69.079992040969955 0 0 0 0 -570.85520366914716 354.40621569328687 0 354.40621569328687 106.21270326207741 0 0 0 0 -666.39067527277075 493.76665260518348 0 493.76665260518348 78.478581356393988 0 0 0 0 -733.74617771180056 569.30725694029388 0 569.30725694029388 194.47264271996391 0 0 0 0 -739.40588920636947 519.03838678220927 0 519.03838678220927 159.08011520079162 0 0 0 0 -820.06454384750396 487.07755369992083 0 487.07755369992083 189.02144965722255 0 0 0 0 -798.03526199591943 534.66675385997223 0 534.66675385997223 256.34767782474228 0 0 0 0 -743.74164458444284 338.58384822502558 0 338.58384822502558 200.18317240437318 0 0 0 0 33.405158980313729 52.420847393311973 0 52.420847393311973 32.9670807968715 0 0 0 0 -428.37087631622853 469.63170077205723 0 469.63170077205723 -200.15610382566683 0 0 0 0 -415.60210019633814 475.7473695518056 0 475.7473695518056 -249.54131705990585 0 0 0 0 -466.60737967170644 590.5196472692769 0 590.5196472692769 -561.82216476496978 0 0 0 0 -770.12801459808247 784.45021472718918 0 784.45021472718918 -128.9317600838549 0 0 0 0 -659.71489410802315 575.74555628630696 0 575.74555628630696 -24.622933397215093 0 0 0 0 -661.57058296299147 567.90854084883904 0 567.90854084883904 35.667135615571169 0 0 0 0 -525.57783063648094 539.30456837194652 0 539.30456837194652 -211.15793408158061 0 0 0 0 -486.03405292383104 431.53942639255001 0 431.53942639255001 -24.494065070844954 0 0 0 0 -508.45599475946074 442.35236179146887 0 442.35236179146887 -29.066666231548879 0 0 0 0 -297.9650056747596 296.99723113569053 0 296.99723113569053 -86.312914123176597 0 0 0 0 52.152568260723513 80.884810143438557 0 80.884810143438557 65.401809259953183 0 0 0 0 -360.51377830267847 179.03630860416069 0 179.03630860416069 166.16782957233954 0 0 0 0 -226.12595703422994 -238.70212923021973 0 -238.70212923021973 -19.862602225775845 0 0 0 0 -95.895104057017306 -43.218229921523744 0 -43.218229921523744 257.20645460764354 0 0 0 0 -43.288596483299187 1.8603962966505208 0 1.8603962966505208 12.670931929493022 0 0 0 0 -133.37201634250232 25.907072092187263 0 25.907072092187263 -18.441788960750273 0 0 0 0 -0.66059883341434045 6.6791292541671297 0 6.6791292541671297 -4.1327128629092726 0 0 0 0 -103.83256618552696 -31.260995044729498 0 -31.260995044729498 2.0438355536171002 0 0 0 0 92.940067425573943 -11.991470845438016 0 -11.991470845438016 -49.67618245932681 0 0 0 0 -923.88375471299514 1364.1209880101669 0 1364.1209880101669 -1492.4184579795692 0 0 0 0 -352.18169871277496 429.52915309527452 0 429.52915309527452 -216.88548275969515 0 0 0 0 -74.618040537909565 4.3936527172783784 0 4.3936527172783784 31.82089015641489 0 0 0 0 43.369617924836348 87.446167596943269 0 87.446167596943269 -30.316685718891677 0 0 0 0 255.81912134120648 131.59635833202628 0 131.59635833202628 -59.901291539586964 0 0 0 0 365.65499025957251 613.01361188029841 0 613.01361188029841 430.66989773980458 0 0 0 0 -27.88182800026334 298.25967828203648 0 298.25967828203648 222.86026369821047 0 0 0 0 -1906.227057068977 1472.9747983157677 0 1472.9747983157677 -232.36717043472163 0 0 0 0 -2.8982635721804257 1.1399042542935831 0 1.1399042542935831 6.1120457612904886 0 0 0 0 -1856.7539312446752 288.10794625011476 0 288.10794625011476 54.828944969733129 0 0 0 0 443.31535863262252 196.95528650724737 0 196.95528650724737 43.881629321203945 0 0 0 0 -469.4160242198268 569.57150597131113 0 569.57150597131113 -1697.9317420676525 0 0 0 0 -124.43122091378609 398.54174477097695 0 398.54174477097695 18.868262605974451 0 0 0 0 -667.01395960613536 84.377813902059643 0 84.377813902059643 165.7186131686467 0 0 0 0 -131.97984485734196 1251.3790399367208 0 1251.3790399367208 -351.35530897455465 0 0 0 0 -779.17791387217585 904.54998675154638 0 904.54998675154638 -244.97049219722976 0 0 0 0 -460.26055270456538 996.87400189820801 0 996.87400189820801 339.60008226953505 0 0 0 0 -1085.8096378172049 673.98807809792925 0 673.98807809792925 245.60790691329021 0 0 0 0 76.918117327833897 963.35126236495853 0 963.35126236495853 -672.67814943118719 0 0 0 0 -1074.1837346744142 1321.4932465901366 0 1321.4932465901366 -783.1785458379818 0 0 0 0 -1299.3910174676857 237.6600974691828 0 237.6600974691828 -985.76404815858405 0 0 0 0 -709.99761012429371 1102.7294318796048 0 1102.7294318796048 -377.18178199800604 0 0 0 0 -429.84166177590669 839.98196079436457 0 839.98196079436457 -2222.6843694945856 0 0 0 0 -443.0190751567352 543.82645810166287 0 543.82645810166287 -856.12767307119793 0 0 0 0 -643.22993886109907 1018.3698076400033 0 1018.3698076400033 -559.42489520445815 0 0 0 0 -69.210335163701529 509.16566079813128 0 509.16566079813128 25.732883142176433 0 0 0 0 -533.19298380108376 942.86470892656871 0 942.86470892656871 206.15222454541072 0 0 0 0 -444.90867151975129 158.24184835418839 0 158.24184835418839 550.23613735045365 0 0 0 0 -251.40768492563802 153.17646970222995 0 153.17646970222995 831.96775113134936 0 0 0 0 -100.79085458438203 337.04238441672351 0 337.04238441672351 635.48124381778325 0 0 0 0 20.354142825287965 27.008676702030854 0 27.008676702030854 21.910510289447174 0 0 0 0 -225.77788769366452 -504.77795117208734 0 -504.77795117208734 2064.478801507139 0 0 0 0 -747.74973043494174 967.26756964783544 0 967.26756964783544 -773.00140931457281 0 0 0 0 90.808085548191229 536.73797202133574 0 536.73797202133574 198.75273041639593 0 0 0 0 -478.48496196143969 716.25309585579816 0 716.25309585579816 1252.01941153386 0 0 0 0 -71.734901036485553 1377.2962120919074 0 1377.2962120919074 -1173.887950771139 0 0 0 0 -603.77058040569682 262.20222610641213 0 262.20222610641213 93.124730336050561 0 0 0 0 -421.29998957556381 1500.361893957117 0 1500.361893957117 -667.17533620735048 0 0 0 0 -299.86309997770877 963.59182959217287 0 963.59182959217287 -927.79050368995377 0 0 0 0 -1057.125234029445 1270.6500455599089 0 1270.6500455599089 -161.66055157641858 0 0 0 0 -386.42971029671025 1557.7236430181365 0 1557.7236430181365 -924.00512646220159 0 0 0 0 -24.936546824923425 470.87628677296016 0 470.87628677296016 -470.73744067510415 0 0 0 0 -198.76334986865459 144.98027008531881 0 144.98027008531881 16.370596302222111 0 0 0 0 -191.75419415460783 172.61196390465193 0 172.61196390465193 -151.00273507123347 0 0 0 0 -1282.1852832790464 1293.2430640917519 0 1293.2430640917519 -845.92729002252599 0 0 0 0 -1.4779497468721203 -2.7501191784777603 0 -2.7501191784777603 -14.054376742383852 0 0 0 0 509.74221353213579 -91.078150065543014 0 -91.078150065543014 -374.74108147261722 0 0 0 0 -6.9772273457959386 9.4343647522540763 0 9.4343647522540763 38.609908001195009 0 0 0 0 -353.53195503301686 18.445804709772347 0 18.445804709772347 1.2712752905208617 0 0 0 0 -264.45624959751149 351.32276634731534 0 351.32276634731534 240.93652479545563 0 0 0 0 -2.7814397959042196 2.4489246641132922 0 2.4489246641132922 6.5370405587696609 0 0 0 0 -13.028343065783702 45.237559582092217 0 45.237559582092217 32.043212013297307 0 0 0 0 -17.885946293659799 23.18415611092496 0 23.18415611092496 37.008416832992225 0 0 0 0 1.5286016382314074 -0.083531510020911526 0 -0.083531510020911526 -37.469749162206028 0 0 0 0 40.754579230339004 120.64283198052362 0 120.64283198052362 -430.53276014097355 0 0 0 0 -1.1528644216216009 16.511066395219636 0 16.511066395219636 41.316335416733693 0 0 0 0 177.18512765076957 59.067420683688397 0 59.067420683688397 -214.62595136165328 0 0 0 0 139.48455832797117 116.76653024799816 0 116.76653024799816 110.55362246950244 0 0 0 0 102.7027406383786 133.31285536191717 0 133.31285536191717 131.72456761153808 0 0 0 0 144.73990894250164 144.30763202793605 0 144.30763202793605 25.359873194080137 0 0 0 0 116.88142479407543 105.82589087454107 0 105.82589087454107 48.751148228839156 0 0 0 0 -14.817846094043645 11.066684266272574 0 11.066684266272574 0.83146733856580113 0 0 0 0 178.61777135876764 184.71449881224544 0 184.71449881224544 72.598410433067329 0 0 0 0 -64.057509989858502 43.735578960154555 0 43.735578960154555 89.684520208565516 0 0 0 0 2.7994345245024306 178.89910057431189 0 178.89910057431189 145.53834351296246 0 0 0 0 415.96019976006937 54.740877324431494 0 54.740877324431494 -69.341809624809684 0 0 0 0 0.86487683632739731 9.7746973278101805 0 9.7746973278101805 13.137382379424707 0 0 0 0 -37.90415405917156 -122.8626725574286 0 -122.8626725574286 1316.6861626006721 0 0 0 0 -56.421449540696941 37.873161820141831 0 37.873161820141831 111.03996740104461 0 0 0 0 -1203.1010915339575 2061.2351599204703 0 2061.2351599204703 378.32915489496372 0 0 0 0 -740.47225557595812 662.75941957468967 0 662.75941957468967 941.7202195104619 0 0 0 0 1497.5379286434618 241.70485315019323 0 241.70485315019323 -2103.7347172390437 0 0 0 0 -3425.6170897503034 218.24593619239749 0 218.24593619239749 135.78232391242636 0 0 0 0 12.054327878277221 23.024695277687499 0 23.024695277687499 13.457773408363977 0 0 0 0 11.156596903245969 15.62319771746283 0 15.62319771746283 3.7174771666522588 0 0 0 0 -3.3876668561188126 1702.2866465956079 0 1702.2866465956079 -1002.912931608269 0 0 0 0 -840.89344649107079 1818.2588494648808 0 1818.2588494648808 -1120.6215349654085 0 0 0 0 -2726.7199235075968 -249.28301899391226 0 -249.28301899391226 -2398.3726109514828 0 0 0 0 -3383.9845319298047 1282.8333117964976 0 1282.8333117964976 -1233.2730610102881 0 0 0 0 -1123.1127999598975 2068.6079071575077 0 2068.6079071575077 -1745.9848485288385 0 0 0 0 -396.6528285034783 1471.6456756468033 0 1471.6456756468033 -1259.0673416028148 0 0 0 0 -1047.7305836123705 1434.8203700591403 0 1434.8203700591403 -224.08266015621484 0 0 0 0 147.74490472294565 150.86885129902566 0 150.86885129902566 150.84226938545544 0 0 0 0 113.65925961231622 53.934164435016683 0 53.934164435016683 -51.969626525414661 0 0 0 0 -247.04932607751107 464.31539238346886 0 464.31539238346886 58.910301877760503 0 0 0 0 259.83520572131238 183.96525423380081 0 183.96525423380081 -153.17608177031798 0 0 0 0 175.08832102376618 -33.435656565852696 0 -33.435656565852696 93.158226594907319 0 0 0 0 -0.92308470918942476 -71.565695425248123 0 -71.565695425248123 87.402614616832579 0 0 0 0 34.231097354041594 2.4047219154740276 0 2.4047219154740276 40.847854509016599 0 0 0 0 59.247844786950736 131.60879378970276 0 131.60879378970276 268.37449324327099 0 0 0 0 91.456997327809518 58.291456560935529 0 58.291456560935529 -54.194109506651763 0 0 0 0 132.68062100857787 146.91856431118867 0 146.91856431118867 153.41282499989757 0 0 0 0 131.35061716601786 171.24058846928284 0 171.24058846928284 -76.297182593476464 0 0 0 0 32.872975844831672 235.84235210517545 0 235.84235210517545 225.37954615473427 0 0 0 0 125.25884405514807 328.74807500531824 0 328.74807500531824 1.5988340579024225 0 0 0 0 71.74718456712435 432.72705486166524 0 432.72705486166524 291.53431078020731 0 0 0 0 154.34593472980487 182.83594683513365 0 182.83594683513365 398.31649862477934 0 0 0 0 -25.939548051504971 -142.13533810376157 0 -142.13533810376157 291.6230464848195 0 0 0 0 -39.536372465052409 227.2649663378179 0 227.2649663378179 563.9498267876188 0 0 0 0 -61.576351387921022 60.620094015026552 0 60.620094015026552 13.251570542481204 0 0 0 0 25.021222582428891 49.973819223694591 0 49.973819223694591 827.6671458210767 0 0 0 0 13.596604153074225 7.2566673315459056 0 7.2566673315459056 2.9667694974361609 0 0 0 0 -74.460242676315829 103.41052048587153 0 103.41052048587153 124.72457113012206 0 0 0 0 -92.430958152239327 3.7182338646307471 0 3.7182338646307471 189.30493325911266 0 0 0 0 -51.774675349643388 62.783311364109323 0 62.783311364109323 74.294952410142088 0 0 0 0 -4.4055364654981872 -3.1769628836870396 0 -3.1769628836870396 0.45529414439111093 0 0 0 0 49.227023938205093 -41.205301703481382 0 -41.205301703481382 -196.17931236268123 0 0 0 0 -7.9825801895058248 -3.369727274930483 0 -3.369727274930483 -8.1542302085435949 0 0 0 0 -903.52408916916465 -695.19100038163378 0 -695.19100038163378 -625.31372096537962 0 0 0 0 2850.3321409822092 2784.3169304277544 0 2784.3169304277544 115.84558025025763 0 0 0 0 -2.814893280831825 1.6203330099529865 0 1.6203330099529865 -1.0499705256787166 0 0 0 0 262.97687492182013 455.41614862566348 0 455.41614862566348 472.09112462381017 0 0 0 0 262.97348755098392 453.95340124679933 0 453.95340124679933 585.04372829367639 0 0 0 0 439.74926467731711 516.12360570053352 0 516.12360570053352 207.57325095396664 0 0 0 0 770.30772174458252 823.01406560172472 0 823.01406560172472 445.76037310449465 0 0 0 0 1659.2894578340929 226.60198279323959 0 226.60198279323959 -133.39913219797745 0 0 0 0 770.01492977017188 135.89128198541584 0 135.89128198541584 -86.596949323924491 0 0 0 0 1287.2631210536929 947.525763556725 0 947.525763556725 877.38351525449889 0 0 0 0 1174.965066908102 1975.7521977641027 0 1975.7521977641027 -228.71293984146905 0 0 0 0 2273.9915410946123 -1511.4861441487155 0 -1511.4861441487155 1245.4942868306462 0 0 0 0 124.83485142217251 562.26666707469849 0 562.26666707469849 -732.87888776238105 0 0 0 0 655.55017912981566 613.21829780014377 0 613.21829780014377 -895.79573573120433 0 0 0 0 -44.57717314446927 555.79487224496552 0 555.79487224496552 1184.4453325347422 0 0 0 0 -277.92080074909609 1042.5909715952876 0 1042.5909715952876 403.88269077697259 0 0 0 0 -3.7109308546214379 -0.030007987420532345 0 -0.030007987420532345 -0.24946051637588162 0 0 0 0 -28.119946856051683 120.42528482381022 0 120.42528482381022 -853.12920583983941 0 0 0 0 -1.4583643851731836 -0.83116983900569608 0 -0.83116983900569608 1.0926895917543789 0 0 0 0 343.23474199646444 -621.56327209946176 0 -621.56327209946176 -128.92565267322789 0 0 0 0 182.69889170065289 125.98807871033569 0 125.98807871033569 79.547282749048463 0 0 0 0 248.5567244890558 150.85313767343723 0 150.85313767343723 -4.0886493012294522 0 0 0 0 14.064123038942171 25.063698849286112 0 25.063698849286112 -0.72186413217224299 0 0 0 0 75.553572899283608 16.35836348713201 0 16.35836348713201 -23.92294108220085 0 0 0 0 245.51453035173608 77.566299704925427 0 77.566299704925427 -188.62635851172672 0 0 0 0 116.1061735827534 -82.457376656791894 0 -82.457376656791894 -53.717769944341853 0 0 0 0 100.30319489363001 21.882792337310718 0 21.882792337310718 -30.216899675434107 0 0 0 0 134.02107928063924 88.439708604484622 0 88.439708604484622 56.679180357794394 0 0 0 0 115.97195511756581 36.245015178421454 0 36.245015178421454 66.368501914990702 0 0 0 0 90.934854859820916 31.849037138665153 0 31.849037138665153 212.95864845009783 0 0 0 0 139.86605235958268 151.98011928021515 0 151.98011928021515 299.89765102152887 0 0 0 0 335.91431337104586 48.630299596312398 0 48.630299596312398 58.423825854813913 0 0 0 0 460.17182033641257 363.69768121446214 0 363.69768121446214 337.5548141317995 0 0 0 0 7.3965213399978609 2.4742736116094193 0 2.4742736116094193 -2.4569646594083423 0 0 0 0 558.69262923799761 807.57288746916947 0 807.57288746916947 921.2857868548017 0 0 0 0 791.01231314003235 271.76726451603099 0 271.76726451603099 205.57888879445454 0 0 0 0 169.46164262505772 -71.747691085518454 0 -71.747691085518454 77.080242516720318 0 0 0 0 361.18059295596322 29.932403538638937 0 29.932403538638937 200.67703655055084 0 0 0 0 67.673449358640937 -14.751988536136196 0 -14.751988536136196 292.11693895258941 0 0 0 0 15.118372634438856 111.92333951717228 0 111.92333951717228 273.35361225276574 0 0 0 0 47.866958539263578 44.486539553457987 0 44.486539553457987 308.4376274447568 0 0 0 0 8.0351113487964483 -11.094956182802434 0 -11.094956182802434 9.0454059821928183 0 0 0 0 -1701.1283755865043 538.04818915949363 0 538.04818915949363 4.3262416284851497 0 0 0 0 368.77482481484185 632.9157902861989 0 632.9157902861989 -35.157009051923524 0 0 0 0 -1008.4959720620827 698.57777947756404 0 698.57777947756404 -31.737024746696989 0 0 0 0 4.3198093571068625 -3.1710891718499283 0 -3.1710891718499283 0.5504689891683654 0 0 0 0 -923.98391288224957 310.81006693505333 0 310.81006693505333 -514.85714473266853 0 0 0 0 -198.9730794170755 -38.764473377756076 0 -38.764473377756076 283.364326338924 0 0 0 0 5.5007437495078193 213.17797676845657 0 213.17797676845657 60.481999294453999 0 0 0 0 149.30108773230313 185.47747722894201 0 185.47747722894201 -631.41414921294927 0 0 0 0 -485.39541759526765 429.35737380669889 0 429.35737380669889 -239.37490740996145 0 0 0 0 -220.11953251608065 -23.806971478035848 0 -23.806971478035848 -181.54270171521057 0 0 0 0 -636.04422562512627 218.06103633937164 0 218.06103633937164 -522.43300751538482 0 0 0 0 -1924.555279132037 1452.8687566601147 0 1452.8687566601147 -598.57674131117528 0 0 0 0 -1500.5640988339437 1570.9054718944826 0 1570.9054718944826 -879.79078428959474 0 0 0 0 -1323.6468489122635 1074.1548273481967 0 1074.1548273481967 -493.73647184780566 0 0 0 0 -1019.1872850428335 879.76480135605379 0 879.76480135605379 -525.84661717747804 0 0 0 0 -290.12897746948875 639.82184261736256 0 639.82184261736256 -417.47784340687213 0 0 0 0 -1142.4977755190921 634.66948282031808 0 634.66948282031808 -299.95972108721617 0 0 0 0 -1053.7510531353182 805.64528903950122 0 805.64528903950122 -479.31363291019807 0 0 0 0 -2043.9019554581027 906.05575648404192 0 906.05575648404192 -431.65817139952924 0 0 0 0 -1292.7604996631562 694.0450902691955 0 694.0450902691955 -406.94221751551959 0 0 0 0 -1846.326523734082 1107.7475773502083 0 1107.7475773502083 -470.45134656218943 0 0 0 0 -2006.6787890912237 816.18474433173469 0 816.18474433173469 -679.52232290204847 0 0 0 0 -2068.985389766196 1443.4493896080967 0 1443.4493896080967 -1816.0171888457116 0 0 0 0 -2.3162598923588007 1.624619176861863 0 1.624619176861863 0.44808978537463418 0 0 0 0 -1018.8073930611718 491.5736007250016 0 491.5736007250016 -855.65579960773175 0 0 0 0 -1943.6228725127057 479.33992206291714 0 479.33992206291714 -545.86302716516366 0 0 0 0 -13.71670944308849 3.1207203216373287 0 3.1207203216373287 7.9495247697460343 0 0 0 0 -2021.2904234770685 858.4505000221543 0 858.4505000221543 -358.90251068020007 0 0 0 0 -1732.6675331999068 1182.248859870615 0 1182.248859870615 -448.05278750059369 0 0 0 0 149.02513625603751 -322.72794915521808 0 -322.72794915521808 99.376479625869251 0 0 0 0 -905.61893002988654 687.65572174832778 0 687.65572174832778 -533.49133878840348 0 0 0 0 -596.42463013615634 116.5376584446276 0 116.5376584446276 -339.29145655228058 0 0 0 0 -1191.6538810861239 48.740926432539709 0 48.740926432539709 -164.86265603099378 0 0 0 0 191.74166956490808 774.65776936138172 0 774.65776936138172 -560.5233328667673 0 0 0 0 220.35449334575969 636.12868182688544 0 636.12868182688544 109.80663650235692 0 0 0 0 1093.0364802822296 930.14310598647353 0 930.14310598647353 -127.31535352060746 0 0 0 0 739.79523096240882 1034.5501432007877 0 1034.5501432007877 622.72049344877632 0 0 0 0 599.15406181315484 836.32666685617733 0 836.32666685617733 345.53641925573174 0 0 0 0 741.56482521786347 664.06866734649748 0 664.06866734649748 410.24332814190711 0 0 0 0 247.98478729125418 476.30658106240844 0 476.30658106240844 71.929963328526355 0 0 0 0 690.70810342216282 411.51660911487124 0 411.51660911487124 -172.05602458378644 0 0 0 0 571.31016859554802 679.38024538668833 0 679.38024538668833 694.98589558555068 0 0 0 0 779.98421534067893 1338.9660875760019 0 1338.9660875760019 1375.8839879464067 0 0 0 0 339.23121518636617 52.969526522458182 0 52.969526522458182 -156.80828969763388 0 0 0 0 142.83466474611487 831.81773416131546 0 831.81773416131546 835.62740970279992 0 0 0 0 647.06919726353954 700.84182025101109 0 700.84182025101109 595.90840551849396 0 0 0 0 741.37489222866861 1086.7952989856567 0 1086.7952989856567 854.86612360442814 0 0 0 0 1095.5164244106563 941.20978368315264 0 941.20978368315264 584.2785544436847 0 0 0 0 1084.1042429444933 998.95821859543503 0 998.95821859543503 531.52326126869593 0 0 0 0 28.200701748690335 86.375622710620519 0 86.375622710620519 -2.5167152209778578 0 0 0 0 33.405657451381558 58.832198615680682 0 58.832198615680682 1.0348850399459479 0 0 0 0 0.46211277472335155 25.542213430129948 0 25.542213430129948 -35.702830705526992 0 0 0 0 32.504354469434475 55.936097961879568 0 55.936097961879568 -66.091679587509134 0 0 0 0 6.1171209974172029 16.195122349558176 0 16.195122349558176 -2.4968119060352123 0 0 0 0 12.115646360559197 44.968220218030183 0 44.968220218030183 20.348069724064715 0 0 0 0 30.992544128690497 76.468998777236266 0 76.468998777236266 30.878491501563985 0 0 0 0 -6.6208782689536747 105.79109389628684 0 105.79109389628684 12.248556370672304 0 0 0 0 15.40001723491514 46.007290370802366 0 46.007290370802366 -29.327099388945499 0 0 0 0 -14.193286870445036 41.134636356655932 0 41.134636356655932 -0.92399518640683453 0 0 0 0 -56.22831105266232 87.583538837570813 0 87.583538837570813 14.670722978218691 0 0 0 0 -6.0273930305661452 9.2313912924677055 0 9.2313912924677055 -6.5231473473782842 0 0 0 0 89.073092164471745 67.527528365335456 0 67.527528365335456 -24.753584019599657 0 0 0 0 10.369282879313687 105.57509702064272 0 105.57509702064272 8.4997585044184234 0 0 0 0 -14.361943959945364 23.5482024555549 0 23.5482024555549 -8.8465853072871425 0 0 0 0 38.878449814656051 -18.798819046533026 0 -18.798819046533026 68.145690078741609 0 0 0 0 72.606085619056103 132.66325307518582 0 132.66325307518582 -97.947220784757519 0 0 0 0 -444.24760147408233 223.42762748106907 0 223.42762748106907 139.74264249815315 0 0 0 0 356.39812795009493 799.25780371637484 0 799.25780371637484 1591.2386992152387 0 0 0 0 2243.2040807416197 1112.6265035268443 0 1112.6265035268443 437.96700514918848 0 0 0 0 -2.2968582710883538 7.8017292565909457 0 7.8017292565909457 -2.8636229284999786 0 0 0 0 781.97224712590105 1161.5882520895029 0 1161.5882520895029 1152.6395999208762 0 0 0 0 170.87038019268948 727.72437222217923 0 727.72437222217923 1069.5232112615558 0 0 0 0 1522.5699301026179 675.41108202400937 0 675.41108202400937 771.04305233700143 0 0 0 0 1282.7072317290367 1398.0266110489902 0 1398.0266110489902 1101.3724461720558 0 0 0 0 -373.72770117636537 54.542509370148764 0 54.542509370148764 -30.828695356380194 0 0 0 0 -6.3892148547641057 6.5303225361047907 0 6.5303225361047907 -4.9743795991711295 0 0 0 0 269.98664284193364 1944.3921431620074 0 1944.3921431620074 845.6103784507286 0 0 0 0 8.6013952340638866 4.6114440840232476 0 4.6114440840232476 -3.4353354520841606 0 0 0 0 288.57879335938196 345.16083908417568 0 345.16083908417568 222.45560406311415 0 0 0 0 910.28434465278406 1283.2744773533559 0 1283.2744773533559 1486.8594290974106 0 0 0 0 216.54331779835047 354.06013042231825 0 354.06013042231825 388.98520927787467 0 0 0 0 277.02228329978243 462.9227143539938 0 462.9227143539938 620.86151885781146 0 0 0 0 145.50336730896379 278.15253992477665 0 278.15253992477665 513.9348635844799 0 0 0 0 13.114489582342799 4.2441517784063478 0 4.2441517784063478 -4.620886237337487 0 0 0 0 962.52733764122968 356.54214718346338 0 356.54214718346338 133.39855466578592 0 0 0 0 234.48504541951115 242.85872744857261 0 242.85872744857261 633.51368757713863 0 0 0 0 286.43107953655999 197.79555739368152 0 197.79555739368152 157.71650538536778 0 0 0 0 156.90195524190858 343.07508406901252 0 343.07508406901252 464.66419837201829 0 0 0 0 10.325693009290262 139.26520654644992 0 139.26520654644992 293.8712278728417 0 0 0 0 100.70715885332902 188.83319670224228 0 188.83319670224228 183.15622395656101 0 0 0 0 111.53576778798742 53.070215276879026 0 53.070215276879026 128.15183309818894 0 0 0 0 178.73456831903968 98.0172388788842 0 98.0172388788842 -94.68081721564522 0 0 0 0 -56.022149475116748 -60.041846975211229 0 -60.041846975211229 -126.55476933896352 0 0 0 0 67.64871683264272 32.409563288828963 0 32.409563288828963 -34.770813492239377 0 0 0 0 67.678194974556391 40.25437113649059 0 40.25437113649059 -96.001992999648792 0 0 0 0 43.463197440840304 113.60410299632349 0 113.60410299632349 -23.537244982268021 0 0 0 0 38.88010092084204 52.58063100769786 0 52.58063100769786 -31.812262105431586 0 0 0 0 96.548054867977044 95.242219433021091 0 95.242219433021091 -30.091110455963644 0 0 0 0 -10.571282203716692 21.265424092583999 0 21.265424092583999 -106.79891603355645 0 0 0 0 5.9472168598201733 2.587846696488981 0 2.587846696488981 -8.9023987041857424 0 0 0 0 -2.326538659792277 6.4414996611048991 0 6.4414996611048991 -18.967548368428652 0 0 0 0 90.918723383176257 36.944176831437289 0 36.944176831437289 -192.72717948160425 0 0 0 0 5.7884030241153255 -1.233802316374863 0 -1.233802316374863 -4.7163860476141277 0 0 0 0 1.6434722606209107 -2.9344969767407747 0 -2.9344969767407747 -12.778145035033958 0 0 0 0 -2.983086384749015 6.0755201271460209 0 6.0755201271460209 -1.9392288024541493 0 0 0 0 -8.2233662809740053 48.505237175362709 0 48.505237175362709 -57.426089549517201 0 0 0 0 -129.03830113064032 134.18794607985183 0 134.18794607985183 224.26448416724452 0 0 0 0 -98.386658054558211 114.96027020661495 0 114.96027020661495 7.7406700036663096 0 0 0 0 106.98223001706356 113.86571809995075 0 113.86571809995075 43.0370662375135 0 0 0 0 -44.897673852334265 217.57477955011927 0 217.57477955011927 182.45930585572205 0 0 0 0 -3.4820827817020472 47.973726148993592 0 47.973726148993592 -58.590739563747775 0 0 0 0 0.61978440248924471 20.278398145719379 0 20.278398145719379 -15.791532735062093 0 0 0 0 20.61664908384563 3.6771556572690756 0 3.6771556572690756 -41.883551655828683 0 0 0 0 15.984946483047679 28.079186338494765 0 28.079186338494765 -43.708423958880303 0 0 0 0 -42.721996236825362 42.586617556458805 0 42.586617556458805 69.294132714043371 0 0 0 0 79.644626380468253 14.723220076193684 0 14.723220076193684 207.65682575623759 0 0 0 0 13.162675270887746 18.709394671014564 0 18.709394671014564 3.8694764582552068 0 0 0 0 50.286928558447244 36.215253853247305 0 36.215253853247305 -12.837305679067384 0 0 0 0 30.544462139770658 116.82915860585126 0 116.82915860585126 69.424174761964935 0 0 0 0 16.553854461218044 13.542675089075857 0 13.542675089075857 4.146099480411749 0 0 0 0 -22.759418733330676 151.00059266001335 0 151.00059266001335 -11.2057230303908 0 0 0 0 91.191226932412974 58.738009191109086 0 58.738009191109086 28.344371682207566 0 0 0 0 70.550935963503434 163.71177245701256 0 163.71177245701256 -39.242280269783805 0 0 0 0 46.353739327742062 50.769729305019425 0 50.769729305019425 43.380386335891814 0 0 0 0 116.1014785005882 124.7129478134475 0 124.7129478134475 -130.28262811148306 0 0 0 0 -62.340218090364942 208.34479857907718 0 208.34479857907718 22.467914950721934 0 0 0 0 -129.34462447078113 58.861281213530674 0 58.861281213530674 33.896368611807702 0 0 0 0 -119.38240923116973 118.67000461490898 0 118.67000461490898 562.1456803233159 0 0 0 0 341.00595757379779 -12.249748360816739 0 -12.249748360816739 -86.315682118827681 0 0 0 0 83.747703538479982 403.26681505176384 0 403.26681505176384 906.59021446801489 0 0 0 0 595.37676989473403 311.39171371599514 0 311.39171371599514 266.01768839452416 0 0 0 0 -1.2348090472236493 -5.7321843450651215 0 -5.7321843450651215 4.6419410820687972 0 0 0 0 -242.20273700891994 -3.8915661310456926 0 -3.8915661310456926 302.48440637652675 0 0 0 0 24.838020196310026 360.68023145430175 0 360.68023145430175 647.88836754976364 0 0 0 0 230.64318547522998 454.94617917036521 0 454.94617917036521 390.71224181812431 0 0 0 0 111.24031984349131 289.92880384159798 0 289.92880384159798 919.56707235690101 0 0 0 0 -140.02097929967567 663.03224868672987 0 663.03224868672987 475.43504280959314 0 0 0 0 -162.41725801024586 143.78038067222951 0 143.78038067222951 1500.2115180315741 0 0 0 0 -178.60368335159728 524.23021741268894 0 524.23021741268894 1461.1557599953958 0 0 0 0 -375.15060982714931 381.21735043165245 0 381.21735043165245 2159.8290348509909 0 0 0 0 -295.25467051101623 -108.96834109833071 0 -108.96834109833071 4348.4119035840558 0 0 0 0 12.696923819451285 13.241240904006027 0 13.241240904006027 14.347511736204638 0 0 0 0 1274.9893756335368 1806.3248760599963 0 1806.3248760599963 1868.8997169870272 0 0 0 0 1186.6521698118304 1081.9550958415421 0 1081.9550958415421 -420.22326488807448 0 0 0 0 -302.3064429644146 -412.36607959030516 0 -412.36607959030516 107.05310945784731 0 0 0 0 33.644050425608896 35.008929200985918 0 35.008929200985918 33.713618703319554 0 0 0 0 -434.71918795799138 424.02948595672206 0 424.02948595672206 -189.74219653653563 0 0 0 0 -93.897226726718145 227.55668534949109 0 227.55668534949109 792.35964205127675 0 0 0 0 11.122492144757416 174.35774110798229 0 174.35774110798229 816.01783164362132 0 0 0 0 -649.84955594489293 204.43855474234078 0 204.43855474234078 52.774325197853614 0 0 0 0 -155.08782929021982 253.49413858835032 0 253.49413858835032 -231.72625596905709 0 0 0 0 -109.83789282807265 6.8373492671744316 0 6.8373492671744316 118.88343963673833 0 0 0 0 -369.20839709619031 -12.406255547590263 0 -12.406255547590263 165.27693898521829 0 0 0 0 245.68392148472776 -155.82633529345549 0 -155.82633529345549 -93.059548299810558 0 0 0 0 645.81261301463019 386.01322113296555 0 386.01322113296555 323.0317502271937 0 0 0 0 1.7610623990238992 3.7178678289640175 0 3.7178678289640175 4.6999152401281492 0 0 0 0 -91.249045245262096 60.180358068533678 0 60.180358068533678 268.99492265598383 0 0 0 0 6.8982645862852223 -80.544557939163496 0 -80.544557939163496 -177.66735259155394 0 0 0 0 -1.384915988217486 7.1018999849082718 0 7.1018999849082718 14.745553682332059 0 0 0 0 -174.80044819159957 -11.730251963166666 0 -11.730251963166666 284.26678101917787 0 0 0 0 -32.461005932156695 -27.673267680289428 0 -27.673267680289428 73.103784830294899 0 0 0 0 -2.1336813388266478 -2.1131257664893894 0 -2.1131257664893894 0.47772459425972791 0 0 0 0 22.3953112855379 88.581543811611482 0 88.581543811611482 -277.09461708846538 0 0 0 0 -195.39442248348496 -15.31348810109921 0 -15.31348810109921 350.58909676143412 0 0 0 0 -206.64952776228893 -62.465646713502792 0 -62.465646713502792 306.58112056268146 0 0 0 0 0.35488524523680098 306.83632492999823 0 306.83632492999823 426.81598412002859 0 0 0 0 272.63954615557668 279.16385430302807 0 279.16385430302807 75.912573927242192 0 0 0 0 396.70518910026294 21.648623567703908 0 21.648623567703908 -141.88681994697981 0 0 0 0 419.814397624913 392.15822495947555 0 392.15822495947555 342.33465780553524 0 0 0 0 236.0208654160233 121.14905926620486 0 121.14905926620486 33.990895912320411 0 0 0 0 80.36157421124517 135.74495748830668 0 135.74495748830668 72.499841989134438 0 0 0 0 493.96918338301475 348.14920433173756 0 348.14920433173756 368.41693216171916 0 0 0 0 385.95146421114623 710.32298815540344 0 710.32298815540344 767.70283816158553 0 0 0 0 0.18476428122085053 563.04287928635313 0 563.04287928635313 1196.1304865834318 0 0 0 0 449.11762632053433 448.70128717317129 0 448.70128717317129 798.48974427681969 0 0 0 0 1225.296626338255 1291.8903729219091 0 1291.8903729219091 665.29345791561354 0 0 0 0 180.11398966758861 1137.8216140939367 0 1137.8216140939367 2810.5417741841811 0 0 0 0 61.850857763653039 217.96712855123769 0 217.96712855123769 3032.824008228441 0 0 0 0 178.83712368225588 1096.0623479023629 0 1096.0623479023629 1917.9777893058636 0 0 0 0 62.758448033520835 231.42660330179206 0 231.42660330179206 2112.0600242313212 0 0 0 0 -0.32346219074679539 669.89212899946506 0 669.89212899946506 1287.4779582093324 0 0 0 0 -0.27511736493033823 793.78624741942622 0 793.78624741942622 -801.51671152647032 0 0 0 0 191.07350188455894 -70.597466120132594 0 -70.597466120132594 436.16459625939024 0 0 0 0 331.11665076598001 841.27967414684463 0 841.27967414684463 27.089492880360922 0 0 0 0 683.08523182573845 397.97836818343058 0 397.97836818343058 -811.31403807946481 0 0 0 0 1967.5083484034403 188.48562359864445 0 188.48562359864445 1029.324291060635 0 0 0 0 431.15630493721983 277.97971671589767 0 277.97971671589767 1031.8181935007597 0 0 0 0 1127.6982283687757 918.53210439132818 0 918.53210439132818 -189.81736681994516 0 0 0 0 95.332375899452018 835.61791889999222 0 835.61791889999222 1235.3796080193388 0 0 0 0 152.7638318817917 1240.7663771979569 0 1240.7663771979569 49.648153602640377 0 0 0 0 -936.43056319016614 872.74714899808168 0 872.74714899808168 2155.8458075129947 0 0 0 0 -1562.0377184286481 -93.26059111111681 0 -93.26059111111681 89.86364911783312 0 0 0 0 -1538.1148286954858 1175.4113108019444 0 1175.4113108019444 279.62231467961101 0 0 0 0 -194.1711579967523 1090.4094256781245 0 1090.4094256781245 -11.26456922070065 0 0 0 0 -1085.8399528571317 584.67387088787655 0 584.67387088787655 -15.439296555967303 0 0 0 0 157.39637744694483 1007.6132917185241 0 1007.6132917185241 -195.04908196659881 0 0 0 0 74.958016746706562 840.55732108500888 0 840.55732108500888 -499.62366182285768 0 0 0 0 -26.73567829602689 484.99656040011178 0 484.99656040011178 -492.27621792435502 0 0 0 0 290.8893062341449 270.30788593156649 0 270.30788593156649 -1567.1049127431252 0 0 0 0 -231.89195179582021 402.09382811427349 0 402.09382811427349 -165.06020183996588 0 0 0 0 -254.16104152458138 351.70521456543065 0 351.70521456543065 -10.340735426645779 0 0 0 0 -31.102716662571765 7.6036044330103323 0 7.6036044330103323 32.408570397194126 0 0 0 0 -28.209060511668213 54.387267732789041 0 54.387267732789041 18.25299636417185 0 0 0 0 -30.861510728418011 16.568847864825955 0 16.568847864825955 0.45865755291105614 0 0 0 0 -112.83977150231658 206.99367576959048 0 206.99367576959048 -369.63120254962996 0 0 0 0 6.7189000826250549 23.894449733238204 0 23.894449733238204 16.423980062818089 0 0 0 0 -52.236108782322844 61.308466803311603 0 61.308466803311603 28.930097337492043 0 0 0 0 -34.762104955560062 52.053022962543764 0 52.053022962543764 -67.917439249213203 0 0 0 0 3.7992011056194315 40.929208529865718 0 40.929208529865718 37.311455453646886 0 0 0 0 3.762139779428253 39.987295970764535 0 39.987295970764535 15.2172530132666 0 0 0 0 34.990607035244466 83.707913770060259 0 83.707913770060259 93.099446280742995 0 0 0 0 6.6358194934437051 105.4529381276443 0 105.4529381276443 226.19570567236224 0 0 0 0 439.95268416230101 -87.947192697796709 0 -87.947192697796709 -2820.3377182540717 0 0 0 0 -4.2671203696386328 1.6354862803625565 0 1.6354862803625565 -2.8725978003814987 0 0 0 0 -15.401400108940891 8.685883891043602 0 8.685883891043602 -4.3881817295245042 0 0 0 0 -28.834674169265782 518.24592434286751 0 518.24592434286751 -823.90245006134501 0 0 0 0 239.11167505594494 915.10300438837839 0 915.10300438837839 736.61450951269944 0 0 0 0 -1.2305454734450905 633.27922445431977 0 633.27922445431977 -224.07677731122021 0 0 0 0 -11.782351580084651 351.49884943242978 0 351.49884943242978 519.32676000101401 0 0 0 0 324.02921594226791 685.30095544882715 0 685.30095544882715 458.90058512744872 0 0 0 0 541.28481776978879 365.09717885265036 0 365.09717885265036 163.86647969424666 0 0 0 0 1.095186855711308 4.8708153226827164 0 4.8708153226827164 11.061538380733211 0 0 0 0 1702.5343795833905 770.85906480163612 0 770.85906480163612 185.07703958572711 0 0 0 0 -185.42348894383758 95.575070055772812 0 95.575070055772812 -44.364760141568695 0 0 0 0 -157.30179689277429 647.80669794365167 0 647.80669794365167 785.64541228665621 0 0 0 0 -279.30107013608722 325.27551319466329 0 325.27551319466329 347.3100570240349 0 0 0 0 -854.74509801297972 131.4864243523698 0 131.4864243523698 487.11004085032255 0 0 0 0 696.93708468327532 806.63168582239155 0 806.63168582239155 164.67399612542795 0 0 0 0 104.04480057043838 344.03312692272812 0 344.03312692272812 -153.3223381574935 0 0 0 0 -68.967142504887306 430.67901779512431 0 430.67901779512431 395.9245057415028 0 0 0 0 135.61985386453489 489.08665428238874 0 489.08665428238874 162.67133451791597 0 0 0 0 73.194766990432981 142.38700353821696 0 142.38700353821696 -315.41162283986341 0 0 0 0 6.1061734906834317 245.75740710413811 0 245.75740710413811 7.5067474464012776 0 0 0 0 58.062189994405344 266.49457598963841 0 266.49457598963841 -52.699030554183992 0 0 0 0 342.24868649442215 22.966621963721991 0 22.966621963721991 -700.00747902351941 0 0 0 0 148.95744894490053 286.17689172610699 0 286.17689172610699 -105.81982832622089 0 0 0 0 -148.60052886186168 66.830934075100231 0 66.830934075100231 -131.93167293584338 0 0 0 0 587.04823787639089 -154.09543130615168 0 -154.09543130615168 -109.786760767347 0 0 0 0 -397.46832996257581 -921.28022917715134 0 -921.28022917715134 -1509.638369596054 0 0 0 0 221.58767785633609 -494.26895098465138 0 -494.26895098465138 -1217.6748345082524 0 0 0 0 162.19306982267028 -180.23020434718532 0 -180.23020434718532 106.28453060378781 0 0 0 0 -312.33077104235053 -12.207940314871848 0 -12.207940314871848 25.769519131587003 0 0 0 0 -4.7855873742664983 3.5189027392958394 0 3.5189027392958394 -0.16899011810666309 0 0 0 0 -4.3463354972353159 -0.05968013457928123 0 -0.05968013457928123 -1.8655473844251276 0 0 0 0 -2.5570744384458521 -0.86895257578726159 0 -0.86895257578726159 -7.4296295027597807 0 0 0 0 -1.8810935931833228 53.715214419926269 0 53.715214419926269 26.4842298158419 0 0 0 0 -15.574002833425766 10.099573845891427 0 10.099573845891427 -2.3020906191959511 0 0 0 0 -15.122620646119458 7.1642038148069105 0 7.1642038148069105 -6.3473148238372232 0 0 0 0 -15.050858943166531 11.305643073773354 0 11.305643073773354 -6.8040923570843006 0 0 0 0 -3.5488479340906736 3.6272136601860154 0 3.6272136601860154 1.0149179532063073 0 0 0 0 -15.050588135200087 5.3402198979565583 0 5.3402198979565583 2.8762030923207931 0 0 0 0 -0.1649428771197563 51.563090316794842 0 51.563090316794842 28.794561329526914 0 0 0 0 75.890053205759614 74.067612473481859 0 74.067612473481859 32.931525494121161 0 0 0 0 69.825080344249727 54.536312233283752 0 54.536312233283752 -22.48068642479484 0 0 0 0 -2.8542024711534282 2.5933521895978231 0 2.5933521895978231 1.949734398522537 0 0 0 0 118.05031108748881 42.860048353674756 0 42.860048353674756 -31.069564315650496 0 0 0 0 88.291683357943839 98.247748218565903 0 98.247748218565903 -7.9657886999193579 0 0 0 0 120.58227037928009 81.656587326295266 0 81.656587326295266 -9.1720494211404002 0 0 0 0 109.85273050320393 185.79106959885394 0 185.79106959885394 102.54224574314139 0 0 0 0 0.15942009638995763 102.9131584478848 0 102.9131584478848 40.416143236070639 0 0 0 0 -63.276143781200517 10.469419342054607 0 10.469419342054607 100.80930390343929 0 0 0 0 -26.571453082433436 77.635167119286052 0 77.635167119286052 -60.297391447835253 0 0 0 0 -23.841465177043574 31.008704196570761 0 31.008704196570761 -75.924883720668731 0 0 0 0 -85.415036705846433 157.64096185669769 0 157.64096185669769 -44.9052167765185 0 0 0 0 -43.494431213184725 -22.297163973358693 0 -22.297163973358693 31.299439968992374 0 0 0 0 -0.10638386659451271 -0.047449377436599605 0 -0.047449377436599605 -0.42896340747469708 0 0 0 0 19.320160751580261 48.377485619981599 0 48.377485619981599 -48.238193419889285 0 0 0 0 -73.546331432029547 13.254945624656102 0 13.254945624656102 9.3612551952537615 0 0 0 0 2.1111795316396211 14.308132493154233 0 14.308132493154233 -7.8416406454460628 0 0 0 0 -16.540504743534257 25.042807266574528 0 25.042807266574528 -15.672204203958245 0 0 0 0 -11.063076361592437 9.8231320201425376 0 9.8231320201425376 13.971982337830127 0 0 0 0 -12.135652169505192 16.478938212240791 0 16.478938212240791 -6.2527729348730645 0 0 0 0 -4.4617923242913093 24.376296754904615 0 24.376296754904615 -0.23696058771383832 0 0 0 0 -4.4726563015766487 14.501681296561884 0 14.501681296561884 -19.855230740790091 0 0 0 0 -0.016397120563141243 14.587605395699711 0 14.587605395699711 -3.6541786265967744 0 0 0 0 -28.383693931551534 17.159781498292432 0 17.159781498292432 3.3627243183600513 0 0 0 0 31.288260632689344 -291.88769134322865 0 -291.88769134322865 -574.21288209514751 0 0 0 0 -11.976381443566197 12.267308140589478 0 12.267308140589478 -6.8962264327018232 0 0 0 0 -170.22631594429549 -44.787755024326543 0 -44.787755024326543 -236.99124010206287 0 0 0 0 12.418879121221835 -11.368729408481158 0 -11.368729408481158 -211.31860213643085 0 0 0 0 -9.4722939664497972 78.443865693025145 0 78.443865693025145 -212.60671743553382 0 0 0 0 1.88547289694543 49.16450584505219 0 49.16450584505219 -140.4048289422135 0 0 0 0 55.70573735650396 108.42273603620924 0 108.42273603620924 -96.809523320293465 0 0 0 0 5.3052014204513398 62.593055157270101 0 62.593055157270101 74.970900520231226 0 0 0 0 -20.068407370396017 -1.3750622486759312 0 -1.3750622486759312 -79.487894395082549 0 0 0 0 47.132110003760317 121.6950830634014 0 121.6950830634014 -1.2825350110906584 0 0 0 0 -0.42727025302313137 8.8456144155483969 0 8.8456144155483969 17.470850340855165 0 0 0 0 -88.028608837645152 86.699750268931894 0 86.699750268931894 -10.252577262104751 0 0 0 0 -10.781758184122737 73.264028042398422 0 73.264028042398422 -22.989534255721082 0 0 0 0 -10.790038868296904 22.506285440911221 0 22.506285440911221 7.8459724488213638 0 0 0 0 -2.7907382904668339 26.469163074672906 0 26.469163074672906 -51.190949982592429 0 0 0 0 -17.947050670571912 21.848566540223629 0 21.848566540223629 -9.9971375406806686 0 0 0 0 -29.4389990651689 45.328234605927719 0 45.328234605927719 4.178058630979649 0 0 0 0 -8.6075986455629163 16.301165012233408 0 16.301165012233408 4.4972390120883858 0 0 0 0 -8.9562106705798215 29.882042997530789 0 29.882042997530789 -5.8573492774739861 0 0 0 0 -28.839124679594534 62.894861351051077 0 62.894861351051077 -4.1299692083302944 0 0 0 0 -101.83433263175175 58.202961715820493 0 58.202961715820493 72.393202452803962 0 0 0 0 -18.934468789743676 27.881122894612787 0 27.881122894612787 -10.969746218227954 0 0 0 0 -8.397099487556261 27.190021701153455 0 27.190021701153455 -3.3435877225238073 0 0 0 0 -27.885148924113309 44.777902728803383 0 44.777902728803383 -15.177895427703334 0 0 0 0 -2.1845005856083262 23.039042541632114 0 23.039042541632114 -8.7181832884260473 0 0 0 0 1.1870571014005691 18.199468910201176 0 18.199468910201176 -19.419214078695859 0 0 0 0 1.1706642352660097 19.733994712859953 0 19.733994712859953 -16.722768577964132 0 0 0 0 -15.494761797453975 45.766077068561572 0 45.766077068561572 -15.204371791036465 0 0 0 0 0.302552869576175 41.344102877596015 0 41.344102877596015 -46.977721790201031 0 0 0 0 -10.413789330428699 41.962595882683672 0 41.962595882683672 -51.465678115404444 0 0 0 0 -19.830335935752373 47.981743995806028 0 47.981743995806028 -53.107281918564695 0 0 0 0 -20.177269168110797 59.524972948202048 0 59.524972948202048 -52.995606086784392 0 0 0 0 71.578280179674039 221.86319320869734 0 221.86319320869734 155.0256071350741 0 0 0 0 155.22208930162014 235.1266950386198 0 235.1266950386198 151.34613194701569 0 0 0 0 250.55060040124226 396.61744279947015 0 396.61744279947015 54.877592347795144 0 0 0 0 237.77513651948539 318.61712820541288 0 318.61712820541288 226.25529176477721 0 0 0 0 270.27455516450573 309.06543244275235 0 309.06543244275235 147.27510619706254 0 0 0 0 264.26123803175869 304.63759784396098 0 304.63759784396098 229.29555592633551 0 0 0 0 216.61200375086628 273.25047806743532 0 273.25047806743532 313.89022409345489 0 0 0 0 -3.7564016363386372 4.9755365011500032 0 4.9755365011500032 -5.1009616210134539 0 0 0 0 0.5818350920675357 0.35197119704642432 0 0.35197119704642432 -1.999352257299563 0 0 0 0 149.38230590912281 59.620166280925332 0 59.620166280925332 10.860718325428024 0 0 0 0 -11.071745951888943 14.823915744397652 0 14.823915744397652 -12.607595533956385 0 0 0 0 0.94560095731685578 19.249267176739522 0 19.249267176739522 -16.425331744991126 0 0 0 0 276.6035456112877 120.77776874447591 0 120.77776874447591 -7.2657841062828084 0 0 0 0 66.704710532096215 110.18950415403378 0 110.18950415403378 7.8292079489183379 0 0 0 0 451.57529738388257 49.881306559342192 0 49.881306559342192 -67.72645030530839 0 0 0 0 226.11961581706419 175.28942416632344 0 175.28942416632344 -5.7267110007032898 0 0 0 0 544.24843833496561 276.71807381163671 0 276.71807381163671 5.4678594473598423 0 0 0 0 187.37105566394166 202.55632975893968 0 202.55632975893968 58.191753253340721 0 0 0 0 330.28510084011941 262.2746293603559 0 262.2746293603559 50.930441463744501 0 0 0 0 310.43210617673321 323.92528849517839 0 323.92528849517839 88.712623445142526 0 0 0 0 300.14714485873992 303.51579596504962 0 303.51579596504962 78.569394545833347 0 0 0 0 324.04890035188873 330.08171911099635 0 330.08171911099635 69.902363186611183 0 0 0 0 400.55654322800547 375.06742041090365 0 375.06742041090365 86.125287114322418 0 0 0 0 280.27055407856824 384.48832412501361 0 384.48832412501361 202.04937246634825 0 0 0 0 388.57562797164064 325.71533558468036 0 325.71533558468036 54.099314978477196 0 0 0 0 617.7834157833131 515.96798357424632 0 515.96798357424632 158.13959677380626 0 0 0 0 340.37771511625033 359.27930481069052 0 359.27930481069052 460.58940751702903 0 0 0 0 220.75089888004004 324.96006510361985 0 324.96006510361985 200.70579933057888 0 0 0 0 324.49009080696123 424.46469377020458 0 424.46469377020458 285.12793654549023 0 0 0 0 134.84626272227615 239.06567440305298 0 239.06567440305298 379.40283797177835 0 0 0 0 136.36686468285916 -8.7176601843857497 0 -8.7176601843857497 -38.987821935152169 0 0 0 0 697.81744532843004 59.162680093246308 0 59.162680093246308 -79.453160788818423 0 0 0 0 1.0188776470529319 3.0766034587576385 0 3.0766034587576385 2.2887506793132033 0 0 0 0 946.59070327664085 312.83043147938952 0 312.83043147938952 -75.366245758614241 0 0 0 0 825.27354156904767 524.89271317350449 0 524.89271317350449 271.04153243622568 0 0 0 0 165.45124164648587 321.56258922245979 0 321.56258922245979 313.87273323017143 0 0 0 0 421.98276126341079 267.56002869420536 0 267.56002869420536 238.84302111134457 0 0 0 0 437.77121202193666 211.14675959850138 0 211.14675959850138 369.68077770452874 0 0 0 0 -84.524929533654358 136.4438643857502 0 136.4438643857502 288.15613932637643 0 0 0 0 295.13036416721297 312.85694815301122 0 312.85694815301122 162.6688279784139 0 0 0 0 1.8302660839690361 47.705079459974513 0 47.705079459974513 0.44515299193517421 0 0 0 0 137.24594099979049 -242.72296865949767 0 -242.72296865949767 106.01387755113683 0 0 0 0 -2.4738597192297789 1.1203734021478056 0 1.1203734021478056 -0.58165791170290504 0 0 0 0 22.423317617503926 36.035818952550471 0 36.035818952550471 2.7388118097633196 0 0 0 0 316.23341943485138 -68.922333059352241 0 -68.922333059352241 -96.560721035156348 0 0 0 0 171.98981974962589 368.86344418380099 0 368.86344418380099 62.855208287757705 0 0 0 0 1519.3689558624756 635.48387187859043 0 635.48387187859043 83.524337087896129 0 0 0 0 0.93529534112980173 2.1598600001280488 0 2.1598600001280488 6.9724491839485552 0 0 0 0 579.44606992865738 -85.737693341001432 0 -85.737693341001432 559.00496406245657 0 0 0 0 276.28158033156069 302.87583815783 0 302.87583815783 372.17574297648935 0 0 0 0 763.87704934713838 837.96901073795561 0 837.96901073795561 814.38293716323824 0 0 0 0 13.31629494795925 532.58429538071869 0 532.58429538071869 758.42194898360685 0 0 0 0 -264.94627047825816 -39.859234188194023 0 -39.859234188194023 445.41155350903136 0 0 0 0 26.234701743349433 316.9104889321643 0 316.9104889321643 199.09622829766158 0 0 0 0 -60.827242686005775 288.99824286524199 0 288.99824286524199 285.94934130852198 0 0 0 0 -81.004285587339837 401.46420644265982 0 401.46420644265982 363.45342113015795 0 0 0 0 185.11630756052909 386.33173801968587 0 386.33173801968587 200.94920357663068 0 0 0 0 739.91932337301114 616.79970762673247 0 616.79970762673247 198.87325515338307 0 0 0 0 171.67484744277317 349.86974777527939 0 349.86974777527939 112.01518819595913 0 0 0 0 176.02040253453015 222.05293804626308 0 222.05293804626308 50.21633536731315 0 0 0 0 139.98747744930733 146.37012544205209 0 146.37012544205209 -26.230754277450615 0 0 0 0 -16.851485564184259 284.06542330518096 0 284.06542330518096 189.46859212928757 0 0 0 0 -16.329842571984045 277.55340525830979 0 277.55340525830979 159.90278654070971 0 0 0 0 -122.31405998072296 214.28418909452739 0 214.28418909452739 170.57522186778078 0 0 0 0 30.319158070997219 142.2006749700322 0 142.2006749700322 -29.204146207783197 0 0 0 0 98.89066784127499 143.76297261897344 0 143.76297261897344 -30.204794107659836 0 0 0 0 39.363050983898574 164.86683904735037 0 164.86683904735037 27.563016630949278 0 0 0 0 182.36009509616997 111.6316197429187 0 111.6316197429187 -4.4992604618364567 0 0 0 0 84.129184911260381 104.52247420954518 0 104.52247420954518 0.021399879417003831 0 0 0 0 97.463900324157294 89.656971466669802 0 89.656971466669802 16.534157365633291 0 0 0 0 94.196695915685268 74.831812285752676 0 74.831812285752676 53.392102603174862 0 0 0 0 85.823419185078819 50.596932994925737 0 50.596932994925737 19.695259931359033 0 0 0 0 95.535261129436549 95.828140443016309 0 95.828140443016309 -7.8883798371825833 0 0 0 0 89.302035682620044 69.094589562893816 0 69.094589562893816 66.514285064637079 0 0 0 0 -35.398637770340429 91.850048767655608 0 91.850048767655608 31.441749490411894 0 0 0 0 53.655231796466978 59.265741592000268 0 59.265741592000268 -5.6011650261971226 0 0 0 0 148.50987491718843 39.992719415015017 0 39.992719415015017 -11.915720915276324 0 0 0 0 49.55083878185178 52.741021842206464 0 52.741021842206464 17.956169992852665 0 0 0 0 432.42735326824186 262.45112261735267 0 262.45112261735267 13.219529127338319 0 0 0 0 -5.0169547800133509 66.021138777745477 0 66.021138777745477 62.796605849028211 0 0 0 0 217.38381697483419 150.89422857005957 0 150.89422857005957 27.23222040319888 0 0 0 0 45.795869032561313 108.28048792601476 0 108.28048792601476 62.758920345637307 0 0 0 0 41.509301508776844 112.5416537905694 0 112.5416537905694 85.647749216397642 0 0 0 0 -38.599009644597288 9.746837844257854 0 9.746837844257854 27.106315364019736 0 0 0 0 -58.797861193441349 23.281641263435631 0 23.281641263435631 26.509652224980528 0 0 0 0 -2.4735530881627028 -0.21796123932048772 0 -0.21796123932048772 -0.90541307688366146 0 0 0 0 219.69789590394066 171.63918776284117 0 171.63918776284117 44.239037449635362 0 0 0 0 177.45952387609577 164.18229309176604 0 164.18229309176604 56.243984218177502 0 0 0 0 71.375426748301834 154.27355359927969 0 154.27355359927969 145.91510822758573 0 0 0 0 179.18267993137124 159.03255859405181 0 159.03255859405181 68.568577027045649 0 0 0 0 -1.0654278854341586 72.85063776550497 0 72.85063776550497 -5.1484418782515604 0 0 0 0 110.96426042806706 132.716649035714 0 132.716649035714 5.665003333495406 0 0 0 0 10.364624974460753 34.441057053911351 0 34.441057053911351 -14.83132659918607 0 0 0 0 -68.719936502988276 54.992467719512206 0 54.992467719512206 56.311324996881012 0 0 0 0 -53.243443789826415 119.18915849814766 0 119.18915849814766 -24.685904227790161 0 0 0 0 -28.416883069846037 86.737116480606332 0 86.737116480606332 2.0443970769906947 0 0 0 0 -64.058172900235888 30.963681868647665 0 30.963681868647665 73.726592587207563 0 0 0 0 -73.780686734985224 46.788756155656614 0 46.788756155656614 26.770767184333039 0 0 0 0 -21.738552295307244 0.16541244783510933 0 0.16541244783510933 22.676421323710258 0 0 0 0 24.917071649571881 207.91836285822501 0 207.91836285822501 186.43935795598372 0 0 0 0 -102.4195014826837 109.226206285035 0 109.226206285035 134.47984006206389 0 0 0 0 -89.34406640472298 82.378227286193578 0 82.378227286193578 59.153543618420372 0 0 0 0 -44.093273308636157 71.283880202319665 0 71.283880202319665 40.449095423068144 0 0 0 0 -81.615126067608259 41.941150031729052 0 41.941150031729052 3.5573298568793419 0 0 0 0 -77.887297376066272 47.578460574586643 0 47.578460574586643 55.557456210740384 0 0 0 0 -102.13207354350743 55.590431718112086 0 55.590431718112086 91.088440977073333 0 0 0 0 -95.086538228417339 130.6999830367804 0 130.6999830367804 89.982698315798189 0 0 0 0 -37.733520136156585 112.74926527225034 0 112.74926527225034 7.4576855381528731 0 0 0 0 -84.28691832232289 130.96367046473461 0 130.96367046473461 55.167005870433059 0 0 0 0 -211.53803966534906 199.07195394874725 0 199.07195394874725 19.407398001414549 0 0 0 0 -314.54673782504688 -31.664596757371328 0 -31.664596757371328 87.874971939898387 0 0 0 0 16.097717131025519 19.329516687348388 0 19.329516687348388 8.2191734606398086 0 0 0 0 -146.82995026645949 -30.170811743984814 0 -30.170811743984814 22.782052339149232 0 0 0 0 -154.94555593465338 -52.546498890267685 0 -52.546498890267685 38.429238872260612 0 0 0 0 -145.76949960517231 62.245759675039153 0 62.245759675039153 210.80077219150371 0 0 0 0 -71.203531952181947 39.985110733839974 0 39.985110733839974 60.511610804285738 0 0 0 0 -266.32797172304709 18.329036428011023 0 18.329036428011023 96.860943615254655 0 0 0 0 -123.59841957254685 79.815746406231483 0 79.815746406231483 95.295860651618568 0 0 0 0 -198.77046833150962 218.62928633020056 0 218.62928633020056 44.579329854255775 0 0 0 0 91.44981170828396 168.55347868634271 0 168.55347868634271 32.12353249759326 0 0 0 0 -473.25333751198195 156.33304992271587 0 156.33304992271587 121.24912474444136 0 0 0 0 -457.36994153638079 212.5160268132604 0 212.5160268132604 298.99620870230137 0 0 0 0 -3.8601413940906752 4.9430178534779259 0 4.9430178534779259 1.6900637076350051 0 0 0 0 -18.413269993063295 154.54467464290792 0 154.54467464290792 -68.342625840057735 0 0 0 0 -384.11753828512155 412.74116438352939 0 412.74116438352939 70.829209393035853 0 0 0 0 541.05754804433673 22.193584743414249 0 22.193584743414249 -153.34521980294448 0 0 0 0 14.895425418304512 209.99396131487447 0 209.99396131487447 10.86498621404462 0 0 0 0 261.80271079007071 540.53079610764689 0 540.53079610764689 -247.91408397544001 0 0 0 0 -408.44441293249838 -79.53541963576572 0 -79.53541963576572 625.82902274490334 0 0 0 0 -585.14015779948386 -83.981764842294069 0 -83.981764842294069 469.21089767076774 0 0 0 0 -180.92307534257998 173.91638760372734 0 173.91638760372734 546.62998807841723 0 0 0 0 -8.3705106174093089 3.4024945225610281 0 3.4024945225610281 -26.566643391117395 0 0 0 0 167.30236119670735 201.6170417681351 0 201.6170417681351 177.67690129611583 0 0 0 0 251.17349680307598 -252.86794565319178 0 -252.86794565319178 258.79762398457387 0 0 0 0 -78.625155622983584 -16.870621987851337 0 -16.870621987851337 119.04362909965857 0 0 0 0 -92.223370471110684 16.736721375855268 0 16.736721375855268 112.08327049743821 0 0 0 0 -63.949190775034367 2.2375064744483097 0 2.2375064744483097 80.865689742364339 0 0 0 0 -62.163182734802831 141.90644111228175 0 141.90644111228175 -36.106478344183415 0 0 0 0 -151.22046642170608 134.3555488905331 0 134.3555488905331 129.70353759817954 0 0 0 0 -206.52540314790531 63.265245624275849 0 63.265245624275849 147.11897239272366 0 0 0 0 -149.11554137608618 -31.579536869983713 0 -31.579536869983713 302.86189799011163 0 0 0 0 -102.83047149454069 35.582735818738001 0 35.582735818738001 84.790267936696182 0 0 0 0 -112.30748315258825 12.535399860120378 0 12.535399860120378 150.00252479959408 0 0 0 0 -121.3786788868747 50.087665024148009 0 50.087665024148009 42.795884829502029 0 0 0 0 44.295667658288949 42.109623837099207 0 42.109623837099207 29.432600179854489 0 0 0 0 161.00286055300967 116.84065785143684 0 116.84065785143684 50.573865907053914 0 0 0 0 12.444488015420461 7.6702532782798301 0 7.6702532782798301 1.6178458459430516 0 0 0 0 -93.214933663439297 91.922347134695883 0 91.922347134695883 103.01736564098974 0 0 0 0 -9.9923582491359486 58.352432247095507 0 58.352432247095507 50.285374092565732 0 0 0 0 35.272074937587604 44.753699421715282 0 44.753699421715282 31.967647287470754 0 0 0 0 57.379897082753814 45.644858243935232 0 45.644858243935232 104.53639174831187 0 0 0 0 21.854865220055217 22.104230868259037 0 22.104230868259037 2.0709182123900973 0 0 0 0 41.4892733299057 30.523201742016681 0 30.523201742016681 4.2263953522888187 0 0 0 0 19.590379292018042 29.772290681821232 0 29.772290681821232 39.41118886572076 0 0 0 0 35.664296739239944 42.958943913883559 0 42.958943913883559 38.748318544287713 0 0 0 0 -6.3436240082230029 6.6494693664516831 0 6.6494693664516831 -0.59089948360362143 0 0 0 0 26.521790060469357 -20.019059416243181 0 -20.019059416243181 76.286253759659303 0 0 0 0 53.759937938171788 134.15609269897686 0 134.15609269897686 176.60842036836402 0 0 0 0 104.73269952200644 140.93148920080785 0 140.93148920080785 69.809286809722835 0 0 0 0 96.698313561602845 179.08414000720586 0 179.08414000720586 119.65852925611398 0 0 0 0 49.193625093292212 173.96806157871833 0 173.96806157871833 234.85686710356822 0 0 0 0 151.70445850695251 303.62061937546969 0 303.62061937546969 244.13240529607447 0 0 0 0 25.762177676078863 36.42287637660047 0 36.42287637660047 29.951917445694562 0 0 0 0 -24.339060739219775 28.421426043816922 0 28.421426043816922 22.131954675707632 0 0 0 0 44.782050489156973 50.987750103035069 0 50.987750103035069 32.023646022075866 0 0 0 0 -9.0130592834246954 11.351087402558335 0 11.351087402558335 5.3016217515664863 0 0 0 0 15.511535053862815 12.541013531059548 0 12.541013531059548 -4.1527623088087893 0 0 0 0 162.2010195023322 172.16806461659144 0 172.16806461659144 91.017187833182334 0 0 0 0 -2.2532161464187084 69.65836618967478 0 69.65836618967478 93.362306122922746 0 0 0 0 73.873834783939856 52.952817905140705 0 52.952817905140705 12.849488122737966 0 0 0 0 -2.6851117182085602 38.087332108016483 0 38.087332108016483 18.82221303354217 0 0 0 0 72.47979568237497 80.370895013285804 0 80.370895013285804 59.459141557614203 0 0 0 0 44.154923898371834 39.715825187815483 0 39.715825187815483 -1.6808082925917489 0 0 0 0 -58.790776974192838 22.854496887436255 0 22.854496887436255 17.129934055290079 0 0 0 0 -104.38547605605299 20.121628220483387 0 20.121628220483387 7.3509147217700956 0 0 0 0 -14.364357114056457 0.61247368339238051 0 0.61247368339238051 0.54792647612788414 0 0 0 0 183.98837003103108 192.72954566109183 0 192.72954566109183 110.41346598955715 0 0 0 0 160.24841917448066 218.88554308126004 0 218.88554308126004 157.48099392701988 0 0 0 0 168.03049833558907 197.13201540352384 0 197.13201540352384 113.42930146794242 0 0 0 0 129.71148222798365 154.27453526751924 0 154.27453526751924 70.430594069919607 0 0 0 0 182.12092133340775 266.69679203282067 0 266.69679203282067 156.87454662423988 0 0 0 0 224.72429934218235 305.403743376276 0 305.403743376276 186.9503874976217 0 0 0 0 112.75361650745617 273.85593098741083 0 273.85593098741083 224.28078306232055 0 0 0 0 107.8945680965262 181.4739537546775 0 181.4739537546775 133.32652083665016 0 0 0 0 230.46090022605495 307.80341994843184 0 307.80341994843184 161.41805851643949 0 0 0 0 204.49143807272776 242.09478763170046 0 242.09478763170046 96.6162880274278 0 0 0 0 270.63451891037403 314.69495008093509 0 314.69495008093509 105.98953806690406 0 0 0 0 322.90425031431369 328.38294743276856 0 328.38294743276856 85.848050611879444 0 0 0 0 302.8694418555533 330.88465440549044 0 330.88465440549044 111.28737934980018 0 0 0 0 331.04449236555956 328.59086139241117 0 328.59086139241117 85.286776127632038 0 0 0 0 317.55031819042051 314.66317725334738 0 314.66317725334738 109.22216563530674 0 0 0 0 335.64559552088031 312.78725471415237 0 312.78725471415237 82.57759429057478 0 0 0 0 272.73173935472005 274.54993395542988 0 274.54993395542988 67.284313650467084 0 0 0 0 249.12947507263743 268.6533828475367 0 268.6533828475367 104.65003775987861 0 0 0 0 189.2387597032648 196.13218628100549 0 196.13218628100549 63.794619487438467 0 0 0 0 126.65419229867985 235.66667133440933 0 235.66667133440933 55.769537602645869 0 0 0 0 89.080939780484186 163.97607843281003 0 163.97607843281003 82.434939997940091 0 0 0 0 278.20187599303608 238.9415764049736 0 238.9415764049736 45.873187094111927 0 0 0 0 269.60554287792183 238.22990580217447 0 238.22990580217447 58.240766578675903 0 0 0 0 387.79669124176144 319.43087029104572 0 319.43087029104572 79.097594406921417 0 0 0 0 270.36354904597101 158.43306594052228 0 158.43306594052228 23.547413970329217 0 0 0 0 515.62637007111334 253.86725062267396 0 253.86725062267396 46.071952601043449 0 0 0 0 356.15542413615913 352.36137474878706 0 352.36137474878706 183.14099791116314 0 0 0 0 380.73482848094136 365.25514947913689 0 365.25514947913689 150.3039601683995 0 0 0 0 330.02749211285845 406.02426146954531 0 406.02426146954531 271.30045713386789 0 0 0 0 255.43201977424906 284.50561705810105 0 284.50561705810105 401.90192485396983 0 0 0 0 306.88803457023459 314.33488302931983 0 314.33488302931983 205.41964572985307 0 0 0 0 313.6719464030466 313.98446340345254 0 313.98446340345254 132.38180792750791 0 0 0 0 310.39712540975597 328.34947659888348 0 328.34947659888348 136.55184056471626 0 0 0 0 357.53009578102501 349.50978785794723 0 349.50978785794723 123.09163304791218 0 0 0 0 327.80391746287933 308.49616028102901 0 308.49616028102901 139.11413809034275 0 0 0 0 131.04382429063844 152.56062423211552 0 152.56062423211552 102.01826965855435 0 0 0 0 134.20510474452749 142.91429119950044 0 142.91429119950044 127.66455105389468 0 0 0 0 4.798827380621816 72.834906073435263 0 72.834906073435263 62.211631018812852 0 0 0 0 51.478411196731031 167.13502153987065 0 167.13502153987065 168.24280008324422 0 0 0 0 16.204063821598993 -0.048960159121570257 0 -0.048960159121570257 -15.533757418863786 0 0 0 0 -27.286910799128236 164.71873813696584 0 164.71873813696584 75.803114725153137 0 0 0 0 -3.642397307070496 32.424600443661312 0 32.424600443661312 36.379589940636166 0 0 0 0 -46.861160424828995 90.847812707568664 0 90.847812707568664 99.825041108766527 0 0 0 0 126.48781743872678 -19.786528204578644 0 -19.786528204578644 10.991096114774336 0 0 0 0 -10.87848650617525 90.579463302310614 0 90.579463302310614 70.116219290086519 0 0 0 0 108.34676654287614 139.38331043353901 0 139.38331043353901 60.50884141743154 0 0 0 0 -78.951924292770755 42.705798375835286 0 42.705798375835286 49.224573065817424 0 0 0 0 -163.87317128968425 126.95488020456105 0 126.95488020456105 108.85423955678561 0 0 0 0 3.5072196786059067 73.009445774994674 0 73.009445774994674 55.202514752461866 0 0 0 0 47.090917040448403 59.947065026710334 0 59.947065026710334 14.797194681712426 0 0 0 0 -13.024928132701859 31.266916488193061 0 31.266916488193061 17.855703310320592 0 0 0 0 -40.499659558139683 60.289708934775263 0 60.289708934775263 78.124912515020696 0 0 0 0 -39.823584595349672 54.756616809864511 0 54.756616809864511 57.344893764323402 0 0 0 0 14.698039158878515 39.289249839113182 0 39.289249839113182 7.2403655018816266 0 0 0 0 11.852516038590807 34.161588188149707 0 34.161588188149707 20.803940006446851 0 0 0 0 19.05118239611329 64.042714824281575 0 64.042714824281575 24.429997073621053 0 0 0 0 -353.28227919263009 25.194541832592222 0 25.194541832592222 -64.203764939535176 0 0 0 0 -11.693647963749612 36.81413346950287 0 36.81413346950287 13.818875324992177 0 0 0 0 -133.91546416583878 132.38332436719429 0 132.38332436719429 -36.020970821940864 0 0 0 0 -235.04350278082711 104.03535716601618 0 104.03535716601618 5.0040517408924643 0 0 0 0 -6.3609685696428642 209.48928675028219 0 209.48928675028219 77.985918349477288 0 0 0 0 -168.57445340947015 41.258811049279757 0 41.258811049279757 5.6835084873891901 0 0 0 0 -54.781987695765082 95.821496434091983 0 95.821496434091983 39.004414721637829 0 0 0 0 759.40315974850091 198.97551862036926 0 198.97551862036926 -204.59190752237919 0 0 0 0 -224.43648418685189 -18.389394172176253 0 -18.389394172176253 1.2175706098860246 0 0 0 0 21.614946888016675 14.600019471902741 0 14.600019471902741 -0.61383165620310365 0 0 0 0 74.063194947026204 94.873745404402143 0 94.873745404402143 45.992206417460693 0 0 0 0 -55.250021515685816 34.265259572590566 0 34.265259572590566 16.928238893613994 0 0 0 0 -17.782315432577064 40.487592403041106 0 40.487592403041106 11.387949860655482 0 0 0 0 178.33537126606097 9.7688177831150824 0 9.7688177831150824 -144.62190339535664 0 0 0 0 -68.100514366524294 22.990980057915294 0 22.990980057915294 24.418147384174517 0 0 0 0 -81.65625764685683 2.5184050455573015 0 2.5184050455573015 4.2791604713129345 0 0 0 0 -69.174326251915772 15.516475306365464 0 15.516475306365464 47.135941753309453 0 0 0 0 -113.32160947992088 -4.2645874763511529 0 -4.2645874763511529 28.770227713874192 0 0 0 0 -147.51867498111824 51.21279781092926 0 51.21279781092926 33.259827864632825 0 0 0 0 -92.483031139854575 16.106632761773653 0 16.106632761773653 46.05407390144137 0 0 0 0 -93.13594237754296 114.55739911856108 0 114.55739911856108 -21.284381804747682 0 0 0 0 -101.96374435947655 125.87633653677403 0 125.87633653677403 -35.447166564736108 0 0 0 0 -121.91181225559558 77.36850471769867 0 77.36850471769867 10.509842090963502 0 0 0 0 -145.13424916824442 113.09268620964576 0 113.09268620964576 1.809207645826973 0 0 0 0 -97.333069841522956 69.54106220878748 0 69.54106220878748 4.1938225509002223 0 0 0 0 -99.291222818021197 101.99575673168874 0 101.99575673168874 0.053843740284719388 0 0 0 0 -107.63194852806919 103.51749318610382 0 103.51749318610382 5.5932851848483551 0 0 0 0 -1.9298292969760951 86.730093851643687 0 86.730093851643687 -11.558745307193021 0 0 0 0 0.83569343596786361 5.5740470496862002 0 5.5740470496862002 15.536242185747085 0 0 0 0 97.399243042840681 37.986927469381044 0 37.986927469381044 -9.542483630647439 0 0 0 0 -104.36314939873409 130.66228311164014 0 130.66228311164014 -0.28680207155412063 0 0 0 0 -49.713503282500824 183.27432840822485 0 183.27432840822485 85.247076811385341 0 0 0 0 -82.229170618298667 28.044509540814033 0 28.044509540814033 60.820690650871256 0 0 0 0 3.0132574832348187 34.494522843571303 0 34.494522843571303 56.965440437065524 0 0 0 0 -85.579303473736218 34.305116928670031 0 34.305116928670031 69.789057262794813 0 0 0 0 -111.84477536815393 17.335472776176175 0 17.335472776176175 66.475587613938842 0 0 0 0 -24.73528693413391 49.094576563118608 0 49.094576563118608 47.931490225797461 0 0 0 0 -3.0999130032548834 -1.5670588564016867 0 -1.5670588564016867 12.810549286237986 0 0 0 0 -20.976001412294863 26.650491199958196 0 26.650491199958196 39.512778832631739 0 0 0 0 -20.278369141087751 22.115729783312418 0 22.115729783312418 28.119053114176495 0 0 0 0 -12.957725539441228 11.701667722942993 0 11.701667722942993 28.572642227998671 0 0 0 0 -7.1080297240259824 12.943228460062528 0 12.943228460062528 17.419997686332181 0 0 0 0 -34.331249067842109 15.845581895638233 0 15.845581895638233 30.582725225935377 0 0 0 0 -19.157365215927712 34.860282068606466 0 34.860282068606466 25.736296652505189 0 0 0 0 6.8806078506201516 28.329949627671468 0 28.329949627671468 24.850929706143781 0 0 0 0 -1.1955889894478844 21.661337984355143 0 21.661337984355143 18.302891907448725 0 0 0 0 1.2731827782554319 34.854124760662671 0 34.854124760662671 59.111049159721006 0 0 0 0 2.1228800123319331 21.434311687968744 0 21.434311687968744 27.146379057499104 0 0 0 0 -19.582353198580677 43.221809817128815 0 43.221809817128815 12.460966425336665 0 0 0 0 6.2473313507011099 30.059783624137992 0 30.059783624137992 9.691934542515213 0 0 0 0 -9.7323562467363445 36.456517252142021 0 36.456517252142021 11.794858302222565 0 0 0 0 -14.110574472278131 32.685181186187037 0 32.685181186187037 -8.9568581781786634 0 0 0 0 -14.373752739396878 41.136282150982879 0 41.136282150982879 -27.23458378892974 0 0 0 0 60.364854446845129 89.265507804055233 0 89.265507804055233 65.370263343502302 0 0 0 0 3.3492870044624237 8.2127182663095937 0 8.2127182663095937 -1.0425382777383447 0 0 0 0 30.849713881514734 40.318823666506347 0 40.318823666506347 -16.401751191773997 0 0 0 0 -13.955661662155762 41.167322105495259 0 41.167322105495259 2.2425247750943527 0 0 0 0 -1.866589019070318 16.656830994207724 0 16.656830994207724 17.178184790408068 0 0 0 0 1.3459177455034617 7.7129793750748661 0 7.7129793750748661 -0.93467688834783758 0 0 0 0 -12.192625391195179 13.199798806419494 0 13.199798806419494 42.762999069193029 0 0 0 0 -25.056893968953773 47.815698574334419 0 47.815698574334419 15.858369160152506 0 0 0 0 21.292907385813578 38.744475144388161 0 38.744475144388161 33.531289013510104 0 0 0 0 22.508071840013145 48.242993015941465 0 48.242993015941465 74.596582908998244 0 0 0 0 17.889340225290653 57.596498994710601 0 57.596498994710601 58.121627232627361 0 0 0 0 -2.1452794241543813 8.5264106728658078 0 8.5264106728658078 12.631618954943889 0 0 0 0 7.5533949389355257 4.5563288481207564 0 4.5563288481207564 73.884415009291843 0 0 0 0 -31.002807118027704 17.162316947848012 0 17.162316947848012 32.522796700005529 0 0 0 0 -34.151170394176006 38.094395201325824 0 38.094395201325824 29.278531290707178 0 0 0 0 -15.726286945446191 23.37913009139811 0 23.37913009139811 20.222846540083992 0 0 0 0 -3.672090782318385 8.4991920688366989 0 8.4991920688366989 9.70325913983487 0 0 0 0 -36.790574568371085 24.942638347212778 0 24.942638347212778 22.092288646264933 0 0 0 0 -42.634084229553991 20.104755779651896 0 20.104755779651896 12.402919080959691 0 0 0 0 -25.34757483523039 12.605935476333741 0 12.605935476333741 0.6542914772065842 0 0 0 0 -24.923671565194127 16.057585082683545 0 16.057585082683545 8.3126737883430906 0 0 0 0 -12.022030291342858 11.752381009067847 0 11.752381009067847 18.283318269649016 0 0 0 0 -16.173522457684157 9.630653655869537 0 9.630653655869537 27.392057967212168 0 0 0 0 -26.658591660845559 19.546259392460342 0 19.546259392460342 22.347684435859264 0 0 0 0 -7.2275342295931893 -3.1610544108022509 0 -3.1610544108022509 22.79971881330944 0 0 0 0 -2.029631371377036 2.3127812552265823 0 2.3127812552265823 70.628289854241302 0 0 0 0 -20.328617059398312 8.9905400475072383 0 8.9905400475072383 65.628683042697958 0 0 0 0 -34.862243979274353 24.671499928692356 0 24.671499928692356 69.181886140027927 0 0 0 0 -13.774994297296729 10.03414667411063 0 10.03414667411063 32.053732841043406 0 0 0 0 -9.2506146235682536 -7.978921964764595 0 -7.978921964764595 48.357944126604707 0 0 0 0 -16.481950210788 -8.2725900316717684 0 -8.2725900316717684 36.86649970062885 0 0 0 0 -16.30517650762755 14.372906066291876 0 14.372906066291876 30.325722333146047 0 0 0 0 -1.1659723142995659 0.53948417790792291 0 0.53948417790792291 15.977245453433284 0 0 0 0 23.082015815529303 -23.984374627958459 0 -23.984374627958459 98.163128764834255 0 0 0 0 -18.229349065048837 21.741727340841727 0 21.741727340841727 43.386870590281291 0 0 0 0 0.75698011018539546 -57.559079358321469 0 -57.559079358321469 85.21439429721795 0 0 0 0 -99.03939999738941 23.10970307450043 0 23.10970307450043 190.00781453020227 0 0 0 0 -7.885163585590135 3.8712278238802753 0 3.8712278238802753 7.1727310669312203 0 0 0 0 -101.89499145111768 -50.524173550511478 0 -50.524173550511478 187.87232332787244 0 0 0 0 -75.726982713553298 1.7532201332069235 0 1.7532201332069235 101.54222049380041 0 0 0 0 -75.734485374836368 4.0032615612726659 0 4.0032615612726659 110.28328878973844 0 0 0 0 -48.170403261261526 21.479514181948616 0 21.479514181948616 31.556102524045855 0 0 0 0 -63.110531459198683 93.752920888975495 0 93.752920888975495 154.11791564576561 0 0 0 0 -95.951743688208808 16.475768824617262 0 16.475768824617262 204.11945184867363 0 0 0 0 -15.759645986567648 -6.8690570102126003 0 -6.8690570102126003 75.898240367838298 0 0 0 0 3.1111947973549832 124.36337227196782 0 124.36337227196782 3.6129416347830556 0 0 0 0 -10.386100203977549 82.060137009160826 0 82.060137009160826 -8.8138372101529967 0 0 0 0 -12.355534499689213 19.468517166633923 0 19.468517166633923 50.626404756092398 0 0 0 0 -150.32449847178941 -70.192047674740024 0 -70.192047674740024 42.259760154805917 0 0 0 0 -32.306000922229941 11.500499316118294 0 11.500499316118294 63.107571704713337 0 0 0 0 -56.915036210360995 19.695570195366599 0 19.695570195366599 70.669671612886305 0 0 0 0 -53.15649880077035 22.896607561640849 0 22.896607561640849 65.508963000962467 0 0 0 0 -51.098954753906582 15.277883833550732 0 15.277883833550732 67.559441839810461 0 0 0 0 -20.652544108626444 23.069812131752315 0 23.069812131752315 60.954009569599293 0 0 0 0 -47.847183517682424 25.720056879770709 0 25.720056879770709 70.187880390391001 0 0 0 0 -46.675591481747688 24.831964673105176 0 24.831964673105176 58.782813673497003 0 0 0 0 -58.929219674469095 38.870900093828823 0 38.870900093828823 58.590704307382111 0 0 0 0 -298.84321363464551 -42.01935203098401 0 -42.01935203098401 272.58412708145624 0 0 0 0 381.63006793840759 -102.20236020648736 0 -102.20236020648736 -167.78454320379751 0 0 0 0 -0.2350428428611977 -2.6996242163119746 0 -2.6996242163119746 5.663144780841975 0 0 0 0 -178.08497596607776 -166.06350400167503 0 -166.06350400167503 167.12672052807466 0 0 0 0 -272.05868069083772 431.26642378578117 0 431.26642378578117 498.48088667250704 0 0 0 0 -341.64672545741632 -406.77886465256779 0 -406.77886465256779 -178.83086203035782 0 0 0 0 -7.7507739212641837 34.403087527098279 0 34.403087527098279 67.886718140974352 0 0 0 0 -93.381953036132472 35.126381478363328 0 35.126381478363328 79.252614257187815 0 0 0 0 -87.531408911680046 37.688587334610929 0 37.688587334610929 69.595623529188742 0 0 0 0 -91.024452749254124 34.091962896687619 0 34.091962896687619 79.36552753765136 0 0 0 0 -88.28306477252346 18.975055038572222 0 18.975055038572222 39.741945690076086 0 0 0 0 -61.651965419319708 35.801008997840739 0 35.801008997840739 42.084652925401457 0 0 0 0 -49.775825940007962 27.306382437649063 0 27.306382437649063 57.864140096935444 0 0 0 0 -98.529799580269227 13.109428463989502 0 13.109428463989502 39.290105400272921 0 0 0 0 -138.77583473719733 66.041992311023932 0 66.041992311023932 59.325927486668661 0 0 0 0 -10.784856393335787 26.487842059554168 0 26.487842059554168 11.009485160800864 0 0 0 0 747.4865752980113 365.50716166739585 0 365.50716166739585 199.58595823752694 0 0 0 0 -58.057494904512424 4.51322774912488 0 4.51322774912488 21.940507438752178 0 0 0 0 -52.714492017912562 32.869722270814236 0 32.869722270814236 30.223169977187354 0 0 0 0 -49.903544943304496 27.568643943663119 0 27.568643943663119 34.923258033260936 0 0 0 0 -47.45220395056954 34.905819255840868 0 34.905819255840868 22.384189368594562 0 0 0 0 -97.360765417279254 68.959768189792158 0 68.959768189792158 38.30535740909545 0 0 0 0 -24.607076501318211 21.437476572941552 0 21.437476572941552 55.757608703544022 0 0 0 0 -100.05595102062216 56.670974783733982 0 56.670974783733982 46.804180178576644 0 0 0 0 -93.075183576564996 47.75164702607708 0 47.75164702607708 33.814556133525912 0 0 0 0 -23.396923751459934 35.901218733825708 0 35.901218733825708 52.137360599003188 0 0 0 0 -246.10934694825619 4.5647212401236175 0 4.5647212401236175 63.28129957614874 0 0 0 0 -130.93816805369346 -46.434045253254681 0 -46.434045253254681 36.375024782551918 0 0 0 0 -175.76427513049885 -14.641003466451366 0 -14.641003466451366 4.5839794747589622 0 0 0 0 -4.5728411162338123 -7.3975630764221805 0 -7.3975630764221805 18.182383179788388 0 0 0 0 -140.94244133018469 -59.305269806649449 0 -59.305269806649449 32.450692214944866 0 0 0 0 -64.473574708121248 2.2198196521975717 0 2.2198196521975717 12.153445930298005 0 0 0 0 -185.50569479120531 -14.796620152861578 0 -14.796620152861578 45.244654869240549 0 0 0 0 -42.665521796477151 3.3943367276224308 0 3.3943367276224308 21.763387455401244 0 0 0 0 -130.70886021135084 -35.741103530152031 0 -35.741103530152031 64.145062580151716 0 0 0 0 -83.11118253973018 -4.7577092600477044 0 -4.7577092600477044 52.677552445187757 0 0 0 0 -130.46251733713871 -26.419424033520045 0 -26.419424033520045 44.453608605574118 0 0 0 0 76.753051175121698 160.67492659681193 0 160.67492659681193 387.09873317976599 0 0 0 0 -70.540866269087928 1.9484135742677609 0 1.9484135742677609 53.172529486604617 0 0 0 0 -37.45630127455297 4.7075701895155362 0 4.7075701895155362 58.361910916602938 0 0 0 0 -103.04326661821551 49.424135785207909 0 49.424135785207909 -33.667567179640173 0 0 0 0 -91.060691378675983 -27.087181497132406 0 -27.087181497132406 -2.5761204664013349 0 0 0 0 -40.128809179636193 0.82171638387787027 0 0.82171638387787027 13.940917253008479 0 0 0 0 -43.778231931187655 13.356527828771092 0 13.356527828771092 8.7850773755988882 0 0 0 0 -43.366547741504533 20.409153645412573 0 20.409153645412573 29.789874198814772 0 0 0 0 -49.093414072362762 7.5605369318565891 0 7.5605369318565891 11.384364776147898 0 0 0 0 -49.693009245704161 13.085459712689044 0 13.085459712689044 47.305849962162029 0 0 0 0 -88.480997875929461 13.115430024680791 0 13.115430024680791 74.686011924204649 0 0 0 0 -61.014033949953678 -5.5593674184535189 0 -5.5593674184535189 9.7382203087532559 0 0 0 0 269.35052047847967 346.33124721911736 0 346.33124721911736 386.57051407243125 0 0 0 0 241.9001255161379 399.3320562165427 0 399.3320562165427 468.24189478496555 0 0 0 0 365.11937876238608 180.44427222208469 0 180.44427222208469 235.6454823181557 0 0 0 0 235.94089809506568 283.41451628998038 0 283.41451628998038 482.62248430115869 0 0 0 0 196.82533891330763 337.50763193949388 0 337.50763193949388 398.13503125816351 0 0 0 0 253.12149968020685 332.07979862642969 0 332.07979862642969 282.46612130649737 0 0 0 0 87.295716327284936 444.97020465131209 0 444.97020465131209 448.39535025727491 0 0 0 0 141.46878102475057 386.65692235779716 0 386.65692235779716 461.25736627117658 0 0 0 0 -136.50650489903069 396.29254053688783 0 396.29254053688783 580.30086285439393 0 0 0 0 -11.118859869432072 365.64871834647965 0 365.64871834647965 587.78982145767077 0 0 0 0 156.54632836251221 271.162502311141 0 271.162502311141 363.69206193491118 0 0 0 0 93.101140846386215 316.63751556465286 0 316.63751556465286 465.55590624013712 0 0 0 0 15.398577300850661 326.11985532666222 0 326.11985532666222 464.86358458988252 0 0 0 0 -6.2906607240939563 0.1097941674472338 0 0.1097941674472338 1.4496757905756681 0 0 0 0 81.215310142022531 218.68038442581019 0 218.68038442581019 378.09680714682327 0 0 0 0 92.021896968226088 216.98631214335364 0 216.98631214335364 373.49740187913994 0 0 0 0 17.686912270234643 270.85792284613126 0 270.85792284613126 459.46565934964747 0 0 0 0 70.248950208256019 230.12195087479813 0 230.12195087479813 457.8505713717459 0 0 0 0 172.16874523513377 376.78930133492486 0 376.78930133492486 553.81759675385547 0 0 0 0 0.80617640464632778 -1.8708862352538844 0 -1.8708862352538844 5.7559516587159578 0 0 0 0 63.98707921478217 -42.879150492633926 0 -42.879150492633926 -35.791329372063046 0 0 0 0 -166.71194414448109 -51.098973289845162 0 -51.098973289845162 -40.175427936170308 0 0 0 0 -31.584073672521072 -39.103315422009473 0 -39.103315422009473 -8.8004049863666296 0 0 0 0 -196.8509136915909 -91.006424317776691 0 -91.006424317776691 9.0489380720246118 0 0 0 0 -249.44193089382316 -64.741115458324202 0 -64.741115458324202 40.913603249486187 0 0 0 0 -98.209284516786283 -100.61891220886901 0 -100.61891220886901 2.9704996102154837 0 0 0 0 -169.00604840037067 -24.237664175518148 0 -24.237664175518148 16.458773388178088 0 0 0 0 -420.07716630982941 -30.735378473771561 0 -30.735378473771561 68.427840968390228 0 0 0 0 -270.65488585895218 32.622202251121053 0 32.622202251121053 22.919648435752606 0 0 0 0 5.9501861389924864 39.465792945127177 0 39.465792945127177 23.873994912549449 0 0 0 0 -23.979044498409213 5.4332658431103056 0 5.4332658431103056 58.537410243203709 0 0 0 0 -179.81287913741107 62.603457344786875 0 62.603457344786875 31.279648309706317 0 0 0 0 -122.8120159328073 78.297941733924745 0 78.297941733924745 46.977680071606301 0 0 0 0 -98.830775487645951 42.499169568744037 0 42.499169568744037 49.027021322042856 0 0 0 0 -162.57622225755983 103.61979753756833 0 103.61979753756833 32.574719159212691 0 0 0 0 -162.21325461141168 97.788456776703242 0 97.788456776703242 78.301009736584092 0 0 0 0 -58.590799920731257 21.672781418675402 0 21.672781418675402 95.664496446020848 0 0 0 0 -1059.5450398949251 298.20790071391093 0 298.20790071391093 74.934779331227446 0 0 0 0 -659.85747234306473 -397.98808017739066 0 -397.98808017739066 678.55645409258432 0 0 0 0 -332.17087593575434 -67.520922010073264 0 -67.520922010073264 81.513932096451754 0 0 0 0 -164.22733495917055 -162.40158559315023 0 -162.40158559315023 -86.847518339665839 0 0 0 0 -30.718765328762551 -5.8894977175877372 0 -5.8894977175877372 10.447988326130655 0 0 0 0 -124.82886432351006 68.596843820472714 0 68.596843820472714 47.855402803825655 0 0 0 0 -4.3930509867883405 51.417900647522181 0 51.417900647522181 40.382003542722401 0 0 0 0 -533.46116547529164 -55.550555960689962 0 -55.550555960689962 147.55471701652277 0 0 0 0 412.80286228271689 528.13088966510259 0 528.13088966510259 -186.99608260986861 0 0 0 0 -659.93355103561134 123.63817863335862 0 123.63817863335862 -68.933262016318622 0 0 0 0 -13.508482755710887 0.14393755179607126 0 0.14393755179607126 21.766005600919982 0 0 0 0 -8.6455243707841625 14.410523229294487 0 14.410523229294487 98.242246366544862 0 0 0 0 223.77492042620605 372.18707788306756 0 372.18707788306756 612.98957156506367 0 0 0 0 -295.35146659323084 160.3248576061178 0 160.3248576061178 98.865485470487329 0 0 0 0 263.68898941157477 520.74926220183261 0 520.74926220183261 -100.97454457920685 0 0 0 0 -194.87938549075625 105.31503829672874 0 105.31503829672874 77.768116998878668 0 0 0 0 -181.169960813937 126.34540034462589 0 126.34540034462589 108.26456567171408 0 0 0 0 -266.33085728422157 59.234535760506333 0 59.234535760506333 264.23574094603828 0 0 0 0 -111.6925583174916 21.443704370085015 0 21.443704370085015 141.62033848953433 0 0 0 0 -140.58004497392471 163.63751266275631 0 163.63751266275631 -43.281283827804145 0 0 0 0 -52.249856419453863 -129.34181693886785 0 -129.34181693886785 27.827157795733001 0 0 0 0 620.25850836171071 675.02553139610609 0 675.02553139610609 491.26987476658542 0 0 0 0 571.65456513143272 518.41163613812387 0 518.41163613812387 39.048668534229364 0 0 0 0 136.72753222845131 589.47668258809426 0 589.47668258809426 439.81408952864604 0 0 0 0 204.48224062489624 674.07785656402484 0 674.07785656402484 536.81511789944489 0 0 0 0 208.29808890121086 506.41437568814945 0 506.41437568814945 428.0044503234094 0 0 0 0 326.41943782567887 450.77566387517436 0 450.77566387517436 289.21034719663112 0 0 0 0 333.89648961769899 681.93057199422037 0 681.93057199422037 206.9454203179921 0 0 0 0 376.17668683744114 441.38234936461231 0 441.38234936461231 -58.52520810556598 0 0 0 0 20.611480232038957 676.84860157084404 0 676.84860157084404 715.59478818980278 0 0 0 0 27.945148746448922 502.57226484508647 0 502.57226484508647 626.54482009531057 0 0 0 0 -199.74781703582153 527.6591196444715 0 527.6591196444715 625.95370733331947 0 0 0 0 -328.02110995395594 564.40762317789267 0 564.40762317789267 725.12248031274066 0 0 0 0 49.793767901778097 965.74003968596662 0 965.74003968596662 816.27562250220217 0 0 0 0 -431.14229988957078 833.68458869020105 0 833.68458869020105 461.98403691810381 0 0 0 0 -852.20265696267256 279.44595535374356 0 279.44595535374356 701.55512370690121 0 0 0 0 465.99236358140217 1777.6192285021707 0 1777.6192285021707 1559.0138976210801 0 0 0 0 -148.73252582579653 554.95635859752292 0 554.95635859752292 685.36719693092709 0 0 0 0 202.90242019306424 441.01051469298181 0 441.01051469298181 -1526.7728994553472 0 0 0 0 49.264864885014674 -752.13295759684115 0 -752.13295759684115 1625.5419890056801 0 0 0 0 -1390.6025586762523 657.38873650677124 0 657.38873650677124 476.47203842805902 0 0 0 0 -9.086787658140512 16.32624581916771 0 16.32624581916771 6.2423416268920562 0 0 0 0 17.071705026833929 11.374772910866881 0 11.374772910866881 6.996419911887088 0 0 0 0 -318.11260331659162 76.562070318978385 0 76.562070318978385 39.377363910694839 0 0 0 0 -130.51116221113762 -1211.85546270341 0 -1211.85546270341 -1605.1941851060481 0 0 0 0 -70.834601054788891 151.54809597654821 0 151.54809597654821 788.26811246392754 0 0 0 0 35.859384003448895 104.18959606565841 0 104.18959606565841 505.76852639928256 0 0 0 0 -1.5270235991399659 328.26042035724822 0 328.26042035724822 275.00209447279485 0 0 0 0 1.8440638971553653 164.56764850454783 0 164.56764850454783 531.01197229112586 0 0 0 0 202.62060210034315 638.88993842562195 0 638.88993842562195 687.27633359573156 0 0 0 0 158.54492152378998 -70.097442852417316 0 -70.097442852417316 945.30102449821425 0 0 0 0 103.78470390098236 233.96286573566613 0 233.96286573566613 571.45847559269896 0 0 0 0 127.9098341935296 303.18472748196484 0 303.18472748196484 258.69479300098055 0 0 0 0 17.851509858008377 129.93330587213569 0 129.93330587213569 136.66019966574814 0 0 0 0 20.493187558713544 117.77762073708254 0 117.77762073708254 128.31274927013874 0 0 0 0 56.771264548037379 325.10301683283615 0 325.10301683283615 243.50724303528841 0 0 0 0 -30.066137508668895 55.978235186677978 0 55.978235186677978 42.217312207997658 0 0 0 0 -15.611774599705313 281.24355910818031 0 281.24355910818031 410.61218590516364 0 0 0 0 134.82570826470328 153.3743181795835 0 153.3743181795835 203.62227244284441 0 0 0 0 -32.496391963594419 0.75439983591290627 0 0.75439983591290627 34.961743082930383 0 0 0 0 -264.76676633240459 356.1392935194599 0 356.1392935194599 -1043.2841985217165 0 0 0 0 810.658288620946 534.98465387990655 0 534.98465387990655 -2276.175457824691 0 0 0 0 35.61674704865591 66.408679035787742 0 66.408679035787742 20.421229050602793 0 0 0 0 40.820362676508466 85.236832446766243 0 85.236832446766243 55.143101568130078 0 0 0 0 44.046523108514521 117.7628366038407 0 117.7628366038407 153.24613143349052 0 0 0 0 -1344.3941398723496 1397.9554154148364 0 1397.9554154148364 -493.2755424992356 0 0 0 0 668.09925702682722 1208.7251911866988 0 1208.7251911866988 -1543.8791307374595 0 0 0 0 47.568120982724501 99.318694295756188 0 99.318694295756188 56.077316186642562 0 0 0 0 67.772971872443733 62.167313555683954 0 62.167313555683954 -11.197721663026471 0 0 0 0 -283.52141260128701 899.54230071143684 0 899.54230071143684 -648.04090329224528 0 0 0 0 -797.77480299737908 849.72965646892044 0 849.72965646892044 989.48208900277677 0 0 0 0 3011.1791042473578 563.84563860093476 0 563.84563860093476 -1047.9241959123747 0 0 0 0 -77.157665031411142 1664.7551316501595 0 1664.7551316501595 2098.66752213992 0 0 0 0 2517.4468058597809 1038.2033919043206 0 1038.2033919043206 174.10775419036509 0 0 0 0 2.3415990356427727 -0.23089775486816322 0 -0.23089775486816322 35.329267945191987 0 0 0 0 15.110046107341645 -488.09560923869685 0 -488.09560923869685 856.99254719115561 0 0 0 0 -503.90299248599331 -193.95912664887874 0 -193.95912664887874 2090.6243428048347 0 0 0 0 -545.59686361066633 214.35902243290911 0 214.35902243290911 1053.9403028906022 0 0 0 0 -562.33896370269667 91.671007238604943 0 91.671007238604943 793.51694152742857 0 0 0 0 -195.62791594612827 -221.28068023579544 0 -221.28068023579544 788.5147376179666 0 0 0 0 -227.53569842756042 299.79476227787018 0 299.79476227787018 453.97161045230314 0 0 0 0 -539.4196558463268 455.68571243151189 0 455.68571243151189 475.72706068606931 0 0 0 0 -238.10429187108821 247.50432647088383 0 247.50432647088383 195.87892653374365 0 0 0 0 87.047938854975655 292.3393509812995 0 292.3393509812995 131.61027867585653 0 0 0 0 134.98223303061422 252.58081143259756 0 252.58081143259756 163.97910113996477 0 0 0 0 34.931479851177386 135.51122641013836 0 135.51122641013836 200.18375761080861 0 0 0 0 118.28691403477205 649.72124670782796 0 649.72124670782796 -475.18512744925101 0 0 0 0 -676.9222193164187 1018.5729649403747 0 1018.5729649403747 374.36948286877305 0 0 0 0 228.78732597565977 280.91864461120917 0 280.91864461120917 70.893979313908631 0 0 0 0 279.699100534053 163.75294454444918 0 163.75294454444918 35.248153978921316 0 0 0 0 392.59665644703318 230.00312406432181 0 230.00312406432181 -119.5449222157331 0 0 0 0 146.5747774525662 341.59026362513083 0 341.59026362513083 27.429554368431354 0 0 0 0 277.08161208528327 314.92573008661134 0 314.92573008661134 -204.31754725846895 0 0 0 0 116.73021910514217 568.39650053829587 0 568.39650053829587 -51.773429493299545 0 0 0 0 263.35179025871912 115.36655929350877 0 115.36655929350877 -417.29699413763001 0 0 0 0 237.76061827113153 482.99414418609217 0 482.99414418609217 -564.89267879575596 0 0 0 0 252.35144553936891 153.50519150407445 0 153.50519150407445 53.59672155637125 0 0 0 0 48.066396237100463 56.268620399163893 0 56.268620399163893 -11.819754271157031 0 0 0 0 -486.83514486051354 795.59039815647895 0 795.59039815647895 -751.02900170026282 0 0 0 0 -111.42297275864985 555.84108157583796 0 555.84108157583796 -818.09953106372063 0 0 0 0 -232.58154962895787 561.03453284457328 0 561.03453284457328 -98.848697543045091 0 0 0 0 -51.411601119543775 707.04621129286829 0 707.04621129286829 -276.46136054798626 0 0 0 0 112.10838986153249 519.06046063009887 0 519.06046063009887 -186.71160804188548 0 0 0 0 -30.453129615925718 645.37415623580443 0 645.37415623580443 135.54368527777319 0 0 0 0 2.0474105819594115 509.2026358824736 0 509.2026358824736 211.81758705126356 0 0 0 0 -145.61019717346062 612.49581270981639 0 612.49581270981639 217.3620549760044 0 0 0 0 -28.127268972952152 513.05393765268127 0 513.05393765268127 -87.903280488911946 0 0 0 0 95.669360936008161 558.61815877729111 0 558.61815877729111 223.18327941363054 0 0 0 0 -69.779414742573863 659.25338952566312 0 659.25338952566312 484.52797654369624 0 0 0 0 -121.30407659622142 608.68174546199782 0 608.68174546199782 514.30700299969646 0 0 0 0 -124.14776362356497 585.28853831822414 0 585.28853831822414 758.58204823096776 0 0 0 0 53.149775108788162 405.33372625378183 0 405.33372625378183 447.74486040534612 0 0 0 0 54.253542829273101 446.87411035038093 0 446.87411035038093 279.31897080455383 0 0 0 0 -0.30228134998469613 278.61743919267315 0 278.61743919267315 639.51770596458994 0 0 0 0 6.0156815588707104 238.18241390630422 0 238.18241390630422 227.48802675617941 0 0 0 0 149.57577160654182 397.89225918073953 0 397.89225918073953 279.10897028971385 0 0 0 0 137.50490945359343 448.80403277000408 0 448.80403277000408 72.419527569980573 0 0 0 0 2.0149102142255515 561.925119670394 0 561.925119670394 335.53565579839369 0 0 0 0 270.24639639499946 113.23692832802675 0 113.23692832802675 86.043716683857824 0 0 0 0 348.67899854134885 230.3700003786426 0 230.3700003786426 -103.43206959789654 0 0 0 0 575.64759782841429 184.98993918242877 0 184.98993918242877 89.301348375597968 0 0 0 0 335.96518625346653 264.94076641516028 0 264.94076641516028 382.75603468421787 0 0 0 0 485.30195974884555 389.12604607993285 0 389.12604607993285 202.19602517496463 0 0 0 0 259.57048642766313 622.68925215119839 0 622.68925215119839 478.96444413354504 0 0 0 0 -73.762781255441951 410.60329532745038 0 410.60329532745038 369.09986063626866 0 0 0 0 40.787539476645179 567.74007263438057 0 567.74007263438057 204.98960428446412 0 0 0 0 -39.822326640482061 384.54829326924425 0 384.54829326924425 -105.63700450582974 0 0 0 0 126.31650784955127 241.48598780744578 0 241.48598780744578 -27.695486503891289 0 0 0 0 138.38814164235373 331.5653679450586 0 331.5653679450586 193.84042788015481 0 0 0 0 28.546249405248091 428.64924899162065 0 428.64924899162065 -124.53224928838389 0 0 0 0 -39.849798863069736 276.68487526032447 0 276.68487526032447 -378.26799182692355 0 0 0 0 -304.74145285406848 519.90306977956959 0 519.90306977956959 -78.566272960351256 0 0 0 0 -620.96537797502242 681.48646238675838 0 681.48646238675838 -429.57592190441329 0 0 0 0 -17.801155271070002 45.446619570757285 0 45.446619570757285 60.143857686679667 0 0 0 0 -172.84187838950311 872.2300812171959 0 872.2300812171959 -1000.3794139426587 0 0 0 0 28.826583374189795 259.42637709270298 0 259.42637709270298 -283.873869865144 0 0 0 0 153.6423048988363 160.14161505871618 0 160.14161505871618 -98.721435094332833 0 0 0 0 354.15485318721767 162.45858391672277 0 162.45858391672277 -171.29053266775986 0 0 0 0 158.61156774262781 313.7885980121643 0 313.7885980121643 -352.09961275157661 0 0 0 0 76.042908752780932 164.08468742775293 0 164.08468742775293 -96.960348280292919 0 0 0 0 -90.683334576433481 201.03729557807003 0 201.03729557807003 20.23271060879506 0 0 0 0 225.98225393951725 138.18175244265939 0 138.18175244265939 -153.74401242378781 0 0 0 0 -112.34525111920084 329.25575675765151 0 329.25575675765151 36.356379891286906 0 0 0 0 -38.905560643082936 195.23624203156299 0 195.23624203156299 133.19817088132686 0 0 0 0 -417.01637809825479 199.5629814595668 0 199.5629814595668 480.22744861863066 0 0 0 0 -280.48322148685111 538.44657025870242 0 538.44657025870242 -132.98842752799101 0 0 0 0 -198.89266764177592 314.54016986593922 0 314.54016986593922 128.81797205431303 0 0 0 0 -443.23091749832383 229.80308015672989 0 229.80308015672989 140.52484022474141 0 0 0 0 -118.7668606969055 384.82799952983885 0 384.82799952983885 48.619197992888076 0 0 0 0 74.778001421538647 209.28898265600446 0 209.28898265600446 -14.409030364639875 0 0 0 0 88.873389969347045 156.31409415621783 0 156.31409415621783 64.507639799024219 0 0 0 0 58.080989791058528 186.92744560908613 0 186.92744560908613 60.776964567843606 0 0 0 0 159.18894698450458 300.48475830750203 0 300.48475830750203 74.144946369876834 0 0 0 0 103.71715702430811 107.7413602558031 0 107.7413602558031 135.52993659405684 0 0 0 0 -51.176761271242867 138.57554665494308 0 138.57554665494308 146.0398019631412 0 0 0 0 82.400822652503848 182.64152218395998 0 182.64152218395998 79.590397555046366 0 0 0 0 -190.45695690035245 143.84463187011352 0 143.84463187011352 136.46044480767159 0 0 0 0 19.477733816909343 122.26172179741165 0 122.26172179741165 141.47509267595893 0 0 0 0 -192.78631852753324 190.91072218252748 0 190.91072218252748 241.59252168678358 0 0 0 0 -244.06919821256633 110.5272975526168 0 110.5272975526168 310.74365217115337 0 0 0 0 -167.89929279588432 132.21716562649181 0 132.21716562649181 61.324374617881404 0 0 0 0 -196.3473251325413 105.99693079072131 0 105.99693079072131 123.11808754779577 0 0 0 0 -176.72849411395146 151.35528664315643 0 151.35528664315643 65.708261954358022 0 0 0 0 -174.08807841363887 132.57788839561454 0 132.57788839561454 55.972638802655638 0 0 0 0 -189.31062195265986 160.17155287969126 0 160.17155287969126 2.2462256362478001 0 0 0 0 -175.86208509690368 126.56735542464048 0 126.56735542464048 -36.771254189625324 0 0 0 0 -49.223105497686944 22.323782086426164 0 22.323782086426164 78.510763168607809 0 0 0 0 -196.29912283476006 164.64299646377401 0 164.64299646377401 -35.160629254063679 0 0 0 0 -189.55538211037856 203.49336965753901 0 203.49336965753901 -63.571191924234881 0 0 0 0 -203.46102035335571 134.95065290179082 0 134.95065290179082 56.945014766813983 0 0 0 0 -170.97594986676995 183.16036368209825 0 183.16036368209825 -23.020079548403373 0 0 0 0 191.20724267093465 110.53170298126315 0 110.53170298126315 59.206986837683871 0 0 0 0 145.63630460800778 140.43213680736699 0 140.43213680736699 7.1058717013861497 0 0 0 0 210.29226603514485 85.65748254797461 0 85.65748254797461 68.922179755525576 0 0 0 0 36.340623230712936 27.658424525206101 0 27.658424525206101 -54.121582167175951 0 0 0 0 -16.407813353153273 118.25071263928541 0 118.25071263928541 38.292918655968009 0 0 0 0 251.29615354648558 -77.77532753279047 0 -77.77532753279047 -91.649852389244188 0 0 0 0 -8.9020677957950625 9.6073214932837061 0 9.6073214932837061 -16.449598029455785 0 0 0 0 183.05206214731152 211.7877322769491 0 211.7877322769491 116.2121612759056 0 0 0 0 99.053529997487203 167.03760497415419 0 167.03760497415419 43.260850590304472 0 0 0 0 165.73857327215956 129.70257559949187 0 129.70257559949187 62.677737909922143 0 0 0 0 19.484584661637314 118.16337419413698 0 118.16337419413698 85.857050902662621 0 0 0 0 165.95875733313733 118.08336327516827 0 118.08336327516827 62.238670708455047 0 0 0 0 203.45252619904932 103.83266065909993 0 103.83266065909993 43.908118614708656 0 0 0 0 234.25839318794897 58.908545563875464 0 58.908545563875464 93.587744903989005 0 0 0 0 12.750929593565921 112.67748105113716 0 112.67748105113716 57.237481866501611 0 0 0 0 26.059275444873492 183.04041948495342 0 183.04041948495342 32.381440144861699 0 0 0 0 45.425966197915841 191.12320986921259 0 191.12320986921259 29.89691022921761 0 0 0 0 34.353280051131151 219.63031737321035 0 219.63031737321035 -34.570996442540491 0 0 0 0 156.10040856059641 198.00842537912104 0 198.00842537912104 -120.3460742629195 0 0 0 0 -11.157285847410094 334.76039353436136 0 334.76039353436136 -81.01563446817454 0 0 0 0 -136.31562730688893 10.322882009300884 0 10.322882009300884 108.58393201241233 0 0 0 0 10.321714248741046 245.34010743018007 0 245.34010743018007 93.463495653502832 0 0 0 0 -1.0001259583323758 3.6443376062495929 0 3.6443376062495929 -6.0067586946365026 0 0 0 0 51.464789636665955 106.8081329431734 0 106.8081329431734 171.00409607157781 0 0 0 0 151.95534566603601 50.203185588670749 0 50.203185588670749 86.727427466095833 0 0 0 0 219.04899872770329 140.97506358025657 0 140.97506358025657 68.192473639050149 0 0 0 0 98.555809483339544 108.1753162752957 0 108.1753162752957 45.400663019616331 0 0 0 0 73.994644774706103 102.71059906146547 0 102.71059906146547 78.482156907506578 0 0 0 0 51.610662424747716 145.356323564185 0 145.356323564185 7.519900050770957 0 0 0 0 55.087360069264832 147.70399719163743 0 147.70399719163743 8.248660085904703 0 0 0 0 22.059579067979939 144.08220390137649 0 144.08220390137649 -10.800854130793596 0 0 0 0 48.035923800169257 169.56494716973612 0 169.56494716973612 -65.379228253979818 0 0 0 0 -44.29503668952384 136.78321041323943 0 136.78321041323943 -77.804972160633042 0 0 0 0 1.6695359098375775 192.6755260726386 0 192.6755260726386 -18.582772708819448 0 0 0 0 6.1739122810031404 163.78093376108336 0 163.78093376108336 -47.789125344854256 0 0 0 0 -120.43973174880375 197.37227555096251 0 197.37227555096251 -50.005032272470999 0 0 0 0 12.243099956918741 157.4935108781774 0 157.4935108781774 -69.937745111972617 0 0 0 0 54.332992189243669 191.0819342894174 0 191.0819342894174 -58.617345753602422 0 0 0 0 58.476755723575479 199.38418574130264 0 199.38418574130264 -117.39700781391002 0 0 0 0 82.17246819860884 147.19548238320931 0 147.19548238320931 -152.29305574147293 0 0 0 0 9.0960279807040934 133.85328647913411 0 133.85328647913411 -50.579915251906641 0 0 0 0 76.022118275614048 138.62777700193874 0 138.62777700193874 -64.366634782745678 0 0 0 0 18.859935328873689 84.384742328085849 0 84.384742328085849 80.781843401688093 0 0 0 0 53.651855785297812 -0.30051319839913049 0 -0.30051319839913049 -134.34033315990382 0 0 0 0 -142.37944538731244 141.61895659740549 0 141.61895659740549 -8.6381277326399868 0 0 0 0 -15.510558915379079 92.035956212187557 0 92.035956212187557 7.5457533050430357 0 0 0 0 -59.950186771107838 139.65045594548792 0 139.65045594548792 52.226425145316171 0 0 0 0 12.553641917344066 123.4413975188545 0 123.4413975188545 45.701740648502891 0 0 0 0 -47.914664788448135 107.30637603184732 0 107.30637603184732 89.177060511050513 0 0 0 0 22.693857712278259 95.072251292092915 0 95.072251292092915 113.45455110355397 0 0 0 0 148.95533842068107 167.56380105074277 0 167.56380105074277 70.878443416923801 0 0 0 0 261.30281181590362 -154.83805687998034 0 -154.83805687998034 -98.335909542253376 0 0 0 0 79.813911958844983 365.44351201262725 0 365.44351201262725 329.46560731168211 0 0 0 0 -9.5457230568503348 39.968130046085534 0 39.968130046085534 -71.218846192857242 0 0 0 0 -135.98979169100494 89.576952432014878 0 89.576952432014878 420.52916855899821 0 0 0 0 -432.37202033755602 -577.18260774944793 0 -577.18260774944793 -198.78246957948977 0 0 0 0 134.24306322311168 291.43289685695709 0 291.43289685695709 -387.59746009678202 0 0 0 0 629.31324768083869 462.47930054784956 0 462.47930054784956 -549.99271545802549 0 0 0 0 -1.3245096872155955 30.187736208607504 0 30.187736208607504 -62.319653045014903 0 0 0 0 245.06225131239626 210.18386926335234 0 210.18386926335234 -150.12188200146261 0 0 0 0 131.59410049917642 101.202642115613 0 101.202642115613 -85.754283394611775 0 0 0 0 132.53327586993692 450.42927704275382 0 450.42927704275382 323.07434697858071 0 0 0 0 -0.26823743002496769 3.9571968535317694 0 3.9571968535317694 3.4007914455453658 0 0 0 0 536.95901403299649 -65.001637676352914 0 -65.001637676352914 161.46337962384075 0 0 0 0 1176.2965502302104 295.15058672449589 0 295.15058672449589 -206.24058299797346 0 0 0 0 275.19867940953554 292.83492437639808 0 292.83492437639808 -53.750049594102165 0 0 0 0 568.46757779011386 333.82402183966474 0 333.82402183966474 27.096841601739925 0 0 0 0 716.4650021839152 334.52140398106337 0 334.52140398106337 -273.47875350690902 0 0 0 0 346.00729775991385 -22.575357422559627 0 -22.575357422559627 15.727676041565246 0 0 0 0 209.73620024500269 119.19584245176515 0 119.19584245176515 -126.54549565394154 0 0 0 0 -0.74471488341655601 6.465706459164835 0 6.465706459164835 13.29575006333892 0 0 0 0 1337.8725384769787 30.311966093285264 0 30.311966093285264 -1031.502599878464 0 0 0 0 9.7733833811565773 3.8277900444799826 0 3.8277900444799826 4.3430163563094801 0 0 0 0 385.75591235017782 -53.818152554749986 0 -53.818152554749986 -121.93897211305739 0 0 0 0 -31.365817211946705 189.18671069390712 0 189.18671069390712 381.57550034677274 0 0 0 0 884.74276098522387 -217.44495242599601 0 -217.44495242599601 -161.39629341928139 0 0 0 0 66.439856539014727 422.98426407813758 0 422.98426407813758 455.53249815859817 0 0 0 0 -28.393207957327832 281.16759266997815 0 281.16759266997815 250.2245369280954 0 0 0 0 150.81402971257921 491.72194687057618 0 491.72194687057618 195.56067387397366 0 0 0 0 171.40551331968163 562.01327278221197 0 562.01327278221197 366.00459126711939 0 0 0 0 353.88056339020841 85.029335537197994 0 85.029335537197994 175.45902155372005 0 0 0 0 310.58822092312039 -246.15331115752406 0 -246.15331115752406 1093.0018202347119 0 0 0 0 -0.73612425324125752 5.1756535651070408 0 5.1756535651070408 18.990991428680967 0 0 0 0 -51.627866841503419 136.42904811845983 0 136.42904811845983 -79.719623818906257 0 0 0 0 -97.031938709538736 207.9973935638962 0 207.9973935638962 -16.164896134287119 0 0 0 0 -210.88627520267619 181.59417231914176 0 181.59417231914176 -85.846138059578152 0 0 0 0 -105.54608882095454 127.89213836649873 0 127.89213836649873 -64.654646902963577 0 0 0 0 -125.90603278952767 164.88486948335049 0 164.88486948335049 -19.281651923436584 0 0 0 0 12.117147809272865 204.15241433524443 0 204.15241433524443 -33.568795869656242 0 0 0 0 -8.3135130070149899 294.36878504857668 0 294.36878504857668 82.832389962750312 0 0 0 0 32.314428817946464 330.46780800055876 0 330.46780800055876 108.72792522566124 0 0 0 0 109.58625632966869 345.05989387585487 0 345.05989387585487 53.039061250348823 0 0 0 0 -75.891356021442334 179.17388223121907 0 179.17388223121907 69.974394594661135 0 0 0 0 -10.170341144810664 274.69633257258556 0 274.69633257258556 207.56212938050157 0 0 0 0 -5.0426719796087127 191.62678334148768 0 191.62678334148768 -38.302397330779854 0 0 0 0 5.4331422031973489 78.725199122787672 0 78.725199122787672 -44.807873395462934 0 0 0 0 -37.898196942172945 2.1681727970917564 0 2.1681727970917564 -151.78117147865851 0 0 0 0 84.476428705296712 80.38640236724541 0 80.38640236724541 -200.71240380144241 0 0 0 0 -110.94270252002752 40.467527220200282 0 40.467527220200282 104.91251072644945 0 0 0 0 -117.65945753495907 169.65198512452207 0 169.65198512452207 -243.2315915478963 0 0 0 0 1.527785438198066 2.0236969625365759 0 2.0236969625365759 -5.1243814894449926 0 0 0 0 -27.710974144996726 161.5474112970951 0 161.5474112970951 -245.8977084668004 0 0 0 0 -146.72473486766103 176.14172818369843 0 176.14172818369843 -96.278249250351109 0 0 0 0 -150.89814815740192 121.67485409682388 0 121.67485409682388 -154.16839656856791 0 0 0 0 -275.00373754827888 182.67506379020324 0 182.67506379020324 -178.10472363853751 0 0 0 0 -129.48295053461334 141.8719372790797 0 141.8719372790797 -262.92085302937994 0 0 0 0 -1.7896272316721706 2.428400869401699 0 2.428400869401699 5.0313743015289312 0 0 0 0 -31.645200406725053 25.452278877954996 0 25.452278877954996 -32.828482111724952 0 0 0 0 -238.10228971712058 345.65410778290061 0 345.65410778290061 -357.31862435483345 0 0 0 0 1.717217979058745 48.923650230364075 0 48.923650230364075 22.247985426027984 0 0 0 0 -69.024281967358547 207.79545630760231 0 207.79545630760231 102.58674631705946 0 0 0 0 20.852328547383365 20.887493225131379 0 20.887493225131379 -7.9965987306291364 0 0 0 0 -75.632151699232054 170.30555308635962 0 170.30555308635962 -104.09386357626113 0 0 0 0 -96.572137530849432 -18.48569491422063 0 -18.48569491422063 -73.372998112179062 0 0 0 0 -101.17980906186858 -17.311105995500384 0 -17.311105995500384 86.045425045344032 0 0 0 0 -17.439021132547907 52.94628688277254 0 52.94628688277254 -68.163401501883868 0 0 0 0 16.407644090337271 150.98507298720415 0 150.98507298720415 75.251626825222047 0 0 0 0 8.4237187605758663 166.88368574380365 0 166.88368574380365 115.02030211427336 0 0 0 0 -20.40794114919845 104.1942732928901 0 104.1942732928901 60.668601196473901 0 0 0 0 -1.7381577745508707 37.598330120728377 0 37.598330120728377 41.428607614082004 0 0 0 0 -99.264057799911825 71.733789998692373 0 71.733789998692373 73.482743923400449 0 0 0 0 -88.803086640167749 78.269950819261794 0 78.269950819261794 -51.978394490761275 0 0 0 0 -91.251225811080076 84.311106192539228 0 84.311106192539228 -40.72409205639633 0 0 0 0 -29.239571589685511 6.1579292373216958 0 6.1579292373216958 12.243163711629677 0 0 0 0 -44.03464063543862 16.564747820659278 0 16.564747820659278 26.55165173088367 0 0 0 0 -93.610949187190272 83.195461895598783 0 83.195461895598783 -35.600921542303695 0 0 0 0 -93.966752594424179 80.825248600423038 0 80.825248600423038 -42.648805790937331 0 0 0 0 -67.567912445068941 48.991004971336679 0 48.991004971336679 -55.711026002652943 0 0 0 0 6.8786162423285404 24.096703434808859 0 24.096703434808859 -52.927283729207012 0 0 0 0 -91.171732842878555 83.5085141743848 0 83.5085141743848 -46.848143093073304 0 0 0 0 -142.09094032550115 26.060706851240226 0 26.060706851240226 -29.742536262692738 0 0 0 0 -146.56528136451379 83.323262093709673 0 83.323262093709673 -39.479219843768078 0 0 0 0 -141.57180209372677 86.820764369139937 0 86.820764369139937 -55.593670842006759 0 0 0 0 0.11508894924213564 25.429537440414862 0 25.429537440414862 18.282807996918002 0 0 0 0 61.065985078745143 230.66942337793216 0 230.66942337793216 -43.452924215433086 0 0 0 0 32.568076059251325 193.67646436455652 0 193.67646436455652 -63.266340520440281 0 0 0 0 -31.997316353365022 59.151459491995411 0 59.151459491995411 -41.241757759384654 0 0 0 0 856.37601539795287 -409.22970934089972 0 -409.22970934089972 176.28894694116934 0 0 0 0 -595.06936390051851 120.46542776012393 0 120.46542776012393 -48.801923861446994 0 0 0 0 -63.390642572077923 -73.858630746140989 0 -73.858630746140989 -350.09161823800969 0 0 0 0 -389.44111707674165 168.03008036027859 0 168.03008036027859 -90.240034241084686 0 0 0 0 -228.55763468742953 117.2012378687632 0 117.2012378687632 -179.76367048190241 0 0 0 0 1.8731356559936216 2.8562007657146751 0 2.8562007657146751 -1.7398718656633925 0 0 0 0 -200.4929873560759 181.67597627948862 0 181.67597627948862 -304.16137095315571 0 0 0 0 2.7411774466899992 10.303064173163165 0 10.303064173163165 -37.589822554707716 0 0 0 0 -415.18256162246689 51.479832182078098 0 51.479832182078098 -200.06181500425373 0 0 0 0 1810.327708293029 270.42004970276139 0 270.42004970276139 -349.8355135267484 0 0 0 0 209.56085141870426 243.59279594457666 0 243.59279594457666 -297.34232828439781 0 0 0 0 -214.48674685659353 55.508366524747544 0 55.508366524747544 -40.448989334873659 0 0 0 0 -234.28495986557391 81.547878145474328 0 81.547878145474328 -68.525813025713887 0 0 0 0 -173.96043832306168 123.3480506271294 0 123.3480506271294 -78.949269819667279 0 0 0 0 -210.84580852391082 106.99192324473279 0 106.99192324473279 -56.571992562274289 0 0 0 0 -318.10518563818187 157.47838162599237 0 157.47838162599237 -83.140779187236149 0 0 0 0 -238.77664415077015 83.132072604284076 0 83.132072604284076 -55.953194482617391 0 0 0 0 -300.8611315699527 266.085449129756 0 266.085449129756 -163.47230564819733 0 0 0 0 -478.78891802430735 155.31376463049185 0 155.31376463049185 -66.065270655834226 0 0 0 0 1622.4994072114496 -204.98625701506853 0 -204.98625701506853 368.40106570024363 0 0 0 0 1887.4749519516117 -184.80454337193305 0 -184.80454337193305 -250.59030982515833 0 0 0 0 -150.86004116642289 44.3200874105205 0 44.3200874105205 -38.568835006285553 0 0 0 0 -284.69424492558755 51.078969641234835 0 51.078969641234835 -23.817115829046088 0 0 0 0 -0.077358484420983586 272.86846526900166 0 272.86846526900166 -296.34897167122699 0 0 0 0 -337.66431550090783 326.012679606326 0 326.012679606326 -204.18802539985893 0 0 0 0 -179.42004219413502 253.51435696508679 0 253.51435696508679 -183.9704327551658 0 0 0 0 -203.31580206226499 147.33171701737774 0 147.33171701737774 -70.925346811455711 0 0 0 0 -163.12908708583564 236.37703511246923 0 236.37703511246923 -166.80834114823938 0 0 0 0 -95.632966812729137 216.10907086520092 0 216.10907086520092 -173.23251115642825 0 0 0 0 -0.14673482679063454 158.53010259800385 0 158.53010259800385 -138.97479675671002 0 0 0 0 -82.840022983265953 148.32208446853588 0 148.32208446853588 -78.226020266311025 0 0 0 0 -119.535445680056 135.45379451447934 0 135.45379451447934 -78.56055313425486 0 0 0 0 -87.444880087481579 111.57131038146963 0 111.57131038146963 -61.626504194047811 0 0 0 0 -52.567837327267625 88.759433945395358 0 88.759433945395358 -57.377235161828139 0 0 0 0 -107.05412121626432 94.75318752824478 0 94.75318752824478 -49.970927106747695 0 0 0 0 -79.766043899377109 84.818480071033264 0 84.818480071033264 -47.239129318057167 0 0 0 0 -89.968619478633627 110.68614908173004 0 110.68614908173004 -61.875503452803969 0 0 0 0 -79.973963751894189 105.13414849817309 0 105.13414849817309 -60.221115308048866 0 0 0 0 -10.154741766411462 144.68602235956769 0 144.68602235956769 -81.705824888726511 0 0 0 0 0.10329666671168525 118.69462517469947 0 118.69462517469947 -37.809607496121316 0 0 0 0 43.236723918631469 198.75262781702713 0 198.75262781702713 96.639576992398361 0 0 0 0 14.680078224868339 50.924066325984541 0 50.924066325984541 -86.525664571599918 0 0 0 0 0.11114294492290355 188.19210719780222 0 188.19210719780222 391.72079926654624 0 0 0 0 111.59675576983136 344.57054040135336 0 344.57054040135336 195.52015059464611 0 0 0 0 146.36420079712843 230.05701223740834 0 230.05701223740834 31.39916203264147 0 0 0 0 23.009615947157727 5.3660323213107404 0 5.3660323213107404 331.21811705553682 0 0 0 0 4.2497030352005822 1.0089911049090148 0 1.0089911049090148 -1.6389653475422392 0 0 0 0 42.724439020035788 121.35348344934755 0 121.35348344934755 15.383006804222532 0 0 0 0 -57.019333439064212 -23.335379057516548 0 -23.335379057516548 -26.370552500375197 0 0 0 0 0.031652400618327192 0.17394688351416221 0 0.17394688351416221 -2.3237445439204656 0 0 0 0 -75.144649089052109 85.04250775226501 0 85.04250775226501 -51.219562928634559 0 0 0 0 -72.304747851419961 87.773725662465949 0 87.773725662465949 -53.344040894880891 0 0 0 0 -59.385180329147261 32.619494334762749 0 32.619494334762749 25.542333267703725 0 0 0 0 3.2262077767680921 4.7622436734868216 0 4.7622436734868216 0.22213706145696932 0 0 0 0 -1.8057341990447462 22.413171846197031 0 22.413171846197031 58.942365180890661 0 0 0 0 -60.873801229026867 -17.290896592174249 0 -17.290896592174249 39.509323215694167 0 0 0 0 -127.49402007133176 91.362276792837292 0 91.362276792837292 74.459937935556809 0 0 0 0 -49.260880994545005 113.35791335596514 0 113.35791335596514 66.233198765621637 0 0 0 0 -105.00340568444517 87.326374293421395 0 87.326374293421395 65.688371826776802 0 0 0 0 -98.461993867487763 81.406924791205711 0 81.406924791205711 34.58476528540632 0 0 0 0 -282.48843805270735 85.632719649653154 0 85.632719649653154 46.571175340991431 0 0 0 0 25.737943866530259 -13.636450183480861 0 -13.636450183480861 12.100630515382363 0 0 0 0 1.5598311443824713 11.722330473488256 0 11.722330473488256 47.041860180163411 0 0 0 0 -80.835017719931784 97.16163427058018 0 97.16163427058018 219.31027786361665 0 0 0 0 -182.2944646833057 110.31742526004382 0 110.31742526004382 -19.043296019733134 0 0 0 0 -139.73446068259364 135.1570233507282 0 135.1570233507282 -12.407327585075109 0 0 0 0 -222.40201552974759 242.84458797856132 0 242.84458797856132 -35.639711750591914 0 0 0 0 1.3502447443050443 11.3618440888973 0 11.3618440888973 30.904844175998321 0 0 0 0 -537.66668786242826 162.35468730744992 0 162.35468730744992 31.700947769986669 0 0 0 0 414.40978362900933 279.10118915513567 0 279.10118915513567 93.836098789968673 0 0 0 0 269.65694673091639 334.40751726327835 0 334.40751726327835 179.07078236968118 0 0 0 0 0.45716994545364287 494.32971786614962 0 494.32971786614962 364.36853595915454 0 0 0 0 314.1531256052258 414.30351313269966 0 414.30351313269966 251.84797262505344 0 0 0 0 175.24606879339262 296.7892693963804 0 296.7892693963804 226.21675070392666 0 0 0 0 90.946512904381962 78.215435995303778 0 78.215435995303778 39.040217862926511 0 0 0 0 201.84526955791807 265.37862556439177 0 265.37862556439177 246.34671086917479 0 0 0 0 1467.0163355645718 1426.5036498341142 0 1426.5036498341142 969.30096738685188 0 0 0 0 1045.174946731335 810.22452922854427 0 810.22452922854427 894.00685964878721 0 0 0 0 1623.5436746002135 848.65453749019252 0 848.65453749019252 418.63844536500983 0 0 0 0 1677.9490270377321 1606.0917755875412 0 1606.0917755875412 565.50389703585824 0 0 0 0 999.15755595641599 992.67736833521485 0 992.67736833521485 416.05473333806003 0 0 0 0 1029.7017960511985 1049.6717564104256 0 1049.6717564104256 365.77862674083735 0 0 0 0 1032.1923056668668 585.20341917085898 0 585.20341917085898 87.744511302957108 0 0 0 0 491.79964393681257 959.21959122164117 0 959.21959122164117 97.139435320161283 0 0 0 0 731.97509339280396 672.50323097339606 0 672.50323097339606 400.04429229737434 0 0 0 0 18.167905337066259 934.74492395580455 0 934.74492395580455 -215.01623080916761 0 0 0 0 348.49331875293865 605.71714752371554 0 605.71714752371554 111.86737131369591 0 0 0 0 415.2419287457451 709.47156334726424 0 709.47156334726424 641.06979774146748 0 0 0 0 201.08118752661449 946.79265976323222 0 946.79265976323222 382.53074880250642 0 0 0 0 602.01832453423958 1079.2527092574892 0 1079.2527092574892 594.01934766316117 0 0 0 0 1047.4619438473119 943.4686918330699 0 943.4686918330699 623.66158579476905 0 0 0 0 879.11694708789514 1054.1260531257885 0 1054.1260531257885 1151.7963000226737 0 0 0 0 540.57911319788582 1025.891916827728 0 1025.891916827728 853.17371154106513 0 0 0 0 930.41600302282495 996.94651968481412 0 996.94651968481412 794.91197292633296 0 0 0 0 320.88380504978522 1007.5750706362596 0 1007.5750706362596 835.39746809759527 0 0 0 0 602.7042357506798 905.70836349371166 0 905.70836349371166 598.03815176426724 0 0 0 0 428.64897288490829 986.580632199315 0 986.580632199315 974.66539301961893 0 0 0 0 609.08573333515778 934.62340961565496 0 934.62340961565496 840.89591030868905 0 0 0 0 594.83717555341718 943.76254479693307 0 943.76254479693307 962.9602790507488 0 0 0 0 1115.2383531031883 970.49219882868783 0 970.49219882868783 806.4932953762036 0 0 0 0 1156.1170608496541 1327.3755876314681 0 1327.3755876314681 983.8340961935246 0 0 0 0 595.03946162135617 1038.9203553012194 0 1038.9203553012194 971.49691383069876 0 0 0 0 641.158560934864 831.36757343191857 0 831.36757343191857 829.74985992533038 0 0 0 0 77.20514452047405 6.1738016489453003 0 6.1738016489453003 159.46489374407975 0 0 0 0 -26.355266888366671 15.29274491433317 0 15.29274491433317 6.4923164978021646 0 0 0 0 113.79392581541833 182.59325388786965 0 182.59325388786965 72.416072516847635 0 0 0 0 499.3832668837349 117.8953409605092 0 117.8953409605092 26.48555611242773 0 0 0 0 -43.775605908244628 46.069407496104077 0 46.069407496104077 -47.045905553222781 0 0 0 0 113.79392581514549 182.59325388795696 0 182.59325388795696 72.416072516934946 0 0 0 0 1.0299850188312121 112.16931248124456 0 112.16931248124456 155.93335668493819 0 0 0 0 61.24906375221326 137.05026566727611 0 137.05026566727611 112.73639693757286 0 0 0 0 37.805745266552549 144.56700978707522 0 144.56700978707522 198.31760532164481 0 0 0 0 6.5339716661983402 250.35263287549606 0 250.35263287549606 312.5880796482088 0 0 0 0 150.55972308726632 22.592827433516504 0 22.592827433516504 398.25132933455461 0 0 0 0 121.22433698314126 92.980549212486949 0 92.980549212486949 230.14001903434109 0 0 0 0 290.75264967675321 -23.239333677105606 0 -23.239333677105606 195.18996961414814 0 0 0 0 47.329379921080545 179.85415715360432 0 179.85415715360432 417.40847376590318 0 0 0 0 18.882877088297391 233.00268157851679 0 233.00268157851679 170.69215157721192 0 0 0 0 -20.718673650925894 379.54285172238178 0 379.54285172238178 87.608086621097755 0 0 0 0 1102.8933648934717 837.70868051848811 0 837.70868051848811 823.42008719673322 0 0 0 0 221.50844481203239 258.07763527322095 0 258.07763527322095 221.09412144799717 0 0 0 0 -14.525668562011617 10.282679324365233 0 10.282679324365233 4.332440001979478 0 0 0 0 -261.85765998868919 -335.59168061263335 0 -335.59168061263335 398.69805829528195 0 0 0 0 393.10309332753786 197.77819553840709 0 197.77819553840709 75.271288908086717 0 0 0 0 179.31871761004732 72.237782490672544 0 72.237782490672544 370.55770318457508 0 0 0 0 271.95420522657514 138.90217316961207 0 138.90217316961207 113.99343992694048 0 0 0 0 354.85345633102406 54.174382708806661 0 54.174382708806661 198.24149961469811 0 0 0 0 243.53219250652455 114.81634130612929 0 114.81634130612929 110.84301250334829 0 0 0 0 112.70648555544176 384.50737697224395 0 384.50737697224395 234.30266331765597 0 0 0 0 -18.794364669741611 25.368006126023793 0 25.368006126023793 -28.937963084172623 0 0 0 0 242.7775074645906 365.46338313037995 0 365.46338313037995 85.465787372319028 0 0 0 0 -32.081617129044091 25.136011871213853 0 25.136011871213853 -17.633602218189395 0 0 0 0 140.76988678977978 122.45732517163196 0 122.45732517163196 -14.356582207925385 0 0 0 0 253.86178910187164 277.86708117186618 0 277.86708117186618 41.983117633324582 0 0 0 0 85.52114014988183 284.98902265062497 0 284.98902265062497 25.014751247508684 0 0 0 0 161.83892215824744 247.57426664748346 0 247.57426664748346 37.366958006245113 0 0 0 0 59.429365886142477 375.80207073391648 0 375.80207073391648 173.71012357296422 0 0 0 0 157.31468028327026 367.6160273618907 0 367.6160273618907 38.416619677678682 0 0 0 0 -2.9451465117308544 266.20740864548134 0 266.20740864548134 229.32378148924909 0 0 0 0 42.998003571206937 278.33539311820641 0 278.33539311820641 93.916257269214839 0 0 0 0 134.72793595101393 247.07266208274086 0 247.07266208274086 -97.262872316787252 0 0 0 0 27.837809984572232 269.32720675840392 0 269.32720675840392 115.06199837849999 0 0 0 0 -9.6851823084725766 69.704304150232929 0 69.704304150232929 -46.122477400520438 0 0 0 0 -24.19597523016273 163.3431564460916 0 163.3431564460916 82.777716587646864 0 0 0 0 -0.54806904881843366 160.00939657285926 0 160.00939657285926 76.230999336046807 0 0 0 0 7.9095393263560254 211.94808474471211 0 211.94808474471211 197.98876152987941 0 0 0 0 -90.603703005472198 114.82259214945952 0 114.82259214945952 22.485570753715365 0 0 0 0 18.205118749705434 297.97553470026469 0 297.97553470026469 -179.67044016586442 0 0 0 0 193.82052949658828 186.62995887894067 0 186.62995887894067 10.584211228029744 0 0 0 0 46.266672475037012 81.44157742481957 0 81.44157742481957 141.27198287565261 0 0 0 0 42.510877286884352 145.18569661183574 0 145.18569661183574 160.30872161671869 0 0 0 0 59.462185040552868 123.2493549647188 0 123.2493549647188 22.583300401554879 0 0 0 0 -21.407298322919814 65.460095298083615 0 65.460095298083615 -32.93103512421294 0 0 0 0 -63.82328984725973 113.00447582017659 0 113.00447582017659 15.82147116692795 0 0 0 0 -125.97699563531569 55.089202392711741 0 55.089202392711741 85.61617101309821 0 0 0 0 6.034494553154218 63.728491029411089 0 63.728491029411089 49.318697605005582 0 0 0 0 -10.796600383840996 109.54482213663505 0 109.54482213663505 123.37773486031801 0 0 0 0 52.173252539054374 88.93362398861791 0 88.93362398861791 85.020918290691043 0 0 0 0 -54.500854421799886 59.691590295733477 0 59.691590295733477 101.4367227077164 0 0 0 0 -39.883858516539476 38.60820110415807 0 38.60820110415807 86.178793815721292 0 0 0 0 19.601130772069155 92.162665463249141 0 92.162665463249141 114.04115475789877 0 0 0 0 13.542149570712354 11.847167195512156 0 11.847167195512156 50.232178908307105 0 0 0 0 30.689563874580926 100.21394767601669 0 100.21394767601669 117.20347283626324 0 0 0 0 55.858073326973681 159.56751006898412 0 159.56751006898412 151.85645090049366 0 0 0 0 64.268072396080242 80.585223378278897 0 80.585223378278897 91.564576677395962 0 0 0 0 116.32263462293486 142.93519158507115 0 142.93519158507115 117.19504598251493 0 0 0 0 92.524814642849378 158.45507094555069 0 158.45507094555069 130.60185096351779 0 0 0 0 152.59100629293243 290.943603746593 0 290.943603746593 228.56081781367538 0 0 0 0 210.75937189434262 271.36677115912607 0 271.36677115912607 212.46026533329859 0 0 0 0 123.10567479098245 175.41122442721098 0 175.41122442721098 122.32194114074809 0 0 0 0 90.095339658659213 210.38625928571128 0 210.38625928571128 179.65128363869735 0 0 0 0 113.42754157971649 217.27369366929634 0 217.27369366929634 171.10736607457511 0 0 0 0 93.345747029612539 213.83564774080878 0 213.83564774080878 339.44843268959085 0 0 0 0 89.767024578271958 254.37992738805769 0 254.37992738805769 254.63192855811212 0 0 0 0 66.889688384340843 173.04145372401399 0 173.04145372401399 250.3761524935253 0 0 0 0 108.84595151958638 139.89276475293445 0 139.89276475293445 276.32607040167932 0 0 0 0 102.7496269683179 169.55597689846763 0 169.55597689846763 257.20392159197945 0 0 0 0 145.41002578665939 132.35550847102422 0 132.35550847102422 161.34273564192699 0 0 0 0 161.1314678863564 88.639535948546836 0 88.639535948546836 271.44138871694304 0 0 0 0 81.468904906199896 159.73317608029902 0 159.73317608029902 139.99171427337569 0 0 0 0 66.351252700587793 128.17229686313658 0 128.17229686313658 100.38833420089213 0 0 0 0 43.642662872138317 162.0737979249825 0 162.0737979249825 207.26184019032371 0 0 0 0 -71.77050047987359 -3.1224048285621393 0 -3.1224048285621393 139.8511218460626 0 0 0 0 -162.01306126646523 29.788126029627165 0 29.788126029627165 321.40191749915539 0 0 0 0 47.711408724253488 -51.195803543187139 0 -51.195803543187139 349.0796222378267 0 0 0 0 -189.18803870400006 11.872068319600658 0 11.872068319600658 171.54927669420431 0 0 0 0 -121.12522572230955 5.0916587095125578 0 5.0916587095125578 171.37254098673293 0 0 0 0 -180.47471490319003 43.823038796115725 0 43.823038796115725 272.26877599817817 0 0 0 0 -201.25284699953045 107.26174637349322 0 107.26174637349322 79.045849304799049 0 0 0 0 -116.81947238753492 34.603611533719231 0 34.603611533719231 126.82560984526208 0 0 0 0 -126.82556052835571 15.384310738736531 0 15.384310738736531 109.98451316948194 0 0 0 0 -91.435875001021486 -1.2570083305909066 0 -1.2570083305909066 86.912158773789997 0 0 0 0 -117.16328069735755 12.029345618262596 0 12.029345618262596 93.30272816294746 0 0 0 0 -60.365722987276968 35.373698613868328 0 35.373698613868328 86.457784685210754 0 0 0 0 -115.27629120188067 20.997118354171107 0 20.997118354171107 17.651628040628566 0 0 0 0 -170.40081513058249 -45.938140395301161 0 -45.938140395301161 70.638909261011577 0 0 0 0 -138.3561068033523 -7.606715132631507 0 -7.606715132631507 102.13079116053996 0 0 0 0 -217.02265458766487 -24.517299514576735 0 -24.517299514576735 135.60917752139358 0 0 0 0 -199.1507900744964 68.090070412379646 0 68.090070412379646 26.754379374382552 0 0 0 0 -165.54886962686214 98.999720457322837 0 98.999720457322837 54.546026370058826 0 0 0 0 -266.74247511261638 44.609267362720857 0 44.609267362720857 -45.46511375598493 0 0 0 0 -556.46190414282501 220.492916503179 0 220.492916503179 13.963729954775772 0 0 0 0 -279.65798168186666 44.103715570148779 0 44.103715570148779 85.385215370435617 0 0 0 0 -5.985905925714178 1.6016348463490431 0 1.6016348463490431 -180.99359494385135 0 0 0 0 88.615468445859733 74.944276346766856 0 74.944276346766856 -4.8246009239155683 0 0 0 0 -59.624393150224932 -14.698723692410567 0 -14.698723692410567 52.243391301424708 0 0 0 0 76.003931724662834 172.11377089869347 0 172.11377089869347 97.707690193870803 0 0 0 0 211.2128051193431 271.23562671199034 0 271.23562671199034 -42.263020422218688 0 0 0 0 -177.77534996241593 -197.50866560759823 0 -197.50866560759823 -126.54479778412497 0 0 0 0 -1015.8530744512245 221.67050929288598 0 221.67050929288598 84.830731426685816 0 0 0 0 538.77751965761126 276.16539044422098 0 276.16539044422098 182.56623113636306 0 0 0 0 -17.150757279757713 25.834051907305195 0 25.834051907305195 -30.890511778470341 0 0 0 0 -31.165490705231178 25.334613544268962 0 25.334613544268962 -18.54311169595826 0 0 0 0 143.213344130721 775.68489713777308 0 775.68489713777308 105.90468119272555 0 0 0 0 141.95267651852919 247.24678680706711 0 247.24678680706711 165.81446800575213 0 0 0 0 232.3998074841511 239.77909034699405 0 239.77909034699405 127.23163863288937 0 0 0 0 197.34163874048681 183.29032876825659 0 183.29032876825659 112.10957648354815 0 0 0 0 120.92358940622216 150.68376480090956 0 150.68376480090956 134.15181674610358 0 0 0 0 238.75816890777787 149.83832221163902 0 149.83832221163902 118.026663486904 0 0 0 0 141.52299534300982 138.5023723437771 0 138.5023723437771 82.771920502593275 0 0 0 0 64.668509518509381 112.68856103488361 0 112.68856103488361 136.02095432797796 0 0 0 0 96.846872140202322 151.64342507434776 0 151.64342507434776 212.62577709827747 0 0 0 0 56.681673869912629 177.96575163587113 0 177.96575163587113 196.20892963345977 0 0 0 0 131.37740806497459 138.36912591251894 0 138.36912591251894 118.30636334922747 0 0 0 0 194.93265669706307 182.33418787495611 0 182.33418787495611 159.16886106401216 0 0 0 0 347.92474506871076 262.4724049095239 0 262.4724049095239 194.38994711595296 0 0 0 0 250.4520674222149 122.5319228751614 0 122.5319228751614 172.02621179986454 0 0 0 0 123.66990962071941 146.07171085027221 0 146.07171085027221 174.65318391047185 0 0 0 0 -47.292307684529945 48.844158569456937 0 48.844158569456937 -45.909220160758593 0 0 0 0 614.25389680336775 830.38918208257928 0 830.38918208257928 -112.79162625999743 0 0 0 0 -37.558281424781228 40.1971913805193 0 40.1971913805193 -40.136271680987193 0 0 0 0 146.952931035441 343.32177171596413 0 343.32177171596413 85.697575857670017 0 0 0 0 -854.74860193417408 -433.86223193519254 0 -433.86223193519254 507.99886270744719 0 0 0 0 -2.0178282954669324 3.1505899650820481 0 3.1505899650820481 -0.45722217334758852 0 0 0 0 443.44920998760563 493.76791630754633 0 493.76791630754633 -370.3764182747982 0 0 0 0 752.01842678938465 1101.5737662423344 0 1101.5737662423344 707.95234578263808 0 0 0 0 376.86945780049064 564.48958543903336 0 564.48958543903336 -8.4119561254192377 0 0 0 0 968.76427313232489 894.62513137349742 0 894.62513137349742 -1031.8192557626135 0 0 0 0 -2032.82333548924 345.36058389100072 0 345.36058389100072 206.91372489284731 0 0 0 0 -13.929368929913721 15.558853237826746 0 15.558853237826746 -18.448594352324676 0 0 0 0 553.23482469197802 669.05699863771463 0 669.05699863771463 -2888.3782803872018 0 0 0 0 573.23359932669337 105.92949370262795 0 105.92949370262795 -1112.7069701802757 0 0 0 0 -991.65128807703513 2035.0045745768221 0 2035.0045745768221 -1781.5887674663318 0 0 0 0 -369.43379790177096 1163.4661623579304 0 1163.4661623579304 -1185.642027719965 0 0 0 0 161.02136221121691 1116.8012440901402 0 1116.8012440901402 -1301.7653997945163 0 0 0 0 719.5932570751811 909.04361910481384 0 909.04361910481384 -977.4267197947047 0 0 0 0 785.13957130077324 919.92146091403629 0 919.92146091403629 -1419.9520819405225 0 0 0 0 402.36600971275948 1391.7413462777113 0 1391.7413462777113 -1841.8664043857243 0 0 0 0 271.40469322505305 1355.1555742336632 0 1355.1555742336632 -1247.5509985644021 0 0 0 0 594.77940563498851 1058.2880328297542 0 1058.2880328297542 -1024.0444856153663 0 0 0 0 609.0678028133284 1058.6742253402663 0 1058.6742253402663 -1117.1477635407646 0 0 0 0 812.98095949913795 769.68137952072357 0 769.68137952072357 -993.95950067073136 0 0 0 0 638.10471102438999 666.45236445411138 0 666.45236445411138 -955.46969042350247 0 0 0 0 898.03237213822456 627.07805496047285 0 627.07805496047285 -952.77341937608435 0 0 0 0 924.58179440881622 839.76807190089312 0 839.76807190089312 -981.9009468316799 0 0 0 0 769.78532445338942 799.51705177303666 0 799.51705177303666 -989.60986763690744 0 0 0 0 879.93096403859181 893.08277946161252 0 893.08277946161252 -1233.5105932173356 0 0 0 0 932.09380215493184 630.45448913070868 0 630.45448913070868 -739.82957464688661 0 0 0 0 788.39140531258363 849.1080750084293 0 849.1080750084293 -122.82057739685843 0 0 0 0 962.04038339147746 525.47158529829312 0 525.47158529829312 -537.01713963052316 0 0 0 0 1106.184410972312 588.94579902579426 0 588.94579902579426 -178.44922505525028 0 0 0 0 1027.6120025990606 887.56057789995793 0 887.56057789995793 -498.34841259854147 0 0 0 0 143.9461659398753 524.93369839564912 0 524.93369839564912 -465.31131037056912 0 0 0 0 412.69554085665368 844.86991881597714 0 844.86991881597714 -574.32490656473965 0 0 0 0 717.06931693192155 530.73818985975959 0 530.73818985975959 -271.22364816200206 0 0 0 0 661.31957625135601 486.43996256054379 0 486.43996256054379 -857.85310455601939 0 0 0 0 713.5776285814195 755.56724896793821 0 755.56724896793821 -708.67121229530676 0 0 0 0 420.82720277102453 469.57746368314838 0 469.57746368314838 -957.29756437807373 0 0 0 0 207.89529511280887 607.98057546590826 0 607.98057546590826 -844.46360124014609 0 0 0 0 630.56886807267711 673.56148057840255 0 673.56148057840255 -936.72307607615949 0 0 0 0 299.14730042715291 605.18239320597058 0 605.18239320597058 -914.20683848374756 0 0 0 0 284.097693318334 563.18985747532497 0 563.18985747532497 -875.3830003137482 0 0 0 0 145.73107164360772 577.41718068975388 0 577.41718068975388 -854.77842794169555 0 0 0 0 -76.076864594019753 361.74559933204364 0 361.74559933204364 -998.7806419206172 0 0 0 0 205.64961650689384 629.65223521702683 0 629.65223521702683 -1044.8102090691536 0 0 0 0 -327.77164815722608 730.94941933763403 0 730.94941933763403 -978.91840163576853 0 0 0 0 -1049.9431351926723 883.68841735008755 0 883.68841735008755 -875.93123072341041 0 0 0 0 -381.65425467730529 606.85558503496577 0 606.85558503496577 -748.54134424026415 0 0 0 0 -422.65374674321447 711.07628213110002 0 711.07628213110002 -801.79233238463348 0 0 0 0 -300.04832561675539 641.50211823581776 0 641.50211823581776 -887.19004329519521 0 0 0 0 -640.13436947960508 1315.8695254348095 0 1315.8695254348095 -1237.1960690876949 0 0 0 0 -1377.5269315414007 584.81020604659534 0 584.81020604659534 -1218.2701562778311 0 0 0 0 -614.44320684719605 1141.7454983837451 0 1141.7454983837451 -981.53215988961529 0 0 0 0 -775.02860102293653 1160.6949825108695 0 1160.6949825108695 -634.78929976924701 0 0 0 0 511.87617079876418 655.0620692926932 0 655.0620692926932 -686.76212596516416 0 0 0 0 90.088471582290367 573.10185590748006 0 573.10185590748006 526.11633156697053 0 0 0 0 -445.33617712319483 219.20075368891594 0 219.20075368891594 507.26912058710877 0 0 0 0 -211.42889737673704 -101.41105147190865 0 -101.41105147190865 81.751628080033697 0 0 0 0 -7.3162161930070155 6.7361917455542084 0 6.7361917455542084 -6.7721084610899709 0 0 0 0 -1570.1299602530034 -264.43088372809871 0 -264.43088372809871 -159.17600069811306 0 0 0 0 -1311.7266639100799 918.9108977081778 0 918.9108977081778 -272.09305101519931 0 0 0 0 -143.699053484459 971.60357295970061 0 971.60357295970061 -1129.0749826364045 0 0 0 0 -322.6119434780685 305.21742717709276 0 305.21742717709276 -1171.6916710648729 0 0 0 0 -4.1299000928679632 1.5573962634281457 0 1.5573962634281457 -0.61939180638333369 0 0 0 0 -21.085850538014256 11.321185207184755 0 11.321185207184755 -0.7313186407269967 0 0 0 0 13.276500665298954 40.696382887734217 0 40.696382887734217 14.426501570269465 0 0 0 0 -129.48650316146086 -2.7153327783453278 0 -2.7153327783453278 140.94618698069098 0 0 0 0 -221.78139431904492 177.0616608438977 0 177.0616608438977 35.39284889557166 0 0 0 0 2.0407818817111547 -165.19137186312582 0 -165.19137186312582 -10.183168985924567 0 0 0 0 -321.70764876225076 284.66246728283659 0 284.66246728283659 -295.87831333001668 0 0 0 0 26.596076466201339 -11.403810592346417 0 -11.403810592346417 -263.24692969073021 0 0 0 0 -65.055453406883316 -41.379393481416628 0 -41.379393481416628 151.40985951336916 0 0 0 0 -81.239824349577248 -16.083312070302782 0 -16.083312070302782 -52.158959706175665 0 0 0 0 -18.036669607686591 8.7801990960806791 0 8.7801990960806791 -4.3885287981818095 0 0 0 0 -235.52926476872562 178.30932664266584 0 178.30932664266584 208.21335608519439 0 0 0 0 -68.453357915281231 8.4199142335855868 0 8.4199142335855868 -191.28478514145536 0 0 0 0 -12.202600200140296 -86.813199770789652 0 -86.813199770789652 -486.40608822600188 0 0 0 0 -1498.0932624406669 704.52345116843208 0 704.52345116843208 -1075.3962561659428 0 0 0 0 -450.67055089167116 960.07186759507749 0 960.07186759507749 -1273.3206631322246 0 0 0 0 -1259.9179436755503 176.89711417460785 0 176.89711417460785 -4.6499167485017097 0 0 0 0 -6.5900811430914104 5.2125656071609114 0 5.2125656071609114 -3.673115804513202 0 0 0 0 -552.18833513108984 -385.19617858096899 0 -385.19617858096899 -253.92581455161053 0 0 0 0 -303.77298659844786 -203.21889385125587 0 -203.21889385125587 20.903230202704435 0 0 0 0 -310.34120032421924 88.16093298348278 0 88.16093298348278 -101.93987198603645 0 0 0 0 -201.5268658388195 119.94559206380654 0 119.94559206380654 306.52092935541441 0 0 0 0 -200.77555397199831 -100.71094226041896 0 -100.71094226041896 151.98860678056371 0 0 0 0 -161.0472475991337 -77.60976692463737 0 -77.60976692463737 103.02931793197058 0 0 0 0 -140.23676516248815 -82.824548573727952 0 -82.824548573727952 119.1783426006441 0 0 0 0 -138.16797828828567 -77.443464695403236 0 -77.443464695403236 111.95112295079161 0 0 0 0 -172.79549336037962 -128.53862610844772 0 -128.53862610844772 88.477849913906539 0 0 0 0 -114.28028481159708 -102.54773197570466 0 -102.54773197570466 -4.7147429994074628 0 0 0 0 -88.4092977266464 -87.693408422757784 0 -87.693408422757784 -0.46322336416051257 0 0 0 0 -112.38531714731653 -157.41408778434561 0 -157.41408778434561 -199.90425024344586 0 0 0 0 -42.284432248838129 -53.971894198446535 0 -53.971894198446535 -87.502238645472971 0 0 0 0 -27.368890745077806 -12.415388036875811 0 -12.415388036875811 -6.9644686287647346 0 0 0 0 -109.85053782442264 -42.236434975638986 0 -42.236434975638986 26.97907017354737 0 0 0 0 -27.369070001128421 -0.76851856507710181 0 -0.76851856507710181 3.7680975180555834 0 0 0 0 -148.04106207208679 -94.682617867263616 0 -94.682617867263616 78.898412319598719 0 0 0 0 -100.15544863037576 -66.925300924602197 0 -66.925300924602197 84.305623841297347 0 0 0 0 -146.52485163592064 -104.39791634173162 0 -104.39791634173162 94.805410425702576 0 0 0 0 -152.09009579619305 -102.92699389762129 0 -102.92699389762129 97.085354878523503 0 0 0 0 -152.87653102086915 -95.671197943331208 0 -95.671197943331208 100.5647938805123 0 0 0 0 -151.13636978364229 -107.49569181143306 0 -107.49569181143306 106.57509359763208 0 0 0 0 -204.05145857608295 -49.518238827615278 0 -49.518238827615278 165.46154550806386 0 0 0 0 -8.5727592641220554 -0.037624288847510456 0 -0.037624288847510456 7.889557469811507 0 0 0 0 0.84684519141956116 -59.532052594211564 0 -59.532052594211564 124.45705068232201 0 0 0 0 -54.635549255341175 36.927996743455878 0 36.927996743455878 136.23345648568647 0 0 0 0 25.972835713850145 83.268516779520724 0 83.268516779520724 88.000532893362106 0 0 0 0 -213.25061917882181 155.27124871674323 0 155.27124871674323 544.05698466394097 0 0 0 0 -221.19830003307288 -53.666531176815624 0 -53.666531176815624 188.20915924393921 0 0 0 0 -475.0654829248233 -395.34608996534371 0 -395.34608996534371 472.01244864399632 0 0 0 0 -235.56836496220785 -179.17602419428295 0 -179.17602419428295 237.33542891786055 0 0 0 0 -27.216080514248461 216.1110776879359 0 216.1110776879359 558.73940569348633 0 0 0 0 -44.12579012507922 119.79721443590097 0 119.79721443590097 60.769306062953547 0 0 0 0 -21.813420232540011 17.572675713210629 0 17.572675713210629 6.6192009630321991 0 0 0 0 -22.717526743839699 -11.211589509857731 0 -11.211589509857731 -21.147873533875099 0 0 0 0 -25.589078341319691 -1.7512049232846039 0 -1.7512049232846039 -18.66167027472693 0 0 0 0 -169.34455968991824 -72.152029621851398 0 -72.152029621851398 160.81346025571111 0 0 0 0 -16.974134299324291 -3.5251060194923696 0 -3.5251060194923696 10.341416346043502 0 0 0 0 -11.012414433885954 -12.567677382997005 0 -12.567677382997005 50.766686257105334 0 0 0 0 -407.7819469604292 161.77513567765709 0 161.77513567765709 542.78089591988828 0 0 0 0 -139.97842875745118 -88.416975626256317 0 -88.416975626256317 13.067992677388247 0 0 0 0 -157.09046864091215 -24.546802100696368 0 -24.546802100696368 322.50985645607579 0 0 0 0 -180.29293618330848 44.186851774575189 0 44.186851774575189 402.75789784830704 0 0 0 0 -34.196637182154518 353.33014752888266 0 353.33014752888266 357.04322991482331 0 0 0 0 503.23674112572917 -40.006344902096316 0 -40.006344902096316 -796.68917371614953 0 0 0 0 -1.8836830744418265 10.071191016805983 0 10.071191016805983 4.5231785436641871 0 0 0 0 -1122.9747210814385 -220.19090129327378 0 -220.19090129327378 57.921080289117526 0 0 0 0 -7.8449860128726243 -1.538941602430711 0 -1.538941602430711 11.364147861644 0 0 0 0 -47.382717273496382 -62.848218810209801 0 -62.848218810209801 -260.11896184360376 0 0 0 0 274.70550263219047 364.60910047187645 0 364.60910047187645 -199.37124218413373 0 0 0 0 -229.13055354126118 -326.07781216788862 0 -326.07781216788862 -325.3854186697281 0 0 0 0 -457.16820131475106 40.493974172510207 0 40.493974172510207 -217.36574396202195 0 0 0 0 -207.23142954168725 -131.42778915562667 0 -131.42778915562667 -142.37092112531536 0 0 0 0 -128.78387609529454 0.81416452513803961 0 0.81416452513803961 -107.31321891504922 0 0 0 0 -563.11704632075998 -123.32557871678728 0 -123.32557871678728 -7.2220896803191863 0 0 0 0 -639.71529774088413 -96.344809289672412 0 -96.344809289672412 6.0849690861068666 0 0 0 0 -390.75475510301476 -376.60217213426949 0 -376.60217213426949 -239.77732492779614 0 0 0 0 -703.47372269099287 -535.3355135267193 0 -535.3355135267193 -302.74894303764449 0 0 0 0 -113.96076826902572 -43.964427344079013 0 -43.964427344079013 -29.714323817403056 0 0 0 0 -138.27488862280734 -8.6724830663879402 0 -8.6724830663879402 -82.384460787299759 0 0 0 0 -77.937618759417091 138.11746294421027 0 138.11746294421027 -54.21701188107545 0 0 0 0 -99.157762592603831 77.623819541739067 0 77.623819541739067 65.690760542667704 0 0 0 0 -186.60498264029957 -197.48021214270193 0 -197.48021214270193 -49.200678532710299 0 0 0 0 -132.19686193027883 -28.332887823198689 0 -28.332887823198689 -42.597257737535983 0 0 0 0 -115.46596533766569 -59.332522328084451 0 -59.332522328084451 45.069638844986912 0 0 0 0 -104.55121110496111 -5.2801181752583943 0 -5.2801181752583943 106.31038241204806 0 0 0 0 -100.62392964074388 26.159304656117456 0 26.159304656117456 77.167982261016732 0 0 0 0 -123.64909898262704 73.498126177088125 0 73.498126177088125 159.67892270101584 0 0 0 0 -115.55417867027427 52.809010297583882 0 52.809010297583882 182.58084143958695 0 0 0 0 -118.52420516192797 74.683674645479186 0 74.683674645479186 72.169951689385925 0 0 0 0 -135.09517176024383 93.119365358972573 0 93.119365358972573 240.03315810713684 0 0 0 0 -182.54446210809692 70.161638086206949 0 70.161638086206949 229.07425314179272 0 0 0 0 -99.061926184738695 6.4019206990706152 0 6.4019206990706152 148.44308981001086 0 0 0 0 -155.84047487974021 -17.792746668223117 0 -17.792746668223117 242.31881208322011 0 0 0 0 -80.913946756416408 78.271728935433202 0 78.271728935433202 189.89135227541192 0 0 0 0 -84.841139153209951 75.882033687899821 0 75.882033687899821 197.33144279476983 0 0 0 0 -62.688718440277043 17.086271518694275 0 17.086271518694275 -4.9263748563488576 0 0 0 0 -641.28604851862474 -651.79448188305832 0 -651.79448188305832 -728.99604322051164 0 0 0 0 -15.246184857776967 -1.5804151081395901 0 -1.5804151081395901 11.714868120795842 0 0 0 0 -7.9961951843033603 80.634106951736612 0 80.634106951736612 186.9120406270813 0 0 0 0 -80.672103183009312 70.927776635289774 0 70.927776635289774 156.55412426081602 0 0 0 0 -95.463493643133916 87.299643132875644 0 87.299643132875644 221.64028973772656 0 0 0 0 -108.55786513911335 35.155757522592467 0 35.155757522592467 177.79349348979304 0 0 0 0 -91.937904204860388 19.778974987573747 0 19.778974987573747 133.43991870463651 0 0 0 0 -122.03500215612894 -29.699324304232505 0 -29.699324304232505 178.69393701761146 0 0 0 0 -155.67859424151629 -11.754260328900273 0 -11.754260328900273 258.72323574042821 0 0 0 0 -48.012769365432177 59.456079133531603 0 59.456079133531603 200.67653317718941 0 0 0 0 -101.31391838529453 20.396034131168562 0 20.396034131168562 211.59390189338592 0 0 0 0 124.975792586647 98.223428358185629 0 98.223428358185629 230.65310314600356 0 0 0 0 -92.217187084033867 80.723854567782837 0 80.723854567782837 327.68819503471605 0 0 0 0 21.969285994608981 200.01844473472102 0 200.01844473472102 282.84642373517272 0 0 0 0 -32.901694367990835 23.994096853664161 0 23.994096853664161 -15.536832515859885 0 0 0 0 -180.45581141605362 -298.30791967673576 0 -298.30791967673576 -297.22452543305906 0 0 0 0 -258.17701044279602 -78.588153039338067 0 -78.588153039338067 -300.58912017120747 0 0 0 0 -532.90934101986932 -243.87128172334633 0 -243.87128172334633 -398.67718819133006 0 0 0 0 -328.28718523515272 -30.734381188987754 0 -30.734381188987754 -343.53995285219571 0 0 0 0 -448.31154528004117 -256.98125495645218 0 -256.98125495645218 -547.16886610790971 0 0 0 0 -768.51279264226469 -424.73887176276185 0 -424.73887176276185 -474.65975811600219 0 0 0 0 -124.24274055563001 -25.707529537787195 0 -25.707529537787195 -350.43650417786557 0 0 0 0 -4.6266501621894349 -80.314652434477466 0 -80.314652434477466 -229.06504191699787 0 0 0 0 -121.75692442669242 72.79105395260558 0 72.79105395260558 69.695874619697861 0 0 0 0 -82.307361674354979 -116.89185955671564 0 -116.89185955671564 -211.03258001594804 0 0 0 0 -89.250459904744275 -111.87359011525768 0 -111.87359011525768 -21.09581486164825 0 0 0 0 -189.30405450013859 -109.9892371372116 0 -109.9892371372116 -305.65655110951047 0 0 0 0 -446.71617167594013 -75.49528399281553 0 -75.49528399281553 -64.467271102941595 0 0 0 0 -398.52799861355379 -73.173069927648612 0 -73.173069927648612 -328.63124023191631 0 0 0 0 -302.88495751671144 16.913614492747001 0 16.913614492747001 -144.81774121965282 0 0 0 0 -299.7840837843105 -94.411998697876697 0 -94.411998697876697 -326.72536596845021 0 0 0 0 -221.97323811805927 -93.176443749202008 0 -93.176443749202008 -65.947612055228092 0 0 0 0 -272.13739332128171 53.791570437548216 0 53.791570437548216 18.109635367844021 0 0 0 0 -204.72632249011804 60.895920935028698 0 60.895920935028698 -58.991937750659417 0 0 0 0 -83.824515865540889 16.834106208872981 0 16.834106208872981 -45.730315330612939 0 0 0 0 -213.06250635084143 -46.266124518559081 0 -46.266124518559081 -100.71983458416071 0 0 0 0 -116.75629478689734 41.591410393448314 0 41.591410393448314 128.9278803220659 0 0 0 0 -234.40855215283227 -28.350641147524584 0 -28.350641147524584 115.29234505162458 0 0 0 0 -253.5346324930706 -52.385448773187818 0 -52.385448773187818 271.69227247594972 0 0 0 0 -182.78152875450905 20.300269761995878 0 20.300269761995878 287.13625346302069 0 0 0 0 -72.531252878308806 75.744353616712033 0 75.744353616712033 270.69372027137433 0 0 0 0 -18.865161595902464 26.5862797519585 0 26.5862797519585 86.45604515838204 0 0 0 0 96.373667530340754 88.485665770291234 0 88.485665770291234 241.5646297748608 0 0 0 0 -76.41049731410385 74.822214463929413 0 74.822214463929413 443.86771939147729 0 0 0 0 101.67781970693613 123.95924868735165 0 123.95924868735165 433.47087118838681 0 0 0 0 -20.884867819899227 74.300735581913614 0 74.300735581913614 282.05957192446112 0 0 0 0 126.3838521002308 50.539023604913382 0 50.539023604913382 658.74648228464503 0 0 0 0 -67.304288254397761 103.48563970641408 0 103.48563970641408 650.36768026827485 0 0 0 0 -20.445311222636519 73.069916807693517 0 73.069916807693517 439.40614897743217 0 0 0 0 -175.23792512926411 1.7481215857769712 0 1.7481215857769712 456.26231372868642 0 0 0 0 -110.74852428890699 23.624829013526323 0 23.624829013526323 267.03678547331947 0 0 0 0 -202.00553785518423 -96.148383185500279 0 -96.148383185500279 357.87783325078271 0 0 0 0 -117.88075334913083 62.510934879428532 0 62.510934879428532 397.2691381626064 0 0 0 0 -163.27702375234458 -23.377432681194477 0 -23.377432681194477 626.55321307957638 0 0 0 0 -176.86889227003667 -39.930242086942599 0 -39.930242086942599 440.29491146828514 0 0 0 0 -120.76918126492455 12.438217567509128 0 12.438217567509128 202.36616903336835 0 0 0 0 -77.238632738745764 -71.28948500311526 0 -71.28948500311526 -154.20839513567626 0 0 0 0 -202.25053896407917 -147.38424643255712 0 -147.38424643255712 100.3504715947056 0 0 0 0 -135.32453119490856 -48.479292538773734 0 -48.479292538773734 80.588132926553953 0 0 0 0 8.0836998858430889 94.568913211580366 0 94.568913211580366 -388.31261686322978 0 0 0 0 -148.2075751806442 -146.76240794513433 0 -146.76240794513433 -129.00605311561958 0 0 0 0 -338.21568708243285 -114.38731292271405 0 -114.38731292271405 65.104942929930985 0 0 0 0 -281.55117293719832 -124.94560786176183 0 -124.94560786176183 -117.42393949686084 0 0 0 0 -281.65870683987305 -26.799112243927084 0 -26.799112243927084 -403.58924682554789 0 0 0 0 -429.4132585079351 -359.34533351450227 0 -359.34533351450227 -880.46694059311994 0 0 0 0 -125.02117712558174 -64.669646357288002 0 -64.669646357288002 36.020211766212014 0 0 0 0 -46.241310691087619 -73.918609152657154 0 -73.918609152657154 -155.10445439610339 0 0 0 0 -157.92620529003466 -96.074133183082267 0 -96.074133183082267 189.89488262300438 0 0 0 0 -108.05541726918455 33.494424300275568 0 33.494424300275568 62.331408831589215 0 0 0 0 -116.40964959072244 57.523094077216228 0 57.523094077216228 235.16115977775189 0 0 0 0 -177.54497631974527 65.361915114892327 0 65.361915114892327 396.97933370436658 0 0 0 0 -130.65880289720326 147.97332900205583 0 147.97332900205583 63.008580972076743 0 0 0 0 -1.2801273255105992 0.16628656014940191 0 0.16628656014940191 2.4053010269770851 0 0 0 0 -84.627589234565221 123.94479196428438 0 123.94479196428438 -58.557286245239084 0 0 0 0 -83.106271993498893 21.672297494480603 0 21.672297494480603 -1.0380369187374967 0 0 0 0 -84.435789010168264 -19.943689049905515 0 -19.943689049905515 21.691786879544452 0 0 0 0 -115.83303691984338 32.941008390604111 0 32.941008390604111 87.308919806520862 0 0 0 0 -110.85839299819781 -39.968168972365675 0 -39.968168972365675 105.5909198999143 0 0 0 0 114.51026343982085 362.64045939029893 0 362.64045939029893 185.82705856081338 0 0 0 0 -161.6541897541174 628.0301869439063 0 628.0301869439063 573.33234825512045 0 0 0 0 153.12611571035814 560.19575425908988 0 560.19575425908988 234.47949998064723 0 0 0 0 -300.19288166255956 739.5016184874803 0 739.5016184874803 168.1020948284422 0 0 0 0 -152.89767863941688 535.42090715688391 0 535.42090715688391 -147.26240935379246 0 0 0 0 -617.17777705522531 102.25164681129718 0 102.25164681129718 133.42308677147957 0 0 0 0 -211.06027581809212 0.13941747858916642 0 0.13941747858916642 -107.74428794424421 0 0 0 0 -21.739482287376696 17.34532511606335 0 17.34532511606335 -12.517087353798388 0 0 0 0 -283.89993666645933 -206.63899343162211 0 -206.63899343162211 -190.84510614053579 0 0 0 0 -24.573902341231587 50.419278756991844 0 50.419278756991844 -116.68900622371439 0 0 0 0 -289.02288296297047 -231.42749671779166 0 -231.42749671779166 -54.088017964735627 0 0 0 0 -250.71210814289952 -33.892703801677271 0 -33.892703801677271 -42.09152769803768 0 0 0 0 66.69702421375041 64.862571216515789 0 64.862571216515789 -47.271940140180959 0 0 0 0 -12.792487140808589 4.1715755456825718 0 4.1715755456825718 -27.126994095626287 0 0 0 0 -62.210145367721793 328.12267441586982 0 328.12267441586982 362.87913940305589 0 0 0 0 384.60222061069908 438.76181053194887 0 438.76181053194887 304.30045852826152 0 0 0 0 291.52510656161303 259.23358899335653 0 259.23358899335653 249.52172500810411 0 0 0 0 92.565971774663922 385.13596250723276 0 385.13596250723276 462.25969449186232 0 0 0 0 96.672886951149849 143.32060704682954 0 143.32060704682954 96.068841661376382 0 0 0 0 -82.175653614403018 -68.851565713743184 0 -68.851565713743184 99.001636549801333 0 0 0 0 -36.695757450622295 81.385306930467777 0 81.385306930467777 265.7807502385549 0 0 0 0 109.72478361014691 245.62625557588035 0 245.62625557588035 396.44123612578551 0 0 0 0 40.79952851872622 161.99029401777443 0 161.99029401777443 451.34982335165842 0 0 0 0 128.30284935300187 65.583178548680735 0 65.583178548680735 214.97886366311286 0 0 0 0 264.88910852196204 164.28568184547476 0 164.28568184547476 423.9696517633347 0 0 0 0 375.58365040510762 249.37114988524991 0 249.37114988524991 370.53588649997982 0 0 0 0 214.21860814564025 288.84148109836678 0 288.84148109836678 608.54885875977925 0 0 0 0 410.34849898533867 204.04416115705681 0 204.04416115705681 641.39776681411604 0 0 0 0 191.04286343105196 247.81919641808781 0 247.81919641808781 668.48475905498708 0 0 0 0 65.700491969873838 118.67226660484448 0 118.67226660484448 649.36413009220269 0 0 0 0 254.79452085546473 559.35203943974193 0 559.35203943974193 700.70547835732577 0 0 0 0 473.3795087250619 450.94522061933822 0 450.94522061933822 451.90739752496847 0 0 0 0 261.64127837009164 372.30071974695602 0 372.30071974695602 600.53011216386221 0 0 0 0 602.40623463736483 509.86290209399885 0 509.86290209399885 616.0027805207792 0 0 0 0 493.03083828613944 478.02637039705223 0 478.02637039705223 837.26148863385606 0 0 0 0 758.35309560207497 700.81961768592737 0 700.81961768592737 711.33417139107587 0 0 0 0 415.3634287079276 734.6610241158487 0 734.6610241158487 815.80257089104998 0 0 0 0 498.34612159761946 791.09854472280495 0 791.09854472280495 694.3564757402637 0 0 0 0 490.9667805007557 906.3821194276461 0 906.3821194276461 1012.5089822776135 0 0 0 0 63.30438281752231 556.77791033263929 0 556.77791033263929 630.47825659441878 0 0 0 0 242.64407975968606 749.25958642181922 0 749.25958642181922 789.00816893146839 0 0 0 0 378.34395112022503 767.30035754027631 0 767.30035754027631 545.14588651430313 0 0 0 0 420.1645499673557 879.98530095558863 0 879.98530095558863 940.63273802268668 0 0 0 0 373.3871379003067 927.12833907340246 0 927.12833907340246 1070.0484820700513 0 0 0 0 465.01346212031058 926.10099402176274 0 926.10099402176274 797.45722535837376 0 0 0 0 420.99801205893709 972.93648143191967 0 972.93648143191967 935.10109208004724 0 0 0 0 415.46343870410965 889.30367924664461 0 889.30367924664461 1070.7756873409257 0 0 0 0 416.18772087431353 1002.1178555512015 0 1002.1178555512015 1411.8873929373513 0 0 0 0 196.19978850643747 137.15441514091799 0 137.15441514091799 -246.69594068815059 0 0 0 0 51.059634947001527 7.5207720442836887 0 7.5207720442836887 -4.5649789017864748 0 0 0 0 398.11884866015225 690.34113250921291 0 690.34113250921291 1154.1126835681353 0 0 0 0 358.98517236362386 629.24325572140515 0 629.24325572140515 1373.170584278414 0 0 0 0 704.48394515584368 1538.2703129835572 0 1538.2703129835572 2839.5929660458351 0 0 0 0 15.850748642658459 -2.433178143626094 0 -2.433178143626094 2.4010276713071619 0 0 0 0 361.42813331049183 734.50695931074006 0 734.50695931074006 2064.794191090019 0 0 0 0 636.92326916018737 832.29950233699128 0 832.29950233699128 1037.9889754580654 0 0 0 0 922.1682324580288 1202.0449621443622 0 1202.0449621443622 1441.4962055136784 0 0 0 0 889.3043719247089 731.08143338213995 0 731.08143338213995 936.53832105018591 0 0 0 0 891.43611502012959 616.04421666597932 0 616.04421666597932 1117.287168264389 0 0 0 0 290.85764435664987 110.50413264492818 0 110.50413264492818 855.34262783982558 0 0 0 0 757.6894508043647 190.47400702743653 0 190.47400702743653 889.79718169235275 0 0 0 0 424.34252295158149 378.73277766810497 0 378.73277766810497 791.27352851640171 0 0 0 0 419.22180203509015 279.50252354264376 0 279.50252354264376 1184.6028559550614 0 0 0 0 441.69040562430109 312.80780799578861 0 312.80780799578861 910.07234150431759 0 0 0 0 539.07286763992761 100.61522580513702 0 100.61522580513702 1468.7128213772885 0 0 0 0 1463.3008618014846 382.21852896001656 0 382.21852896001656 1091.6182184405225 0 0 0 0 1660.0272266955089 1332.6376874570778 0 1332.6376874570778 1571.8274609028194 0 0 0 0 1839.8930244672047 979.53684939081722 0 979.53684939081722 501.96658872728585 0 0 0 0 1220.8725850146784 -3.5597869229823118 0 -3.5597869229823118 -362.63138631070615 0 0 0 0 442.79140481776449 804.92557455364658 0 804.92557455364658 1633.7484660943301 0 0 0 0 307.63895289747234 457.27006585968047 0 457.27006585968047 986.68949976934528 0 0 0 0 485.80158254356502 754.5077057350245 0 754.5077057350245 992.55168136209249 0 0 0 0 598.5768349574173 430.7156732774456 0 430.7156732774456 360.91154661090695 0 0 0 0 984.16792696383709 545.93769981387595 0 545.93769981387595 426.32215144606016 0 0 0 0 538.91186748998734 423.83591339638224 0 423.83591339638224 410.219771188913 0 0 0 0 799.87147878619726 319.98436838589259 0 319.98436838589259 268.23847843978001 0 0 0 0 1064.8852861874293 35.752385027124546 0 35.752385027124546 130.15269413369242 0 0 0 0 918.76252810479855 243.92983612339594 0 243.92983612339594 315.83288383795298 0 0 0 0 680.08555730994067 198.53481219331661 0 198.53481219331661 310.8968856335996 0 0 0 0 736.05417150876019 193.49002271216887 0 193.49002271216887 304.03858429870888 0 0 0 0 682.63792424234271 -10.045851512317313 0 -10.045851512317313 315.67075801233295 0 0 0 0 831.81675880214971 -153.98698359559057 0 -153.98698359559057 451.52483901595406 0 0 0 0 898.6378904832527 -78.586429412447615 0 -78.586429412447615 222.00595313542726 0 0 0 0 1015.6425819729702 -105.36647340132913 0 -105.36647340132913 224.13341033065808 0 0 0 0 527.03943503979826 -246.98297364194877 0 -246.98297364194877 172.84269344512722 0 0 0 0 967.02983248907549 25.614362838517991 0 25.614362838517991 182.00850423400698 0 0 0 0 864.21393940486359 77.004490705688724 0 77.004490705688724 157.58664628726547 0 0 0 0 864.45557256425673 -48.463374423168716 0 -48.463374423168716 203.99611632696178 0 0 0 0 791.71227303707201 -84.135854540174478 0 -84.135854540174478 127.91738971504674 0 0 0 0 595.71479545696639 65.481072115333518 0 65.481072115333518 205.66185067764309 0 0 0 0 473.97062776143139 157.92969313118374 0 157.92969313118374 158.29947164510668 0 0 0 0 333.71991825231817 336.98679077767883 0 336.98679077767883 146.59397491900017 0 0 0 0 -68.495926713992958 475.75149973187945 0 475.75149973187945 241.1818572623306 0 0 0 0 -7.371703961155923 0.49809238530314559 0 0.49809238530314559 1.1135068776158619 0 0 0 0 503.56144008151023 204.58969258438447 0 204.58969258438447 117.73561426501692 0 0 0 0 88.841664055536967 152.37418435650761 0 152.37418435650761 221.18576793425018 0 0 0 0 349.185054539681 203.00451316031103 0 203.00451316031103 129.51915035111597 0 0 0 0 602.54870877576468 214.14091333153192 0 214.14091333153192 87.909928924054839 0 0 0 0 99.848485720525787 417.94032079372846 0 417.94032079372846 134.55195872840704 0 0 0 0 5.9134189467457361 3.9663518746958317 0 3.9663518746958317 4.5787711493015877 0 0 0 0 5.1607925263371826 2.3735722988396333 0 2.3735722988396333 4.7342391895890898 0 0 0 0 -40.152531339219422 -33.248066880041733 0 -33.248066880041733 185.80857434918289 0 0 0 0 655.91781165474094 202.28068033857562 0 202.28068033857562 202.74413781675685 0 0 0 0 33.775597797015507 -124.84942424271867 0 -124.84942424271867 188.78424117012764 0 0 0 0 -3.0889398056388018 -9.6244442197094031 0 -9.6244442197094031 185.59032755205408 0 0 0 0 60.089399399294052 -51.289042434771545 0 -51.289042434771545 182.2537386038457 0 0 0 0 -8.3318246745038778 -46.463569759158418 0 -46.463569759158418 183.92719521414256 0 0 0 0 -40.22038879171123 11.091565622486087 0 11.091565622486087 192.07915395591408 0 0 0 0 -44.347003608469095 -20.475109467937727 0 -20.475109467937727 184.62616279558279 0 0 0 0 75.339038222673935 113.23155239105108 0 113.23155239105108 10.701050631549151 0 0 0 0 -12.789110386947868 -6.9161021803156473 0 -6.9161021803156473 194.1464920315193 0 0 0 0 23.363829882175651 80.974351599666988 0 80.974351599666988 30.552148783841403 0 0 0 0 46.93306941802723 58.400663700860605 0 58.400663700860605 -31.935999780209386 0 0 0 0 -8.135652265294901 35.456686226660054 0 35.456686226660054 -23.024606936107261 0 0 0 0 14.4436964845072 26.030358926698682 0 26.030358926698682 -14.78708178816305 0 0 0 0 45.00395377925679 218.58077156907666 0 218.58077156907666 163.64485276998312 0 0 0 0 7.7355527986192101 150.26786187758262 0 150.26786187758262 174.87944368115859 0 0 0 0 -27.117646949466458 17.091928129515708 0 17.091928129515708 14.303116144556611 0 0 0 0 -176.91511534745314 269.88166072062813 0 269.88166072062813 152.94647665777302 0 0 0 0 675.29061753075075 -282.95368590945145 0 -282.95368590945145 -505.64836127486342 0 0 0 0 -224.85241781399236 30.125663822032948 0 30.125663822032948 115.38738241975079 0 0 0 0 -21.001673118940744 -207.95189446070799 0 -207.95189446070799 -58.594244973181048 0 0 0 0 650.62915943308326 100.58848359182593 0 100.58848359182593 127.33572876556718 0 0 0 0 473.4936468665619 -94.227334684241214 0 -94.227334684241214 -51.648614144532075 0 0 0 0 150.73947423434583 138.36105158231658 0 138.36105158231658 223.16871912605711 0 0 0 0 54.675374298454699 97.901426975537106 0 97.901426975537106 362.74093490064843 0 0 0 0 130.48689259441016 93.536417125549633 0 93.536417125549633 124.66448360569484 0 0 0 0 -217.28165345944672 325.10656890774408 0 325.10656890774408 654.43988704319054 0 0 0 0 -132.19243338288641 302.87576341372187 0 302.87576341372187 657.75212357727287 0 0 0 0 -132.3646191533694 290.49398787535029 0 290.49398787535029 541.29838246128929 0 0 0 0 -215.24046668761912 195.89608956515076 0 195.89608956515076 589.53824812590028 0 0 0 0 -68.772703563280857 143.2069307310303 0 143.2069307310303 412.01719293133647 0 0 0 0 -190.94911099040974 235.22106222419825 0 235.22106222419825 582.83999170301104 0 0 0 0 -160.26526273763739 61.407082380443171 0 61.407082380443171 397.87025209594503 0 0 0 0 -141.5538155350223 145.31933287199354 0 145.31933287199354 516.56545565020133 0 0 0 0 -235.69562831510575 178.38076821994036 0 178.38076821994036 764.80115232471144 0 0 0 0 -206.36785352207244 321.13211479515303 0 321.13211479515303 749.52924888049438 0 0 0 0 -227.29514496353227 322.98831977260124 0 322.98831977260124 788.11638230372046 0 0 0 0 -212.4452960006347 321.15984665160795 0 321.15984665160795 950.17530575384444 0 0 0 0 -93.10628970400353 324.51124958263244 0 324.51124958263244 984.15507171337958 0 0 0 0 -126.76608212616338 201.5637284175391 0 201.5637284175391 806.56335807219148 0 0 0 0 -187.77849220065355 247.11500545449962 0 247.11500545449962 774.70849289235775 0 0 0 0 -163.41596426677279 57.448998417763505 0 57.448998417763505 694.25953338923864 0 0 0 0 -106.96500879122141 173.18743251308479 0 173.18743251308479 654.38874605999354 0 0 0 0 -42.257911962209619 52.681978687571245 0 52.681978687571245 841.48279667369206 0 0 0 0 19.108497537839412 227.22628240363701 0 227.22628240363701 898.42501040449133 0 0 0 0 178.02098229028707 80.078560337919043 0 80.078560337919043 1030.6325966038603 0 0 0 0 233.55996921086444 467.06205704890453 0 467.06205704890453 1201.0016705090202 0 0 0 0 -47.14787921892821 441.87774854328745 0 441.87774854328745 1134.1424263872468 0 0 0 0 87.298380105007709 234.14694844828045 0 234.14694844828045 976.88491098518716 0 0 0 0 274.91239731937094 544.35675082852867 0 544.35675082852867 900.85180890213815 0 0 0 0 84.761797320971709 557.42590940076479 0 557.42590940076479 934.70104817821993 0 0 0 0 332.69531700110838 519.94703772658613 0 519.94703772658613 633.56843237692374 0 0 0 0 247.64522624748952 589.83552324695484 0 589.83552324695484 650.22611650268664 0 0 0 0 220.63443017182453 504.48062214487072 0 504.48062214487072 441.97732253535651 0 0 0 0 15.315964195406195 542.01067105124093 0 542.01067105124093 692.15033742800006 0 0 0 0 -22.605744245027381 440.8358438594878 0 440.8358438594878 454.52316508322838 0 0 0 0 -72.040624933880281 347.72668782102755 0 347.72668782102755 835.06215032207547 0 0 0 0 -132.94843270728688 467.55331344053411 0 467.55331344053411 893.79558459673717 0 0 0 0 47.522210257844563 458.61924084051861 0 458.61924084051861 672.69024352245106 0 0 0 0 -260.69318319965123 420.95639786168249 0 420.95639786168249 770.27231386283529 0 0 0 0 -177.56209341608474 369.88951193156026 0 369.88951193156026 680.61033539052005 0 0 0 0 -206.30561231125012 346.49858389145811 0 346.49858389145811 501.10653888600064 0 0 0 0 -204.10518747948618 386.32625801481481 0 386.32625801481481 496.30850788047246 0 0 0 0 -117.74592946291341 477.1058220011837 0 477.1058220011837 659.65990622790559 0 0 0 0 -418.1085799522258 368.12128115693486 0 368.12128115693486 685.91159048737609 0 0 0 0 -270.59773936134593 527.82332083386427 0 527.82332083386427 670.12935099550396 0 0 0 0 -214.00019436030288 431.15420208212163 0 431.15420208212163 697.1917578207358 0 0 0 0 -227.35355165395367 434.88110312554636 0 434.88110312554636 703.01269134608083 0 0 0 0 -144.71719250425758 385.45663874963793 0 385.45663874963793 690.3859487594309 0 0 0 0 -983.35108241632861 -609.88071591250446 0 -609.88071591250446 -1098.227536141334 0 0 0 0 -245.22929233889295 162.74930254103333 0 162.74930254103333 -110.95548222138314 0 0 0 0 -255.80593594090101 288.98456737097877 0 288.98456737097877 -9.2485388416826027 0 0 0 0 -378.25551912320088 116.65528312756942 0 116.65528312756942 23.117331800138345 0 0 0 0 -326.85317092394007 261.88404763527069 0 261.88404763527069 425.34706548917165 0 0 0 0 -10.57803272898127 401.0391165327901 0 401.0391165327901 235.32667343055073 0 0 0 0 -34.912292031649486 307.1807575208004 0 307.1807575208004 -15.294811294981628 0 0 0 0 -6.2118942219240125 452.79659547100164 0 452.79659547100164 276.4607598936127 0 0 0 0 403.86328428894103 734.48410672231694 0 734.48410672231694 -35.977010978789622 0 0 0 0 305.1484016386039 386.56935501833868 0 386.56935501833868 -760.3629122988641 0 0 0 0 151.5837441863614 495.014508906439 0 495.014508906439 -139.31738954340472 0 0 0 0 0.61414717579827993 489.52294849853934 0 489.52294849853934 462.84223429803205 0 0 0 0 135.37487726100335 518.91376294981092 0 518.91376294981092 212.87502783637319 0 0 0 0 168.0669828864161 583.25677039111361 0 583.25677039111361 222.29742069958593 0 0 0 0 107.07200224700136 550.69418408268393 0 550.69418408268393 450.56007036944811 0 0 0 0 357.52419377896877 464.51572124691666 0 464.51572124691666 262.70317919987428 0 0 0 0 10.360100896066797 456.49735163351397 0 456.49735163351397 262.94498213870975 0 0 0 0 -175.10598339062562 518.08731372664624 0 518.08731372664624 150.93526658535302 0 0 0 0 151.45520879612559 630.29173074673236 0 630.29173074673236 125.32559363955806 0 0 0 0 -184.7231256815767 136.39544104777349 0 136.39544104777349 -136.47883403320157 0 0 0 0 -216.19574754148198 427.67905821046406 0 427.67905821046406 -1023.5930972538408 0 0 0 0 -167.10164492709828 262.13807518711837 0 262.13807518711837 -632.53944687355943 0 0 0 0 81.364080971527073 748.7427951471509 0 748.7427951471509 -943.04932716082476 0 0 0 0 5.3540146294069366 0.77824965466564322 0 0.77824965466564322 -1.7109046565850008 0 0 0 0 12.997871584662789 697.53582656934304 0 697.53582656934304 273.64624518173514 0 0 0 0 128.04211399450423 1108.1692113873869 0 1108.1692113873869 -225.99419334728009 0 0 0 0 141.69913632219448 991.47425873834254 0 991.47425873834254 33.241324821879971 0 0 0 0 141.6738775948993 259.53256170141685 0 259.53256170141685 -293.38973313795941 0 0 0 0 7.227693720957177 445.86754369562186 0 445.86754369562186 -543.65901547243266 0 0 0 0 5.5298522744181993 -0.11511931623293492 0 -0.11511931623293492 0.18405077624109722 0 0 0 0 420.78688343429735 221.96454303290921 0 221.96454303290921 -227.61234522255836 0 0 0 0 481.81222639909811 943.0711992181532 0 943.0711992181532 653.99994070901448 0 0 0 0 -285.37934669735478 263.10943252550351 0 263.10943252550351 2045.0185049954071 0 0 0 0 -458.80181127350096 1065.2608438589796 0 1065.2608438589796 -1082.7004319133703 0 0 0 0 48.687371561159352 785.07861615072034 0 785.07861615072034 -1015.0154866525481 0 0 0 0 476.04262568652484 -167.54274205619731 0 -167.54274205619731 -58.837945500214119 0 0 0 0 479.58733411914454 -151.35811439395729 0 -151.35811439395729 -34.531900157628115 0 0 0 0 370.0618686486996 -118.74720764717495 0 -118.74720764717495 -32.641922767141295 0 0 0 0 508.03013844242378 -186.49873643596948 0 -186.49873643596948 -48.127155239519197 0 0 0 0 601.27221830809867 -65.805974010952923 0 -65.805974010952923 -34.008904912829166 0 0 0 0 449.30542752383917 -182.89884858185542 0 -182.89884858185542 -67.302211858630471 0 0 0 0 377.92353283184639 -43.011550543051271 0 -43.011550543051271 -113.16933466512637 0 0 0 0 356.10168802447879 -2.2312250003014924 0 -2.2312250003014924 19.803117752067919 0 0 0 0 412.09625402039819 -97.519570249220124 0 -97.519570249220124 -57.085266406000301 0 0 0 0 10.404274335441304 52.421454442488248 0 52.421454442488248 -1.3422062518071414 0 0 0 0 19.964976102908622 50.396106209722348 0 50.396106209722348 1.9951213774547796 0 0 0 0 642.7395483813234 -12.233385287014244 0 -12.233385287014244 -41.938344333932037 0 0 0 0 31.02352216235824 11.308626548135592 0 11.308626548135592 0.15972260509380476 0 0 0 0 59.388842567597749 -53.359768671216443 0 -53.359768671216443 -25.418041181284934 0 0 0 0 24.840110680859652 20.259686117555248 0 20.259686117555248 4.4562441001762636 0 0 0 0 23.373935368342138 43.686985454652799 0 43.686985454652799 15.82744419923489 0 0 0 0 84.148243789862335 60.452702882095736 0 60.452702882095736 11.370614602645844 0 0 0 0 505.27878631731437 43.942230074222607 0 43.942230074222607 -7.0816291860537603 0 0 0 0 159.98901640041731 15.669541032548295 0 15.669541032548295 -6.0660162582644261 0 0 0 0 13.325680786282954 3.0333290812502804 0 3.0333290812502804 0.10796733622993315 0 0 0 0 21.031739834997857 47.287453700685163 0 47.287453700685163 12.281033877742857 0 0 0 0 335.74139504011873 -123.2850144192962 0 -123.2850144192962 20.941038782766555 0 0 0 0 3.7871985444144229 90.935128007316962 0 90.935128007316962 127.9200362493284 0 0 0 0 301.54526388902741 -6.8539035589201376 0 -6.8539035589201376 -81.162555787188467 0 0 0 0 191.33437958000536 -26.388602737177052 0 -26.388602737177052 4.8378531963098794 0 0 0 0 162.5528460014466 88.522549855988473 0 88.522549855988473 -71.957484033271612 0 0 0 0 147.816789551478 79.925742943698424 0 79.925742943698424 -18.831184178579861 0 0 0 0 223.90984658558591 -15.803849385170906 0 -15.803849385170906 -26.182886537048034 0 0 0 0 164.85601604349358 -6.8004495940112974 0 -6.8004495940112974 118.90778693417087 0 0 0 0 -28.551570721463907 32.396784315154399 0 32.396784315154399 21.005409514930818 0 0 0 0 190.98834672619387 -0.40407360074914322 0 -0.40407360074914322 -125.98836454708362 0 0 0 0 -2.448626109471661 51.175852969230618 0 51.175852969230618 176.3520481500309 0 0 0 0 128.89666941601899 26.615946258301847 0 26.615946258301847 90.22533452839707 0 0 0 0 48.540574196638772 62.112467327300692 0 62.112467327300692 131.58354372726171 0 0 0 0 70.272743972451281 -8.9320191697115661 0 -8.9320191697115661 174.67371897789417 0 0 0 0 11.430924632964889 3.9691772194055375 0 3.9691772194055375 181.66643628542079 0 0 0 0 188.55715676318505 -198.84790343499481 0 -198.84790343499481 215.41509550911724 0 0 0 0 60.921412584430072 -53.610800842609024 0 -53.610800842609024 176.19912503109663 0 0 0 0 145.06753435063001 -107.01172734718421 0 -107.01172734718421 206.97794047283242 0 0 0 0 82.990497950973804 -11.029557353220298 0 -11.029557353220298 152.74908491258975 0 0 0 0 381.53018301676639 -208.14382175050559 0 -208.14382175050559 112.30221450532554 0 0 0 0 339.00482467708571 -286.41451860688539 0 -286.41451860688539 253.44974555753288 0 0 0 0 186.43825652710802 -110.88837477903871 0 -110.88837477903871 173.41079205879942 0 0 0 0 300.33019927951682 -205.40227987192338 0 -205.40227987192338 215.72692969923082 0 0 0 0 199.88651238371676 -76.004477565380512 0 -76.004477565380512 108.75754928201786 0 0 0 0 130.62278121891745 -56.594510106710459 0 -56.594510106710459 173.95629258005647 0 0 0 0 308.94645206793211 -146.5836743904365 0 -146.5836743904365 129.31943294729717 0 0 0 0 368.36768262906844 -143.95125859611289 0 -143.95125859611289 21.794009365403326 0 0 0 0 470.38505695049389 -263.05165843484428 0 -263.05165843484428 116.8499348150217 0 0 0 0 438.90693216318323 -205.47210413665016 0 -205.47210413665016 36.700092385755852 0 0 0 0 504.57534928474342 -192.28757741290246 0 -192.28757741290246 2.2259399252652656 0 0 0 0 644.97123305774585 -132.36762119233026 0 -132.36762119233026 21.78606121159828 0 0 0 0 653.46290076574223 -158.67713667724456 0 -158.67713667724456 65.48042708914727 0 0 0 0 919.47743979335064 -39.21082643000409 0 -39.21082643000409 119.13141917143366 0 0 0 0 858.51470596450235 -50.984655375155853 0 -50.984655375155853 139.53483955554839 0 0 0 0 691.6678874600475 -374.63802104871138 0 -374.63802104871138 169.93552337802248 0 0 0 0 765.35237184191737 146.943645613439 0 146.943645613439 371.13757453410653 0 0 0 0 602.958369006461 -11.125806822587037 0 -11.125806822587037 242.42393807014741 0 0 0 0 700.51369797348889 141.70534671128553 0 141.70534671128553 183.23829949110223 0 0 0 0 398.87769461970674 195.6988849684858 0 195.6988849684858 320.0365127492405 0 0 0 0 422.24318948592736 64.627869966167054 0 64.627869966167054 51.611500080500264 0 0 0 0 438.40664905123413 119.2456649387459 0 119.2456649387459 181.41044999253063 0 0 0 0 548.42858144282945 -80.619999352275045 0 -80.619999352275045 50.914545966894366 0 0 0 0 618.91168100183495 37.183748712224769 0 37.183748712224769 35.235204191878438 0 0 0 0 777.42091218656788 48.663281059241854 0 48.663281059241854 120.20395710645244 0 0 0 0 270.03962902136482 429.62254670338007 0 429.62254670338007 361.1328561227142 0 0 0 0 570.34451958333921 299.66270135754166 0 299.66270135754166 219.26607630535727 0 0 0 0 180.45551683919621 345.24741430131689 0 345.24741430131689 213.93710980300057 0 0 0 0 -123.21662703496622 331.34230687618037 0 331.34230687618037 125.07205780314689 0 0 0 0 158.06890617816316 354.79930249363315 0 354.79930249363315 -255.84690386775765 0 0 0 0 314.18429458389437 353.63777025679883 0 353.63777025679883 111.92890765399352 0 0 0 0 46.394791033244474 41.089656924388692 0 41.089656924388692 -17.222968001187837 0 0 0 0 500.16978472287155 -126.73002296999039 0 -126.73002296999039 -70.066760632107616 0 0 0 0 336.31546255273861 -0.27720359163504327 0 -0.27720359163504327 30.296696392004378 0 0 0 0 411.18522125585514 136.80259706132347 0 136.80259706132347 -7.3971614783949917 0 0 0 0 289.13601192368151 45.961435306853673 0 45.961435306853673 -271.76024913062429 0 0 0 0 330.57127077684163 -110.05273566383767 0 -110.05273566383767 -198.2411636463803 0 0 0 0 48.916377385112355 108.38207509829954 0 108.38207509829954 -489.48045113524859 0 0 0 0 -86.039190101801069 591.28604659160555 0 591.28604659160555 -770.67662374947031 0 0 0 0 9.8189596730600357 2.594287441483047 0 2.594287441483047 -1.5278348443293766 0 0 0 0 -386.07035231507689 198.84007085718986 0 198.84007085718986 -585.78879009358934 0 0 0 0 -397.32643676751104 -83.913540451797417 0 -83.913540451797417 -180.64417269888509 0 0 0 0 624.72101761494741 247.87816375894545 0 247.87816375894545 -1066.840579961281 0 0 0 0 7.3450638919090423 -1.1898977837794931 0 -1.1898977837794931 -3.3573360324281225 0 0 0 0 708.68658641317961 670.62813906712472 0 670.62813906712472 -138.13673309413753 0 0 0 0 319.82841114928578 -148.36180437100029 0 -148.36180437100029 -150.97551836867933 0 0 0 0 1069.6291264578431 -134.12951242306735 0 -134.12951242306735 -531.05451288628501 0 0 0 0 565.32594610182059 -156.43551933616982 0 -156.43551933616982 -170.03853790135327 0 0 0 0 52.486390219289461 67.067514632744519 0 67.067514632744519 -21.081986045217491 0 0 0 0 480.31053127672203 156.43397845721483 0 156.43397845721483 -59.828064858913422 0 0 0 0 844.93921601857073 468.87579681081843 0 468.87579681081843 147.27186264023476 0 0 0 0 17.562455493021965 7.2940360353644991 0 7.2940360353644991 -2.2092393372071939 0 0 0 0 526.50565161706982 31.273960770809936 0 31.273960770809936 -112.00695725038531 0 0 0 0 140.29692919412992 -14.00657309613598 0 -14.00657309613598 -27.317444142026943 0 0 0 0 3.8822221846495082 49.320421871469549 0 49.320421871469549 -23.036242457218748 0 0 0 0 92.767945705593917 66.44044215985204 0 66.44044215985204 -37.99658950779849 0 0 0 0 52.911882071466607 43.94501218116784 0 43.94501218116784 -13.361763647466432 0 0 0 0 23.499959637424581 70.495334412900775 0 70.495334412900775 -16.58127436099312 0 0 0 0 53.223832018611134 41.845096280059437 0 41.845096280059437 -27.573427166751969 0 0 0 0 81.436151578433055 78.34327285706604 0 78.34327285706604 -111.31317514230977 0 0 0 0 105.5712892086558 40.045717914737907 0 40.045717914737907 -61.969340820375692 0 0 0 0 43.430259413016756 78.682663141600642 0 78.682663141600642 -48.253598995433094 0 0 0 0 28.029544686840381 96.989777777242125 0 96.989777777242125 -54.49929891624015 0 0 0 0 34.758213278018957 84.871680322401517 0 84.871680322401517 -47.810828682419015 0 0 0 0 51.653379612565914 88.549789291675552 0 88.549789291675552 -55.886230195901589 0 0 0 0 42.782229873784672 80.204463484586086 0 80.204463484586086 -51.195393641726696 0 0 0 0 50.116114760616377 47.424956438736061 0 47.424956438736061 -30.729317276454054 0 0 0 0 87.148659636818593 74.709716218378162 0 74.709716218378162 -27.190170126326848 0 0 0 0 51.151758691144906 43.893421751949518 0 43.893421751949518 -19.389621244017135 0 0 0 0 166.40684460553348 159.88011511569493 0 159.88011511569493 -136.49438037240907 0 0 0 0 -2.1199011157055239 -4.8132920251895541 0 -4.8132920251895541 2.3526248134651055 0 0 0 0 116.28641843082551 23.688261400993724 0 23.688261400993724 -352.60726686936323 0 0 0 0 20.364224260825722 40.230784319677696 0 40.230784319677696 -142.89172044277439 0 0 0 0 40.506455684675529 100.01176095536903 0 100.01176095536903 -66.085368782347359 0 0 0 0 73.610462416214432 126.93616154863412 0 126.93616154863412 -76.729458108549807 0 0 0 0 136.66296999996484 78.449647368201113 0 78.449647368201113 -128.03617961623968 0 0 0 0 64.138571620620496 102.75549082736507 0 102.75549082736507 -83.697412331173837 0 0 0 0 229.06050339760452 24.435946523065013 0 24.435946523065013 -115.08152028612676 0 0 0 0 237.21732845291808 218.31883261137773 0 218.31883261137773 -7.8302223907048756 0 0 0 0 -40.357587547078765 -0.68575275307011907 0 -0.68575275307011907 -19.269937382596254 0 0 0 0 30.436494672814661 121.57659046688241 0 121.57659046688241 53.876925600568939 0 0 0 0 77.371371103392448 88.621585001783387 0 88.621585001783387 28.934496214482351 0 0 0 0 21.953582440095332 29.867634284628778 0 29.867634284628778 -53.066470062432302 0 0 0 0 103.33174251994205 108.17251589414082 0 108.17251589414082 29.949229327767171 0 0 0 0 484.09654569805389 272.8692088267253 0 272.8692088267253 -103.78188937193045 0 0 0 0 -111.13560247500664 115.64736490141786 0 115.64736490141786 396.9219706437143 0 0 0 0 25.971805280243455 72.007760579555608 0 72.007760579555608 20.790474185944134 0 0 0 0 75.755993667235089 125.04116078726292 0 125.04116078726292 36.636393254899303 0 0 0 0 24.390890113314555 45.491093753943872 0 45.491093753943872 -53.517636148662987 0 0 0 0 82.928971285149601 114.97197496504668 0 114.97197496504668 36.892615111697523 0 0 0 0 91.900584301638446 107.99326669901347 0 107.99326669901347 46.755103198134748 0 0 0 0 82.379996256436698 116.94937340026581 0 116.94937340026581 39.025955390985473 0 0 0 0 -27.950523989389353 41.604416305428146 0 41.604416305428146 -9.4575317681138813 0 0 0 0 46.679236905995367 78.714261015769807 0 78.714261015769807 5.8363408833392896 0 0 0 0 91.70886049400724 119.36738578444783 0 119.36738578444783 38.484365339645592 0 0 0 0 -32.609029680435327 94.317101697679846 0 94.317101697679846 47.218412911359337 0 0 0 0 20.336765962343634 70.00678683607839 0 70.00678683607839 44.850597727199784 0 0 0 0 65.521142034916011 94.33585457503068 0 94.33585457503068 15.694843740726355 0 0 0 0 46.774528441244911 67.458477262443921 0 67.458477262443921 26.780998670277768 0 0 0 0 10.399484537560056 54.998445196179091 0 54.998445196179091 18.808849968801951 0 0 0 0 27.670055646158289 61.796958827886556 0 61.796958827886556 36.434359578535805 0 0 0 0 12.361434935532998 166.9302895080109 0 166.9302895080109 124.43830913933925 0 0 0 0 -12.564114595664606 18.948584368201381 0 18.948584368201381 -23.209596642711602 0 0 0 0 30.185943535047045 66.849879318408057 0 66.849879318408057 11.156123185290198 0 0 0 0 -19.232982614890716 51.685409768600948 0 51.685409768600948 31.733202702409471 0 0 0 0 -6.8347125598511411 77.511497177481942 0 77.511497177481942 33.538744026911445 0 0 0 0 25.285630371714888 84.13315936203071 0 84.13315936203071 25.090372724982444 0 0 0 0 197.35465597162624 71.356685597995238 0 71.356685597995238 -42.645761066407431 0 0 0 0 58.380185474827158 107.96922469815036 0 107.96922469815036 40.52441176015418 0 0 0 0 -36.667556944511219 21.725367317209795 0 21.725367317209795 1.6341570613261069 0 0 0 0 23.15362389312395 79.334519790885679 0 79.334519790885679 77.558451464741665 0 0 0 0 78.555608349743125 115.91008243000397 0 115.91008243000397 66.147468852257589 0 0 0 0 118.98035669360615 134.60682386691406 0 134.60682386691406 61.50043140687194 0 0 0 0 86.341826310417673 115.25879414667725 0 115.25879414667725 50.833372637323919 0 0 0 0 29.997368631674071 26.50566775339459 0 26.50566775339459 -50.593230507009025 0 0 0 0 68.798525657415667 68.186511146969679 0 68.186511146969679 24.611342785690795 0 0 0 0 99.495713650057951 102.02138523165922 0 102.02138523165922 35.845119116209389 0 0 0 0 111.74375440099539 123.76453126859997 0 123.76453126859997 79.44023093306896 0 0 0 0 93.162575138187094 95.35002467938466 0 95.35002467938466 67.350778062696918 0 0 0 0 96.241185522689193 122.38191375850874 0 122.38191375850874 92.139808358711889 0 0 0 0 107.54832626015286 104.01096479171974 0 104.01096479171974 56.646198709524469 0 0 0 0 56.017407639948942 73.581134342566656 0 73.581134342566656 55.807730223386898 0 0 0 0 114.84805094421608 125.46712323678366 0 125.46712323678366 105.25580848708341 0 0 0 0 -23.668682612305759 12.984641011438789 0 12.984641011438789 18.990178311644939 0 0 0 0 115.02610347808513 136.70157382560137 0 136.70157382560137 89.495509235690406 0 0 0 0 104.09080804857513 114.34285455051213 0 114.34285455051213 94.088756627781549 0 0 0 0 112.9484332312968 108.70492600056969 0 108.70492600056969 43.387108147027902 0 0 0 0 99.130763091372501 136.23280604471802 0 136.23280604471802 95.52068125315418 0 0 0 0 112.67889520949757 113.1339648573321 0 113.1339648573321 108.07176066958345 0 0 0 0 119.16853708888812 134.28749371141021 0 134.28749371141021 96.710467502580286 0 0 0 0 122.99955943715031 90.176898753772548 0 90.176898753772548 193.01862621608598 0 0 0 0 111.21727054084477 141.42441965813487 0 141.42441965813487 114.69442742461797 0 0 0 0 103.90643525882842 117.24073034817047 0 117.24073034817047 122.97930746083148 0 0 0 0 27.796987434441689 191.89237684767431 0 191.89237684767431 318.85574050228024 0 0 0 0 77.04382701646864 -178.49390885623325 0 -178.49390885623325 -555.55539872477675 0 0 0 0 185.66739152671653 167.81442804119433 0 167.81442804119433 -462.53073023341858 0 0 0 0 1.248541123312279 6.6874764115720211 0 6.6874764115720211 5.617349169460482 0 0 0 0 -186.3897013530659 46.513262290784041 0 46.513262290784041 -72.975701798044611 0 0 0 0 -63.286388048320077 -26.37352249637479 0 -26.37352249637479 -53.126487478846684 0 0 0 0 58.472082658903673 87.048025213880464 0 87.048025213880464 -82.88503567846783 0 0 0 0 -10.151792607386597 -9.0059210572217125 0 -9.0059210572217125 -83.465119146276265 0 0 0 0 15.986070136728813 165.59952098448412 0 165.59952098448412 7.5123517173342407 0 0 0 0 187.21654444049636 11.877457666050759 0 11.877457666050759 -310.44330903180526 0 0 0 0 -121.6132956657093 -205.35609278723132 0 -205.35609278723132 -335.25277725540218 0 0 0 0 238.30410036910325 105.85167258873116 0 105.85167258873116 -280.28153631932219 0 0 0 0 196.09281744601321 113.1554449685209 0 113.1554449685209 -191.74802193813957 0 0 0 0 213.22318052384071 117.45282109093387 0 117.45282109093387 -283.33185023376427 0 0 0 0 181.05959469536901 123.9709319370304 0 123.9709319370304 -194.60099436499877 0 0 0 0 188.67580179552897 129.85603883228032 0 129.85603883228032 -158.79342228581663 0 0 0 0 173.4876454367768 102.90113381308038 0 102.90113381308038 -165.02164770926174 0 0 0 0 137.80572241029586 119.55209264275618 0 119.55209264275618 -128.51670750719495 0 0 0 0 176.75978812587346 119.23625515258027 0 119.23625515258027 -173.2447458646493 0 0 0 0 125.27440228174964 121.87981721566757 0 121.87981721566757 -109.86756955471355 0 0 0 0 136.78047009294824 113.97384839845472 0 113.97384839845472 -159.00099224888254 0 0 0 0 136.59497921567527 113.50379076266836 0 113.50379076266836 -157.98111186025199 0 0 0 0 125.86653721245239 90.501080821151845 0 90.501080821151845 -178.47191505905357 0 0 0 0 183.69525199483905 84.189406436082209 0 84.189406436082209 -259.30297088902444 0 0 0 0 124.69491207646206 0.81064772413810715 0 0.81064772413810715 -254.26512134008954 0 0 0 0 74.227742273971671 37.523504803364631 0 37.523504803364631 -157.94344811090377 0 0 0 0 98.626905141907628 81.386352451081621 0 81.386352451081621 -81.828867137432098 0 0 0 0 45.426972109532116 27.352297320075252 0 27.352297320075252 -8.0314916456963914 0 0 0 0 176.72286534539307 156.91425579448696 0 156.91425579448696 -396.07450386910205 0 0 0 0 -131.84918825070781 223.87207098913495 0 223.87207098913495 -231.21554680546978 0 0 0 0 -25.939569171285257 239.15018678744673 0 239.15018678744673 -308.37417133559939 0 0 0 0 -5.8465441153566644 233.65430403447499 0 233.65430403447499 -306.94505374564324 0 0 0 0 101.01881996972952 138.43393818917684 0 138.43393818917684 -208.6642089621746 0 0 0 0 83.501370975049213 132.42570058058482 0 132.42570058058482 -198.61834497295786 0 0 0 0 -17.951997490970825 90.541262449551141 0 90.541262449551141 -107.64228654559702 0 0 0 0 -114.30770256125834 -83.876385916722938 0 -83.876385916722938 -286.50259755299703 0 0 0 0 192.3661501010065 138.1575025327038 0 138.1575025327038 -373.3614113368676 0 0 0 0 7.1810317524941638 -48.729102642042562 0 -48.729102642042562 -348.39730165054789 0 0 0 0 83.946667444520244 150.31179623307798 0 150.31179623307798 -190.30545421037823 0 0 0 0 98.01929849217413 163.00300863513257 0 163.00300863513257 -181.56904782610945 0 0 0 0 192.3661501010647 138.15750253282022 0 138.15750253282022 -373.3614113368676 0 0 0 0 192.3661501010647 138.15750253276201 0 138.15750253276201 -373.36141133692581 0 0 0 0 167.13614019710803 108.91552830615547 0 108.91552830615547 -106.96466275758576 0 0 0 0 143.42137865472614 156.58512409037212 0 156.58512409037212 -87.593884883157443 0 0 0 0 117.96542630481417 172.90680995903676 0 172.90680995903676 -188.74784732767148 0 0 0 0 208.44256000242422 189.79632078296345 0 189.79632078296345 -70.643448415561579 0 0 0 0 212.82874897037982 114.49144096497912 0 114.49144096497912 -118.36626571751549 0 0 0 0 -75.252259596658405 139.73358383058803 0 139.73358383058803 -134.39884718536632 0 0 0 0 116.06493717076955 153.53412418306107 0 153.53412418306107 -198.0582636219624 0 0 0 0 -10.121482189897506 63.707725313470291 0 63.707725313470291 -70.380475663288962 0 0 0 0 7.7309446687577292 116.96284442517208 0 116.96284442517208 -77.117518890532665 0 0 0 0 50.282344711078622 59.87789063269156 0 59.87789063269156 -74.628925274708308 0 0 0 0 75.453939425759017 135.11045652045868 0 135.11045652045868 -72.49448483280139 0 0 0 0 58.914434051694116 107.92785214813193 0 107.92785214813193 -45.063657527294708 0 0 0 0 65.685429463890614 73.28772990120342 0 73.28772990120342 13.693885942164343 0 0 0 0 130.00758340387256 100.57327464193804 0 100.57327464193804 12.127676143194549 0 0 0 0 17.129535431362456 74.005003587109968 0 74.005003587109968 111.89688459929312 0 0 0 0 253.44769164453646 208.98607250454188 0 208.98607250454188 -42.098174431594089 0 0 0 0 117.9312190519704 145.35519173878129 0 145.35519173878129 -42.006363598484313 0 0 0 0 265.45608907754649 71.087585601897445 0 71.087585601897445 -4.6183584366226569 0 0 0 0 133.86413035279838 107.40050966024864 0 107.40050966024864 -61.964000766689423 0 0 0 0 106.86319574962545 125.77122625174525 0 125.77122625174525 53.75303358171368 0 0 0 0 272.25487274149782 32.557425513106864 0 32.557425513106864 103.99770314802299 0 0 0 0 369.7753080305265 168.95264289300394 0 168.95264289300394 -28.583299913909286 0 0 0 0 304.05304121039808 -21.498132020235062 0 -21.498132020235062 195.41697944690532 0 0 0 0 335.11804820637917 291.72575015836628 0 291.72575015836628 -13.35247261961922 0 0 0 0 150.74038452288369 292.86622922189417 0 292.86622922189417 482.06581653421745 0 0 0 0 291.2832088660798 239.56786043668399 0 239.56786043668399 -25.195692218956538 0 0 0 0 246.38259424208081 183.60089900484309 0 183.60089900484309 -72.312434415507596 0 0 0 0 234.54025535477558 241.79171977832448 0 241.79171977832448 -20.136915499082534 0 0 0 0 192.32954861363396 195.47678914159769 0 195.47678914159769 -47.826202915515751 0 0 0 0 261.80844336684095 225.48665410201647 0 225.48665410201647 -65.486645912751555 0 0 0 0 222.05437663273187 204.82569480559323 0 204.82569480559323 -52.021074381656945 0 0 0 0 193.92140203084091 180.53965371269942 0 180.53965371269942 -59.486762485699728 0 0 0 0 212.45118622759037 237.55444029821956 0 237.55444029821956 -53.670702746254392 0 0 0 0 193.0344004217477 124.81771417433629 0 124.81771417433629 -196.40309147318476 0 0 0 0 204.66381651618576 207.42673931460013 0 207.42673931460013 -120.08739030663855 0 0 0 0 109.4404669602518 124.255384423137 0 124.255384423137 -102.56415075960103 0 0 0 0 193.63937479123706 177.39030478609493 0 177.39030478609493 -97.014482295722701 0 0 0 0 103.42408439305291 141.17432811919571 0 141.17432811919571 18.892202202579938 0 0 0 0 210.30645135845407 317.35744172614068 0 317.35744172614068 92.457769704749808 0 0 0 0 47.93187102990305 161.13319375926221 0 161.13319375926221 65.794532297964906 0 0 0 0 113.7939258153383 182.59325388793513 0 182.59325388793513 72.416072516818531 0 0 0 0 -23.827214000962027 26.442080217508106 0 26.442080217508106 12.506965955839092 0 0 0 0 56.606658816722302 138.61430744963582 0 138.61430744963582 74.55273322974972 0 0 0 0 57.428661483045289 155.16133002183051 0 155.16133002183051 69.508876668900484 0 0 0 0 309.73698458361469 197.11249228021188 0 197.11249228021188 -153.63828431897127 0 0 0 0 158.01450253349731 159.76077629564998 0 159.76077629564998 -213.80339032245683 0 0 0 0 107.76388361163845 99.441363845675369 0 99.441363845675369 -75.446114610051154 0 0 0 0 116.53832253312794 108.85056632263513 0 108.85056632263513 -86.548070552700665 0 0 0 0 118.04681048712519 115.84295033759554 0 115.84295033759554 -98.399070597690297 0 0 0 0 -34.819979095988941 46.786757503045528 0 46.786757503045528 -36.627041439932555 0 0 0 0 122.28562480151595 111.18450534381554 0 111.18450534381554 -141.10438819322735 0 0 0 0 497.99783885917714 725.99276637782896 0 725.99276637782896 913.64108845393275 0 0 0 0 465.72197077951932 882.0633084877918 0 882.0633084877918 933.81135886865377 0 0 0 0 430.51269762417178 746.8146188257524 0 746.8146188257524 1199.3408013782755 0 0 0 0 435.13552758496189 849.03048962073808 0 849.03048962073808 1152.9148816814704 0 0 0 0 487.37404921165944 773.65269061060098 0 773.65269061060098 1117.9176567777176 0 0 0 0 132.91097867825374 23.465920420858311 0 23.465920420858311 -159.55260477004049 0 0 0 0 -19.377693002448723 47.499309112405172 0 47.499309112405172 59.710564228647854 0 0 0 0 33.261403469322062 59.016776036383206 0 59.016776036383206 -28.909039664243437 0 0 0 0 -36.212259595105344 44.432885426011737 0 44.432885426011737 -14.071452274393351 0 0 0 0 -45.880774890528073 152.93453847676574 0 152.93453847676574 4.7483626082030241 0 0 0 0 -20.010509396315683 54.365285247738939 0 54.365285247738939 182.2706606509164 0 0 0 0 3.9021501294138226 19.091669723634993 0 19.091669723634993 -14.057501700778801 0 0 0 0 65.354934200846401 118.00632164452691 0 118.00632164452691 14.744642782927258 0 0 0 0 64.450600500877044 61.919232730906515 0 61.919232730906515 31.955284231138648 0 0 0 0 59.419639261283386 9.9865095696291348 0 9.9865095696291348 -24.761947126077871 0 0 0 0 111.70898571353518 -11.089735050823947 0 -11.089735050823947 -79.694697169790743 0 0 0 0 74.869486718514963 128.23411338560982 0 128.23411338560982 79.898533025261713 0 0 0 0 -434.17715900832263 333.60157368892396 0 333.60157368892396 93.346044983361935 0 0 0 0 -53.509868423885891 58.097204760059945 0 58.097204760059945 -29.599732993941956 0 0 0 0 -250.70497709821757 92.695914341858042 0 92.695914341858042 10.056545001934865 0 0 0 0 -0.067820652930011605 19.112159318716365 0 19.112159318716365 -4.7681178890646834 0 0 0 0 -105.43221711597289 386.23948305474187 0 386.23948305474187 -83.00878429486329 0 0 0 0 -64.548127172976677 46.65897641291199 0 46.65897641291199 -33.848403358866847 0 0 0 0 71.333698374335654 499.60362737457035 0 499.60362737457035 229.61352479829657 0 0 0 0 -210.56832919966837 102.81193561879627 0 102.81193561879627 602.47083082706376 0 0 0 0 -2.1477350756876064 0.35331383581019793 0 0.35331383581019793 0.40869056747487065 0 0 0 0 7.9566787591847969 -127.22223467737058 0 -127.22223467737058 -311.37226322236529 0 0 0 0 -241.36280741964583 243.477987925653 0 243.477987925653 191.24557252663362 0 0 0 0 -183.0592428489399 117.05502928874921 0 117.05502928874921 -87.777733993078527 0 0 0 0 -112.6995812675741 211.38880177587635 0 211.38880177587635 -82.001432808159734 0 0 0 0 -63.36780764132709 106.99214407267573 0 106.99214407267573 45.339416754875856 0 0 0 0 -71.797809407048589 167.23470022788888 0 167.23470022788888 -113.76621269126917 0 0 0 0 44.266195098272874 200.12946442665998 0 200.12946442665998 -105.95832174949828 0 0 0 0 82.512132718866269 272.068927409553 0 272.068927409553 28.036603149128496 0 0 0 0 62.410597767644504 245.89042294481624 0 245.89042294481624 231.20583824963251 0 0 0 0 56.930644229698373 105.47126366443263 0 105.47126366443263 44.739420079582487 0 0 0 0 99.483673407135939 128.88738513211865 0 128.88738513211865 45.58899847016437 0 0 0 0 -134.86013931606612 259.99782769605918 0 259.99782769605918 -39.7881517567439 0 0 0 0 33.352930497796478 135.02334256708855 0 135.02334256708855 21.164754413461196 0 0 0 0 155.10778486935305 101.38443787473079 0 101.38443787473079 -22.623835888953181 0 0 0 0 79.90739590425801 169.54540502921009 0 169.54540502921009 -82.843305881939159 0 0 0 0 69.095917957511119 82.45419443074934 0 82.45419443074934 -15.64427545433864 0 0 0 0 40.592920577067915 28.845708188384137 0 28.845708188384137 -50.558992127850274 0 0 0 0 59.373748475576576 79.81445941972197 0 79.81445941972197 21.63022541942297 0 0 0 0 59.615917579249071 77.550470869016863 0 77.550470869016863 41.512339126296411 0 0 0 0 77.767747519108525 103.84443482582356 0 103.84443482582356 57.536500198482827 0 0 0 0 136.79610575272454 -44.311437070980901 0 -44.311437070980901 -104.90951598632091 0 0 0 0 70.847600766952382 158.66863849066795 0 158.66863849066795 35.580667237958551 0 0 0 0 73.226269927403337 106.65696091121572 0 106.65696091121572 3.7140777048425662 0 0 0 0 122.90963653943618 25.243624099573935 0 25.243624099573935 -63.547905146246194 0 0 0 0 4.1709876046613203 71.192955619497496 0 71.192955619497496 21.738425051633556 0 0 0 0 63.384276451826736 219.83091467469785 0 219.83091467469785 -122.3856268623058 0 0 0 0 -42.868419871521837 269.17032585553898 0 269.17032585553898 -67.397354119624652 0 0 0 0 1.8309342446300434 322.62330417858902 0 322.62330417858902 -41.470515304463333 0 0 0 0 1.7417244489479344 318.90931886126054 0 318.90931886126054 98.045149859295634 0 0 0 0 35.88953668049362 439.50657468592544 0 439.50657468592544 -144.69708229775279 0 0 0 0 90.426981528617034 278.44195641663828 0 278.44195641663828 -182.02857569915705 0 0 0 0 39.640484544899664 409.5563671623604 0 409.5563671623604 -454.16988033855887 0 0 0 0 138.72822907096997 22.365557771634485 0 22.365557771634485 -305.66149360705458 0 0 0 0 0.12993758993926008 0.97545103797777699 0 0.97545103797777699 -1.8573326577831324 0 0 0 0 121.98189782703412 80.64674984371959 0 80.64674984371959 26.142000452413413 0 0 0 0 15.358537346276577 12.549075397988183 0 12.549075397988183 1.9050061890693826 0 0 0 0 88.064307569497032 45.92726745651089 0 45.92726745651089 34.392189807724208 0 0 0 0 137.12519507048273 65.626117682902986 0 65.626117682902986 -0.32992941638076445 0 0 0 0 24.787943756382781 62.342220159550138 0 62.342220159550138 23.989787151757042 0 0 0 0 69.826094626802572 40.990246113720076 0 40.990246113720076 -3.1017132087283485 0 0 0 0 53.709771552135862 55.793615408854748 0 55.793615408854748 -22.194747987101437 0 0 0 0 14.370803661752102 39.428489948899667 0 39.428489948899667 0.43729362725369469 0 0 0 0 58.234638032790826 49.906353940215922 0 49.906353940215922 -0.63986035965626797 0 0 0 0 112.65973645383929 65.891808392534585 0 65.891808392534585 40.709806664293865 0 0 0 0 61.441253264805709 39.986726865769015 0 39.986726865769015 2.6672701619850159 0 0 0 0 88.138553871373006 39.370567232646863 0 39.370567232646863 4.7793249290480162 0 0 0 0 6.7355385979190032 172.57343289304481 0 172.57343289304481 456.71196654130472 0 0 0 0 17.776425076706801 54.693535845653969 0 54.693535845653969 99.776505734625971 0 0 0 0 -19.083106000756743 80.239057771006173 0 80.239057771006173 88.986707532887522 0 0 0 0 5.9764140111406476 67.832497653032334 0 67.832497653032334 -9.3428591592601151 0 0 0 0 31.070253867306747 73.740894814982312 0 73.740894814982312 -31.010583479169327 0 0 0 0 8.5842777283486242 14.192769560187571 0 14.192769560187571 6.0249419344689912 0 0 0 0 4.8380356460402112 -3.0060049199555721 0 -3.0060049199555721 -0.71572547856034063 0 0 0 0 6.1099911415185488 7.001775188742613 0 7.001775188742613 -50.13164326407059 0 0 0 0 144.83271555593092 -12.586387078335974 0 -12.586387078335974 -91.893763457479508 0 0 0 0 5.1265091908717295 117.03984717376807 0 117.03984717376807 -39.303719025123428 0 0 0 0 112.86484355455104 83.786563134588505 0 83.786563134588505 -86.184402961262094 0 0 0 0 112.50180048935306 68.602453977315861 0 68.602453977315861 -34.540058889033389 0 0 0 0 6.3674197418094991 69.200868543714023 0 69.200868543714023 4.4924093153131253 0 0 0 0 20.903484567876149 64.589544529051636 0 64.589544529051636 -9.712172532625118 0 0 0 0 -178.23247452794021 76.849532721524156 0 76.849532721524156 21.396870650001347 0 0 0 0 7.4632614944166562 61.542095084332686 0 61.542095084332686 17.311945772140461 0 0 0 0 48.226998749869381 87.190394302680943 0 87.190394302680943 9.0308318661318481 0 0 0 0 92.403115277573306 166.92134413335043 0 166.92134413335043 -14.253774262113438 0 0 0 0 90.549342516198521 57.503758033479244 0 57.503758033479244 -24.983034764190961 0 0 0 0 57.077859304808953 52.985463069438993 0 52.985463069438993 -22.945585049988949 0 0 0 0 23.371471598442341 23.631202386202126 0 23.631202386202126 -21.366606067613631 0 0 0 0 22.163674001456002 52.932589624538878 0 52.932589624538878 2.3541306445040391 0 0 0 0 5.7556207566069517 38.261356568489234 0 38.261356568489234 -24.355451805625052 0 0 0 0 101.01797708402228 39.696225569368153 0 39.696225569368153 -69.759096659086936 0 0 0 0 143.77393144788402 -12.974926037244586 0 -12.974926037244586 -38.409158491813287 0 0 0 0 4.2010337871688535 54.56180563077578 0 54.56180563077578 2.4486768249826127 0 0 0 0 17.832374098794855 4.707872503082891 0 4.707872503082891 -6.4972983798467254 0 0 0 0 80.820959729851893 47.950768633820189 0 47.950768633820189 -110.86188003826464 0 0 0 0 36.637169261652161 24.829936377847844 0 24.829936377847844 -14.044606579325773 0 0 0 0 7.0255275802919641 -55.683766047535755 0 -55.683766047535755 -125.12415985100733 0 0 0 0 64.771420377663162 3.1524536210290535 0 3.1524536210290535 -35.500299308479953 0 0 0 0 6.5787971677154076 4.6500000388492211 0 4.6500000388492211 -0.037083529553797234 0 0 0 0 -9.0448106588228256 -50.236402807964623 0 -50.236402807964623 -16.707356095204887 0 0 0 0 -0.43936634717365042 41.831763498309925 0 41.831763498309925 -28.91030098133723 0 0 0 0 134.02325767439015 85.218282884206701 0 85.218282884206701 -173.8374749651266 0 0 0 0 -34.519312939796208 49.088934946019393 0 49.088934946019393 -46.641823170693883 0 0 0 0 138.5509469796234 18.830345700140242 0 18.830345700140242 49.449170563802909 0 0 0 0 348.41850802193221 235.96945306589259 0 235.96945306589259 93.121700229286944 0 0 0 0 -1.3928195572316326 177.32956552548058 0 177.32956552548058 -144.07635911507532 0 0 0 0 -25.326145678518515 -14.53081693020431 0 -14.53081693020431 -114.28361632628912 0 0 0 0 -2.0747375342042567 2.5629616417630299 0 2.5629616417630299 0.93447686511197503 0 0 0 0 -37.992737258316993 34.170732552254776 0 34.170732552254776 -12.260308525803339 0 0 0 0 17.105614734511619 120.39783727080066 0 120.39783727080066 -2.6884296870098296 0 0 0 0 -148.44236987559998 111.77256319092703 0 111.77256319092703 -1.5246446827768523 0 0 0 0 68.661232166839909 79.480602031288072 0 79.480602031288072 -23.166652672181954 0 0 0 0 29.266333539084371 67.494464507230077 0 67.494464507230077 2.9712890513546881 0 0 0 0 42.147111976188171 71.280994533768535 0 71.280994533768535 2.0641030969454732 0 0 0 0 -35.231286050996388 34.653216423787377 0 34.653216423787377 -38.775894997125228 0 0 0 0 127.68041200884363 406.6259347370119 0 406.6259347370119 -374.68825618895062 0 0 0 0 119.21043113507858 414.14403606703377 0 414.14403606703377 137.65397211534946 0 0 0 0 412.6681475380974 40.453716200591771 0 40.453716200591771 -13.147445953771239 0 0 0 0 576.53565904661446 149.56273313794009 0 149.56273313794009 -30.375366775577277 0 0 0 0 205.24339969438006 154.31312086638354 0 154.31312086638354 125.12670751006226 0 0 0 0 -5.9936663523281908 10.558665776291086 0 10.558665776291086 27.290817974504549 0 0 0 0 -76.723943949611566 61.068034179206734 0 61.068034179206734 271.96943334791467 0 0 0 0 167.03575589144384 -29.494610735834613 0 -29.494610735834613 -984.35574250502759 0 0 0 0 -520.08453335260128 160.00857386926873 0 160.00857386926873 400.46222060804939 0 0 0 0 1.7961226659335097 1.0961164643728196 0 1.0961164643728196 8.3317567765660456 0 0 0 0 438.10636762588183 -60.110513817724495 0 -60.110513817724495 -54.199931805829692 0 0 0 0 784.86981924830616 169.93177833910158 0 169.93177833910158 -117.15092147180621 0 0 0 0 267.16375832559049 276.74154761552859 0 276.74154761552859 -90.391694900528819 0 0 0 0 267.96878743396519 354.62785823270679 0 354.62785823270679 167.76849415627657 0 0 0 0 273.21239424499799 39.244561408333539 0 39.244561408333539 77.955321543664468 0 0 0 0 296.40876096642023 1.942449682298502 0 1.942449682298502 -337.53184167394284 0 0 0 0 313.83270036331669 9.9878815298543486 0 9.9878815298543486 -92.718545550433191 0 0 0 0 72.544432067632442 -211.68939153439351 0 -211.68939153439351 -124.16994665207676 0 0 0 0 137.07751401800488 -55.455669327685428 0 -55.455669327685428 120.91053617390571 0 0 0 0 212.71501498842463 298.71036496482429 0 298.71036496482429 48.533864682813146 0 0 0 0 -183.24504753644942 206.94311044698861 0 206.94311044698861 133.5928668696597 0 0 0 0 -1.6126349068794568 3.0985727994164733 0 3.0985727994164733 -7.0987410906164357 0 0 0 0 -898.04892614909477 -212.67274407782497 0 -212.67274407782497 327.43572296766615 0 0 0 0 34.118703603693575 -71.576330293632054 0 -71.576330293632054 -222.42762464513498 0 0 0 0 97.614850183481394 59.670916596515326 0 59.670916596515326 -21.213148506805737 0 0 0 0 195.35917120541126 26.128263320271799 0 26.128263320271799 -82.309682169928237 0 0 0 0 227.38601798281752 139.18991429058065 0 139.18991429058065 -8.1221738582062244 0 0 0 0 144.91294030328572 71.127758681153864 0 71.127758681153864 -13.475964014785859 0 0 0 0 -13.033623503790587 12.777259257165269 0 12.777259257165269 -16.220586014033209 0 0 0 0 123.51533360361282 40.333965955807798 0 40.333965955807798 -21.491367781066685 0 0 0 0 -230.77539841922771 22.182657804295559 0 22.182657804295559 68.41928573635596 0 0 0 0 3.9702199405437568 72.288449918947663 0 72.288449918947663 78.567824559897417 0 0 0 0 37.141076732114016 135.34499443288587 0 135.34499443288587 -139.82289481865519 0 0 0 0 10.443310428236146 129.24844438078435 0 129.24844438078435 -6.3148482078795496 0 0 0 0 -48.368131810035266 172.41351840506195 0 172.41351840506195 3.4314379856077721 0 0 0 0 -30.120046440642909 145.99057558112327 0 145.99057558112327 4.1874667100382794 0 0 0 0 40.504366476445284 186.09551604219018 0 186.09551604219018 -32.612183089979226 0 0 0 0 188.88744640149525 71.109240214332203 0 71.109240214332203 -13.50480360362053 0 0 0 0 71.293907585926448 85.822833874124768 0 85.822833874124768 -5.5104187651409688 0 0 0 0 32.99341584072085 32.87481293809968 0 32.87481293809968 -36.105900565258324 0 0 0 0 -110.87276765635761 212.3888735669716 0 212.3888735669716 -14.231338707770192 0 0 0 0 421.52892292151773 -366.13328162094149 0 -366.13328162094149 120.75752856618419 0 0 0 0 249.35813737708668 -15.305894402575177 0 -15.305894402575177 -43.678469917075745 0 0 0 0 31.844321069516994 -1.9867809407925208 0 -1.9867809407925208 -1.6431420836779296 0 0 0 0 49.402019043454978 101.72766854061243 0 101.72766854061243 -39.258390383329399 0 0 0 0 -145.4365611868925 185.98068795096697 0 185.98068795096697 -33.073273747351777 0 0 0 0 13.560822694853414 207.58204569055761 0 207.58204569055761 19.767221626258106 0 0 0 0 30.364717000091332 208.8931428764372 0 208.8931428764372 -50.326968928531642 0 0 0 0 0.10427612471903558 169.18282062501112 0 169.18282062501112 -74.311331770084507 0 0 0 0 -26.155980193550931 236.58663158784111 0 236.58663158784111 -132.91351032434227 0 0 0 0 19.938328114149044 185.68275265337252 0 185.68275265337252 -91.507724902097834 0 0 0 0 53.828904681096901 186.88744148118531 0 186.88744148118531 -39.517316757530352 0 0 0 0 -6.8151957642239722 232.71887627283309 0 232.71887627283309 -70.520424797759915 0 0 0 0 -28.09663583310612 97.961802827085648 0 97.961802827085648 -44.454298373027996 0 0 0 0 44.621775994318796 217.38813230638482 0 217.38813230638482 -72.164306081205723 0 0 0 0 44.880098198307678 232.0582098610339 0 232.0582098610339 -52.235116419407859 0 0 0 0 50.919513618180645 222.99845294364786 0 222.99845294364786 -75.417660492425057 0 0 0 0 50.44840087123157 228.94109973821287 0 228.94109973821287 -54.000687490630298 0 0 0 0 45.294171025503601 229.06904637006392 0 229.06904637006392 -51.727111020736629 0 0 0 0 46.203081316591124 229.79080162062928 0 229.79080162062928 -39.465712999714015 0 0 0 0 46.409331778326305 230.82530890528324 0 230.82530890528324 -50.098303912343908 0 0 0 0 66.067761311896902 229.01814055579598 0 229.01814055579598 -27.186242681784279 0 0 0 0 58.782597853591142 238.76182284483366 0 238.76182284483366 -55.026672676447561 0 0 0 0 60.43168807113625 211.30099451528406 0 211.30099451528406 -95.049069948989199 0 0 0 0 -6.5586473238217877 149.69549092718989 0 149.69549092718989 -94.451518074579326 0 0 0 0 -6.6697311998505029 150.58216022669376 0 150.58216022669376 -99.467986826399283 0 0 0 0 -84.391886645818886 124.56518131692064 0 124.56518131692064 -90.668607816805888 0 0 0 0 -19.532467454861035 82.3587867875749 0 82.3587867875749 -206.77117926654319 0 0 0 0 38.617688707017805 159.68156494376672 0 159.68156494376672 -93.48950743594105 0 0 0 0 44.453352764787269 155.6557125155814 0 155.6557125155814 -149.47617021482438 0 0 0 0 105.58910735983227 183.80336618474212 0 183.80336618474212 -119.53002675446714 0 0 0 0 87.315331382538716 250.31509358830226 0 250.31509358830226 -46.236447342616884 0 0 0 0 188.51069437559636 202.16589301474596 0 202.16589301474596 -100.64271350283116 0 0 0 0 120.04407110713328 324.49502383927711 0 324.49502383927711 120.92575679763831 0 0 0 0 291.89806075497836 20.023714788477832 0 20.023714788477832 -12.362738267420355 0 0 0 0 268.52576794433844 308.49914111118778 0 308.49914111118778 40.634552162166074 0 0 0 0 79.785850206590112 248.75282816812796 0 248.75282816812796 406.30269851070261 0 0 0 0 69.720255515967438 164.6602068234979 0 164.6602068234979 111.24960876527621 0 0 0 0 49.867373164655874 215.08947211984196 0 215.08947211984196 63.240237313835678 0 0 0 0 -15.336957847630401 229.51227308372108 0 229.51227308372108 90.249438781233039 0 0 0 0 67.272197262456757 252.58981661981852 0 252.58981661981852 -17.208065375602018 0 0 0 0 -310.74273637745137 474.1704888284421 0 474.1704888284421 -114.01263753984131 0 0 0 0 83.095715868326806 167.89442826079176 0 167.89442826079176 -112.00131827218229 0 0 0 0 -145.11932390376023 370.55027629304277 0 370.55027629304277 -34.591038464693156 0 0 0 0 33.411055313248653 132.99880611543267 0 132.99880611543267 157.55128420081746 0 0 0 0 153.9896580191562 225.25393986790368 0 225.25393986790368 228.11450608620362 0 0 0 0 -17.719746656091957 319.47062461139376 0 319.47062461139376 -263.38268485488879 0 0 0 0 -3.3622450209760615 1.5043447136421833 0 1.5043447136421833 -0.56407080214507488 0 0 0 0 -192.48483218104957 149.50827320674034 0 149.50827320674034 157.36180183199031 0 0 0 0 -289.60442451153722 472.7387678092673 0 472.7387678092673 -200.20241118750528 0 0 0 0 -345.78009770174049 333.1878572079122 0 333.1878572079122 30.59440280617855 0 0 0 0 -524.60210185496726 408.3184189456606 0 408.3184189456606 -164.49065292099476 0 0 0 0 32.817923452177077 11.774784903513563 0 11.774784903513563 -6.3967530589538484 0 0 0 0 -882.44055717557058 206.60254697794699 0 206.60254697794699 -1.6170310350844375 0 0 0 0 -289.51693329174304 48.14467004407561 0 48.14467004407561 20.865705174164759 0 0 0 0 -268.28743907784155 162.54923973917175 0 162.54923973917175 -94.955758418961523 0 0 0 0 -210.06111257658449 250.16325445684561 0 250.16325445684561 32.882098154550476 0 0 0 0 -25.275194578498485 -28.831948309110885 0 -28.831948309110885 -100.5615122287345 0 0 0 0 -423.38290800200048 288.7736606819326 0 288.7736606819326 11.066255205238122 0 0 0 0 -188.57955114886863 264.07409775130327 0 264.07409775130327 -38.034841103151848 0 0 0 0 -197.24084820419375 257.01479005289002 0 257.01479005289002 6.3090551920126927 0 0 0 0 -197.19733415320479 241.74890681586203 0 241.74890681586203 -41.236081903938612 0 0 0 0 84.394168907243525 72.727149102654778 0 72.727149102654778 -14.135328098648571 0 0 0 0 120.00774800058025 87.683678095990217 0 87.683678095990217 -12.090789823643718 0 0 0 0 -136.7742487893338 138.87017094110524 0 138.87017094110524 -22.851857727877359 0 0 0 0 -3.7957760379951111 33.615786899305675 0 33.615786899305675 -28.417745262478107 0 0 0 0 -179.85969220826519 262.08972475391784 0 262.08972475391784 -52.609714774540407 0 0 0 0 49.449798133934891 79.933448152912305 0 79.933448152912305 5.4070148137763994 0 0 0 0 -38.476709397677041 231.29274201905719 0 231.29274201905719 -78.869920870092756 0 0 0 0 -48.174668246439978 316.18745668883457 0 316.18745668883457 -113.77366244521863 0 0 0 0 -143.12814193481609 372.60297292679388 0 372.60297292679388 -98.124399313194772 0 0 0 0 -148.58564666353413 359.43739603752329 0 359.43739603752329 -66.304672329279128 0 0 0 0 -180.48259592888371 366.27424842384039 0 366.27424842384039 -56.806177305395977 0 0 0 0 -29.365027233943692 273.68546620174675 0 273.68546620174675 -8.4015897424578725 0 0 0 0 -154.27664235451448 452.96870142668331 0 452.96870142668331 -147.11300544496771 0 0 0 0 -351.23509455531894 374.40199838053195 0 374.40199838053195 -18.459063799734622 0 0 0 0 -384.5604636228345 704.41727729846025 0 704.41727729846025 -453.00043311873014 0 0 0 0 -58.453323645819182 395.40825136003696 0 395.40825136003696 -160.20366896305268 0 0 0 0 -85.914866314289611 286.96794373741795 0 286.96794373741795 -124.5075139898363 0 0 0 0 112.71659107477899 84.371680970585658 0 84.371680970585658 -121.8826873321627 0 0 0 0 17.097831418579517 157.08984848518685 0 157.08984848518685 -59.93423880539558 0 0 0 0 355.61358225176809 -39.261820080577309 0 -39.261820080577309 -196.58310155666913 0 0 0 0 226.84047985106736 226.45320443853143 0 226.45320443853143 -563.34686505333593 0 0 0 0 52.24429149228672 82.616909948683315 0 82.616909948683315 4.3059524481286644 0 0 0 0 67.707497439616418 72.695832518447787 0 72.695832518447787 0.77934208240185399 0 0 0 0 65.974038862916643 73.724048186865119 0 73.724048186865119 14.188914728150522 0 0 0 0 52.652363560309823 92.745517496070534 0 92.745517496070534 -9.4447284406996914 0 0 0 0 59.980810064043908 79.255167282101866 0 79.255167282101866 8.8806382671282336 0 0 0 0 58.668432907476927 49.760616183224556 0 49.760616183224556 -11.221565531304805 0 0 0 0 5.39637160917664 105.97386431992891 0 105.97386431992891 30.885488406571312 0 0 0 0 101.61446189058552 99.261079522363616 0 99.261079522363616 -13.549100408363302 0 0 0 0 62.217673527119587 131.38168696446519 0 131.38168696446519 42.130327532693627 0 0 0 0 63.135419033958897 180.6489082021053 0 180.6489082021053 272.67983468662715 0 0 0 0 207.62847846022487 153.3608749129553 0 153.3608749129553 -60.615160923469375 0 0 0 0 184.76657946656633 95.576768196850026 0 95.576768196850026 0.52666939586924855 0 0 0 0 67.847319146192149 147.79113770402546 0 147.79113770402546 -20.601371237113199 0 0 0 0 157.37657782804308 45.203392281984634 0 45.203392281984634 12.7812561433675 0 0 0 0 70.6916929399015 78.917193307294411 0 78.917193307294411 16.458815568621134 0 0 0 0 83.595986888157768 41.755656848109766 0 41.755656848109766 19.594565927203803 0 0 0 0 13.356850820578245 18.983409454364271 0 18.983409454364271 -0.53684346309606212 0 0 0 0 74.014043926836834 30.079981694351041 0 30.079981694351041 -19.637032241313037 0 0 0 0 70.312438753570859 57.052196730270225 0 57.052196730270225 -30.581094711096739 0 0 0 0 115.7960691353328 84.319586088408869 0 84.319586088408869 9.3265710109662905 0 0 0 0 11.453547361163938 50.508209813910277 0 50.508209813910277 -3.1984582074602486 0 0 0 0 110.17636301735911 72.438263243591791 0 72.438263243591791 67.670161702175392 0 0 0 0 107.31957139860606 36.32264967831361 0 36.32264967831361 -31.357993729889131 0 0 0 0 4.277466408692419 8.4593496090364226 0 8.4593496090364226 -4.5329208385367536 0 0 0 0 332.11015660059638 96.998681270437373 0 96.998681270437373 -25.038213601728785 0 0 0 0 -629.84763186859345 646.04324436360002 0 646.04324436360002 -307.19761816392565 0 0 0 0 9.3052319946103452 14.242284442997899 0 14.242284442997899 -32.157036207586344 0 0 0 0 -148.56488579789584 368.3488567396962 0 368.3488567396962 -484.8465404020244 0 0 0 0 -451.47666530033166 911.03775526337631 0 911.03775526337631 -370.48302410904489 0 0 0 0 -128.65423042933708 980.80197014529085 0 980.80197014529085 -373.25502694662282 0 0 0 0 453.33122128593095 794.99544459156459 0 794.99544459156459 -533.58569588691171 0 0 0 0 458.47830303898263 813.19768426772362 0 813.19768426772362 -710.42255639581708 0 0 0 0 93.719870920751418 565.87710548599716 0 565.87710548599716 62.653549426868267 0 0 0 0 528.83660407687375 908.9867836363901 0 908.9867836363901 -463.32543329590408 0 0 0 0 -23.687304969391334 179.616952070568 0 179.616952070568 -784.14530874697812 0 0 0 0 44.720999418837891 375.26397616565009 0 375.26397616565009 -295.6796212812842 0 0 0 0 -429.79643801137172 689.50270408234792 0 689.50270408234792 -991.57543933149282 0 0 0 0 -431.19709040255202 311.09950535291773 0 311.09950535291773 712.55821421486326 0 0 0 0 -329.4542183585736 366.39374345727447 0 366.39374345727447 -674.11536138955125 0 0 0 0 322.31110562539106 677.05638273819204 0 677.05638273819204 -846.17216271799407 0 0 0 0 310.69661668184926 682.25330610996389 0 682.25330610996389 -756.40135219678223 0 0 0 0 20.838005324656052 6.4443900679233863 0 6.4443900679233863 2.5588488013588844 0 0 0 0 464.58965605780031 421.59760519108204 0 421.59760519108204 -942.0571937839286 0 0 0 0 1127.2200083588323 965.62059081980624 0 965.62059081980624 -872.08493316356044 0 0 0 0 -91.00756180557255 -57.285698843897762 0 -57.285698843897762 2093.3838697198589 0 0 0 0 648.80009694059117 774.67257908135252 0 774.67257908135252 985.05691291758376 0 0 0 0 -314.27496945326857 -168.75418771679324 0 -168.75418771679324 1196.2677462285756 0 0 0 0 1025.7280860434403 -144.7180585138467 0 -144.7180585138467 -334.08533075878404 0 0 0 0 -1142.4970276848617 -19.898354654051218 0 -19.898354654051218 114.58843685269676 0 0 0 0 -418.53149176310035 649.96016231772956 0 649.96016231772956 -1092.9662841498648 0 0 0 0 -2601.6684405979026 752.031531223765 0 752.031531223765 605.48861139122164 0 0 0 0 -1.3417656813887127 3.441107573682153 0 3.441107573682153 -10.088075094832845 0 0 0 0 -377.19168171816636 693.11140794576204 0 693.11140794576204 -320.17003347966602 0 0 0 0 486.34661188775499 1723.5347694837992 0 1723.5347694837992 163.73679437449755 0 0 0 0 6.3171703709243587 21.207746949340475 0 21.207746949340475 15.938994283467981 0 0 0 0 301.12285380883259 -142.3662929166403 0 -142.3662929166403 -444.09892358678553 0 0 0 0 -83.496368235944828 -93.515226028152028 0 -93.515226028152028 -175.02960787442862 0 0 0 0 10.649998617017332 -80.326205187498317 0 -80.326205187498317 -733.89090118314198 0 0 0 0 -17.021927642525952 230.02319599324619 0 230.02319599324619 -595.37911236088257 0 0 0 0 57.823990272845549 157.06312831796458 0 157.06312831796458 -218.38868349944096 0 0 0 0 378.48403669256868 137.70141217045784 0 137.70141217045784 -576.01716798375128 0 0 0 0 4.4093266139270781 -71.125296353602607 0 -71.125296353602607 -699.96617798484658 0 0 0 0 242.1761224539446 15.40777823262286 0 15.40777823262286 -782.1454930936161 0 0 0 0 242.9314580290802 248.60131892685604 0 248.60131892685604 -565.32718147224296 0 0 0 0 -5.3983038719368963 22.510602515062978 0 22.510602515062978 11.840993152652295 0 0 0 0 85.973564563223178 32.271272101835535 0 32.271272101835535 7.4476592039415692 0 0 0 0 202.61041729016142 271.38608756679241 0 271.38608756679241 -121.91184956546022 0 0 0 0 252.7841756146081 267.32311577483779 0 267.32311577483779 -66.553836611590668 0 0 0 0 174.79141903815798 -30.002027910690231 0 -30.002027910690231 -1000.1323284398459 0 0 0 0 -45.0540395783446 73.674925019331567 0 73.674925019331567 -788.0942617731489 0 0 0 0 -496.29752264454464 91.910741533400142 0 91.910741533400142 630.01833869231996 0 0 0 0 -9.4876053179363105 2.6501181968539953 0 2.6501181968539953 -2.4799022439510239 0 0 0 0 -131.13852574630619 -52.228658202142469 0 -52.228658202142469 -685.37414833868388 0 0 0 0 -22.862605606238503 -10.247271651056508 0 -10.247271651056508 -1191.9501878301598 0 0 0 0 -145.59723851357012 55.813081927266467 0 55.813081927266467 -935.69676612790772 0 0 0 0 -40.655354130288288 282.83503434943123 0 282.83503434943123 -2106.3436395051285 0 0 0 0 344.29667683019215 362.78269654637188 0 362.78269654637188 -512.63672693316221 0 0 0 0 -4.6117921342346833 -0.19680902725741589 0 -0.19680902725741589 -0.57753188349522588 0 0 0 0 57.207654898339712 22.427717631790955 0 22.427717631790955 7.8909124880444743 0 0 0 0 -146.91201135978918 161.91721458636675 0 161.91721458636675 969.081398363076 0 0 0 0 19.129663771519972 239.79805547315141 0 239.79805547315141 831.07985248915065 0 0 0 0 -239.99092283531354 208.75265455780755 0 208.75265455780755 872.01606499041009 0 0 0 0 -131.2543031401774 401.25049705840411 0 401.25049705840411 730.54477880026388 0 0 0 0 -70.47446396365558 549.53801580043182 0 549.53801580043182 847.56933234995086 0 0 0 0 -131.88210971767694 403.26291542877152 0 403.26291542877152 725.92131270731988 0 0 0 0 -3.9393068123754347 161.76756326922805 0 161.76756326922805 678.09097365501657 0 0 0 0 66.137600482166818 102.14824183628207 0 102.14824183628207 78.052802511105256 0 0 0 0 158.4311596769694 343.0445621407016 0 343.0445621407016 428.0565185735868 0 0 0 0 319.44886509143544 304.58607637896421 0 304.58607637896421 16.988295256618585 0 0 0 0 277.90531402964916 492.22079911376204 0 492.22079911376204 414.69394437397682 0 0 0 0 232.93101608536927 400.43759227837108 0 400.43759227837108 400.56265669204731 0 0 0 0 913.39037556215044 1000.0490865856282 0 1000.0490865856282 802.69962249784476 0 0 0 0 429.827817281428 -63.211627317146394 0 -63.211627317146394 -21.308153138994385 0 0 0 0 134.31186029252422 149.2259760799825 0 149.2259760799825 61.90618147458008 0 0 0 0 593.79479213350351 407.11331649939893 0 407.11331649939893 194.30222619170308 0 0 0 0 57.097940794097667 229.42015194196938 0 229.42015194196938 9.1974086763584637 0 0 0 0 332.6772795067227 164.31808587200067 0 164.31808587200067 -41.347468121166457 0 0 0 0 591.06292143109204 -445.92029741693568 0 -445.92029741693568 691.64509966739206 0 0 0 0 1150.379488052622 879.87326234764851 0 879.87326234764851 907.1769382097591 0 0 0 0 -40.689267409154127 449.86497890547435 0 449.86497890547435 1590.8208994595061 0 0 0 0 -89.429549735557885 245.08853894958611 0 245.08853894958611 780.28520316584763 0 0 0 0 218.73476259825838 163.58145201357729 0 163.58145201357729 18.617037554602575 0 0 0 0 -340.85329375626679 2.9365413203940989 0 2.9365413203940989 457.76322780927376 0 0 0 0 -81.317213231559435 386.70302358517438 0 386.70302358517438 393.61224224507896 0 0 0 0 -233.49796985429202 371.15139771938993 0 371.15139771938993 735.96780268614748 0 0 0 0 -29.782923888544246 339.5312623484906 0 339.5312623484906 -109.06031320049442 0 0 0 0 -184.06282023189306 220.61999676757023 0 220.61999676757023 231.35260806395672 0 0 0 0 -140.21873641507409 -256.34048570018649 0 -256.34048570018649 -330.87478730443399 0 0 0 0 -3.9363953709420656 2.9767234565501965 0 2.9767234565501965 -2.1388790899405805 0 0 0 0 -110.5417993146948 118.24144759475894 0 118.24144759475894 42.797846241504885 0 0 0 0 -100.57816687346349 95.655857203242704 0 95.655857203242704 26.476249921153794 0 0 0 0 11.619878958876996 10.575832495968655 0 10.575832495968655 -1.421363981689268 0 0 0 0 137.19607315181202 -26.198410104441791 0 -26.198410104441791 -195.32279869184822 0 0 0 0 84.240682023433692 94.126253645297993 0 94.126253645297993 -19.385948161241686 0 0 0 0 -8.377316988596732 12.428281523971179 0 12.428281523971179 -13.041716477636285 0 0 0 0 -44.20055982167105 -397.77883349338663 0 -397.77883349338663 -192.68403966582082 0 0 0 0 49.091928134391779 -0.43178663530584416 0 -0.43178663530584416 -28.484332000245956 0 0 0 0 109.1657949041437 2.9110968840304849 0 2.9110968840304849 -91.481086069019511 0 0 0 0 -19.233446960486617 -5.9767403701080184 0 -5.9767403701080184 16.562655548928888 0 0 0 0 27.563376262034325 -4.244897346125299 0 -4.244897346125299 -3.9601952182745634 0 0 0 0 90.488552438331681 -59.843187620135723 0 -59.843187620135723 -140.27855676647596 0 0 0 0 -2.6736210500460516 0.63085114175871482 0 0.63085114175871482 1.2792073562192172 0 0 0 0 347.65237040926968 640.47372031073382 0 640.47372031073382 -173.71573106871801 0 0 0 0 318.03377079547136 -118.86602141562071 0 -118.86602141562071 -34.409960171350576 0 0 0 0 98.514292986870714 26.36480685486822 0 26.36480685486822 -62.214604014377983 0 0 0 0 114.53923273905093 60.442231433062261 0 60.442231433062261 -23.410476322884278 0 0 0 0 -90.983087232751132 179.03482135566173 0 179.03482135566173 -23.273497304209741 0 0 0 0 -251.754792440659 89.769820730061838 0 89.769820730061838 35.472441371173772 0 0 0 0 -20.878720774839167 35.839517837455787 0 35.839517837455787 3.4747828265972203 0 0 0 0 -38.294334873814023 -43.484709875308909 0 -43.484709875308909 50.898620129682968 0 0 0 0 27.31249162187305 -87.04393907037047 0 -87.04393907037047 41.490982778745092 0 0 0 0 -55.88349903782364 620.44247345471376 0 620.44247345471376 631.59343890565196 0 0 0 0 -72.425466687368498 114.40849669441468 0 114.40849669441468 -75.453682444654987 0 0 0 0 306.15300552215922 179.85645954537176 0 179.85645954537176 -182.97354973589972 0 0 0 0 430.97447223382005 20.396281234267008 0 20.396281234267008 -183.56540377703641 0 0 0 0 252.34148614214791 31.040738519390288 0 31.040738519390288 -74.020822983514336 0 0 0 0 165.21237048323474 86.518238390831357 0 86.518238390831357 -107.97021804631004 0 0 0 0 170.45522712974707 75.813040966253538 0 75.813040966253538 -127.32301432307941 0 0 0 0 -58.846519254868326 181.65840315013338 0 181.65840315013338 -63.57563540119736 0 0 0 0 146.02982134531339 52.380729028953283 0 52.380729028953283 -17.98617624588951 0 0 0 0 100.34305568564741 103.26687138435227 0 103.26687138435227 -26.140262609471392 0 0 0 0 -10.45506671720068 145.15757684057826 0 145.15757684057826 0.85835873683572572 0 0 0 0 227.01702350878259 88.726988443906521 0 88.726988443906521 81.610858820607973 0 0 0 0 191.63424955247319 147.45785581282689 0 147.45785581282689 -7.5893027619722488 0 0 0 0 193.15749429663447 134.1712816524041 0 134.1712816524041 250.66604961152916 0 0 0 0 294.15533296497597 132.62821328601422 0 132.62821328601422 15.726133474880953 0 0 0 0 254.59857919183378 42.319068941355908 0 42.319068941355908 -60.799097028881079 0 0 0 0 234.90910114621875 54.141703117302313 0 54.141703117302313 33.144709159297236 0 0 0 0 182.54201243100397 125.00410577051662 0 125.00410577051662 -57.969553690311841 0 0 0 0 128.87170769796467 119.60292577736436 0 119.60292577736436 107.52945467913014 0 0 0 0 183.39439252211014 37.301403170065896 0 37.301403170065896 124.77108355060318 0 0 0 0 234.53112036496896 222.67512634586274 0 222.67512634586274 341.38642985325714 0 0 0 0 -1.3581405238951803 0.41174089689067017 0 0.41174089689067017 2.6386986582290746 0 0 0 0 -11.26784569452866 7.2498805480499868 0 7.2498805480499868 214.42733134536718 0 0 0 0 73.827017213385261 240.38625502813011 0 240.38625502813011 -136.43227327771092 0 0 0 0 345.20509454745479 324.76349723825115 0 324.76349723825115 302.79449041258795 0 0 0 0 -39.45586578270013 356.20685321147903 0 356.20685321147903 -15.029901757312473 0 0 0 0 -37.352628384032869 209.57959674591984 0 209.57959674591984 225.86879444833903 0 0 0 0 -56.007194179604994 183.65386358143041 0 183.65386358143041 215.29308453682461 0 0 0 0 -164.34380771687574 171.89024149542638 0 171.89024149542638 537.82734728350624 0 0 0 0 -145.80464499587106 326.07274937049078 0 326.07274937049078 308.7892252352467 0 0 0 0 -100.01179561489334 4.6848860544050694 0 4.6848860544050694 515.94389338990732 0 0 0 0 -2.8477133262786083 -106.66590889767031 0 -106.66590889767031 395.19514640903071 0 0 0 0 -29.425713164997433 49.565482892096043 0 49.565482892096043 233.34878331319487 0 0 0 0 -44.142262514280446 120.16108729670668 0 120.16108729670668 298.63783223549399 0 0 0 0 295.87965506498222 -515.92571020625655 0 -515.92571020625655 654.60255513264565 0 0 0 0 40.272094977382949 16.230163404037739 0 16.230163404037739 -23.243169806912192 0 0 0 0 -10.051289549258755 8.1154620429253441 0 8.1154620429253441 0.099723391193762723 0 0 0 0 400.21417405008106 267.91349491422625 0 267.91349491422625 4.5020281635661377 0 0 0 0 432.97561024033348 400.59474536303605 0 400.59474536303605 -626.63940205500694 0 0 0 0 2.7767963279664514 0.31757229331429926 0 0.31757229331429926 0.7763015668313713 0 0 0 0 255.41399947686295 269.51348894827606 0 269.51348894827606 293.05303830327375 0 0 0 0 418.96711033514293 431.85530939262389 0 431.85530939262389 314.90969600836615 0 0 0 0 308.93686371769581 241.04364422779418 0 241.04364422779418 222.26501715404447 0 0 0 0 361.92149983702257 204.00703008375967 0 204.00703008375967 65.88051603153508 0 0 0 0 228.48376952752733 226.9977025021908 0 226.9977025021908 153.59695302553882 0 0 0 0 221.87326753762886 131.84178986405243 0 131.84178986405243 -6.1940849930615514 0 0 0 0 358.46280914648014 220.24060179227945 0 220.24060179227945 130.71819035408407 0 0 0 0 -126.12090684690338 37.906705487843283 0 37.906705487843283 24.013250255484309 0 0 0 0 57.829532135423506 73.544995124539128 0 73.544995124539128 37.475544740951591 0 0 0 0 174.30571278201387 159.89907985948594 0 159.89907985948594 -0.94175270238702069 0 0 0 0 2.5516158013342647 53.635285792288414 0 53.635285792288414 -0.014581260278646369 0 0 0 0 -39.190657729650411 112.53612132175294 0 112.53612132175294 -26.706558014222537 0 0 0 0 235.5904317389577 155.78793973552092 0 155.78793973552092 -63.812735595764025 0 0 0 0 346.30519330704738 -134.01753875502141 0 -134.01753875502141 66.868095436919248 0 0 0 0 -236.24633945985624 -71.44566011936422 0 -71.44566011936422 154.06572091420639 0 0 0 0 185.71052555217466 230.50312812273478 0 230.50312812273478 100.24914020676806 0 0 0 0 320.95129260211252 276.82874195925251 0 276.82874195925251 -9.5952910130581586 0 0 0 0 487.34055490550236 421.72180178877716 0 421.72180178877716 93.830273184492398 0 0 0 0 264.37901371012413 337.85180060713537 0 337.85180060713537 225.72011679242132 0 0 0 0 185.94486106446857 378.9594627887418 0 378.9594627887418 206.30481856141159 0 0 0 0 335.75638743507079 479.07206987427162 0 479.07206987427162 273.06455353296769 0 0 0 0 73.409011886908957 282.0127547068796 0 282.0127547068796 374.28454267785128 0 0 0 0 131.23845652673845 538.43412844905743 0 538.43412844905743 401.66109188969494 0 0 0 0 647.14321881494834 190.46417045463386 0 190.46417045463386 -133.79032410521722 0 0 0 0 417.74130464099107 314.12871608518481 0 314.12871608518481 -1.7862129286586423 0 0 0 0 4.7127956376275826 7.7066084474272323 0 7.7066084474272323 4.6290208467497393 0 0 0 0 304.36387987675698 119.80881630038994 0 119.80881630038994 110.05763184984244 0 0 0 0 -5.2356437591412686 21.552332413566788 0 21.552332413566788 -9.1110876069379145 0 0 0 0 6.0968407822074369 15.798232419858323 0 15.798232419858323 95.381106394625021 0 0 0 0 124.44102919333739 113.39944987552548 0 113.39944987552548 20.485290861139219 0 0 0 0 79.17657005602814 49.308973241822969 0 49.308973241822969 -14.46138192149192 0 0 0 0 75.942342060043302 122.79445227838733 0 122.79445227838733 -24.546342311503395 0 0 0 0 121.42441358995916 76.097988564991965 0 76.097988564991965 20.753422583009524 0 0 0 0 62.783442049039877 127.68361481254942 0 127.68361481254942 51.952128457114668 0 0 0 0 55.511715969792931 142.0576543628913 0 142.0576543628913 43.588824681806727 0 0 0 0 -1.6140805757295453 0.20542582455264125 0 0.20542582455264125 0.039452442912953245 0 0 0 0 115.45802599882154 104.06683287455962 0 104.06683287455962 57.229549112329551 0 0 0 0 28.587687837578414 -40.520691391593573 0 -40.520691391593573 -69.986768901060714 0 0 0 0 3.2762945240815995 16.197623979330466 0 16.197623979330466 -21.304701431810631 0 0 0 0 69.994793312172987 140.54034143833996 0 140.54034143833996 36.988320473814383 0 0 0 0 380.72712301210413 -134.48651282161154 0 -134.48651282161154 29.896815374457219 0 0 0 0 89.661511842365144 -148.39522520882019 0 -148.39522520882019 249.80431179792504 0 0 0 0 5.2555286357663249 5.0905406225445304 0 5.0905406225445304 0.12305235598165609 0 0 0 0 124.7515548276715 123.25117395196139 0 123.25117395196139 39.067545702018833 0 0 0 0 193.93289907366852 53.522159557585837 0 53.522159557585837 38.070266990675009 0 0 0 0 114.8475749783538 104.06126961851623 0 104.06126961851623 47.944228378735716 0 0 0 0 181.86810346615675 81.470252630235336 0 81.470252630235336 18.14290976600023 0 0 0 0 220.25760931183504 67.76814134905726 0 67.76814134905726 -63.399400640060776 0 0 0 0 170.04240227951686 142.54671163938383 0 142.54671163938383 2.1798003831936512 0 0 0 0 -72.380158432584722 7.4259564364620019 0 7.4259564364620019 121.05618505793973 0 0 0 0 178.12692814673937 58.926513865750167 0 58.926513865750167 79.813146829947073 0 0 0 0 196.33577365032761 22.362015136874106 0 22.362015136874106 86.76120740546321 0 0 0 0 221.5870581407944 55.825790092618263 0 55.825790092618263 10.531491359433858 0 0 0 0 76.000907328430912 -49.507779847906932 0 -49.507779847906932 125.66540448804153 0 0 0 0 566.83098079856791 51.498366100777275 0 51.498366100777275 -316.01375007562456 0 0 0 0 450.29126179974264 -102.58469942800002 0 -102.58469942800002 -82.875071370130172 0 0 0 0 90.158216520852875 173.57721875490461 0 173.57721875490461 -9.4957750775647582 0 0 0 0 -140.79144587936753 321.31885939142921 0 321.31885939142921 -35.39349251279782 0 0 0 0 -12.747273734236913 10.792226805266168 0 10.792226805266168 -3.6871002603912615 0 0 0 0 -6.0613285802683095 63.190191609508474 0 63.190191609508474 144.98629521741441 0 0 0 0 -138.80542764130951 112.52893801721984 0 112.52893801721984 61.385138341611309 0 0 0 0 83.950486944386284 161.44706511507775 0 161.44706511507775 19.582640615524724 0 0 0 0 16.25985863195092 78.330877404610874 0 78.330877404610874 56.179771810155216 0 0 0 0 -15.545581845377455 139.65320184742814 0 139.65320184742814 55.922824312929151 0 0 0 0 55.366914967828052 175.49872569893978 0 175.49872569893978 20.640213609658531 0 0 0 0 200.4586698557614 403.70666238972262 0 403.70666238972262 -284.52198180452979 0 0 0 0 79.268987999836099 165.19775095763362 0 165.19775095763362 44.432975994136541 0 0 0 0 20.410991313179068 41.328962902118299 0 41.328962902118299 -78.668362723145052 0 0 0 0 113.15558122861694 160.01795628834998 0 160.01795628834998 39.11730396268058 0 0 0 0 39.62660213928757 -149.94833996421949 0 -149.94833996421949 -241.48922361525547 0 0 0 0 57.847049320874135 36.391082888515086 0 36.391082888515086 -65.432412307044672 0 0 0 0 143.00500830860983 123.89792366101813 0 123.89792366101813 54.042089958899055 0 0 0 0 103.6437673583041 129.21257396297165 0 129.21257396297165 68.585701930250707 0 0 0 0 91.534869609611633 149.5013840000488 0 149.5013840000488 47.525210430226252 0 0 0 0 93.43506589995377 95.615859550089226 0 95.615859550089226 100.57348778422056 0 0 0 0 116.63489347287393 71.756849301204255 0 71.756849301204255 22.40986406492085 0 0 0 0 139.70049619772499 92.094934490929177 0 92.094934490929177 65.583257609888733 0 0 0 0 112.55096935671463 84.598896292100108 0 84.598896292100108 9.0173517060393351 0 0 0 0 29.028275079603837 24.011738066329933 0 24.011738066329933 0.38118776970047463 0 0 0 0 -547.47804483538175 139.33313328312823 0 139.33313328312823 115.08158012833155 0 0 0 0 -189.61600217301748 172.26426688263382 0 172.26426688263382 16.119983709671942 0 0 0 0 -288.89031885422446 -42.47043188682801 0 -42.47043188682801 74.625784875264799 0 0 0 0 -599.74219830335642 210.36807566702191 0 210.36807566702191 39.561697881508735 0 0 0 0 -27.080338861097985 10.659350618173661 0 10.659350618173661 27.466167742480224 0 0 0 0 -469.3519531261627 124.65024582714796 0 124.65024582714796 132.28192833358253 0 0 0 0 159.21480192700255 89.039503767367478 0 89.039503767367478 63.159548328348137 0 0 0 0 -444.20894438031974 29.359614280772803 0 29.359614280772803 100.36224229656909 0 0 0 0 8.9960334637870147 79.865061931191377 0 79.865061931191377 85.864803414279393 0 0 0 0 -394.77550010409323 86.259445120867895 0 86.259445120867895 158.43641809809196 0 0 0 0 123.01452446272037 112.90023384117916 0 112.90023384117916 79.777837521556648 0 0 0 0 -3.1342774348625007 80.509327610909608 0 80.509327610909608 104.18112175159315 0 0 0 0 95.311268231285794 69.383364094941498 0 69.383364094941498 170.21863815124379 0 0 0 0 3.5190386901248316 88.542665543216174 0 88.542665543216174 118.1586960943967 0 0 0 0 173.76812415140012 354.1206531387179 0 354.1206531387179 131.44804669656878 0 0 0 0 -13.076544301860849 155.8210369854678 0 155.8210369854678 105.64193470672035 0 0 0 0 53.565580864276853 102.49030225016122 0 102.49030225016122 104.17236388193558 0 0 0 0 11.94169319410139 175.23504525753924 0 175.23504525753924 91.443156364621245 0 0 0 0 -180.02882595494157 280.95790215935267 0 280.95790215935267 103.41334738930254 0 0 0 0 84.587837737191876 165.06817844311172 0 165.06817844311172 69.498493565753051 0 0 0 0 72.339789399953588 200.1909663631684 0 200.1909663631684 7.9178544972037344 0 0 0 0 22.185895257895027 205.34791607451314 0 205.34791607451314 45.887232996223247 0 0 0 0 -119.99858610458614 240.99996299257691 0 240.99996299257691 75.313300290164989 0 0 0 0 115.78601345152856 385.16254426265186 0 385.16254426265186 -159.90219126737429 0 0 0 0 600.63528858096106 407.6345217064445 0 407.6345217064445 -163.66288602991108 0 0 0 0 283.51656777239259 189.84708336574658 0 189.84708336574658 -76.783953023186768 0 0 0 0 111.01283686045645 56.377521373195123 0 56.377521373195123 -179.53568388833628 0 0 0 0 113.76718495199748 168.19156210663368 0 168.19156210663368 -8.8636616867279372 0 0 0 0 136.27362964903296 198.47057389524889 0 198.47057389524889 -60.476395818167475 0 0 0 0 102.5372464999964 206.49867144267046 0 206.49867144267046 -50.840013568922586 0 0 0 0 45.361103242052195 47.762572921606989 0 47.762572921606989 448.26252339650637 0 0 0 0 101.12344080828916 732.04008563993102 0 732.04008563993102 1589.0526495362537 0 0 0 0 26.504760860120513 2.5411987866269357 0 2.5411987866269357 2.0972677920653471 0 0 0 0 336.37387899182067 62.878436059428623 0 62.878436059428623 -322.29088206714732 0 0 0 0 953.49882204916867 -510.49608133188667 0 -510.49608133188667 -110.4261406140613 0 0 0 0 2390.2158350561367 675.22753211621057 0 675.22753211621057 -2004.0587683082122 0 0 0 0 -549.70338521848316 1244.7800548862633 0 1244.7800548862633 -741.51136126352503 0 0 0 0 -433.5863947676462 355.41860272750569 0 355.41860272750569 303.95452829938586 0 0 0 0 732.01847213908331 469.15950633052216 0 469.15950633052216 -84.866086611313222 0 0 0 0 -703.63177992261626 -1037.2467910321429 0 -1037.2467910321429 2724.0742917782536 0 0 0 0 -652.7192568159951 -179.35687319370345 0 -179.35687319370345 -473.64055843049937 0 0 0 0 -210.35445185468416 -44.343697361615341 0 -44.343697361615341 42.278739691146257 0 0 0 0 -1.3186604222765652 1.3660806159146333 0 1.3660806159146333 -3.0916938771943876 0 0 0 0 -459.51809865224641 108.08224162364422 0 108.08224162364422 -43.43457112627766 0 0 0 0 -116.99474709783681 361.91621293891694 0 361.91621293891694 -398.19046171541413 0 0 0 0 -21.596872740165367 9.6554114352792126 0 9.6554114352792126 19.745896159174873 0 0 0 0 -634.7454335745133 63.297388039529324 0 63.297388039529324 -398.55216775891859 0 0 0 0 -229.18670958915027 201.32634084586061 0 201.32634084586061 413.70837070552079 0 0 0 0 -40.87042208280036 101.71985464037698 0 101.71985464037698 324.12296919724395 0 0 0 0 636.53151484843693 280.16217104530369 0 280.16217104530369 -531.26566189942787 0 0 0 0 -238.20079403199918 -77.072575539877846 0 -77.072575539877846 360.05461560124968 0 0 0 0 12.576908637428055 28.766657021499029 0 28.766657021499029 0.95052527470174653 0 0 0 0 613.14465687697736 -188.99118914515208 0 -188.99118914515208 -494.23057763472389 0 0 0 0 -110.71102003890701 338.95141917901492 0 338.95141917901492 333.11179190750863 0 0 0 0 -8.3142549652218065 6.167515653830641 0 6.167515653830641 -3.9522928478592618 0 0 0 0 392.11822094093441 -155.11147297594198 0 -155.11147297594198 -497.60044120676685 0 0 0 0 16.093382847087923 260.36022031026005 0 260.36022031026005 -328.70662066613295 0 0 0 0 251.45341632534837 116.14920000709026 0 116.14920000709026 142.30513038805657 0 0 0 0 -4.2791016330484126 137.51803213716312 0 137.51803213716312 402.99994980897463 0 0 0 0 -48.365240232924407 150.97878395290354 0 150.97878395290354 211.31549946959058 0 0 0 0 58.889995582147094 73.847291255980053 0 73.847291255980053 -18.318034022304346 0 0 0 0 -76.811715451585769 215.32016787924658 0 215.32016787924658 352.55085136096432 0 0 0 0 0.65596065694990102 111.52157791582613 0 111.52157791582613 64.58120640059019 0 0 0 0 -17.61837167962878 17.210163957294903 0 17.210163957294903 -14.790773084453818 0 0 0 0 210.80847431856319 459.0946308229536 0 459.0946308229536 372.40274243851309 0 0 0 0 -25.155474793416033 -18.903430923840688 0 -18.903430923840688 14.578671195722563 0 0 0 0 -4.5265053421850325 7.8618323780000381 0 7.8618323780000381 -13.759598484116232 0 0 0 0 255.46134041722689 -424.77887985195412 0 -424.77887985195412 -823.79981948971636 0 0 0 0 -24.443933574202021 23.14172018035601 0 23.14172018035601 -23.848776469864454 0 0 0 0 354.01030075819654 276.7581070044439 0 276.7581070044439 -37.739759013398725 0 0 0 0 297.79163588039228 433.02475900604622 0 433.02475900604622 151.42556271734065 0 0 0 0 -11.85627324774218 17.973419074480077 0 17.973419074480077 -30.707484787165846 0 0 0 0 6.008005310104636 88.305319780520222 0 88.305319780520222 42.786802404281389 0 0 0 0 -27.881104121668614 -123.05119529931744 0 -123.05119529931744 -204.93500589093037 0 0 0 0 25.704399761380046 38.585197372445691 0 38.585197372445691 7.3096560192570905 0 0 0 0 79.47266489242611 256.52225579218702 0 256.52225579218702 -13.809630290044879 0 0 0 0 23.761026088468498 241.10792208418388 0 241.10792208418388 322.82311148502868 0 0 0 0 100.02767345127359 51.802104643273196 0 51.802104643273196 -266.38406299417875 0 0 0 0 7.7403022822909406 -105.89640174745182 0 -105.89640174745182 126.83232947329088 0 0 0 0 30.140632648953357 28.3633821744139 0 28.3633821744139 -40.355809632977163 0 0 0 0 351.79874323185504 147.12278291282746 0 147.12278291282746 -345.56209779104393 0 0 0 0 -26.538879747924511 306.85046500259341 0 306.85046500259341 210.88772760089523 0 0 0 0 21.126980119163449 35.150350634577997 0 35.150350634577997 -2.9421141555546089 0 0 0 0 38.28679253800874 50.703964955497071 0 50.703964955497071 -3.8365235986981929 0 0 0 0 32.146183188764553 52.70775003883864 0 52.70775003883864 -20.506586853123736 0 0 0 0 44.085140527109331 46.687166067409436 0 46.687166067409436 -8.5018818503018121 0 0 0 0 7.6362538070482913 28.351908935860145 0 28.351908935860145 -12.178196230802421 0 0 0 0 34.812553907580991 14.322434697315664 0 14.322434697315664 -25.512373745806677 0 0 0 0 28.984883632132551 35.141275127505651 0 35.141275127505651 -35.250202636496397 0 0 0 0 17.948795854546916 17.536859409982753 0 17.536859409982753 -45.099432104526386 0 0 0 0 55.103645085720927 62.540267890519317 0 62.540267890519317 63.944078744481885 0 0 0 0 37.651360384442853 35.137108405874983 0 35.137108405874983 -2.1420330123339064 0 0 0 0 79.882754739075608 136.62442066878248 0 136.62442066878248 -117.44848294291023 0 0 0 0 35.280417362180742 37.801867457461867 0 37.801867457461867 43.386967779355473 0 0 0 0 51.977025876094331 74.758973341601262 0 74.758973341601262 52.496110631161287 0 0 0 0 101.60206535919133 84.871784505237883 0 84.871784505237883 39.079486822221952 0 0 0 0 95.717470413896081 72.919816786896263 0 72.919816786896263 39.054530486594494 0 0 0 0 106.45980835973751 81.535804934959742 0 81.535804934959742 40.720300035121909 0 0 0 0 51.224927857824113 67.03069270639358 0 67.03069270639358 8.8527694549122842 0 0 0 0 39.685437388878199 40.157852608153235 0 40.157852608153235 -23.06255721488742 0 0 0 0 29.195207505765914 37.131926872742042 0 37.131926872742042 -2.3123010096297207 0 0 0 0 100.28324031902594 89.304258081883745 0 89.304258081883745 77.885704127817007 0 0 0 0 119.12584967252769 88.537438166142238 0 88.537438166142238 44.3072468369337 0 0 0 0 61.977641414184248 76.369032446238975 0 76.369032446238975 7.6875482841883347 0 0 0 0 24.508234051113988 14.792095251092324 0 14.792095251092324 -41.929904714914009 0 0 0 0 73.592796176901288 32.595590626191679 0 32.595590626191679 -5.3956163279191376 0 0 0 0 478.58610142840917 81.967572599517553 0 81.967572599517553 -306.36048096733793 0 0 0 0 6.7725460123569263 -8.9169316171090536 0 -8.9169316171090536 -25.37337527958222 0 0 0 0 -770.98816826476832 251.22874215820048 0 251.22874215820048 -138.59176200012166 0 0 0 0 105.50644245625027 70.218928622300538 0 70.218928622300538 4.3340652278055369 0 0 0 0 -30.134070357802557 34.488193223252892 0 34.488193223252892 -286.6066989663268 0 0 0 0 88.413488502425025 117.90385541491924 0 117.90385541491924 255.27382885134466 0 0 0 0 328.00229803020193 242.99500895180972 0 242.99500895180972 208.56667035995997 0 0 0 0 3.8989649181021377 38.524947914389486 0 38.524947914389486 88.285914341489843 0 0 0 0 -78.165837091772119 -67.094961867314851 0 -67.094961867314851 112.62484523475814 0 0 0 0 2057.84131558644 -188.24819250180371 0 -188.24819250180371 -389.77496898082609 0 0 0 0 144.59126499437843 57.148352578667982 0 57.148352578667982 -39.942252250951924 0 0 0 0 15.462381926306989 13.074361523355037 0 13.074361523355037 -27.935046351169149 0 0 0 0 86.738849983132837 78.523417641661581 0 78.523417641661581 5.65820550769417 0 0 0 0 15.725818319864658 21.136334602903077 0 21.136334602903077 22.619389319255831 0 0 0 0 331.48338223998144 -51.606079038148891 0 -51.606079038148891 20.541636462312454 0 0 0 0 78.184424887658679 1126.2219043285404 0 1126.2219043285404 -344.79510748243774 0 0 0 0 -196.73887067597389 494.63442102135559 0 494.63442102135559 183.25541560372221 0 0 0 0 612.61064064161474 403.22602334045587 0 403.22602334045587 -85.346715713509184 0 0 0 0 19.501714692742098 337.45467649320562 0 337.45467649320562 -59.450447641102073 0 0 0 0 18.336644882481778 323.69291489161697 0 323.69291489161697 319.08572717189963 0 0 0 0 178.82713218939534 165.4834739031985 0 165.4834739031985 35.403405049895809 0 0 0 0 40.134464574636965 61.668008368917981 0 61.668008368917981 -0.92044535249269188 0 0 0 0 64.304132848865265 58.727295722772396 0 58.727295722772396 -25.984700068057919 0 0 0 0 62.665524904543418 37.788016092041289 0 37.788016092041289 -45.235149492080211 0 0 0 0 -12.593022395130873 26.472545795401356 0 26.472545795401356 -28.868230372615656 0 0 0 0 67.297880206904665 62.01552048607482 0 62.01552048607482 -22.203768512059469 0 0 0 0 -14.345055452213273 75.725476133395205 0 75.725476133395205 -125.5420328313121 0 0 0 0 1.166607176669693 5.5172548922798086 0 5.5172548922798086 -3.6342971047151309 0 0 0 0 25.261349336258718 216.09740822877393 0 216.09740822877393 141.29129124753308 0 0 0 0 -23.126247370993951 205.67538374569813 0 205.67538374569813 168.00075714589912 0 0 0 0 5.6121211137869977 197.40079070773936 0 197.40079070773936 154.99384508745061 0 0 0 0 -68.056040679344733 -46.770301585544075 0 -46.770301585544075 31.728237133951552 0 0 0 0 -13.3496366736141 12.127706980443634 0 12.127706980443634 -12.190795536751182 0 0 0 0 -1.5173401668639599 -377.07028821492554 0 -377.07028821492554 -17.132038473886496 0 0 0 0 -59.52735154664424 140.20421069648773 0 140.20421069648773 86.97287242069433 0 0 0 0 281.68011438559915 256.42891575719841 0 256.42891575719841 -80.136521108797751 0 0 0 0 422.06817849352956 38.849660105530347 0 38.849660105530347 35.708835340257792 0 0 0 0 395.04251195547113 462.81123463964468 0 462.81123463964468 269.84641570626991 0 0 0 0 184.86036469267856 198.65268843338708 0 198.65268843338708 31.00678464439261 0 0 0 0 96.061111788141716 337.31042831620289 0 337.31042831620289 199.95370973101672 0 0 0 0 153.94117490535427 234.66913085965643 0 234.66913085965643 214.19992230212938 0 0 0 0 123.73494108876366 144.41481391441357 0 144.41481391441357 44.708818094535673 0 0 0 0 71.46943266508606 234.51558563580693 0 234.51558563580693 -33.413314571516821 0 0 0 0 297.04752301749249 285.37556367433717 0 285.37556367433717 64.536526224726913 0 0 0 0 574.95695480395807 140.5918820902607 0 140.5918820902607 -35.355888688478444 0 0 0 0 140.81865832457697 245.96417742885933 0 245.96417742885933 85.107945588089933 0 0 0 0 282.39351617899956 224.78925330273341 0 224.78925330273341 -35.870364275000611 0 0 0 0 219.87652814721878 85.909296630959034 0 85.909296630959034 2.4659734714223305 0 0 0 0 -0.58314578827453545 -2.3875490234990906 0 -2.3875490234990906 4.8404433187812401 0 0 0 0 -117.83392859066589 42.29401906896419 0 42.29401906896419 23.06999589195766 0 0 0 0 -200.78007808067923 50.192222732170194 0 50.192222732170194 249.10785180680341 0 0 0 0 -14.73852359633247 12.612302948739696 0 12.612302948739696 7.3933383138571855 0 0 0 0 73.440973876779026 103.90809315901788 0 103.90809315901788 15.110228705701957 0 0 0 0 -116.09910836997733 64.364125284544571 0 64.364125284544571 19.40805021104461 0 0 0 0 -8.8931385867084156 45.482597797965965 0 45.482597797965965 31.49424846071301 0 0 0 0 363.59970310042445 15.536052375060535 0 15.536052375060535 -99.948467851390888 0 0 0 0 -114.4889197578741 60.617846857359837 0 60.617846857359837 26.309924574285105 0 0 0 0 -107.06105754533201 56.638960190179205 0 56.638960190179205 17.300549231516925 0 0 0 0 -85.254245464279578 53.790005214260795 0 53.790005214260795 7.5575920280758311 0 0 0 0 -570.9308205198904 290.02260445943102 0 290.02260445943102 -10.47144194667635 0 0 0 0 -18.06759061444609 52.112940197679563 0 52.112940197679563 21.71121970290551 0 0 0 0 -4.6285041573283863 36.501004844901644 0 36.501004844901644 -5.3407724768964577 0 0 0 0 590.53502412341186 -210.17956427642639 0 -210.17956427642639 -111.39841084479849 0 0 0 0 -1.4596461086317376 1.252426650121933 0 1.252426650121933 -0.62376741222491106 0 0 0 0 38.161793231833144 325.7938687268761 0 325.7938687268761 -112.65253965457669 0 0 0 0 -231.73335089389002 112.81969718424261 0 112.81969718424261 122.67605006480153 0 0 0 0 -182.51723240457795 39.647035636782675 0 39.647035636782675 102.15368422080064 0 0 0 0 -127.58401310015688 17.018706146387558 0 17.018706146387558 97.131313462698017 0 0 0 0 -83.920398032070807 68.750351085458533 0 68.750351085458533 5.9690299676367431 0 0 0 0 -12.061983080613572 25.727842136016989 0 25.727842136016989 7.3661135060028755 0 0 0 0 -42.22139868769591 77.347749073796876 0 77.347749073796876 -33.877636947787323 0 0 0 0 -238.38273966391716 182.83287027418555 0 182.83287027418555 53.337888903333806 0 0 0 0 -66.153933772628079 -159.75433428642918 0 -159.75433428642918 196.38562712798011 0 0 0 0 -148.22617598263969 -21.742758507483813 0 -21.742758507483813 95.750799695953901 0 0 0 0 -43.264723036983924 177.57856095863463 0 177.57856095863463 -226.71553645425593 0 0 0 0 -2.4207563592294576 2.9775261241957836 0 2.9775261241957836 -0.99963181648912069 0 0 0 0 -108.29114719213248 59.80544061234832 0 59.80544061234832 10.855403583562293 0 0 0 0 -935.83263262464607 -99.943847949136398 0 -99.943847949136398 398.68087357892364 0 0 0 0 -309.31502117526543 621.15445331863521 0 621.15445331863521 -71.048660557989933 0 0 0 0 -74.264877693050948 112.00995207920278 0 112.00995207920278 123.13298329494137 0 0 0 0 -68.918787908914965 198.60102276565522 0 198.60102276565522 -58.157093975802127 0 0 0 0 9.0698509350108267 52.47834775192279 0 52.47834775192279 37.464642890485706 0 0 0 0 149.57702529070593 164.18966435837183 0 164.18966435837183 5.0167197652772302 0 0 0 0 -21.892048436922778 23.466698812597315 0 23.466698812597315 111.86265144136996 0 0 0 0 -63.460180232330458 46.867727181068403 0 46.867727181068403 104.09008987299603 0 0 0 0 -19.345762661739592 48.684703161397152 0 48.684703161397152 33.565147847346672 0 0 0 0 39.890409857194754 75.202594111595317 0 75.202594111595317 72.542193572184033 0 0 0 0 -78.198191585699306 114.16158348317782 0 114.16158348317782 5.4105627931021445 0 0 0 0 -90.896017770635808 -6.9896279178692566 0 -6.9896279178692566 72.971867510528682 0 0 0 0 38.811610123542565 64.290780646760453 0 64.290780646760453 23.131920839697919 0 0 0 0 -26.491366460395511 58.193177387342303 0 58.193177387342303 -21.272850454659704 0 0 0 0 12.456433933446533 63.302339708832733 0 63.302339708832733 -25.850349561538678 0 0 0 0 3.2204411111361786 59.293867859205236 0 59.293867859205236 39.213528618562322 0 0 0 0 -6.7192221351069747 92.25775049527283 0 92.25775049527283 119.83321829106717 0 0 0 0 0.74311724295779413 14.54950795565729 0 14.54950795565729 4.7237771800194679 0 0 0 0 -5.1998603616593755 28.473006155818439 0 28.473006155818439 -107.47213556756105 0 0 0 0 -164.93470661057654 17.072063310559315 0 17.072063310559315 85.674182287757503 0 0 0 0 -95.912492575444048 38.90573896000933 0 38.90573896000933 -239.25913608768315 0 0 0 0 -410.66987489961321 307.92249651710881 0 307.92249651710881 -271.36733099094499 0 0 0 0 -180.88923722488835 174.79427142421991 0 174.79427142421991 -258.9180275272447 0 0 0 0 -165.00021309907606 89.805116899971836 0 89.805116899971836 -119.11951038055122 0 0 0 0 -136.01686861225608 122.44649340647084 0 122.44649340647084 -83.330852671931098 0 0 0 0 22.7915897439525 25.30798643763228 0 25.30798643763228 -50.703129205579899 0 0 0 0 -58.756179214768053 54.709119797629683 0 54.709119797629683 -17.639006204763064 0 0 0 0 42.709213489968533 -34.67272742528985 0 -34.67272742528985 37.927933872268113 0 0 0 0 14.373320295842419 37.804831808979557 0 37.804831808979557 30.029777739722896 0 0 0 0 0.40524410735815763 -12.706221475760685 0 -12.706221475760685 57.34047245511465 0 0 0 0 -48.160507417669578 -15.15766886000938 0 -15.15766886000938 39.096255839041987 0 0 0 0 36.997895193406293 47.585287759473431 0 47.585287759473431 73.247247237419288 0 0 0 0 -29.222759241591064 36.20927727579447 0 36.20927727579447 34.941047978042036 0 0 0 0 -11.727281899910849 35.813517150661937 0 35.813517150661937 112.26014737012883 0 0 0 0 -9.3398079567901249 8.6847390258343182 0 8.6847390258343182 16.818962986100018 0 0 0 0 -6.5486286388222652 35.376095992080081 0 35.376095992080081 107.97891132234508 0 0 0 0 -12.118314363793615 27.775491290351965 0 27.775491290351965 18.467617232909106 0 0 0 0 -23.516483626259259 57.375172574716004 0 57.375172574716004 7.4121496465877357 0 0 0 0 -29.582194307946864 35.189093967596939 0 35.189093967596939 41.339027723817281 0 0 0 0 -60.187582938642663 61.902621748400634 0 61.902621748400634 16.453318120686163 0 0 0 0 -20.993635175402851 43.542330510137809 0 43.542330510137809 17.228107174580256 0 0 0 0 -44.274971560793347 -29.497554732189201 0 -29.497554732189201 244.50788619299965 0 0 0 0 -262.28866761193422 107.85306571282581 0 107.85306571282581 473.46769998869058 0 0 0 0 -0.23056649306090549 47.981544807460523 0 47.981544807460523 80.409820787152967 0 0 0 0 -44.287420656516773 30.304694736770116 0 30.304694736770116 8.4780983313394742 0 0 0 0 -63.436989476922122 51.887102527955903 0 51.887102527955903 38.391706524635083 0 0 0 0 -63.456617097584967 72.092104467374156 0 72.092104467374156 37.957172661404911 0 0 0 0 -114.75425610998354 54.317569333790743 0 54.317569333790743 36.514473768482276 0 0 0 0 -4.022993714336069 10.986501274480482 0 10.986501274480482 5.3850585257344505 0 0 0 0 -9.1370707563291944 45.389527679717503 0 45.389527679717503 21.906532619468635 0 0 0 0 -33.379824619911233 63.222860002490052 0 63.222860002490052 3.7768406921095448 0 0 0 0 -6.2734995992523892 33.729509875178373 0 33.729509875178373 26.288070852445117 0 0 0 0 -8.6069812465757423 47.861334466135304 0 47.861334466135304 23.514238283110899 0 0 0 0 -25.131649210998148 47.548695004141337 0 47.548695004141337 29.87851611613587 0 0 0 0 -14.538161432832567 56.908322326038615 0 56.908322326038615 29.795514105207985 0 0 0 0 -14.454062635757198 28.771135206232003 0 28.771135206232003 7.2731089051594324 0 0 0 0 -57.041798248265422 63.488187663338977 0 63.488187663338977 37.76432451500159 0 0 0 0 -33.404849593833319 29.954378974165085 0 29.954378974165085 28.465255758738074 0 0 0 0 -18.35500043991351 36.036708898798679 0 36.036708898798679 4.8903990679173148 0 0 0 0 -5.7770357887420687 36.243754970906593 0 36.243754970906593 17.855670251359697 0 0 0 0 -5.5141716121288482 39.611929780727223 0 39.611929780727223 21.350032648464548 0 0 0 0 -9.1933058824834006 45.156677365821452 0 45.156677365821452 20.942551037136582 0 0 0 0 -8.670570043855605 47.263970469536616 0 47.263970469536616 18.171303027615068 0 0 0 0 11.509549962607707 54.281458854449738 0 54.281458854449738 19.973662021351629 0 0 0 0 6.711067009632643 36.870220185886865 0 36.870220185886865 6.2361569781060098 0 0 0 0 -247.35694270019485 87.073372852704779 0 87.073372852704779 -34.952088565343729 0 0 0 0 -28.419567877030204 39.161700840013509 0 39.161700840013509 40.778571554345035 0 0 0 0 -13.229491871565298 37.284998709367621 0 37.284998709367621 -9.0653265209262912 0 0 0 0 19.444978441439162 -6.597011424782977 0 -6.597011424782977 45.713210106361657 0 0 0 0 52.311859816389187 50.274299841064931 0 50.274299841064931 8.296926407934734 0 0 0 0 2.0761142810249069 15.289759690679219 0 15.289759690679219 -8.7991987716160622 0 0 0 0 57.874345408301451 4.1426081172394333 0 4.1426081172394333 -66.451027667342714 0 0 0 0 10.868617531552445 69.184461403074238 0 69.184461403074238 35.514255309244618 0 0 0 0 -44.474571296675244 37.714384093554891 0 37.714384093554891 1.1455456462506035 0 0 0 0 -52.565874885430276 71.619301391720001 0 71.619301391720001 69.171540701237973 0 0 0 0 -97.823538482589356 54.601481663634331 0 54.601481663634331 71.54915413352137 0 0 0 0 -75.729437917805626 16.754504041862674 0 16.754504041862674 157.5616426444758 0 0 0 0 -36.445250722692435 37.825001992088801 0 37.825001992088801 4.0080464867205592 0 0 0 0 -109.97669810648222 113.67088857840281 0 113.67088857840281 80.703703037936066 0 0 0 0 -18.924653228298016 58.540792626691712 0 58.540792626691712 -20.418663647553274 0 0 0 0 32.251985485745536 57.953097629699187 0 57.953097629699187 172.84383953764336 0 0 0 0 -83.762840071609389 102.93483554906788 0 102.93483554906788 272.09228515671566 0 0 0 0 -85.261508587129356 91.731522989932273 0 91.731522989932273 237.45029098499799 0 0 0 0 -102.34749299786199 22.839424616133329 0 22.839424616133329 196.73926386376843 0 0 0 0 -91.744470164100676 130.43587095810926 0 130.43587095810926 114.24616750662972 0 0 0 0 -82.478849689752678 83.506437601972721 0 83.506437601972721 33.052249008687795 0 0 0 0 -10.262030119609058 9.7455369620723395 0 9.7455369620723395 -9.5937430930700458 0 0 0 0 14.138727408309933 88.724112407217035 0 88.724112407217035 29.375210269728996 0 0 0 0 6.5176119016759912 69.460464584561123 0 69.460464584561123 71.954761670625885 0 0 0 0 21.90877394330164 51.359938663677895 0 51.359938663677895 237.06925912704719 0 0 0 0 -50.528694524407911 52.647443109679443 0 52.647443109679443 237.07249248864537 0 0 0 0 69.030176922129613 142.85965001057775 0 142.85965001057775 191.92286779003189 0 0 0 0 42.94069211765418 128.27897179427237 0 128.27897179427237 100.96226786285843 0 0 0 0 -19.913038950002374 54.341461864165467 0 54.341461864165467 109.05231370419642 0 0 0 0 7.8787536283780355 52.10580267923433 0 52.10580267923433 201.5551707357954 0 0 0 0 -17.450123248992526 48.76760087250031 0 48.76760087250031 17.471134572589072 0 0 0 0 -9.4310888390555192 62.870801888318965 0 62.870801888318965 104.40397577734075 0 0 0 0 -28.753887720220519 31.771985111026879 0 31.771985111026879 65.600696648945814 0 0 0 0 -36.74098050398387 46.642965281953039 0 46.642965281953039 -17.989419369462865 0 0 0 0 31.718362329353113 46.093890490974445 0 46.093890490974445 11.575691604839449 0 0 0 0 -51.814282508272299 58.96158324141652 0 58.96158324141652 80.052637218655946 0 0 0 0 -32.539790621596694 44.560655973164103 0 44.560655973164103 37.770026298063385 0 0 0 0 -53.37618836042202 69.330247675017745 0 69.330247675017745 64.644738342700293 0 0 0 0 -51.525650869542005 73.682291905257443 0 73.682291905257443 33.247412081458606 0 0 0 0 -3.6116833358155418 78.21852585689885 0 78.21852585689885 126.40980387022864 0 0 0 0 24.685842157832667 69.134028101841977 0 69.134028101841977 90.43728892548279 0 0 0 0 13.613010546388978 50.98161097461707 0 50.98161097461707 229.09132265367589 0 0 0 0 -0.35667495693782314 45.945840186075323 0 45.945840186075323 10.494381363931332 0 0 0 0 33.523017401385005 93.984271735389484 0 93.984271735389484 68.259808202925342 0 0 0 0 6.4069637698747215 13.221877679612001 0 13.221877679612001 10.94040029945446 0 0 0 0 -3.0413262518404167 17.250849984520062 0 17.250849984520062 19.272701998150168 0 0 0 0 8.30715574635542 185.019203908897 0 185.019203908897 -264.01766228305451 0 0 0 0 -29.011511787713971 272.2645419736582 0 272.2645419736582 15.074395545786047 0 0 0 0 31.342774222452135 137.12283356709668 0 137.12283356709668 60.851290735476141 0 0 0 0 35.67609543132339 72.12837450854515 0 72.12837450854515 77.35637072428996 0 0 0 0 -4.5134122392046265 154.97095243608146 0 154.97095243608146 -23.368473567814362 0 0 0 0 -60.068378873431357 168.0170333037704 0 168.0170333037704 6.0327930928042406 0 0 0 0 -42.14055267200456 214.33081242750268 0 214.33081242750268 -105.11473662520348 0 0 0 0 -22.134082734793992 149.04334638951656 0 149.04334638951656 -21.647085982605859 0 0 0 0 -25.151785634993303 132.1055809661556 0 132.1055809661556 4.2828600570373965 0 0 0 0 -42.644382864424074 151.5020123684491 0 151.5020123684491 2.10237220368208 0 0 0 0 -42.261745819239877 172.73108081936016 0 172.73108081936016 -16.218787273478483 0 0 0 0 -36.538855917073306 95.631541567641989 0 95.631541567641989 88.619712387871914 0 0 0 0 -20.958066829596646 106.98389341323355 0 106.98389341323355 -1.5171025959492681 0 0 0 0 -12.412010700296378 133.94025162107937 0 133.94025162107937 -4.7962626760108833 0 0 0 0 23.554124682996189 128.51957108812803 0 128.51957108812803 -56.219336988043324 0 0 0 0 -25.328325789101655 97.504154028610401 0 97.504154028610401 58.121730083244984 0 0 0 0 -5.1989083690768894 147.02677197619548 0 147.02677197619548 11.288968171424131 0 0 0 0 47.096212934619224 41.103317179501161 0 41.103317179501161 0.65842176703010935 0 0 0 0 11.001021210817271 100.44638329769441 0 100.44638329769441 -92.618077273269591 0 0 0 0 66.15972598224289 146.7993924686474 0 146.7993924686474 7.3278232300631316 0 0 0 0 7.7363436658491196 16.825132451155699 0 16.825132451155699 -3.7776149621588244 0 0 0 0 -114.30056842042177 165.24407219179739 0 165.24407219179739 114.08143749665771 0 0 0 0 -94.6623422180528 106.39146238822582 0 106.39146238822582 262.3041242488016 0 0 0 0 -4.3037870131860529 -3.502888157778429 0 -3.502888157778429 2.1753908109699562 0 0 0 0 18.351639297230577 47.180008312894643 0 47.180008312894643 86.738373468208465 0 0 0 0 -74.398019621615731 72.624247599497721 0 72.624247599497721 30.605174038530322 0 0 0 0 -45.263140417739123 54.2069349397716 0 54.2069349397716 31.60279039915622 0 0 0 0 -36.043907272918325 46.368578198032417 0 46.368578198032417 8.6971609611601313 0 0 0 0 -53.744314889249182 82.145608345515129 0 82.145608345515129 -18.768744559650361 0 0 0 0 -25.601191144908626 87.538228893628002 0 87.538228893628002 18.118972497535651 0 0 0 0 -18.311593141985213 91.190766973594691 0 91.190766973594691 -83.142844400258809 0 0 0 0 109.6685413869418 49.642191218783864 0 49.642191218783864 -115.01984602337961 0 0 0 0 104.96076476833696 55.582686712392842 0 55.582686712392842 -23.491278847052854 0 0 0 0 25.906018816569038 -0.69014390632850819 0 -0.69014390632850819 -1.5430524429809438 0 0 0 0 116.52138009660575 81.278745074602753 0 81.278745074602753 -26.020752671826617 0 0 0 0 109.42165229730745 150.16931129937802 0 150.16931129937802 -240.78236611135799 0 0 0 0 -274.25113745476847 523.61929583907659 0 523.61929583907659 133.85825558968827 0 0 0 0 -32.202932833628438 -97.444359735311082 0 -97.444359735311082 -51.159265645803316 0 0 0 0 -408.03311407200817 364.73525731092741 0 364.73525731092741 -390.65618636558065 0 0 0 0 -1016.2007758920263 416.24439121126443 0 416.24439121126443 -112.90865515224141 0 0 0 0 -902.76399197625869 403.42867284199383 0 403.42867284199383 -127.99618936682964 0 0 0 0 -28.031967336029375 9.4541298636554476 0 9.4541298636554476 12.874382298294805 0 0 0 0 -623.66990400989744 101.52486236364166 0 101.52486236364166 -131.80433600538527 0 0 0 0 9.2999236169275328 104.02589829843835 0 104.02589829843835 -29.806023558862073 0 0 0 0 237.18540514661436 109.5512670037615 0 109.5512670037615 -76.927308212150365 0 0 0 0 -519.20232642153496 163.18987421871407 0 163.18987421871407 15.722470372620592 0 0 0 0 -436.97538249606805 -2.3967117651300214 0 -2.3967117651300214 -26.12321215177144 0 0 0 0 -415.65291361624259 189.78403265788802 0 189.78403265788802 -169.95749618772606 0 0 0 0 -408.19916183313762 92.052487712902803 0 92.052487712902803 20.837472946812341 0 0 0 0 130.85091940491839 49.235741296975448 0 49.235741296975448 -76.2681599836651 0 0 0 0 126.03233228755562 171.32007638141022 0 171.32007638141022 -57.518996924582439 0 0 0 0 260.94826431030788 132.33170453539395 0 132.33170453539395 -86.377792208582832 0 0 0 0 -17.124742578193334 109.15584165316724 0 109.15584165316724 -36.84551240171006 0 0 0 0 -164.8919810975467 318.95676239895192 0 318.95676239895192 142.14450877229319 0 0 0 0 -331.14333299881037 167.21306134358929 0 167.21306134358929 15.389486706309981 0 0 0 0 5.8601539804731146 88.453973727434686 0 88.453973727434686 -377.68107933339797 0 0 0 0 -192.35718043868837 154.04019505244196 0 154.04019505244196 -169.66960329586277 0 0 0 0 24.128240546740926 31.383601026241195 0 31.383601026241195 -220.78988487723927 0 0 0 0 45.416871338180499 92.51605433662553 0 92.51605433662553 -52.324273085780533 0 0 0 0 59.395849408243521 105.94240206640234 0 105.94240206640234 -90.522952159198212 0 0 0 0 -22.845195175315894 165.91526399040595 0 165.91526399040595 -87.205054207081957 0 0 0 0 -79.9696626296045 91.828526132646175 0 91.828526132646175 -109.55720942695916 0 0 0 0 -95.803977849285729 121.12619505274392 0 121.12619505274392 -161.73394125562299 0 0 0 0 -44.243363140234578 167.26122134673494 0 167.26122134673494 -109.05816315860466 0 0 0 0 -113.83998657646953 111.49912353712489 0 111.49912353712489 -97.928319168944654 0 0 0 0 -39.938163165650622 171.90584354333714 0 171.90584354333714 -105.12092213239669 0 0 0 0 31.000451160216471 176.76154889962754 0 176.76154889962754 -53.712335982385412 0 0 0 0 6.4305719015974319 191.01085033005256 0 191.01085033005256 -81.182734133078384 0 0 0 0 -2.7688522310745611 134.71853352729204 0 134.71853352729204 -83.302729230792465 0 0 0 0 45.97911294183632 171.05936599350298 0 171.05936599350298 -79.846675004984718 0 0 0 0 46.857274433830753 178.71337946386654 0 178.71337946386654 -39.04578686754212 0 0 0 0 41.264409190691964 202.96252554228357 0 202.96252554228357 -30.255700924917619 0 0 0 0 41.257039791139448 200.56477815904685 0 200.56477815904685 -78.970884470603778 0 0 0 0 50.893812493755831 224.98547243044959 0 224.98547243044959 -59.956015927498811 0 0 0 0 35.045259789896704 194.3560088647472 0 194.3560088647472 -97.223514009754581 0 0 0 0 34.269945035513956 214.16019453262015 0 214.16019453262015 -59.462202814160264 0 0 0 0 5.7205456459087145 163.43378048169416 0 163.43378048169416 -94.763919735785748 0 0 0 0 19.239264894320513 197.37802412490601 0 197.37802412490601 -61.188074667737965 0 0 0 0 -45.730879339869716 168.19904161663544 0 168.19904161663544 -62.622606370858193 0 0 0 0 30.092462972868816 204.45041013364062 0 204.45041013364062 -80.098107745860034 0 0 0 0 -96.373828325762588 161.91884407281032 0 161.91884407281032 -72.776843368714253 0 0 0 0 -126.46435888533597 134.62850393188455 0 134.62850393188455 -82.484804184543464 0 0 0 0 -612.22370947209856 302.0429359245627 0 302.0429359245627 317.4760982775224 0 0 0 0 116.68459247588908 149.48131337154337 0 149.48131337154337 -67.783921753994946 0 0 0 0 116.43330142695777 157.08984578128457 0 157.08984578128457 -18.10150870315374 0 0 0 0 175.1706958030336 164.33778602253005 0 164.33778602253005 -47.860709554603091 0 0 0 0 114.15164442721425 134.31386906052785 0 134.31386906052785 6.5204690469690831 0 0 0 0 112.08361032081984 160.16118613520382 0 160.16118613520382 -19.156312274535594 0 0 0 0 77.382299992415938 196.14338855649294 0 196.14338855649294 -53.456176329511436 0 0 0 0 53.966421821260155 210.61162196482337 0 210.61162196482337 -29.206488948620972 0 0 0 0 72.141952347708866 212.76923107488619 0 212.76923107488619 -38.645427386687516 0 0 0 0 83.790378565478022 172.74899578413579 0 172.74899578413579 32.498784588937269 0 0 0 0 93.221634770728997 217.31716463839984 0 217.31716463839984 -16.476111142039372 0 0 0 0 -25.47610550442927 5.2569331953766039 0 5.2569331953766039 0.68964945748895445 0 0 0 0 12.281438277898767 105.40563407592379 0 105.40563407592379 -41.327963691710515 0 0 0 0 778.88614870885067 206.9355389747634 0 206.9355389747634 -573.04791045422826 0 0 0 0 249.03744854629622 64.517529551536427 0 64.517529551536427 -49.921088061735645 0 0 0 0 177.17278145414457 155.91147221632036 0 155.91147221632036 -12.403856778008048 0 0 0 0 -38.638235028742201 974.6290646103771 0 974.6290646103771 -1002.6476231218621 0 0 0 0 -8.9870422262725214 3.6571659031655201 0 3.6571659031655201 -1.1233543317970955 0 0 0 0 -965.74778963941208 625.41689363382466 0 625.41689363382466 -42.135095921708853 0 0 0 0 -773.71932049649922 825.29607066762014 0 825.29607066762014 -217.59096048313222 0 0 0 0 -752.94934425884276 -316.54773514652607 0 -316.54773514652607 -28.800980859126867 0 0 0 0 -244.55246939111385 650.67745484638363 0 650.67745484638363 -203.90926531326113 0 0 0 0 -1185.0639725854526 124.62841241560727 0 124.62841241560727 326.33098907365638 0 0 0 0 -499.50295430923143 149.93972877581473 0 149.93972877581473 197.98175659262779 0 0 0 0 -195.90646562529946 -123.95394794114691 0 -123.95394794114691 6.7724548775695439 0 0 0 0 -614.17267783324132 28.650335052892842 0 28.650335052892842 181.54824854818435 0 0 0 0 -12.237908513197908 105.59792568269586 0 105.59792568269586 282.8058051800881 0 0 0 0 -41.177263327535911 132.51464768920778 0 132.51464768920778 120.84610471459382 0 0 0 0 -21.506322778585698 9.4729231244036356 0 9.4729231244036356 -3.4797990926585811 0 0 0 0 18.481294693714517 54.706920459950197 0 54.706920459950197 22.622658233744005 0 0 0 0 232.73831644560369 -196.63355386475405 0 -196.63355386475405 184.07024137961344 0 0 0 0 38.616265876687976 125.17734726773415 0 125.17734726773415 -181.36869843789282 0 0 0 0 357.40556728379306 470.02784535689352 0 470.02784535689352 -603.15519772070184 0 0 0 0 79.695583728032943 -14.719886123464676 0 -14.719886123464676 26.624725580069935 0 0 0 0 51.04513433368993 8.4776661797222914 0 8.4776661797222914 125.22714608303068 0 0 0 0 23.571510285939439 -36.490247186557099 0 -36.490247186557099 62.785967969837657 0 0 0 0 100.07227177407913 82.801195681506215 0 82.801195681506215 -92.786746312467585 0 0 0 0 -6.8927037589473628 4.6496467923112377 0 4.6496467923112377 -1.5336381841509024 0 0 0 0 133.77739962727719 21.232374267572595 0 21.232374267572595 15.83644178897157 0 0 0 0 41.137775855284417 41.899818819747452 0 41.899818819747452 12.478621244105852 0 0 0 0 20.839648591107107 169.61998312683136 0 169.61998312683136 -19.055731263266352 0 0 0 0 33.599337654162809 124.60760516094524 0 124.60760516094524 119.80058908168576 0 0 0 0 9.3371381309116259 64.265793343787664 0 64.265793343787664 129.92865614410402 0 0 0 0 12.878117001884675 84.465252939180573 0 84.465252939180573 82.517748341007973 0 0 0 0 -33.22696838358388 76.328413136277959 0 76.328413136277959 118.01810732699232 0 0 0 0 -45.234831856374512 63.116074217399728 0 63.116074217399728 130.2126349094633 0 0 0 0 -33.778038539167028 126.46733838891305 0 126.46733838891305 127.10364654508521 0 0 0 0 -42.380437095864181 76.008699334597623 0 76.008699334597623 178.69806453824276 0 0 0 0 -10.072779858397553 33.332644172529399 0 33.332644172529399 130.47215612436412 0 0 0 0 -16.383858410881658 6.3030364380174433 0 6.3030364380174433 260.46551805544732 0 0 0 0 4.179903656586248 53.866271643706568 0 53.866271643706568 130.76807503995451 0 0 0 0 -2.8784868015281972 36.727611263317158 0 36.727611263317158 110.31721719201596 0 0 0 0 31.619169473357033 54.955407679492055 0 54.955407679492055 115.57673719275772 0 0 0 0 -24.255194618312466 17.441904156619003 0 17.441904156619003 -2.6958076013007499 0 0 0 0 59.740685349344858 51.288299505933537 0 51.288299505933537 27.044902183657541 0 0 0 0 42.352722340690889 88.550991351446555 0 88.550991351446555 44.10843916178419 0 0 0 0 13.681257790321979 81.130118489496454 0 81.130118489496454 10.076737889572541 0 0 0 0 -23.053996997470676 67.520292335371778 0 67.520292335371778 98.910938396780693 0 0 0 0 58.563323170899821 11.115936243824763 0 11.115936243824763 33.522753997414839 0 0 0 0 68.522075478118495 -34.910643152230477 0 -34.910643152230477 102.22151917376323 0 0 0 0 192.30761661985889 -117.33852706656035 0 -117.33852706656035 25.138515189893951 0 0 0 0 44.983103928942 -33.462985999998637 0 -33.462985999998637 56.950677749358874 0 0 0 0 -25.542184996593278 54.528544525659527 0 54.528544525659527 108.84049025773129 0 0 0 0 27.689692927815486 -17.778585268431925 0 -17.778585268431925 48.045920949603897 0 0 0 0 -0.11819618058893155 5.6958336382932373 0 5.6958336382932373 -0.67121704744455712 0 0 0 0 -48.340275053837104 26.978768038286944 0 26.978768038286944 13.75396347255446 0 0 0 0 -23.786113234178629 -4.7587373234127881 0 -4.7587373234127881 49.406012751875096 0 0 0 0 40.741122517472832 -14.758274910971522 0 -14.758274910971522 -24.916196913778549 0 0 0 0 45.696317438501865 34.157192518294323 0 34.157192518294323 42.236378128465731 0 0 0 0 -3.4383170444638722 2.4608028060810909 0 2.4608028060810909 6.3912940278846975 0 0 0 0 14.66538876517734 49.339155844179913 0 49.339155844179913 55.760202100769675 0 0 0 0 -25.935255680783712 31.220495447866426 0 31.220495447866426 82.246165192933404 0 0 0 0 9.5281177852521068 44.838280156538531 0 44.838280156538531 25.412807433138369 0 0 0 0 -2.482959444621299 32.156375404879434 0 32.156375404879434 6.7567456873917848 0 0 0 0 -5.0336980189895257 24.873037639896211 0 24.873037639896211 -10.404526411635743 0 0 0 0 30.665987872023834 -13.364089971844805 0 -13.364089971844805 -35.290764469747955 0 0 0 0 7.7063867204865275 16.676713532339228 0 16.676713532339228 -0.83630019154072954 0 0 0 0 18.120796933503698 26.119421904845694 0 26.119421904845694 17.47940227224899 0 0 0 0 -19.871147272991948 14.183639432536438 0 14.183639432536438 -50.253209001675714 0 0 0 0 -22.075160634917196 21.547072569797038 0 21.547072569797038 16.213270684551247 0 0 0 0 41.925811069639167 -29.76966656910372 0 -29.76966656910372 -11.519604402012192 0 0 0 0 4.7854686800485808 15.620306386666343 0 15.620306386666343 3.8748222830222971 0 0 0 0 -0.3906548127663072 36.920108484311527 0 36.920108484311527 1.840948151067078 0 0 0 0 36.994526347320061 65.788147384511831 0 65.788147384511831 -101.33868076451472 0 0 0 0 11.954347736772235 15.322254958479038 0 15.322254958479038 -8.9483537472008763 0 0 0 0 170.39337871078169 -32.332652402386884 0 -32.332652402386884 -51.168285456355079 0 0 0 0 33.560563695620658 58.162107604954144 0 58.162107604954144 -108.85654882201925 0 0 0 0 45.476506739854813 62.581468176576891 0 62.581468176576891 -5.2841857816383708 0 0 0 0 6.8317681254848139 51.838214531246194 0 51.838214531246194 15.894008955876416 0 0 0 0 11.053101786723804 32.614559475942841 0 32.614559475942841 -18.827971657261152 0 0 0 0 9.6170272046026284 28.565852410987134 0 28.565852410987134 38.403697230078883 0 0 0 0 46.117310916678889 50.267127596927821 0 50.267127596927821 -19.350558396738052 0 0 0 0 44.955427275390321 145.5078466647027 0 145.5078466647027 -72.512280658312989 0 0 0 0 44.268102351863945 42.178749765805605 0 42.178749765805605 23.084764653063758 0 0 0 0 -1.3516633743529383 53.741964331135023 0 53.741964331135023 15.008535556888091 0 0 0 0 4.7016027026729716 61.296669934978127 0 61.296669934978127 26.321595721740778 0 0 0 0 -6.4395285341088311 71.256114469622844 0 71.256114469622844 -22.273309656429774 0 0 0 0 -89.114079431805294 95.064356774117186 0 95.064356774117186 -22.175206903821163 0 0 0 0 9.7705444356179214 46.784538615069323 0 46.784538615069323 -56.589653293933225 0 0 0 0 -150.7169968854505 109.40386618028606 0 109.40386618028606 -57.497371673667658 0 0 0 0 -42.522476307532997 93.464862228591301 0 93.464862228591301 -130.53344134263898 0 0 0 0 -417.45777461087346 247.48789277315632 0 247.48789277315632 -88.634480755506956 0 0 0 0 -216.98142489714519 201.92154606385157 0 201.92154606385157 -146.15089702820569 0 0 0 0 -302.27025294264604 147.74098645252889 0 147.74098645252889 -45.234162959750392 0 0 0 0 -280.45869981391661 123.89717837804528 0 123.89717837804528 25.331742860234954 0 0 0 0 -324.28356163525314 207.02638037227916 0 207.02638037227916 -49.955853395743816 0 0 0 0 -172.38441738070105 171.27802571887514 0 171.27802571887514 -78.457633091354182 0 0 0 0 -93.121559922265078 87.780343675219228 0 87.780343675219228 -17.088467023524572 0 0 0 0 -202.90303719211443 111.77092630884636 0 111.77092630884636 15.647434292179241 0 0 0 0 -181.65377358753176 141.8038312833487 0 141.8038312833487 -4.2296657279284773 0 0 0 0 -331.7398113356976 168.53390320118888 0 168.53390320118888 100.57502138864584 0 0 0 0 -259.70181888033039 82.497369294293094 0 82.497369294293094 188.64478888365284 0 0 0 0 -70.605676009159652 80.405257606749728 0 80.405257606749728 30.014552206324879 0 0 0 0 -259.34508203240944 50.171100785926484 0 50.171100785926484 81.769957188218541 0 0 0 0 -59.840365468102391 53.966644561867724 0 53.966644561867724 76.849501078704634 0 0 0 0 -15.248849095616606 32.874584048504403 0 32.874584048504403 86.374250301007123 0 0 0 0 -133.63231211013772 85.436396240407703 0 85.436396240407703 33.375984648693702 0 0 0 0 980.72212452665553 1067.0006318103915 0 1067.0006318103915 1259.6087044344804 0 0 0 0 -0.15421065999544226 354.80810184890925 0 354.80810184890925 1395.1317989391919 0 0 0 0 271.20336891576881 585.25548669786258 0 585.25548669786258 943.88814523222027 0 0 0 0 334.43673800591205 176.33946941770046 0 176.33946941770046 56.190371617682104 0 0 0 0 457.64629162445635 -172.11434475709757 0 -172.11434475709757 78.755894529992929 0 0 0 0 -171.80415818007168 -266.52704119344571 0 -266.52704119344571 1476.0089522871767 0 0 0 0 2.5532118876317469 -3.5636409857997648 0 -3.5636409857997648 24.311430724297104 0 0 0 0 831.51226812543064 -183.09553174400855 0 -183.09553174400855 905.43787458096631 0 0 0 0 360.13532138493247 1441.2784208559724 0 1441.2784208559724 1633.6226723639993 0 0 0 0 -131.26889083196875 787.45327726937057 0 787.45327726937057 853.02474962950419 0 0 0 0 -742.14475094871887 1575.8343438782285 0 1575.8343438782285 520.19011140139992 0 0 0 0 -122.56148405949352 438.99793901388693 0 438.99793901388693 651.40231138958052 0 0 0 0 313.00043422371527 -18.547672418627371 0 -18.547672418627371 299.46699429346336 0 0 0 0 -28.260211782704573 366.18163466709666 0 366.18163466709666 2540.3950396267064 0 0 0 0 6.3057858431911882 273.26685023879918 0 273.26685023879918 1237.1570176022178 0 0 0 0 -0.37587635754607618 358.99876479676459 0 358.99876479676459 1142.8644414772425 0 0 0 0 -176.04805408562243 337.38008241243506 0 337.38008241243506 185.86771503413456 0 0 0 0 -351.7543832345691 554.74629234402346 0 554.74629234402346 -452.57992528958766 0 0 0 0 -40.501760253522662 268.21028972366776 0 268.21028972366776 -408.41037277688702 0 0 0 0 0.52581730284873629 426.80522974496557 0 426.80522974496557 -290.10970754868322 0 0 0 0 -0.18158150977251353 370.10317807789875 0 370.10317807789875 -441.66721873978076 0 0 0 0 -87.591259145279764 356.51938015409974 0 356.51938015409974 -323.44747052013599 0 0 0 0 -410.82039673501276 434.47953367803143 0 434.47953367803143 -347.59730187047944 0 0 0 0 -76.377872909084545 431.35824808095595 0 431.35824808095595 -541.94630904867927 0 0 0 0 -322.26774209905125 448.83778068946435 0 448.83778068946435 -352.89188106513984 0 0 0 0 -156.38447023464687 322.75872796619018 0 322.75872796619018 -290.78034535618281 0 0 0 0 -144.32264236476476 379.28569451135058 0 379.28569451135058 -374.84800274868292 0 0 0 0 -108.37104967376217 70.20121200586982 0 70.20121200586982 27.208861004790379 0 0 0 0 1604.7753488072776 -84.828328894256174 0 -84.828328894256174 -429.44104471221362 0 0 0 0 3.347653788004699 7.8216032964714657 0 7.8216032964714657 -4.0144873171756643 0 0 0 0 2.4308203730808806 9.4908498855400012 0 9.4908498855400012 -21.45314914798492 0 0 0 0 -53.932012275239686 3.7659394668371533 0 3.7659394668371533 6.9032357166761358 0 0 0 0 -68.455281409347663 81.711856334964978 0 81.711856334964978 -22.951691087768268 0 0 0 0 -537.44765718123926 212.28058291307113 0 212.28058291307113 -108.4415934712365 0 0 0 0 -567.87508380902 301.20140477398309 0 301.20140477398309 -167.39076782467936 0 0 0 0 -500.8454919695796 208.7723118379904 0 208.7723118379904 -156.92398767804525 0 0 0 0 -970.95325410194346 273.39425345231848 0 273.39425345231848 -164.16356983000594 0 0 0 0 -517.17222352889075 610.75142955710544 0 610.75142955710544 -508.87851322864481 0 0 0 0 -507.01299231979647 410.44734462583529 0 410.44734462583529 -465.13179343718275 0 0 0 0 0.40402329789714386 4.5973753339612244 0 4.5973753339612244 -6.7961084961464095 0 0 0 0 -1569.8122661297675 690.97854288031704 0 690.97854288031704 -145.87317565534067 0 0 0 0 927.75904426223133 -298.10631831368437 0 -298.10631831368437 504.17085200609654 0 0 0 0 144.18036001684959 -5.0126313300552283 0 -5.0126313300552283 -65.074129800702394 0 0 0 0 271.57027946811286 60.192149913376852 0 60.192149913376852 -34.830118372781726 0 0 0 0 -710.93010167087778 423.80394158881882 0 423.80394158881882 137.45151477304898 0 0 0 0 404.95099079385545 856.20479632022261 0 856.20479632022261 -1033.0716109601799 0 0 0 0 368.66598212350436 154.04651247622246 0 154.04651247622246 44.450241203248879 0 0 0 0 2.9830633152946859 10.486160274640554 0 10.486160274640554 -3.1649112601487452 0 0 0 0 -654.96339266811265 402.76145231895134 0 402.76145231895134 -509.59100737376957 0 0 0 0 -740.46867777728767 865.20067451582963 0 865.20067451582963 -675.90390619406753 0 0 0 0 -37.366163547274482 307.38765779980622 0 307.38765779980622 13.376430513024388 0 0 0 0 -415.8977439575101 707.04852104377005 0 707.04852104377005 -156.78186943745459 0 0 0 0 -2244.8370677773564 678.01190092687045 0 678.01190092687045 468.6207111359472 0 0 0 0 0.93841049254421449 5.9945528416591003 0 5.9945528416591003 -0.99460625946671399 0 0 0 0 1649.8058526813529 390.70204395639871 0 390.70204395639871 21.946740635987226 0 0 0 0 939.00952601795143 1024.077751717844 0 1024.077751717844 472.89025563568885 0 0 0 0 396.52236863766302 635.03941224988603 0 635.03941224988603 403.78925409308977 0 0 0 0 218.75787886052422 755.55995284081746 0 755.55995284081746 598.31081050547982 0 0 0 0 253.49847509697429 505.61211153864951 0 505.61211153864951 484.63502822334158 0 0 0 0 337.74995258904528 190.77296673841374 0 190.77296673841374 36.559130596335308 0 0 0 0 462.57452443624788 290.57448828789484 0 290.57448828789484 73.122564142899137 0 0 0 0 297.31868783168829 161.09265919125255 0 161.09265919125255 -35.032586394539976 0 0 0 0 136.9931222962623 172.60611610350679 0 172.60611610350679 24.619600945847196 0 0 0 0 293.17702602462668 246.5719443126909 0 246.5719443126909 -6.4657613118743029 0 0 0 0 205.52467389863159 240.76265306715686 0 240.76265306715686 100.91366883581395 0 0 0 0 116.32623522609356 255.27551497737068 0 255.27551497737068 165.39590576977389 0 0 0 0 212.59443561214721 375.63014185095153 0 375.63014185095153 16.478644227743644 0 0 0 0 164.49207071137789 345.44107653754872 0 345.44107653754872 16.434641885132805 0 0 0 0 146.94426648419176 358.51945667851078 0 358.51945667851078 12.21182194227913 0 0 0 0 65.825655988519429 297.44839314892897 0 297.44839314892897 11.6551639452573 0 0 0 0 -46.199242422153475 200.39424761544797 0 200.39424761544797 13.834882476143321 0 0 0 0 -84.788733796201996 105.58825113017929 0 105.58825113017929 11.213050227117492 0 0 0 0 -23.17195570471813 148.729977947105 0 148.729977947105 -26.101262856133872 0 0 0 0 30.414515324344393 128.62263382608262 0 128.62263382608262 8.1839454685541568 0 0 0 0 58.206804539251607 106.59469816605178 0 106.59469816605178 -19.896566811371486 0 0 0 0 115.67379908340808 237.87264714732555 0 237.87264714732555 -1.570938443113846 0 0 0 0 95.208417945716064 252.42399547555124 0 252.42399547555124 -0.096897615254874836 0 0 0 0 807.7906444415712 152.21628036355469 0 152.21628036355469 127.62876057956453 0 0 0 0 358.70137777771743 7.8314432982956532 0 7.8314432982956532 390.63990545895285 0 0 0 0 272.02667697635479 343.90918658035343 0 343.90918658035343 -224.42284787299013 0 0 0 0 186.21576416582684 409.501231824348 0 409.501231824348 35.005470826031797 0 0 0 0 388.08843281284862 530.00083943234631 0 530.00083943234631 39.524135966210451 0 0 0 0 87.844216386751214 385.99353696597382 0 385.99353696597382 61.407271828995363 0 0 0 0 -427.06713253253838 59.584016752514344 0 59.584016752514344 189.94149489955771 0 0 0 0 1200.7389196319855 831.27296436127085 0 831.27296436127085 589.50842793984702 0 0 0 0 0.048439222705688678 3.2480650908256621 0 3.2480650908256621 9.2301842870030413 0 0 0 0 1418.5837028146925 1009.4960224077574 0 1009.4960224077574 525.43267112521062 0 0 0 0 500.71206002274994 469.84709487614191 0 469.84709487614191 799.6884420119377 0 0 0 0 1094.674833339639 1096.2017093994746 0 1096.2017093994746 713.84193438509828 0 0 0 0 -56.513546353704442 519.83976345554311 0 519.83976345554311 736.22015941345671 0 0 0 0 357.90466646463028 939.85363475994654 0 939.85363475994654 777.02985918991953 0 0 0 0 807.78824910072581 640.21225030854384 0 640.21225030854384 314.30596520669133 0 0 0 0 -18.683571375895042 23.991721870530071 0 23.991721870530071 -25.459727713641833 0 0 0 0 181.05748857471917 252.16132116917515 0 252.16132116917515 83.318405986006837 0 0 0 0 6.8889366456132848 191.43991802206892 0 191.43991802206892 137.11712420377808 0 0 0 0 -13.509283206969684 15.795716313231665 0 15.795716313231665 -14.087216019346897 0 0 0 0 -397.65924400152289 87.714452988197536 0 87.714452988197536 233.14631981123648 0 0 0 0 305.87527555146153 589.50262424067 0 589.50262424067 406.44311689982533 0 0 0 0 173.70534313454118 328.81941812830337 0 328.81941812830337 245.92739915213224 0 0 0 0 175.31146100645128 604.74859858814671 0 604.74859858814671 578.59794537641096 0 0 0 0 277.46001141125453 1005.4411733227735 0 1005.4411733227735 730.17678494693428 0 0 0 0 -148.12040597634041 709.9378630327692 0 709.9378630327692 577.39575372424588 0 0 0 0 -88.315178284046851 613.70733603053918 0 613.70733603053918 702.90038790038125 0 0 0 0 -683.55844593154325 -326.70226485241164 0 -326.70226485241164 238.27757186616554 0 0 0 0 -216.85125085150139 69.608299203163597 0 69.608299203163597 118.91023894408409 0 0 0 0 359.63880109537422 300.35530300980599 0 300.35530300980599 151.63711042514478 0 0 0 0 -7.0801226072304075 7.5716413154826512 0 7.5716413154826512 -6.2677662907943628 0 0 0 0 245.24670379822783 110.77531856484029 0 110.77531856484029 72.964291862666869 0 0 0 0 36.126873501343653 74.436700980847036 0 74.436700980847036 -6.5124935590824862 0 0 0 0 48.9544680851468 167.3620466975608 0 167.3620466975608 176.28618780947272 0 0 0 0 152.27312859407903 109.04676178318869 0 109.04676178318869 25.131276635249378 0 0 0 0 240.88576032593846 272.99004865706092 0 272.99004865706092 119.74693319176549 0 0 0 0 -430.10755873135804 45.029795597809994 0 45.029795597809994 97.359828820719486 0 0 0 0 -0.54614310506983088 0.98994401611963667 0 0.98994401611963667 17.925657291088186 0 0 0 0 -146.66207821889839 148.48677949465673 0 148.48677949465673 142.85398228543818 0 0 0 0 -167.53449343401735 28.605063331299789 0 28.605063331299789 -29.600348188563657 0 0 0 0 -633.72222661627893 -0.38038567057992623 0 -0.38038567057992623 109.36732751644786 0 0 0 0 -0.57353530501209349 1.9463671886715872 0 1.9463671886715872 12.20914341818429 0 0 0 0 87.557637609585072 84.470094096621779 0 84.470094096621779 102.314060371913 0 0 0 0 445.74568902094325 162.54014390432326 0 162.54014390432326 17.336935101585823 0 0 0 0 112.27856139815412 117.37992610250546 0 117.37992610250546 -45.212012614634659 0 0 0 0 -101.76031335916923 302.29503329272575 0 302.29503329272575 5.1689920415310553 0 0 0 0 326.34987756623741 158.23625845439483 0 158.23625845439483 -38.667801584120753 0 0 0 0 19.448002128730877 12.952902452160515 0 12.952902452160515 56.081669863364368 0 0 0 0 -600.40251016487309 605.37733127284628 0 605.37733127284628 -65.80699705094321 0 0 0 0 40.032254798175785 69.033014030629175 0 69.033014030629175 113.76278484011461 0 0 0 0 -467.42376825676729 159.41923691931697 0 159.41923691931697 132.71309959837163 0 0 0 0 -697.28595983966807 480.90773725407098 0 480.90773725407098 127.90909143490353 0 0 0 0 27.697368467386696 173.13688052927864 0 173.13688052927864 3.0473681212404244 0 0 0 0 -2.7496585266469644 16.590015047092393 0 16.590015047092393 26.906645112806395 0 0 0 0 14.978473494474486 56.141306360816344 0 56.141306360816344 104.81462737587137 0 0 0 0 -283.95464478451322 89.119764268582912 0 89.119764268582912 112.8758836299603 0 0 0 0 -104.12166892335517 98.730009160335612 0 98.730009160335612 5.6991552500485341 0 0 0 0 -94.254326268783188 64.906330360723587 0 64.906330360723587 118.26014926748758 0 0 0 0 110.34645629715669 106.21704499389534 0 106.21704499389534 42.471474037145526 0 0 0 0 -66.114821246854262 120.80076104977343 0 120.80076104977343 101.46604215578191 0 0 0 0 46.995426552733989 176.67538578911081 0 176.67538578911081 42.307548595639673 0 0 0 0 -22.05284352696799 32.373489245718986 0 32.373489245718986 -39.031728398734607 0 0 0 0 -92.163048434325901 66.395625626813853 0 66.395625626813853 52.372731702926103 0 0 0 0 -44.441954187816009 123.89056305002669 0 123.89056305002669 68.614674077997734 0 0 0 0 -195.22014840207703 33.059690213791271 0 33.059690213791271 -6.5110104899798671 0 0 0 0 -119.63854109942622 97.739883390089744 0 97.739883390089744 55.109981744615652 0 0 0 0 -132.42684702289989 35.195857767011148 0 35.195857767011148 6.6600688738253666 0 0 0 0 -50.979668382714806 -2.7646745491569789 0 -2.7646745491569789 73.037185279448067 0 0 0 0 -179.90748954518131 115.68791285610678 0 115.68791285610678 69.69042505948164 0 0 0 0 -114.92599638928596 56.156312365189528 0 56.156312365189528 -59.606416337678638 0 0 0 0 -73.230490791538614 119.25384058691816 0 119.25384058691816 -6.1636250537617343 0 0 0 0 -31.570654673419597 6.2334054230007894 0 6.2334054230007894 56.758084957391837 0 0 0 0 -116.71685882911379 112.37806563402673 0 112.37806563402673 113.45143092067019 0 0 0 0 -69.077850609537563 130.26122383259337 0 130.26122383259337 -12.044186342115609 0 0 0 0 22.191067261563148 73.097307031797754 0 73.097307031797754 -44.015890912392933 0 0 0 0 -82.822022791660856 50.521538804350712 0 50.521538804350712 68.311682718958764 0 0 0 0 -30.656127767415683 47.197489523005984 0 47.197489523005984 -37.150735759129127 0 0 0 0 767.58616186639119 956.70997699569216 0 956.70997699569216 754.10465635979654 0 0 0 0 735.40754494729481 838.35006399707277 0 838.35006399707277 871.05322982389043 0 0 0 0 1283.0777393286626 1404.9952019200396 0 1404.9952019200396 1240.430010601895 0 0 0 0 -12.838817871587594 0.99023499884020794 0 0.99023499884020794 14.073605117426858 0 0 0 0 -186.60496898034762 -26.102857339454431 0 -26.102857339454431 434.68671736431565 0 0 0 0 -192.40212370517838 -76.10737163910153 0 -76.10737163910153 7.5216041391423687 0 0 0 0 57.037625475786626 830.48012865515057 0 830.48012865515057 1289.7251225215687 0 0 0 0 -187.03150102791915 210.03457731435884 0 210.03457731435884 961.77325253275785 0 0 0 0 -98.433498276630417 499.59168302793682 0 499.59168302793682 652.227053034454 0 0 0 0 838.9625676447904 529.12230549721767 0 529.12230549721767 848.01290029500433 0 0 0 0 166.07231718106777 846.62049382770374 0 846.62049382770374 1243.2403528480136 0 0 0 0 280.07222947914852 1041.6323513612822 0 1041.6323513612822 1096.153895969119 0 0 0 0 62.484075110405684 585.99065868227763 0 585.99065868227763 930.04837759460804 0 0 0 0 176.8944941067748 397.97115352152048 0 397.97115352152048 552.52067581752408 0 0 0 0 429.30756819978706 674.97419582605789 0 674.97419582605789 800.05461476612072 0 0 0 0 737.01841715575392 643.27487395556352 0 643.27487395556352 891.92710315814475 0 0 0 0 700.79881070059491 295.29653426476671 0 295.29653426476671 358.70816146440109 0 0 0 0 463.20495765065425 520.26666367494727 0 520.26666367494727 1433.1740303802003 0 0 0 0 -60.202818853460485 77.811524070022642 0 77.811524070022642 87.120865080789372 0 0 0 0 -90.572366409775498 11.24970475826683 0 11.24970475826683 30.287293244956192 0 0 0 0 -60.18240187491574 79.682046165595011 0 79.682046165595011 109.96102681861885 0 0 0 0 -12.433637006722847 25.415877268965929 0 25.415877268965929 26.245934932252744 0 0 0 0 -179.1401167261065 327.6818590693224 0 327.6818590693224 1040.8525422908649 0 0 0 0 -454.92201979142556 56.997161762245128 0 56.997161762245128 98.723991689396826 0 0 0 0 -28.645313530229032 297.82430001888201 0 297.82430001888201 805.68547413811746 0 0 0 0 6.3394817518128548 722.29487363406679 0 722.29487363406679 606.64225110843722 0 0 0 0 17.64282708420069 503.85889984619473 0 503.85889984619473 955.19684035795353 0 0 0 0 -1251.7961799598997 -823.76994466506653 0 -823.76994466506653 -373.20832305876638 0 0 0 0 -102.52353587190737 512.62235443365205 0 512.62235443365205 1796.2817412475652 0 0 0 0 1166.8923637956032 883.14213435182273 0 883.14213435182273 594.09420543100077 0 0 0 0 -23.149396399382141 0.031801341684428053 0 0.031801341684428053 2.7895816155921529 0 0 0 0 61.171337516687345 1074.3460427282778 0 1074.3460427282778 874.08479348948185 0 0 0 0 107.73977973032743 1301.4879230142853 0 1301.4879230142853 1714.7371346178318 0 0 0 0 -868.93195066414773 503.62659226505275 0 503.62659226505275 1482.1088371640133 0 0 0 0 -44.140783071448539 37.718082888661854 0 37.718082888661854 44.692973995924874 0 0 0 0 -18.357515446048541 51.14213037383908 0 51.14213037383908 17.435821594823388 0 0 0 0 -1259.5373725743557 214.99829642189343 0 214.99829642189343 243.37408286420441 0 0 0 0 -904.99999186568675 -56.619224501777126 0 -56.619224501777126 462.85361007337542 0 0 0 0 -231.94155952318397 19.166516879730693 0 19.166516879730693 262.10831539905803 0 0 0 0 -1071.6937957048649 -272.09252281091767 0 -272.09252281091767 451.39637667436 0 0 0 0 -141.50173951784382 -62.501688826173307 0 -62.501688826173307 315.90469808309263 0 0 0 0 238.70085794111947 784.55218300941942 0 784.55218300941942 -440.08816285753528 0 0 0 0 -19.131714381771189 13.755715158572215 0 13.755715158572215 13.262974678380433 0 0 0 0 -143.48178811538156 -11.320108156314262 0 -11.320108156314262 91.742853193101098 0 0 0 0 -300.42697986638814 166.85589814398372 0 166.85589814398372 389.77407188571078 0 0 0 0 -60.223570723406738 69.497200499336031 0 69.497200499336031 87.158052772534532 0 0 0 0 -21.941563131029397 65.921631908903692 0 65.921631908903692 -14.218539375655382 0 0 0 0 70.510392432483059 -282.89143690203946 0 -282.89143690203946 449.79416417831089 0 0 0 0 187.82237205707497 -157.45891844260905 0 -157.45891844260905 133.34640632069022 0 0 0 0 -425.37988804375345 95.870777061292756 0 95.870777061292756 399.04515010295836 0 0 0 0 -383.86829427971679 195.30352320721977 0 195.30352320721977 -48.71539021566673 0 0 0 0 -768.97874477977894 -301.99313985128902 0 -301.99313985128902 55.710739831029059 0 0 0 0 -12.460006722394446 62.678326273299604 0 62.678326273299604 50.093425538222426 0 0 0 0 -853.98663727065741 190.37279920640924 0 190.37279920640924 224.12170207553936 0 0 0 0 -415.73780868458562 299.82495611961167 0 299.82495611961167 -1.5635725280781116 0 0 0 0 24.540741037475527 267.09970518398586 0 267.09970518398586 228.59315342552509 0 0 0 0 -89.039161948719993 -24.196435697744164 0 -24.196435697744164 265.43607427014285 0 0 0 0 -474.57988088800266 142.82656719205715 0 142.82656719205715 263.28082166385502 0 0 0 0 -172.5940090934746 -38.360445752594387 0 -38.360445752594387 432.73858598075549 0 0 0 0 386.71286957524717 8.4723690089849697 0 8.4723690089849697 391.36402707082834 0 0 0 0 121.838552695619 -141.48936143195442 0 -141.48936143195442 431.48383610715427 0 0 0 0 42.802100748165685 -234.85034242015445 0 -234.85034242015445 602.73468494302506 0 0 0 0 52.092407886331785 49.667803630629351 0 49.667803630629351 17.717768183714725 0 0 0 0 44.897989192379015 42.312430562624513 0 42.312430562624513 23.292595345538103 0 0 0 0 39.594951919718369 25.884606368888853 0 25.884606368888853 -1.6964262741530547 0 0 0 0 47.267859335144749 -18.484680320214466 0 -18.484680320214466 664.16133293672146 0 0 0 0 -24.621488687218573 35.854580380692681 0 35.854580380692681 41.195781368952716 0 0 0 0 456.04710187813907 -417.32031633554834 0 -417.32031633554834 486.00004238953898 0 0 0 0 -119.66070303062952 7.4270828647254348 0 7.4270828647254348 686.768170697811 0 0 0 0 7.9790779108652856 15.811429904692062 0 15.811429904692062 -0.20081244548747179 0 0 0 0 24.195646956676629 47.06247850780538 0 47.06247850780538 16.218136740983837 0 0 0 0 -10.944884352196823 91.33376002112027 0 91.33376002112027 38.57204461947731 0 0 0 0 58.205020871962915 61.835617232239201 0 61.835617232239201 9.4193556781647203 0 0 0 0 87.201745010839659 41.547198879350617 0 41.547198879350617 2.4185007443593349 0 0 0 0 62.936995983262022 58.144780286122113 0 58.144780286122113 9.2895623393487767 0 0 0 0 73.609327041707729 61.648538387642475 0 61.648538387642475 3.8827409949917637 0 0 0 0 65.690927169733186 64.482059917605511 0 64.482059917605511 3.6524796915782645 0 0 0 0 -68.190004310665927 253.96516057901135 0 253.96516057901135 161.25770767324138 0 0 0 0 96.567321413284489 67.652822785638165 0 67.652822785638165 32.821054978801946 0 0 0 0 125.47093549124679 280.8439238263818 0 280.8439238263818 -64.429646827142278 0 0 0 0 38.196119519463082 109.84253235533106 0 109.84253235533106 156.0865208679279 0 0 0 0 -18.361318226816365 96.086297254467354 0 96.086297254467354 85.768443428292812 0 0 0 0 -37.658218670439005 81.284735105482639 0 81.284735105482639 107.3387309926085 0 0 0 0 -71.747909468347473 67.704616599572304 0 67.704616599572304 63.777756138686762 0 0 0 0 -25.853108911951324 89.424745711085066 0 89.424745711085066 65.071157565614357 0 0 0 0 -121.44212043103641 338.40551575316204 0 338.40551575316204 -209.06102455195196 0 0 0 0 79.335936562892982 32.164615357029106 0 32.164615357029106 -613.3285713565856 0 0 0 0 231.38004143358054 406.14393850699707 0 406.14393850699707 -202.22807342813758 0 0 0 0 161.2212499252241 209.64302712198332 0 209.64302712198332 -63.49190364927199 0 0 0 0 64.93729751137009 455.44756311244601 0 455.44756311244601 238.50559128781606 0 0 0 0 120.1477800269538 252.48260453919647 0 252.48260453919647 -204.2296682465967 0 0 0 0 151.63024836819 402.68037949677455 0 402.68037949677455 -523.91890711136148 0 0 0 0 -30.174454401625781 282.90971804881701 0 282.90971804881701 256.20261424787532 0 0 0 0 57.687206844348793 150.89671771182657 0 150.89671771182657 -268.7282356255746 0 0 0 0 103.11206097460654 48.039097614746986 0 48.039097614746986 15.618106905283724 0 0 0 0 81.124133316625375 -12.327966945325898 0 -12.327966945325898 -92.03227224546572 0 0 0 0 77.857875208472251 21.7785174258388 0 21.7785174258388 -38.796811299926048 0 0 0 0 299.11404133643725 277.16765171661609 0 277.16765171661609 -899.19508091999887 0 0 0 0 138.28074869113334 57.554731911601266 0 57.554731911601266 11.692761775778422 0 0 0 0 -33.578769264167931 17.407035681448178 0 17.407035681448178 10.55721033019654 0 0 0 0 93.345466915283382 49.621720783227154 0 49.621720783227154 13.002699660137139 0 0 0 0 281.00827441852016 205.67421360856679 0 205.67421360856679 -22.084932446345192 0 0 0 0 182.90905617874159 14.424707477706761 0 14.424707477706761 -221.0146197451777 0 0 0 0 186.87016274369489 -133.62123976291468 0 -133.62123976291468 -26.426247628995043 0 0 0 0 61.654814315574185 -11.137297444201977 0 -11.137297444201977 10.498450336788665 0 0 0 0 45.251301805088588 10.762636084109545 0 10.762636084109545 35.832275978618782 0 0 0 0 37.837724923298083 34.212430827748904 0 34.212430827748904 22.978651797869134 0 0 0 0 127.97807238656196 -313.76700209770252 0 -313.76700209770252 777.03579410786551 0 0 0 0 30.707923536703333 22.515958311851747 0 22.515958311851747 17.511805185044523 0 0 0 0 938.36452449488581 56.389497321472959 0 56.389497321472959 40.635712696472183 0 0 0 0 92.205190520180622 -118.56170059884062 0 -118.56170059884062 122.27574214379638 0 0 0 0 182.64723336883435 -199.26377533206869 0 -199.26377533206869 893.36912358988047 0 0 0 0 8.929936580788592 8.8010380774382853 0 8.8010380774382853 8.5123815976272965 0 0 0 0 118.14420651999535 -89.403168905797429 0 -89.403168905797429 2080.9276906117811 0 0 0 0 543.19843458167134 599.37233937999747 0 599.37233937999747 707.38418100469426 0 0 0 0 610.90031363930757 104.58863433622173 0 104.58863433622173 72.660872912787454 0 0 0 0 241.25058208616974 146.66249053963475 0 146.66249053963475 112.44324898891864 0 0 0 0 60.035506681124389 -20.508507901722624 0 -20.508507901722624 640.10403281832896 0 0 0 0 123.5892168932005 -64.089462161032316 0 -64.089462161032316 321.29061376730533 0 0 0 0 -48.540612114986288 -120.86055342068357 0 -120.86055342068357 499.78897561036865 0 0 0 0 -170.77711011553038 175.50438860341637 0 175.50438860341637 286.5451832816334 0 0 0 0 -77.046085745452729 215.32701141393409 0 215.32701141393409 103.6935738696593 0 0 0 0 -236.88020732664518 138.91942937356544 0 138.91942937356544 32.174569768312722 0 0 0 0 -83.376162874541478 388.57224002519615 0 388.57224002519615 398.97555765155676 0 0 0 0 -225.4752613370365 560.97160532273483 0 560.97160532273483 -198.9340061240182 0 0 0 0 -177.22902952873119 317.45958489265968 0 317.45958489265968 96.304296544195495 0 0 0 0 -930.74413152906345 617.69947407495238 0 617.69947407495238 -50.526442831403983 0 0 0 0 45.64996693814247 78.577461446145293 0 78.577461446145293 125.62405116470592 0 0 0 0 -196.39741989692266 107.4021542451992 0 107.4021542451992 -540.0063634669059 0 0 0 0 -94.657311675135134 404.19589188542523 0 404.19589188542523 38.827272008289583 0 0 0 0 402.92384526710521 89.396061891569843 0 89.396061891569843 -4.5924627832719125 0 0 0 0 735.566688645471 85.832619320814047 0 85.832619320814047 -5.39841815526961 0 0 0 0 308.54889591891697 496.45854273079385 0 496.45854273079385 -91.105258768406202 0 0 0 0 463.77836911155464 229.86272031589033 0 229.86272031589033 319.45174300405779 0 0 0 0 412.45016653970379 365.06491436642682 0 365.06491436642682 94.12144511099973 0 0 0 0 59.959823040666379 157.44280080852332 0 157.44280080852332 -16.026393228807137 0 0 0 0 47.9923927685103 88.980345651018069 0 88.980345651018069 114.00889127463621 0 0 0 0 57.714178087902837 152.27230533211696 0 152.27230533211696 -489.05733946717282 0 0 0 0 -25.563365145455464 -54.848900750832399 0 -54.848900750832399 -561.98559821107483 0 0 0 0 10.64488630758774 57.880768368655907 0 57.880768368655907 -98.893516158092325 0 0 0 0 151.74167748747277 159.60031285522564 0 159.60031285522564 -484.49207291554922 0 0 0 0 -200.80184429616565 106.09060551575021 0 106.09060551575021 256.79756559924499 0 0 0 0 3.9652249224305578 18.642807687635454 0 18.642807687635454 9.5699372006897505 0 0 0 0 90.104246909966605 86.644379825695069 0 86.644379825695069 -353.08312422946619 0 0 0 0 -123.81135271006497 -127.78703559813221 0 -127.78703559813221 -28.968303950132395 0 0 0 0 97.142742492313118 -1.5875003479432053 0 -1.5875003479432053 -420.48036709021835 0 0 0 0 94.506378776624842 -2.0669190416383572 0 -2.0669190416383572 -366.86193482483213 0 0 0 0 -79.151249322982039 65.095709775363503 0 65.095709775363503 -318.35637883765594 0 0 0 0 237.6119884510772 974.43256958929487 0 974.43256958929487 503.67239680635612 0 0 0 0 8.6796692087904432 -0.39876392749901868 0 -0.39876392749901868 -1.2231409664192512 0 0 0 0 94.403540219936986 101.48524484031441 0 101.48524484031441 -452.94505358258903 0 0 0 0 -795.2972237252834 -21.451386627268221 0 -21.451386627268221 -321.47478582288272 0 0 0 0 51.278383289072821 81.670498735018725 0 81.670498735018725 129.52395989693957 0 0 0 0 332.03382477783452 1027.8157930276866 0 1027.8157930276866 -217.79274342208191 0 0 0 0 -189.69797241686138 260.09937016196847 0 260.09937016196847 108.80684928499159 0 0 0 0 -161.45183485787129 1091.8245896874723 0 1091.8245896874723 638.24338512707618 0 0 0 0 258.37787009024032 800.73168385997633 0 800.73168385997633 -555.66964114160282 0 0 0 0 -134.94986953578336 116.5998326064896 0 116.5998326064896 105.50478293037837 0 0 0 0 -118.54193106882303 77.246683454411198 0 77.246683454411198 176.89904740099155 0 0 0 0 -125.7070643875777 141.55111811555145 0 141.55111811555145 102.51660936025132 0 0 0 0 -121.52179720324057 145.24748474397194 0 145.24748474397194 105.69649025983647 0 0 0 0 -163.47534548897238 141.08911550042365 0 141.08911550042365 102.82784862054473 0 0 0 0 -16.721658092843427 29.145166124454988 0 29.145166124454988 103.06052422235177 0 0 0 0 -30.344125111743779 107.71298380405131 0 107.71298380405131 -58.269582238562634 0 0 0 0 -149.41613958834205 7.2467964160996416 0 7.2467964160996416 40.062301900755983 0 0 0 0 -25.696706903931428 75.662492973580058 0 75.662492973580058 -43.46310681109621 0 0 0 0 129.36905805784045 183.42744973987919 0 183.42744973987919 -165.13455345925786 0 0 0 0 2.6666542808106897 134.31054961274913 0 134.31054961274913 12.464734331371801 0 0 0 0 21.289320979969659 19.836920402574989 0 19.836920402574989 10.709907298773054 0 0 0 0 98.994933151872829 44.339743476025433 0 44.339743476025433 8.2435344932769112 0 0 0 0 -163.29520202223011 88.125747351068071 0 88.125747351068071 91.664645734551073 0 0 0 0 -111.04894577635241 98.511950290555703 0 98.511950290555703 93.648780330260252 0 0 0 0 61.45800848008821 65.736130646955189 0 65.736130646955189 264.32329348227358 0 0 0 0 22.882235947385198 66.227836818572541 0 66.227836818572541 33.580224720470142 0 0 0 0 3.0362720132709882 103.49847512642364 0 103.49847512642364 -26.279896047525916 0 0 0 0 37.073156895110486 72.368545576960273 0 72.368545576960273 -7.7076191320708602 0 0 0 0 116.87967191339067 146.20909512364983 0 146.20909512364983 -68.545465571640307 0 0 0 0 -6.451851536938193 66.831629523013817 0 66.831629523013817 -90.154252553336846 0 0 0 0 217.40230007254286 135.30237872893122 0 135.30237872893122 -69.627825909518833 0 0 0 0 3.4599013730509967 77.151258409720072 0 77.151258409720072 -26.768952613552436 0 0 0 0 133.35366941018037 173.7288717088195 0 173.7288717088195 -50.15479707425402 0 0 0 0 149.95962386607425 175.72008823985743 0 175.72008823985743 -55.970721658692128 0 0 0 0 63.20531220085104 105.35594350593055 0 105.35594350593055 -28.814890857139972 0 0 0 0 159.31029242648219 205.50864285178795 0 205.50864285178795 -15.51266729447525 0 0 0 0 -5.9058859577898772 17.811835058469683 0 17.811835058469683 -21.187754617551249 0 0 0 0 115.33860531267055 175.36580319817313 0 175.36580319817313 -150.34778152793842 0 0 0 0 101.19751022098353 226.71618852862957 0 226.71618852862957 395.31319869702747 0 0 0 0 70.819074123682043 27.33888482905413 0 27.33888482905413 -4.3944691764627635 0 0 0 0 224.0824670653783 328.55725873508436 0 328.55725873508436 398.18295587467219 0 0 0 0 162.58960218377979 186.48905749615369 0 186.48905749615369 369.66722141700302 0 0 0 0 -11.790868532727472 172.53790384508466 0 172.53790384508466 369.38943686779112 0 0 0 0 81.235357777986792 139.81227031279377 0 139.81227031279377 107.69644374821655 0 0 0 0 84.665936679739389 157.12001253081689 0 157.12001253081689 99.094241957134727 0 0 0 0 38.27745384364971 228.90914031706643 0 228.90914031706643 452.62547559021732 0 0 0 0 86.452966403703613 -3.5688170371531669 0 -3.5688170371531669 201.48692366550131 0 0 0 0 133.40841862527941 136.85316410141797 0 136.85316410141797 -31.269190690985852 0 0 0 0 26.336189158595516 61.999228543076242 0 61.999228543076242 -58.441090968212848 0 0 0 0 -3.0813445469102589 25.896407409377389 0 25.896407409377389 -77.698536798953683 0 0 0 0 73.942564050244982 45.580825373018342 0 45.580825373018342 -103.81531100029315 0 0 0 0 116.72808129772602 30.22883153344992 0 30.22883153344992 -102.36882502324079 0 0 0 0 -2.8441081585930306 28.710118799439471 0 28.710118799439471 38.456049422646643 0 0 0 0 -66.134649218329287 224.77382850130562 0 224.77382850130562 -36.71695412418012 0 0 0 0 -104.55043129091791 150.19207865257067 0 150.19207865257067 -2.7842825500133586 0 0 0 0 82.585871455958113 85.472376014236033 0 85.472376014236033 -152.92543859191937 0 0 0 0 225.93661774555949 145.4135733933399 0 145.4135733933399 -33.86639728377304 0 0 0 0 -393.69707378909516 72.064153512475968 0 72.064153512475968 41.560634608285909 0 0 0 0 -63.369280616083415 326.90531338832807 0 326.90531338832807 198.84012684794288 0 0 0 0 1.9760747495015778 2.5604527939379409 0 2.5604527939379409 9.0500307536647782 0 0 0 0 374.47029463369836 560.33764062461432 0 560.33764062461432 477.22387293845532 0 0 0 0 -675.75230382814334 -273.0356466466892 0 -273.0356466466892 350.58279484547165 0 0 0 0 3.2845271622497307 -4.067069882946285 0 -4.067069882946285 -0.62593496799338766 0 0 0 0 -190.82098986685742 -59.639392220587979 0 -59.639392220587979 265.5003163329593 0 0 0 0 7.8110696787929186 4.8951605984812545 0 4.8951605984812545 9.7247005370816311 0 0 0 0 -13.870073824239853 68.158935786119329 0 68.158935786119329 19.278729133114826 0 0 0 0 -23.04042672716605 247.37844101942756 0 247.37844101942756 -47.341205538574286 0 0 0 0 -151.28962601868989 -60.175133648869632 0 -60.175133648869632 259.05227693714551 0 0 0 0 -120.23717009717075 360.89692335057771 0 360.89692335057771 664.14152891197591 0 0 0 0 -100.92666027845553 445.41554762173473 0 445.41554762173473 25.615224553512235 0 0 0 0 151.04726765488886 254.10624384954826 0 254.10624384954826 -526.11478154863289 0 0 0 0 -157.05767086827836 108.03090125246672 0 108.03090125246672 354.94654418549544 0 0 0 0 -260.75442851964908 171.94994026469067 0 171.94994026469067 215.05691414907415 0 0 0 0 -75.452856372216047 -163.4695791789045 0 -163.4695791789045 1176.3703070823867 0 0 0 0 -198.50302119797561 202.41980333319952 0 202.41980333319952 750.92164402661001 0 0 0 0 118.80080919609463 294.68071246463842 0 294.68071246463842 252.97234256143929 0 0 0 0 0.11820813349913806 -111.79180749788611 0 -111.79180749788611 456.24209718133534 0 0 0 0 -118.86017312444164 276.64016683466798 0 276.64016683466798 513.74842213435113 0 0 0 0 75.345669664115121 223.81407898955695 0 223.81407898955695 281.59421846985788 0 0 0 0 44.682179138748324 86.725428214778731 0 86.725428214778731 167.34663245183947 0 0 0 0 9.4208910586312413 38.859547473857674 0 38.859547473857674 204.16827375606226 0 0 0 0 11.064852040899837 19.366165314237918 0 19.366165314237918 13.191231873635367 0 0 0 0 -73.152357862316421 139.40160432618086 0 139.40160432618086 -9.7358306585665559 0 0 0 0 5.0548184965176688 5.5724286704805905 0 5.5724286704805905 6.6377611190591495 0 0 0 0 224.74523831985425 1.3569183036952381 0 1.3569183036952381 -151.71097110996743 0 0 0 0 -70.617193286816473 30.537210871339994 0 30.537210871339994 44.729481691712863 0 0 0 0 673.4337849013973 151.64822914272372 0 151.64822914272372 60.278355138858387 0 0 0 0 -125.67198749055387 100.20409279120395 0 100.20409279120395 160.58559942353895 0 0 0 0 170.06038165089376 163.08275805634366 0 163.08275805634366 24.934580091648968 0 0 0 0 -5.356853969840472 5.5615841178595815 0 5.5615841178595815 -3.9756702746849086 0 0 0 0 97.025488792802207 61.231729375915165 0 61.231729375915165 -76.452900454736664 0 0 0 0 -38.083513049670728 16.449643750700488 0 16.449643750700488 100.56048547217051 0 0 0 0 38.495560570649104 152.11660650351405 0 152.11660650351405 145.87589392274094 0 0 0 0 -22.435130580328405 4.9558725836432131 0 4.9558725836432131 -5.0380401858383266 0 0 0 0 -7.8641835499428083 32.197457324786143 0 32.197457324786143 -16.169312444152098 0 0 0 0 71.674615098039794 43.161597403677661 0 43.161597403677661 122.752663497904 0 0 0 0 1.2836396123100826 2.2378365363893344 0 2.2378365363893344 -0.83182024786895425 0 0 0 0 -18.375870989984833 204.16386232728473 0 204.16386232728473 435.09127347680396 0 0 0 0 178.30752349409886 390.6348926029832 0 390.6348926029832 400.19756711701848 0 0 0 0 160.67900466520223 251.34618344806222 0 251.34618344806222 119.47111811095237 0 0 0 0 632.06011997684254 354.26034771034574 0 354.26034771034574 -212.0394237675755 0 0 0 0 479.9457179432502 32.662965598807205 0 32.662965598807205 -477.40662586736835 0 0 0 0 -85.43036584238871 159.58244913363342 0 159.58244913363342 202.97637064521405 0 0 0 0 -52.312460586896123 293.00698372546344 0 293.00698372546344 291.98267538534856 0 0 0 0 -60.722377612159107 42.4346076656484 0 42.4346076656484 255.25882579404788 0 0 0 0 207.6544226353144 592.85062342417041 0 592.85062342417041 663.78608754118613 0 0 0 0 -59.840384525858099 -11.930276133454754 0 -11.930276133454754 890.55490256072335 0 0 0 0 716.68600207261261 -108.279368710364 0 -108.279368710364 90.172056841944141 0 0 0 0 168.39390396086674 569.38337831706667 0 569.38337831706667 998.64476748119841 0 0 0 0 -86.643711273733061 151.42568529053278 0 151.42568529053278 38.028526252113807 0 0 0 0 61.826867653402587 -172.95319380334331 0 -172.95319380334331 -163.12002869872595 0 0 0 0 -69.866618701991683 240.8672234644356 0 240.8672234644356 391.1873751437829 0 0 0 0 219.48123067009146 82.201520798801653 0 82.201520798801653 -112.91330681415917 0 0 0 0 7.0042962316279613 63.868107275094957 0 63.868107275094957 23.844093351824384 0 0 0 0 353.94405018002726 189.185985741482 0 189.185985741482 -749.41644417206408 0 0 0 0 74.319597884154064 -3.4899571695953 0 -3.4899571695953 -100.82810568829721 0 0 0 0 2.039143797940369 63.810913141824571 0 63.810913141824571 25.45744207676394 0 0 0 0 -7.7268865409714635 88.25086094886251 0 88.25086094886251 102.47179126377878 0 0 0 0 -48.013796596595057 41.910068578359244 0 41.910068578359244 295.78921957199782 0 0 0 0 283.81037685085903 355.06824857591073 0 355.06824857591073 443.74197995056852 0 0 0 0 -11.014481852522295 69.455093495593474 0 69.455093495593474 268.41350697563303 0 0 0 0 30.057387830136577 206.17894147005313 0 206.17894147005313 138.93953992056095 0 0 0 0 62.724081698535883 298.10531027030117 0 298.10531027030117 319.71147468421759 0 0 0 0 374.7531469674941 74.966754067157126 0 74.966754067157126 83.185180776362358 0 0 0 0 -234.15542029371136 75.846050963138168 0 75.846050963138168 -19.13920233141198 0 0 0 0 -234.18244770244087 74.966657961157466 0 74.966657961157466 153.63202833166179 0 0 0 0 -365.80323824726293 97.031334948812173 0 97.031334948812173 356.93090346289341 0 0 0 0 908.73758808315324 359.53545116739076 0 359.53545116739076 92.236688092650411 0 0 0 0 -676.13204338951618 -189.42033963730853 0 -189.42033963730853 132.43463544632465 0 0 0 0 0.3925722039231303 -1.4437658747525859 0 -1.4437658747525859 4.108394093428748 0 0 0 0 9.5137691528070718 11.115879130856234 0 11.115879130856234 233.22426531552426 0 0 0 0 -60.286453140593949 65.267347567873003 0 65.267347567873003 268.90948586302011 0 0 0 0 -143.00934748137661 -73.820095959831633 0 -73.820095959831633 59.47078792155753 0 0 0 0 182.36814874279662 115.69637045606191 0 115.69637045606191 75.878781631885431 0 0 0 0 169.09313878888861 158.15122379968057 0 158.15122379968057 206.90737423199243 0 0 0 0 383.70176847422408 338.2669600567931 0 338.2669600567931 328.56794374797073 0 0 0 0 -0.77947738027910418 1.1776027035827497 0 1.1776027035827497 -3.0001021235184915 0 0 0 0 -772.95123527415853 -618.48900957619799 0 -618.48900957619799 -69.601310851406993 0 0 0 0 35.047078758725547 108.25353972790936 0 108.25353972790936 365.619902639202 0 0 0 0 -16.026754848629935 58.162437488359501 0 58.162437488359501 -154.97406838068855 0 0 0 0 -415.54065860750416 -95.089902526773812 0 -95.089902526773812 566.61705342348114 0 0 0 0 -22.035869324601776 51.824018223213891 0 51.824018223213891 20.732492966103813 0 0 0 0 -24.025441461457376 30.025199405792591 0 30.025199405792591 -117.79196189855429 0 0 0 0 -50.92089454982488 67.862676858003397 0 67.862676858003397 -95.427378461845365 0 0 0 0 -31.390795982966665 36.874958618314849 0 36.874958618314849 -82.769448267848929 0 0 0 0 13.434150057932129 47.14600571810297 0 47.14600571810297 -248.26611711046144 0 0 0 0 -47.860593068595335 23.663494289011396 0 23.663494289011396 -54.232675036659202 0 0 0 0 -10.296098415777749 55.890029253220959 0 55.890029253220959 22.546172396354155 0 0 0 0 80.804000410927983 98.602532762177077 0 98.602532762177077 308.55719736668669 0 0 0 0 -147.407394952701 117.08959672758795 0 117.08959672758795 196.16029992658002 0 0 0 0 1.3021562053088473 60.192256569069144 0 60.192256569069144 23.234544158565598 0 0 0 0 66.927738301077625 97.771379818786954 0 97.771379818786954 -514.44197063798765 0 0 0 0 -79.090858502473566 79.350275075370519 0 79.350275075370519 223.77983472378401 0 0 0 0 -43.46263379220909 -13.675797690571926 0 -13.675797690571926 -44.616004126812186 0 0 0 0 -19.836440414357639 122.40839338663591 0 122.40839338663591 173.76949909453106 0 0 0 0 -57.312683150594239 214.4414530469985 0 214.4414530469985 409.91520061944539 0 0 0 0 79.492470556040644 202.88902952713579 0 202.88902952713579 234.37559504239198 0 0 0 0 -81.379184932729913 120.45660058010503 0 120.45660058010503 206.97872574933353 0 0 0 0 -59.313776905895793 184.19127497934824 0 184.19127497934824 572.70770103784162 0 0 0 0 0.48164215313698833 2.5546826192468668 0 2.5546826192468668 -0.67024840247553286 0 0 0 0 20.569081577297766 142.50701009539262 0 142.50701009539262 84.305761334841918 0 0 0 0 -4.5384443959774217 275.36789431870966 0 275.36789431870966 246.61692385016067 0 0 0 0 1.394344734442825 3.9208366130953785 0 3.9208366130953785 -1.1907148226183608 0 0 0 0 -51.993571888560837 224.91338910844479 0 224.91338910844479 204.16098735540436 0 0 0 0 -21.606177699693944 251.09351037871966 0 251.09351037871966 168.03952370179468 0 0 0 0 -45.770482597297814 102.53620029867125 0 102.53620029867125 40.947240855399286 0 0 0 0 -66.014343952658237 55.121085281143223 0 55.121085281143223 -22.424361178505933 0 0 0 0 -73.264707004913362 89.881016518545948 0 89.881016518545948 202.20207169303512 0 0 0 0 -24.646187166802974 29.750304477636519 0 29.750304477636519 46.714258118183352 0 0 0 0 -10.968859840053483 71.544114379648818 0 71.544114379648818 -57.311073813629264 0 0 0 0 -24.069262807657651 35.652787023115252 0 35.652787023115252 -56.79754726014653 0 0 0 0 -115.2177004070254 100.78178229575133 0 100.78178229575133 -35.799567822429708 0 0 0 0 -66.023943384250742 59.466536795431239 0 59.466536795431239 -43.827347242450287 0 0 0 0 -154.17275268152298 127.97733025886919 0 127.97733025886919 -55.844706196701736 0 0 0 0 -125.48234379343921 97.101230205327738 0 97.101230205327738 -37.213514369279437 0 0 0 0 -167.88300562521908 118.00685775110469 0 118.00685775110469 -32.903852147243015 0 0 0 0 -165.63380474131554 113.91224196422263 0 113.91224196422263 -29.315135999495396 0 0 0 0 -162.83270834239374 117.04064388981715 0 117.04064388981715 -37.670651242689928 0 0 0 0 -227.47286588874704 73.180463869712185 0 73.180463869712185 49.371704968711128 0 0 0 0 0.26095526880345687 4.9629069055957302 0 4.9629069055957302 15.365460685498562 0 0 0 0 -229.62553945705145 141.12646456139237 0 141.12646456139237 8.3442773126953398 0 0 0 0 -164.93209795908479 120.9568268278199 0 120.9568268278199 -38.701385115084122 0 0 0 0 -98.839379447817919 93.508862173861417 0 93.508862173861417 -33.275919365074515 0 0 0 0 -142.70426784984011 81.492313553448184 0 81.492313553448184 -18.482382620415592 0 0 0 0 -107.52834363430156 68.284551229990029 0 68.284551229990029 -13.726003361380208 0 0 0 0 -23.806583566918562 236.73229507400811 0 236.73229507400811 88.974951528383826 0 0 0 0 -27.099100735060347 139.96139103668338 0 139.96139103668338 -89.627736193412602 0 0 0 0 -5.8740114095489844 -237.81429419032156 0 -237.81429419032156 320.76122667036543 0 0 0 0 -237.77848367886327 68.34197462901102 0 68.34197462901102 90.567021557633325 0 0 0 0 -0.86817891781242906 0.95686828493310827 0 0.95686828493310827 6.38872941467028 0 0 0 0 0.0031382734014187008 24.167574159313517 0 24.167574159313517 52.563429791812268 0 0 0 0 2.6986844948936337 13.001500272753873 0 13.001500272753873 71.004970807755797 0 0 0 0 -20.180789274983908 20.487260590905407 0 20.487260590905407 75.830562638486299 0 0 0 0 -142.51211532628804 -80.540868079444408 0 -80.540868079444408 131.83749911721497 0 0 0 0 -10.263569471309893 14.251928340945597 0 14.251928340945597 48.595364291541046 0 0 0 0 -0.00530566084489692 17.262864439253462 0 17.262864439253462 29.111297103034303 0 0 0 0 -2.85144034694531 18.105936000705697 0 18.105936000705697 22.732842630866799 0 0 0 0 -7.9622180966543965 10.628102465805568 0 10.628102465805568 37.01313137125544 0 0 0 0 -129.91426585128647 20.273731719138596 0 20.273731719138596 40.544688514259178 0 0 0 0 2.347020439357749 9.3735312528813495 0 9.3735312528813495 38.092085977234035 0 0 0 0 -388.94486075860914 -118.45397105382654 0 -118.45397105382654 305.29428014542646 0 0 0 0 -4.9978041054954474 -3.5250417437325439 0 -3.5250417437325439 6.3508790422278025 0 0 0 0 633.13862984914158 -896.87041660694376 0 -896.87041660694376 150.8961267919949 0 0 0 0 -324.41189705033321 457.32550589742459 0 457.32550589742459 610.34692341125628 0 0 0 0 -182.18334263644647 123.2125486615696 0 123.2125486615696 -31.423968093680742 0 0 0 0 4.1589211648959576 6.9639760935615698 0 6.9639760935615698 13.064738445677079 0 0 0 0 2.0363261653562006 6.6409833478855376 0 6.6409833478855376 14.883715674112864 0 0 0 0 419.19340087549062 153.02199983522041 0 153.02199983522041 -489.66009857481185 0 0 0 0 -168.61319250437373 -33.06926713318353 0 -33.06926713318353 77.05000731934706 0 0 0 0 -2.437860728110536 11.094806583907484 0 11.094806583907484 15.435386137789465 0 0 0 0 -8.7825262127444148 12.053223558734317 0 12.053223558734317 18.3247857800161 0 0 0 0 -7.3863496850826778 5.8010830775892828 0 5.8010830775892828 12.356078425706073 0 0 0 0 155.11892594136953 -646.11845211945092 0 -646.11845211945092 -1044.2852869230701 0 0 0 0 3.1649254341985795 2.8965037465029297 0 2.8965037465029297 1.9114992402432449 0 0 0 0 -0.0096278483906644396 12.083484745249734 0 12.083484745249734 1.4144983923342807 0 0 0 0 -87.151215995376333 47.065734891695911 0 47.065734891695911 -341.3108193677399 0 0 0 0 -3.3127349454589421 704.77379807656325 0 704.77379807656325 928.8111589063883 0 0 0 0 2.2344648421987472 3.8380673674033119 0 3.8380673674033119 4.1754253983494181 0 0 0 0 -6.4727746567770055 11.413088621072831 0 11.413088621072831 0.48070551406001982 0 0 0 0 -29.822002572494966 389.64598592233278 0 389.64598592233278 -643.03135655263759 0 0 0 0 47.172704712822451 -16.531511850927927 0 -16.531511850927927 -265.18171489168526 0 0 0 0 -597.81412614513829 255.41679454704536 0 255.41679454704536 -195.62799422204262 0 0 0 0 -178.66346040238568 225.38098049019754 0 225.38098049019754 -144.77379203797682 0 0 0 0 -425.95827341961558 454.77642745710727 0 454.77642745710727 -273.409824390219 0 0 0 0 -653.33552895270986 176.64874203417639 0 176.64874203417639 259.4344535380078 0 0 0 0 -534.10530093425768 18.302847571387247 0 18.302847571387247 248.52381768374062 0 0 0 0 -106.68053838491323 145.01749181171544 0 145.01749181171544 -57.303872612414807 0 0 0 0 -108.56771166152612 135.04225702282019 0 135.04225702282019 -107.73165581360809 0 0 0 0 -103.94669429078203 103.58328372321193 0 103.58328372321193 -87.411536849667755 0 0 0 0 -5.0294774928188417 87.938499484556814 0 87.938499484556814 -153.80026002812701 0 0 0 0 4.0324844743008725 122.15379639196908 0 122.15379639196908 -389.30853674499122 0 0 0 0 -61.774313732486917 92.357041018422024 0 92.357041018422024 -116.62181249253626 0 0 0 0 -80.781241054122802 1.5589202535848017 0 1.5589202535848017 -69.15847826647223 0 0 0 0 32.668436989595648 -110.37206589377092 0 -110.37206589377092 237.06384133161237 0 0 0 0 -29.435462023084256 46.329499429187344 0 46.329499429187344 26.083169849935572 0 0 0 0 199.70479103660909 -34.830334245204995 0 -34.830334245204995 5.7405982755499281 0 0 0 0 -74.909449204445991 71.128479414200228 0 71.128479414200228 64.481548464408661 0 0 0 0 63.515081006968103 -29.542259781284656 0 -29.542259781284656 117.34705744455141 0 0 0 0 60.383818189307931 -52.452028786466144 0 -52.452028786466144 56.16862407259373 0 0 0 0 -4.1997487910677478 -7.5120614905988248 0 -7.5120614905988248 69.726005939079272 0 0 0 0 10.612928803559043 92.52110097674813 0 92.52110097674813 359.31439022453742 0 0 0 0 0.43814922439923976 119.88970588628581 0 119.88970588628581 268.17345081022358 0 0 0 0 -7.3060094710670569 -2.9020973456278085 0 -2.9020973456278085 8.3930484113193558 0 0 0 0 -206.05554566929641 485.53455195612878 0 485.53455195612878 -490.90141100552864 0 0 0 0 145.40906870445178 149.63707088853516 0 149.63707088853516 127.55864712593393 0 0 0 0 -18.529822650772985 1675.0254994867573 0 1675.0254994867573 1460.6189246773138 0 0 0 0 -14.759223140485119 20.8015332434843 0 20.8015332434843 -2321.4317898634472 0 0 0 0 -0.011459681409178302 1067.4051121778175 0 1067.4051121778175 -2289.5429302323682 0 0 0 0 -441.15181339907576 971.03484310452404 0 971.03484310452404 -1124.241395275516 0 0 0 0 415.34914228467096 573.15174370505702 0 573.15174370505702 -948.09982285460865 0 0 0 0 107.85686847347824 1169.236388074256 0 1169.236388074256 -879.24053158505194 0 0 0 0 -2.2763523443823033 8.4231578752513201 0 8.4231578752513201 -5.1828499502275136 0 0 0 0 513.33355564008525 357.43369688213716 0 357.43369688213716 -3889.6006945597983 0 0 0 0 448.98711126475609 1123.8704382416026 0 1123.8704382416026 -619.00830244013923 0 0 0 0 118.42348345967184 570.49040023961788 0 570.49040023961788 -967.04701049756113 0 0 0 0 293.52305343195621 748.70651837433979 0 748.70651837433979 -1370.9696118675274 0 0 0 0 120.98803411924018 117.78237781775715 0 117.78237781775715 -1568.3196250500114 0 0 0 0 -12.937408315374398 16.016303797280784 0 16.016303797280784 -9.3374079651866424 0 0 0 0 501.37121973121248 302.68345795331334 0 302.68345795331334 -482.57376399842542 0 0 0 0 13.388092908277031 199.30773799912185 0 199.30773799912185 -279.66285791414703 0 0 0 0 -14.29079048411262 22.168371323218665 0 22.168371323218665 -12.188682423993271 0 0 0 0 19.092491565497767 642.25657035832046 0 642.25657035832046 39.446107118274085 0 0 0 0 581.54973129384598 195.59643542890626 0 195.59643542890626 -625.22731320431922 0 0 0 0 -694.09691487768578 273.65977436906905 0 273.65977436906905 988.88827608287102 0 0 0 0 180.86132117273519 173.44785970492376 0 173.44785970492376 -469.92352926884632 0 0 0 0 -0.80702823592582718 222.01182677568067 0 222.01182677568067 441.03164212809133 0 0 0 0 -5.7261429679793423 4.438502835165437 0 4.438502835165437 -5.0035013188588664 0 0 0 0 368.59199741535849 198.2836638361332 0 198.2836638361332 -3783.6682923245826 0 0 0 0 -20.87988528504502 -334.02304598105547 0 -334.02304598105547 -166.66655714631634 0 0 0 0 138.92793755882303 147.88170785039983 0 147.88170785039983 -956.28942574474786 0 0 0 0 0.78232140775241588 209.97878323511733 0 209.97878323511733 -875.79610061291169 0 0 0 0 -662.82892086612992 -799.78882432745741 0 -799.78882432745741 -1078.2717761163767 0 0 0 0 242.92969118738256 192.53351147532157 0 192.53351147532157 -1376.444314794222 0 0 0 0 188.97550027351826 447.31710785356336 0 447.31710785356336 -2207.9858716299059 0 0 0 0 150.45930760867486 618.19381363727007 0 618.19381363727007 -1313.5873988552194 0 0 0 0 13.16588239945122 307.71205654984078 0 307.71205654984078 -771.06573068141006 0 0 0 0 62.487659568316303 561.84165616462997 0 561.84165616462997 0.25384152628248557 0 0 0 0 74.500712711655069 102.43951642958564 0 102.43951642958564 -515.43595501609525 0 0 0 0 -389.65463083761279 182.07554229065863 0 182.07554229065863 -108.21861518127844 0 0 0 0 -402.21938977897662 364.16501489956681 0 364.16501489956681 -280.84236740221968 0 0 0 0 1.696552955907066 0.45245443785567829 0 0.45245443785567829 -7.0309118966486217 0 0 0 0 -415.68065739556914 570.64539828200941 0 570.64539828200941 -599.02627600889537 0 0 0 0 -0.19018300912284758 283.31644357273763 0 283.31644357273763 -1070.9893743988905 0 0 0 0 73.276517227976001 272.78461087714459 0 272.78461087714459 -1168.1636952326808 0 0 0 0 -0.030057562733418308 35.854466711152781 0 35.854466711152781 118.60948017166663 0 0 0 0 -1.1223307490522529 -2.8617402255758151 0 -2.8617402255758151 -0.53385754172609268 0 0 0 0 -22.818974078443716 38.431875786034652 0 38.431875786034652 91.01785016136273 0 0 0 0 79.107798198383534 317.44652336509171 0 317.44652336509171 -247.45311348552787 0 0 0 0 0.59254526467422863 29.226063705782195 0 29.226063705782195 96.57744771849994 0 0 0 0 -3.1163169797819705 6.196306200613364 0 6.196306200613364 14.836551763502037 0 0 0 0 -24.9070478855283 -13.013076480652671 0 -13.013076480652671 -122.86181175913953 0 0 0 0 -2.248915173135174 21.174475418739348 0 21.174475418739348 75.819036112807225 0 0 0 0 171.1161155029331 269.11441990078765 0 269.11441990078765 -15.163886235219252 0 0 0 0 -100.81911985535407 320.55888872541618 0 320.55888872541618 214.68277074066646 0 0 0 0 5.8579332079389133 39.392427237937227 0 39.392427237937227 -344.83077063424389 0 0 0 0 11.513747815532668 81.959243460411528 0 81.959243460411528 0.85772301322679811 0 0 0 0 4.0587890333627001 149.07181585796843 0 149.07181585796843 -100.0221348861578 0 0 0 0 -242.77489495793998 225.83885796168761 0 225.83885796168761 152.11993786891071 0 0 0 0 38.796589904489835 59.303930384237333 0 59.303930384237333 -58.282376282442101 0 0 0 0 19.887375167309074 79.116424839245155 0 79.116424839245155 -357.14516991273194 0 0 0 0 -253.12124211755872 -342.69157940477453 0 -342.69157940477453 -626.60536593568395 0 0 0 0 16.110854440336539 -0.28850430456665777 0 -0.28850430456665777 -10.470703400478769 0 0 0 0 198.60041248149355 -6.1512090742544387 0 -6.1512090742544387 -1091.835623270701 0 0 0 0 -755.79214468118153 887.43390476884088 0 887.43390476884088 -1055.0627981016296 0 0 0 0 4.1659639324308344 0.59467466154890758 0 0.59467466154890758 -16.661737311538332 0 0 0 0 -412.1739722135826 -734.83602908654575 0 -734.83602908654575 -1092.6083430464569 0 0 0 0 -112.3654098942061 137.53933318224153 0 137.53933318224153 -605.56451295844454 0 0 0 0 229.95436899442575 -395.65748614499898 0 -395.65748614499898 -2001.8834875668836 0 0 0 0 -663.80249744907962 979.93168555395016 0 979.93168555395016 -1766.5694778552715 0 0 0 0 328.53913093000301 -17.956431222410174 0 -17.956431222410174 -1431.2073307525279 0 0 0 0 263.04286983204656 -164.17216976937925 0 -164.17216976937925 -1208.5606824667411 0 0 0 0 281.03106256562751 504.52947299926018 0 504.52947299926018 -1281.8835554862599 0 0 0 0 115.88661079920712 93.237015330811118 0 93.237015330811118 -316.32710471926839 0 0 0 0 233.81812944600824 -0.94677302564377896 0 -0.94677302564377896 -1017.029735724245 0 0 0 0 225.92865231937321 69.164389428719005 0 69.164389428719005 -1219.9423992397205 0 0 0 0 236.29905012535164 158.71524093271 0 158.71524093271 -1015.3352613662934 0 0 0 0 409.53647475020261 125.30185584566425 0 125.30185584566425 -1180.4211964524875 0 0 0 0 175.89563822437776 89.331736085950979 0 89.331736085950979 -1039.3400714584714 0 0 0 0 94.733123072117451 70.679099410244817 0 70.679099410244817 -1041.636046978485 0 0 0 0 11.026144636212848 -75.791263352592068 0 -75.791263352592068 -1264.7689039646575 0 0 0 0 7.9296951932902857 -0.071949034588897121 0 -0.071949034588897121 -0.42847690417168494 0 0 0 0 209.71582854597364 136.22041966693359 0 136.22041966693359 -1232.0592576075142 0 0 0 0 9.9694467591471039 50.705121170103666 0 50.705121170103666 -515.76106539934335 0 0 0 0 101.35138528470998 168.50871302992164 0 168.50871302992164 -1197.2682185021986 0 0 0 0 255.88697448713356 172.47979162034608 0 172.47979162034608 -1204.3140833883244 0 0 0 0 144.98490283472347 77.643211356276879 0 77.643211356276879 -1182.5456175841546 0 0 0 0 -8.1203931484051282 102.58696236868218 0 102.58696236868218 -15.926606323189844 0 0 0 0 18.505159891385233 82.014800823389663 0 82.014800823389663 -4.6918701312712123 0 0 0 0 -1.0729446078039473 23.391608383883067 0 23.391608383883067 -498.83448855289316 0 0 0 0 10.839522941605537 146.12250215703671 0 146.12250215703671 -114.98204981056188 0 0 0 0 46.123609318419767 -37.454577183088077 0 -37.454577183088077 267.75261299213503 0 0 0 0 42.71982372279308 65.202758563276348 0 65.202758563276348 -56.836138092654437 0 0 0 0 35.184876860919758 98.357306082880314 0 98.357306082880314 -192.08943341117265 0 0 0 0 24.550006278289914 83.758707624427927 0 83.758707624427927 -4.5650294389611101 0 0 0 0 9.7741888114032918 129.86082746970169 0 129.86082746970169 -77.485662922532356 0 0 0 0 49.405347048821568 54.120802047742472 0 54.120802047742472 -619.14474056996551 0 0 0 0 5.7636612254646025 130.55529699950512 0 130.55529699950512 -69.937593851474958 0 0 0 0 94.827774101373507 187.5554761694948 0 187.5554761694948 -493.5947937243036 0 0 0 0 -123.30868657921383 4.3872577348374762 0 4.3872577348374762 -535.09459026098921 0 0 0 0 -148.71078949052026 841.52759255955607 0 841.52759255955607 -1237.1838346830991 0 0 0 0 -367.32416839941288 296.12077323716949 0 296.12077323716949 -810.54559112245806 0 0 0 0 1.8072082625320149 0.692499961681591 0 0.692499961681591 -1.3245111064675221 0 0 0 0 -58.764343072980409 -148.92453692605341 0 -148.92453692605341 -1375.1801286010596 0 0 0 0 -5.2151723318651761 7.439486366845486 0 7.439486366845486 -4.1169742881541822 0 0 0 0 68.711043878738565 -344.5045544163022 0 -344.5045544163022 -2279.7704004240513 0 0 0 0 86.792008915828774 535.89638472931256 0 535.89638472931256 -1891.7782984396472 0 0 0 0 446.89586583210621 926.75925952506805 0 926.75925952506805 1744.1956378545874 0 0 0 0 -6.3872135127897991 9.1186187164564387 0 9.1186187164564387 -8.7026320916914699 0 0 0 0 1042.2908333686828 827.06929157917511 0 827.06929157917511 -1308.9909385227293 0 0 0 0 503.23064921202604 328.28103066106996 0 328.28103066106996 -1289.8804252493621 0 0 0 0 -388.82519284158479 437.5705438029654 0 437.5705438029654 1584.6896454967664 0 0 0 0 336.36307403957471 1291.2221416099419 0 1291.2221416099419 -388.41470996830321 0 0 0 0 -11.614711518960519 19.358007167087209 0 19.358007167087209 -10.378881690379785 0 0 0 0 164.76141683776223 1054.7528851049065 0 1054.7528851049065 983.0945118695854 0 0 0 0 420.0486361609328 431.33172965728772 0 431.33172965728772 -174.49385831701511 0 0 0 0 625.04171774041606 328.1183636757487 0 328.1183636757487 -1010.2412166966606 0 0 0 0 634.39604057342513 477.82802009631268 0 477.82802009631268 -329.30356498051697 0 0 0 0 153.91579299037403 485.62112258009802 0 485.62112258009802 693.36523164480604 0 0 0 0 344.55961316314642 612.21398847858654 0 612.21398847858654 -274.0744517314215 0 0 0 0 242.31297475946485 771.13141059631744 0 771.13141059631744 1340.6809580637128 0 0 0 0 210.57371667203552 250.69148177628813 0 250.69148177628813 -1607.3390842997615 0 0 0 0 -10.766448286120465 20.806717129373084 0 20.806717129373084 -9.8536985960075185 0 0 0 0 70.280682402022649 372.41030027815577 0 372.41030027815577 -258.5510126493391 0 0 0 0 -12.261715980057488 155.75619107254897 0 155.75619107254897 -759.29211572831264 0 0 0 0 224.06924020734732 312.35395496416822 0 312.35395496416822 -56.57618588837795 0 0 0 0 208.01024158092332 418.4762420271727 0 418.4762420271727 -537.87874744816509 0 0 0 0 -21.246795487510099 27.031525752400626 0 27.031525752400626 -11.471797039450799 0 0 0 0 -220.90326088799884 541.78489966667621 0 541.78489966667621 -199.01230036238849 0 0 0 0 6.072481461771531 -49.668714630606701 0 -49.668714630606701 -297.90312304996769 0 0 0 0 781.57008126260189 486.00633009236844 0 486.00633009236844 537.74415141835925 0 0 0 0 502.97426612604613 17.542172490135272 0 17.542172490135272 777.52847817080328 0 0 0 0 252.58507122341689 164.84497106481467 0 164.84497106481467 766.22303090878995 0 0 0 0 151.4636021774204 821.31143183543463 0 821.31143183543463 878.180373889154 0 0 0 0 -1555.5656541578064 -572.26054052342079 0 -572.26054052342079 -372.22373228435754 0 0 0 0 -25.872756280142539 26.441448184593156 0 26.441448184593156 -10.685581660709296 0 0 0 0 369.49428736997652 499.78878689252451 0 499.78878689252451 -95.829813384669251 0 0 0 0 19.928138400791795 484.82023041879438 0 484.82023041879438 727.1939400698102 0 0 0 0 290.6516512284179 676.03139126517453 0 676.03139126517453 -513.42549043692998 0 0 0 0 151.75388546395698 563.74498396574927 0 563.74498396574927 -114.43745404039873 0 0 0 0 349.26273889186268 488.48258265764889 0 488.48258265764889 -666.09121940578916 0 0 0 0 89.621602196450112 753.89347373005876 0 753.89347373005876 457.60117110703868 0 0 0 0 -82.882548580033472 764.67594336932234 0 764.67594336932234 38.536694027105113 0 0 0 0 61.750126680672111 227.11563567465782 0 227.11563567465782 -250.50158494130301 0 0 0 0 -460.64069945651863 294.63423296749534 0 294.63423296749534 393.69098158722045 0 0 0 0 -923.24484199573635 719.21141382019414 0 719.21141382019414 46.809328805473342 0 0 0 0 -990.54547971732973 703.48188315685184 0 703.48188315685184 -233.59148852307408 0 0 0 0 -859.49074958194979 654.13447159132556 0 654.13447159132556 -614.10096142774273 0 0 0 0 -615.34635877167966 1139.7629198089271 0 1139.7629198089271 -929.24986165083828 0 0 0 0 -737.38143019156996 1320.9376350117091 0 1320.9376350117091 726.2438918661519 0 0 0 0 -12.139066614212368 13.59260820947182 0 13.59260820947182 -6.3552312426309214 0 0 0 0 -759.45941960823257 663.02091465109697 0 663.02091465109697 2141.3902524319637 0 0 0 0 1028.5629339788284 -122.56638953502988 0 -122.56638953502988 -651.49386506577866 0 0 0 0 1377.9401062607649 707.93994200971792 0 707.93994200971792 -3940.1325584149017 0 0 0 0 -297.99457706329849 1763.3535490347131 0 1763.3535490347131 -2966.6545452358405 0 0 0 0 -1254.6255181201777 -149.90066841658518 0 -149.90066841658518 -274.72137826569815 0 0 0 0 -182.68099082626577 -87.908690677599225 0 -87.908690677599225 -357.7695022845146 0 0 0 0 -2.3027826767124111 -0.30970141116299033 0 -0.30970141116299033 0.74847960497285726 0 0 0 0 -182.1112736093346 -17.879961347036442 0 -17.879961347036442 -133.08469648048049 0 0 0 0 -538.97820343068452 -111.11598556131503 0 -111.11598556131503 -31.688676851990749 0 0 0 0 -172.85905458598791 910.50638078382144 0 910.50638078382144 879.36928298014391 0 0 0 0 -735.81450307986233 397.06931790001545 0 397.06931790001545 216.04939247624134 0 0 0 0 -522.71334215201205 -221.77147868929751 0 -221.77147868929751 -449.72245284779638 0 0 0 0 1707.3744727011363 931.93543333325579 0 931.93543333325579 -2775.008719123085 0 0 0 0 -2500.2439530433548 -261.27519439200842 0 -261.27519439200842 -92.207849662998342 0 0 0 0 -5.0964390272907139 9.245588254817207 0 9.245588254817207 -15.978692616771696 0 0 0 0 207.44237010183861 673.96666629966421 0 673.96666629966421 -2546.3825909304578 0 0 0 0 -1078.2375081576756 1188.6352998594375 0 1188.6352998594375 -1470.1540938977778 0 0 0 0 526.9996166623132 323.5973433315994 0 323.5973433315994 -2309.111634117944 0 0 0 0 -961.10830535253626 638.58454346241342 0 638.58454346241342 966.94568920649181 0 0 0 0 559.61360482050441 -112.04639092991783 0 -112.04639092991783 -438.5780790985882 0 0 0 0 20.468864726830361 309.44709112724559 0 309.44709112724559 320.59253683537827 0 0 0 0 -14.208930245363149 17.247671075025941 0 17.247671075025941 -14.4976275816569 0 0 0 0 625.93162020481759 1502.4943791794249 0 1502.4943791794249 -514.25715106179996 0 0 0 0 288.83273563801777 1338.5577387796657 0 1338.5577387796657 664.51713964225382 0 0 0 0 -1164.0707507507905 -186.46589153399691 0 -186.46589153399691 676.66368057599175 0 0 0 0 -14.899961203067264 25.014574620842112 0 25.014574620842112 -40.779664562287508 0 0 0 0 -614.08647854402079 -294.44163792372638 0 -294.44163792372638 569.12820755803114 0 0 0 0 264.41723541783267 -12.492726710231977 0 -12.492726710231977 233.54450294890557 0 0 0 0 -7.916094128356292 7.6652045147454118 0 7.6652045147454118 -6.6000307709687434 0 0 0 0 661.65150853329396 -119.80677440645741 0 -119.80677440645741 -552.62430593774479 0 0 0 0 -631.33400418593374 46.650946094381652 0 46.650946094381652 562.23376538723096 0 0 0 0 602.71243745769607 -166.31618403564789 0 -166.31618403564789 -336.15313406343921 0 0 0 0 562.0145935821638 39.688050103373826 0 39.688050103373826 -732.60425274599402 0 0 0 0 28.551768386030687 83.972707619052429 0 83.972707619052429 -2.4802776168065175 0 0 0 0 88.620704077460687 127.67374928927347 0 127.67374928927347 -224.70417899703398 0 0 0 0 716.30057533217769 -131.75227345047097 0 -131.75227345047097 -550.6143011784734 0 0 0 0 -1949.0596544866567 726.37766931366059 0 726.37766931366059 -143.48804391417798 0 0 0 0 86.347015556566475 70.654178366441556 0 70.654178366441556 -276.10754303568683 0 0 0 0 31.740163217037264 89.54723535240106 0 89.54723535240106 -21.076934075205738 0 0 0 0 7.257126811418857 54.969658462499979 0 54.969658462499979 -92.114502627249749 0 0 0 0 78.734219119069166 123.7646089518712 0 123.7646089518712 95.111364264495478 0 0 0 0 132.40828733507806 83.204433467608396 0 83.204433467608396 -100.23304555861978 0 0 0 0 82.017783811643312 176.10378354795921 0 176.10378354795921 -49.720256216871348 0 0 0 0 -0.18680700776167214 142.19224050744629 0 142.19224050744629 -55.719063988861308 0 0 0 0 -19.208301901751838 53.66062190716093 0 53.66062190716093 -30.568854598379403 0 0 0 0 3.2892824027949246 76.547619596793083 0 76.547619596793083 -54.621802588007995 0 0 0 0 -7.7052464847829611 52.190132157705079 0 52.190132157705079 -62.367410660133075 0 0 0 0 8.2157100706153017 37.626791884386051 0 37.626791884386051 18.632735750212944 0 0 0 0 -44.391390004537243 -7.2824102802460402 0 -7.2824102802460402 -70.406169041835369 0 0 0 0 -12.183501009894826 81.577322565954091 0 81.577322565954091 -112.04946978299995 0 0 0 0 104.40426049446251 31.734260928360982 0 31.734260928360982 -93.794954903714824 0 0 0 0 -0.22028237707854714 84.934955848666505 0 84.934955848666505 5.4910370152501855 0 0 0 0 106.74929584323399 208.02723447416065 0 208.02723447416065 -25.835263115630369 0 0 0 0 3.3532832907368402 78.284814884231466 0 78.284814884231466 -26.019521048138227 0 0 0 0 -63.640542049921351 130.58986691727478 0 130.58986691727478 170.59033167346934 0 0 0 0 -34.471720487286802 213.48215799225727 0 213.48215799225727 209.09774881786143 0 0 0 0 14.431121187415556 281.36259517586586 0 281.36259517586586 235.67451116620214 0 0 0 0 5.3508391635550652 278.38086153295444 0 278.38086153295444 296.20024128584191 0 0 0 0 -104.51107140321983 217.53749152162345 0 217.53749152162345 349.01362128615438 0 0 0 0 -145.42348447960103 186.50673181950697 0 186.50673181950697 327.38422810306656 0 0 0 0 -96.924742932929803 189.21124453221819 0 189.21124453221819 341.01467478417908 0 0 0 0 -138.77783050932339 134.36020548656234 0 134.36020548656234 280.29336475733726 0 0 0 0 -17.897454630974877 56.866201405971566 0 56.866201405971566 -39.844362560261544 0 0 0 0 16.992006201049662 1590.2619424183649 0 1590.2619424183649 -741.68748422764475 0 0 0 0 193.8341969240646 363.1634750654357 0 363.1634750654357 235.96363239115453 0 0 0 0 200.20312061622099 333.0173559198447 0 333.0173559198447 137.92682115652133 0 0 0 0 234.36308266757987 287.67942392430268 0 287.67942392430268 360.57534781371942 0 0 0 0 -119.75431748002302 297.49420540004212 0 297.49420540004212 481.18222320839413 0 0 0 0 116.99288980747224 359.10358127362269 0 359.10358127362269 294.5455816994654 0 0 0 0 344.8037087583798 379.91504138457822 0 379.91504138457822 382.1496888483498 0 0 0 0 117.06682662555249 404.76883852295578 0 404.76883852295578 382.72767963958904 0 0 0 0 -2.1835804109791468 0.07080098648154376 0 0.07080098648154376 2.604351215728741 0 0 0 0 787.60946215449076 1126.4146737444316 0 1126.4146737444316 337.79948551248526 0 0 0 0 346.75988481369859 638.50298607416335 0 638.50298607416335 425.6214406794461 0 0 0 0 -248.3671048515389 183.5300129774987 0 183.5300129774987 470.35093800316099 0 0 0 0 212.05090853600996 -80.620383628833224 0 -80.620383628833224 267.04398449533619 0 0 0 0 580.43993000156479 145.73727803101065 0 145.73727803101065 405.88414298318094 0 0 0 0 48.410341414652066 399.3000698210235 0 399.3000698210235 522.33796223094396 0 0 0 0 -329.24282185693664 -6.0507078950940922 0 -6.0507078950940922 319.66440282249823 0 0 0 0 -232.29657960459008 91.293961843941361 0 91.293961843941361 331.47167666826681 0 0 0 0 -226.75819082119597 -10.689435404932738 0 -10.689435404932738 266.73652896183194 0 0 0 0 -175.72145514230942 168.74452702802228 0 168.74452702802228 436.55342846404528 0 0 0 0 -198.70411861159664 105.80205521146127 0 105.80205521146127 342.72539661055634 0 0 0 0 69.260449559689732 255.52632148980047 0 255.52632148980047 520.99855849117739 0 0 0 0 33.073193395073758 -230.82628322958772 0 -230.82628322958772 96.510103665234055 0 0 0 0 -111.83873993525049 -157.89429280077456 0 -157.89429280077456 584.81179709043863 0 0 0 0 -63.375898231344763 37.616440031328239 0 37.616440031328239 84.139073456818551 0 0 0 0 -29.895244299812475 -39.167662120278692 0 -39.167662120278692 203.92970060970401 0 0 0 0 -141.18321452848613 -28.353043302107835 0 -28.353043302107835 255.54993964289315 0 0 0 0 -135.93714629036549 -21.546412237206823 0 -21.546412237206823 244.81803122063866 0 0 0 0 25.281949611744494 65.214465599536197 0 65.214465599536197 327.48214871367963 0 0 0 0 84.379658970850869 9.3251477949670516 0 9.3251477949670516 176.65817329597485 0 0 0 0 8.3198057645349763 15.245738661833457 0 15.245738661833457 537.94321722255881 0 0 0 0 188.63953099804348 319.6256322782865 0 319.6256322782865 501.40930768663202 0 0 0 0 -139.80360446503619 -35.26922806649236 0 -35.26922806649236 13.902686860878021 0 0 0 0 7.2025162541027044 2.5628118479765192 0 2.5628118479765192 3.3251122376250635 0 0 0 0 -146.87568083551014 -47.65865152416518 0 -47.65865152416518 76.571734937111614 0 0 0 0 5.1792661086384157 4.0676741457624743 0 4.0676741457624743 1.7993756141020185 0 0 0 0 119.66456516271501 144.6630512597585 0 144.6630512597585 195.56149999136687 0 0 0 0 78.335650913126301 118.18856837043131 0 118.18856837043131 186.40347396729339 0 0 0 0 73.117874671705067 94.640443545096787 0 94.640443545096787 110.09397613612236 0 0 0 0 -29.99953033217389 43.158760968823117 0 43.158760968823117 141.44345796984271 0 0 0 0 -9.1523283278062877 6.5541791914747449 0 6.5541791914747449 58.319549286946938 0 0 0 0 25.513027419908269 28.996620073086035 0 28.996620073086035 4.9061022979553286 0 0 0 0 -26.866213762128609 46.507327814142627 0 46.507327814142627 113.11946871376131 0 0 0 0 -6.9293812878604513 93.725734106512391 0 93.725734106512391 170.08496615819604 0 0 0 0 -2.3015499576495131 44.89282806329129 0 44.89282806329129 139.01796077787003 0 0 0 0 -111.75517654041505 19.108419581994895 0 19.108419581994895 164.78142599019338 0 0 0 0 -117.28163447869883 94.402360998854419 0 94.402360998854419 243.05299867421854 0 0 0 0 -109.34465431826538 38.332499289957923 0 38.332499289957923 274.16836212557973 0 0 0 0 -76.797846412111539 60.503395814099349 0 60.503395814099349 158.87149390293052 0 0 0 0 -71.991813009546604 74.630912544205785 0 74.630912544205785 200.34340271502151 0 0 0 0 -100.17833770305151 93.364275112697214 0 93.364275112697214 205.91785895827343 0 0 0 0 -61.885007099161157 117.97300911079219 0 117.97300911079219 201.75651174417544 0 0 0 0 -16.654474066568923 72.134673532196501 0 72.134673532196501 25.776096284945055 0 0 0 0 -22.63558121449023 102.20746203560702 0 102.20746203560702 -24.040894578873349 0 0 0 0 -53.005322950535628 113.76719931207481 0 113.76719931207481 178.65825925799436 0 0 0 0 23.725117143580178 42.97790558298945 0 42.97790558298945 13.450341969280913 0 0 0 0 -19.172925014047451 106.64167589410545 0 106.64167589410545 10.398229064026964 0 0 0 0 -5.2997585312028548 50.694504977277575 0 50.694504977277575 21.379645909453952 0 0 0 0 -5.7219886706006946 56.426208518416388 0 56.426208518416388 48.57949014427345 0 0 0 0 -2.2212696288007123 68.179269322615482 0 68.179269322615482 53.975724708825339 0 0 0 0 -2.6957802584511228 76.978480198889883 0 76.978480198889883 -45.22856182464966 0 0 0 0 -14.338042957207108 53.651208922537307 0 53.651208922537307 -10.421106561254419 0 0 0 0 -21.457646627086618 35.091984229195646 0 35.091984229195646 -22.445847598442867 0 0 0 0 -17.446198258265213 65.27631647496446 0 65.27631647496446 -102.0030152107027 0 0 0 0 24.546592553655501 99.117827878069875 0 99.117827878069875 38.573977143547381 0 0 0 0 -14.790260837509308 41.974719528102042 0 41.974719528102042 -32.568100186935126 0 0 0 0 27.750135363821755 145.14057142324191 0 145.14057142324191 -166.71318540101788 0 0 0 0 12.42440529565971 45.82051188408596 0 45.82051188408596 35.652469753028392 0 0 0 0 -3.0419685686356388 92.601065145332541 0 92.601065145332541 -35.674451581900939 0 0 0 0 -4.889007560410306 64.691675447122407 0 64.691675447122407 28.701471843951509 0 0 0 0 -29.8626160786377 75.740325845993937 0 75.740325845993937 -7.5873440166947574 0 0 0 0 -13.736203273801948 62.475385539488343 0 62.475385539488343 17.272779700739193 0 0 0 0 -14.948208351914872 43.624189001235166 0 43.624189001235166 49.935361211071154 0 0 0 0 -35.024381966182716 34.918705448659153 0 34.918705448659153 58.476524266124557 0 0 0 0 38.961173899544519 115.67115096452471 0 115.67115096452471 123.15701163967151 0 0 0 0 13.925973398662848 54.725486112224615 0 54.725486112224615 11.331698581963945 0 0 0 0 88.711200638994342 -43.021417852352897 0 -43.021417852352897 43.451145019200908 0 0 0 0 39.342698006468709 86.096529301117698 0 86.096529301117698 30.13451968600566 0 0 0 0 29.109892362641403 94.676782032838673 0 94.676782032838673 57.771405388775065 0 0 0 0 175.627069989343 113.17714299920044 0 113.17714299920044 14.666362160951394 0 0 0 0 -0.26570045418517907 6.9471423253151841 0 6.9471423253151841 -0.15654014603111177 0 0 0 0 -22.840269329477451 71.605362864560448 0 71.605362864560448 72.083042476013361 0 0 0 0 -55.5270649347367 119.51387244327634 0 119.51387244327634 37.191727487002026 0 0 0 0 14.900954911565947 54.872309422553371 0 54.872309422553371 -12.753987650589242 0 0 0 0 -22.998007683640026 -117.11845634417409 0 -117.11845634417409 387.38201813699561 0 0 0 0 -156.36912258742382 57.276716501173496 0 57.276716501173496 476.4408858181705 0 0 0 0 4.7622128145600016 5.7237144436985403 0 5.7237144436985403 -0.23599376332825273 0 0 0 0 78.471522408036435 116.69170112011511 0 116.69170112011511 152.35109476803336 0 0 0 0 80.195180686615402 96.91560652023135 0 96.91560652023135 91.841596704875528 0 0 0 0 -151.70074875254068 254.16274049192361 0 254.16274049192361 121.05062347990543 0 0 0 0 -9.2924712207623088 59.005506789476385 0 59.005506789476385 150.18168330431217 0 0 0 0 58.335039275698364 97.961374255522969 0 97.961374255522969 119.99427643086528 0 0 0 0 -10.119404085039264 46.281833573412371 0 46.281833573412371 88.215328301156063 0 0 0 0 57.517293106742727 49.150810056446062 0 49.150810056446062 155.95757695454813 0 0 0 0 47.961401229214971 47.676394026537309 0 47.676394026537309 165.33669636686682 0 0 0 0 95.229746536745552 46.191804594566293 0 46.191804594566293 81.74469566938933 0 0 0 0 83.649048823644137 89.162309757104595 0 89.162309757104595 90.238458659538693 0 0 0 0 94.91787179329549 46.066867946079583 0 46.066867946079583 132.91053824487608 0 0 0 0 132.75605776238081 39.331795920727018 0 39.331795920727018 82.562779109663097 0 0 0 0 101.44442674329912 5.9740730148914736 0 5.9740730148914736 53.847461113182362 0 0 0 0 179.02830922933936 79.613223996160741 0 79.613223996160741 83.482538117066724 0 0 0 0 162.65281594800035 25.973275849702986 0 25.973275849702986 46.589995004789671 0 0 0 0 143.91360664855165 37.020268650303478 0 37.020268650303478 53.00903054792434 0 0 0 0 144.44824637327838 56.921271852901555 0 56.921271852901555 -1.4437204979767557 0 0 0 0 151.47540664038388 36.605077929372783 0 36.605077929372783 56.086340886220569 0 0 0 0 213.3028640642151 44.673998143931385 0 44.673998143931385 68.167807752033696 0 0 0 0 186.96503819187637 68.397245252504945 0 68.397245252504945 52.628786070479691 0 0 0 0 80.530057613723329 79.640797633757757 0 79.640797633757757 -94.447590361742186 0 0 0 0 -9.5584286430821521 33.902887454882148 0 33.902887454882148 -15.787557553841907 0 0 0 0 75.513853042706614 75.323829025481245 0 75.323829025481245 55.61984819258214 0 0 0 0 77.876125139606302 23.337802976970124 0 23.337802976970124 27.163654243777273 0 0 0 0 108.01618655308266 -3.7938651862205006 0 -3.7938651862205006 23.889971204542235 0 0 0 0 81.365817716265155 12.06318830528835 0 12.06318830528835 -47.918179168773349 0 0 0 0 -12.914570444117999 -30.174247298113187 0 -30.174247298113187 24.430290961972787 0 0 0 0 50.934976873773849 6.0202267540080356 0 6.0202267540080356 82.882888204680057 0 0 0 0 62.125036813595216 10.532340853889764 0 10.532340853889764 46.505625384510495 0 0 0 0 69.037720121646998 -25.238619327355991 0 -25.238619327355991 43.831059794913017 0 0 0 0 57.076787010126282 6.6194754417228978 0 6.6194754417228978 97.690894249579287 0 0 0 0 93.574947189132217 10.320258359777654 0 10.320258359777654 94.714802011294523 0 0 0 0 49.770918482950947 22.567870644874347 0 22.567870644874347 181.9670465082163 0 0 0 0 39.276918597621261 -31.648241411603522 0 -31.648241411603522 134.10071866684302 0 0 0 0 49.966287611430744 -36.548002023679146 0 -36.548002023679146 72.576946064451477 0 0 0 0 15.859276207658695 15.458306698201341 0 15.458306698201341 176.67511613347961 0 0 0 0 -61.560638135430054 76.147076567991462 0 76.147076567991462 175.38993260569987 0 0 0 0 63.841705679893494 -46.756109788959293 0 -46.756109788959293 0.60936580167617649 0 0 0 0 25.277989293739665 79.212797942149336 0 79.212797942149336 -31.863027386079921 0 0 0 0 -312.6579038251366 126.52312316944153 0 126.52312316944153 5.1989863100461662 0 0 0 0 -284.74195336147386 421.1274507977796 0 421.1274507977796 -136.47793481320758 0 0 0 0 65.213560471020173 193.4204808899085 0 193.4204808899085 -37.92565223085694 0 0 0 0 -134.44446303968289 -8.3682143637197441 0 -8.3682143637197441 179.62323460204061 0 0 0 0 192.80949265448726 -34.501694623279036 0 -34.501694623279036 163.2354012017604 0 0 0 0 -51.33440990751842 94.81600084999809 0 94.81600084999809 -290.25056062309886 0 0 0 0 -107.32848235555866 39.817041218921077 0 39.817041218921077 -30.916005008752109 0 0 0 0 2.4842602895223536 106.07834681480017 0 106.07834681480017 -180.09806465289148 0 0 0 0 -73.916956993853091 59.782490415120265 0 59.782490415120265 -166.55395528729423 0 0 0 0 -255.27674926123291 157.1245864101802 0 157.1245864101802 -75.623524729795463 0 0 0 0 -242.97975983147626 337.50768593254907 0 337.50768593254907 -237.70196330750514 0 0 0 0 21.252937480603578 189.06091283407295 0 189.06091283407295 -233.46882134933549 0 0 0 0 -267.15475191141013 644.64772787790571 0 644.64772787790571 -231.92318324165535 0 0 0 0 -0.97615152955194162 -0.58716880519790493 0 -0.58716880519790493 -2.5068001403547839 0 0 0 0 -275.15187115351728 196.9177792213959 0 196.9177792213959 -205.79674912113114 0 0 0 0 -495.44747517205178 277.52734352542757 0 277.52734352542757 -543.08326652832329 0 0 0 0 -369.28289628021594 475.30081309977686 0 475.30081309977686 -291.06660708675554 0 0 0 0 -365.70458505498209 218.05244048372981 0 218.05244048372981 -758.50074944994412 0 0 0 0 -0.0020124077430523357 0.088348346466261773 0 0.088348346466261773 -1.6935154648330126 0 0 0 0 93.467507307068445 196.42156122065353 0 196.42156122065353 -604.23898305551847 0 0 0 0 93.643513620321755 205.06921302260162 0 205.06921302260162 -233.08301080537058 0 0 0 0 102.62657414318528 271.77817692742974 0 271.77817692742974 -130.68444856726273 0 0 0 0 315.88208949872842 477.77682648402288 0 477.77682648402288 -245.74867589501082 0 0 0 0 101.98218889778946 268.29547147532867 0 268.29547147532867 25.195194106607232 0 0 0 0 91.689930861670291 341.79787961707916 0 341.79787961707916 -80.896928313261014 0 0 0 0 307.90531225199811 313.82976499675715 0 313.82976499675715 -764.60801122698467 0 0 0 0 331.23651308435365 210.7296738706209 0 210.7296738706209 -1233.7760586799122 0 0 0 0 42.07197987670952 -263.48454790431424 0 -263.48454790431424 -725.50294283073163 0 0 0 0 -0.87464752120337153 2.7779814075013221 0 2.7779814075013221 -7.5457213349609162 0 0 0 0 241.81436379220395 466.15771582264279 0 466.15771582264279 43.720264433010016 0 0 0 0 280.85804274101974 210.30395502172178 0 210.30395502172178 -1129.6084437419995 0 0 0 0 221.30832904632553 -72.413618173653958 0 -72.413618173653958 -1001.9233978203556 0 0 0 0 243.39023126498796 112.53397853659408 0 112.53397853659408 -707.81207357055973 0 0 0 0 107.39832160068909 -44.005360202223528 0 -44.005360202223528 -578.46787819682504 0 0 0 0 169.79872119263746 25.857416768776602 0 25.857416768776602 -500.55220357707003 0 0 0 0 140.48996197911038 246.46707168059947 0 246.46707168059947 -15.909416011389112 0 0 0 0 124.99979827181596 243.58008227263417 0 243.58008227263417 358.86809326452203 0 0 0 0 183.23903040989535 84.186223037089803 0 84.186223037089803 110.18699264153838 0 0 0 0 270.46360492816893 -5.3897398273693398 0 -5.3897398273693398 165.12561918585561 0 0 0 0 137.97214728982362 42.444109849719098 0 42.444109849719098 56.461878571659327 0 0 0 0 189.11776109540369 83.378899734263541 0 83.378899734263541 43.057674589152157 0 0 0 0 87.558171284093987 198.13590639321774 0 198.13590639321774 92.338071202950232 0 0 0 0 -41.493794418871403 139.91943566588452 0 139.91943566588452 -27.334783478014288 0 0 0 0 46.86248138393421 255.51597351424425 0 255.51597351424425 -61.130807852256112 0 0 0 0 86.943003108666744 187.00907197460765 0 187.00907197460765 -108.8825004279206 0 0 0 0 291.47136973642046 693.24149602583202 0 693.24149602583202 517.70325972778664 0 0 0 0 552.99436487114872 133.26306487296824 0 133.26306487296824 196.78989333546633 0 0 0 0 155.09708138767019 220.94634302346822 0 220.94634302346822 355.51692207553424 0 0 0 0 -91.790186421378166 359.58156440368475 0 359.58156440368475 1347.4781777844328 0 0 0 0 142.48781848941871 509.87756634208563 0 509.87756634208563 173.10323075496126 0 0 0 0 251.07532012097363 441.2225822932669 0 441.2225822932669 -314.40841827369877 0 0 0 0 206.55110365514702 390.34761196871113 0 390.34761196871113 -287.39551476083579 0 0 0 0 194.65476430875424 297.91180286610324 0 297.91180286610324 -287.51999667842756 0 0 0 0 269.02342547375883 354.04004075621924 0 354.04004075621924 -639.67739481423632 0 0 0 0 194.05188137138612 154.36502045061206 0 154.36502045061206 -586.54753752038232 0 0 0 0 40.976138058293145 547.57875945078558 0 547.57875945078558 -843.17865480130422 0 0 0 0 91.151628349965904 288.96374437017948 0 288.96374437017948 -347.83828297966465 0 0 0 0 -321.589426350547 241.06876626133453 0 241.06876626133453 -526.93414316882263 0 0 0 0 -17.813186906918418 -15.92290539824171 0 -15.92290539824171 -1180.5183317306801 0 0 0 0 125.14621228314354 457.57562350985245 0 457.57562350985245 -438.39985623072425 0 0 0 0 59.611545127212594 243.38613299900317 0 243.38613299900317 61.522628524835454 0 0 0 0 77.765256117636454 441.11073510527785 0 441.11073510527785 -0.30366311500256415 0 0 0 0 72.411614370919779 96.919183316071212 0 96.919183316071212 -528.02317573534674 0 0 0 0 82.420615560869919 226.44216744258301 0 226.44216744258301 -628.7387015397544 0 0 0 0 169.17212189431302 135.40783534575166 0 135.40783534575166 -724.94019395744544 0 0 0 0 -50.090151992626488 231.68839738029055 0 231.68839738029055 -765.93990722327726 0 0 0 0 -303.93393685331102 191.54791171134275 0 191.54791171134275 -562.10235133505194 0 0 0 0 -316.16887749486159 58.666798531014592 0 58.666798531014592 -785.66806119181274 0 0 0 0 -161.08701560579357 87.306895006069681 0 87.306895006069681 -508.90670427792065 0 0 0 0 214.71022572334914 188.87087329523638 0 188.87087329523638 -570.32280320916107 0 0 0 0 -1263.2647668140416 377.84570727600658 0 377.84570727600658 -548.39803614134644 0 0 0 0 -1030.2103540933167 603.19099301417009 0 603.19099301417009 -601.02809166235966 0 0 0 0 -1999.2734758489651 1860.5927783576826 0 1860.5927783576826 -2103.497326339726 0 0 0 0 -1043.8406040127302 28.881273391103605 0 28.881273391103605 -351.68188321722846 0 0 0 0 -1773.6737289939774 279.50626538375946 0 279.50626538375946 -204.41154381261731 0 0 0 0 -972.0766416057304 1787.0415070523304 0 1787.0415070523304 -204.38759256066169 0 0 0 0 127.03087904026324 -232.19590241166588 0 -232.19590241166588 847.46753720785273 0 0 0 0 -259.34614994222648 398.68526597687014 0 398.68526597687014 462.8509355510032 0 0 0 0 -228.30912596461712 384.51215320058691 0 384.51215320058691 -727.81781006867823 0 0 0 0 -1527.6708591947304 990.22461225313236 0 990.22461225313236 76.198948394987383 0 0 0 0 -523.94809635899583 819.26385610536818 0 819.26385610536818 -1217.2010390942305 0 0 0 0 -3.914615218019037 4.1695295225109419 0 4.1695295225109419 0.89410160475470413 0 0 0 0 -1152.9460052050345 947.86127565018614 0 947.86127565018614 2839.067737378602 0 0 0 0 -1315.3742730260419 106.2343358569633 0 106.2343358569633 1980.1473710335704 0 0 0 0 -1572.6286424510545 476.39563686453766 0 476.39563686453766 1457.3917133993964 0 0 0 0 -1232.4261935524264 1920.8070869369076 0 1920.8070869369076 1384.1981484448042 0 0 0 0 -976.19380035866561 15.580895041151962 0 15.580895041151962 629.39348226686707 0 0 0 0 -757.36253292218316 310.40742815213162 0 310.40742815213162 555.22431859385688 0 0 0 0 -933.76648682769155 248.64158245749422 0 248.64158245749422 502.66747711637072 0 0 0 0 -103.52933703501185 176.88133258061862 0 176.88133258061862 -236.94232371876569 0 0 0 0 -907.942010242783 335.79539241140446 0 335.79539241140446 30.041182562847098 0 0 0 0 -166.96736460841203 78.117007396169356 0 78.117007396169356 -66.276851239250391 0 0 0 0 -9.0134544372594974 13.049018116955267 0 13.049018116955267 -25.517672286237939 0 0 0 0 -1.8914317592230532 10.518063947743258 0 10.518063947743258 1.2449204861252987 0 0 0 0 -16.944247368373908 54.859392032885808 0 54.859392032885808 -180.34827515976394 0 0 0 0 24.648966803346411 64.057363065316167 0 64.057363065316167 -121.54911953595729 0 0 0 0 69.923077256276883 184.77214741039643 0 184.77214741039643 3.0180311627336778 0 0 0 0 -121.65435467804491 184.58140020956489 0 184.58140020956489 83.029958464161609 0 0 0 0 89.289317725320871 67.605351623082242 0 67.605351623082242 -36.183279696648242 0 0 0 0 -54.983889441003399 48.202412265119136 0 48.202412265119136 -27.121051100908403 0 0 0 0 -13.334122772118064 11.880131751420748 0 11.880131751420748 -7.3094819289991904 0 0 0 0 -828.45850999836694 -53.159851923999668 0 -53.159851923999668 -73.612549395442784 0 0 0 0 -196.81131549524071 -46.832645699691057 0 -46.832645699691057 171.72503758042876 0 0 0 0 -503.21485448093154 83.872231158391514 0 83.872231158391514 -78.048738193028839 0 0 0 0 -17.549639081957494 1.1249193159801578 0 1.1249193159801578 12.593383264139675 0 0 0 0 -64.331179002154386 81.167257212451659 0 81.167257212451659 -54.229129858431406 0 0 0 0 -40.32686525111535 31.781803185691011 0 31.781803185691011 -19.130962561101484 0 0 0 0 -47.723239821152674 40.591764373253682 0 40.591764373253682 -52.738928358863632 0 0 0 0 94.222560867012362 52.518808332461049 0 52.518808332461049 -33.057666679591421 0 0 0 0 -2.0162294552156084 16.638515945264515 0 16.638515945264515 1.8392111180440338 0 0 0 0 -35.723949149971304 35.673453562740178 0 35.673453562740178 -11.165748923689534 0 0 0 0 -62.563256674568038 73.447316956615396 0 73.447316956615396 -31.693891331975465 0 0 0 0 -41.967146136972588 44.211314722408133 0 44.211314722408133 -21.53539969807025 0 0 0 0 -63.753185218971339 39.37630518234073 0 39.37630518234073 3.5022980690700933 0 0 0 0 -95.302842762601358 32.125220332982281 0 32.125220332982281 25.414634816581383 0 0 0 0 -21.520327078011178 16.503933594132832 0 16.503933594132832 6.0078818889014656 0 0 0 0 -46.775107807268796 26.69183317029092 0 26.69183317029092 6.0354805405713705 0 0 0 0 -27.825812980387127 31.348988831538009 0 31.348988831538009 0.00050842104246839881 0 0 0 0 -45.981941480591104 37.130718447912386 0 37.130718447912386 -9.0791094490559772 0 0 0 0 -3179.2293413728257 -1769.9375522859555 0 -1769.9375522859555 -243.53071546279534 0 0 0 0 -0.20514924955205061 27.952590568020241 0 27.952590568020241 0.020293759267653276 0 0 0 0 -9.5815977146034186 3.6966404949127778 0 3.6966404949127778 -4.0486415023822815 0 0 0 0 -16.644416744918999 17.826378070640203 0 17.826378070640203 5.9801507004012819 0 0 0 0 -26.358981229719433 16.74164810672476 0 16.74164810672476 -10.200943198138816 0 0 0 0 -15.10874327403144 33.247826763312332 0 33.247826763312332 5.9422717146998991 0 0 0 0 -1683.980248642416 -773.78186564172211 0 -773.78186564172211 77.624482653278392 0 0 0 0 -884.12223278531746 -1356.8101337411863 0 -1356.8101337411863 1616.7193839503743 0 0 0 0 -1583.9106499075556 97.08806444756101 0 97.08806444756101 604.2291727700067 0 0 0 0 -673.35043038942968 248.44570937983372 0 248.44570937983372 -319.12766659239423 0 0 0 0 -1973.0661609911058 955.02599996368917 0 955.02599996368917 -472.14101929705066 0 0 0 0 -2.7791498606160872 2.7263535021533869 0 2.7263535021533869 4.5423992790857142 0 0 0 0 -1207.7758013207931 -386.14641190048133 0 -386.14641190048133 -75.353859354781889 0 0 0 0 -1303.1306780692175 277.03484892985216 0 277.03484892985216 296.15491745418694 0 0 0 0 -1009.2854382905498 115.81214927001565 0 115.81214927001565 329.66613457638596 0 0 0 0 -408.98281976068392 560.49460919648118 0 560.49460919648118 -634.4984580827022 0 0 0 0 -608.66450629194151 78.149679281705176 0 78.149679281705176 -12.43791993327509 0 0 0 0 -421.95950988304685 60.443942772573791 0 60.443942772573791 -12.419896751820815 0 0 0 0 -555.93904432907584 177.97421295937238 0 177.97421295937238 440.21391806546308 0 0 0 0 121.97869507948053 -22.404053750666208 0 -22.404053750666208 -482.46872597070251 0 0 0 0 -379.69083570843213 -155.96476319041722 0 -155.96476319041722 324.52582082306617 0 0 0 0 -700.10502144086422 832.9499744069617 0 832.9499744069617 390.71336075806175 0 0 0 0 -487.35614412634459 124.13522676363937 0 124.13522676363937 806.46013123288867 0 0 0 0 -625.87635574232263 614.57266783555679 0 614.57266783555679 754.37967581987505 0 0 0 0 -2.2896319737642443 11.865694735223514 0 11.865694735223514 13.939974725628872 0 0 0 0 -229.02763816857623 163.41393981031433 0 163.41393981031433 -119.15402713374351 0 0 0 0 -299.29242972958946 774.45550571580679 0 774.45550571580679 252.04273922128777 0 0 0 0 -541.71289686688397 457.50835818365158 0 457.50835818365158 110.82148863214752 0 0 0 0 -1657.7886102302564 998.95666265067848 0 998.95666265067848 -2.216998049414542 0 0 0 0 -0.053759687905639453 1.2086061416812086 0 1.2086061416812086 -2.4258371836018569 0 0 0 0 -967.06138017979538 316.35543247950409 0 316.35543247950409 334.082527645136 0 0 0 0 -531.36934908896274 395.24744399121846 0 395.24744399121846 415.25080133570009 0 0 0 0 333.30046291474719 748.36996050985181 0 748.36996050985181 0.85959911247061216 0 0 0 0 -1075.1249767736808 483.53013520261447 0 483.53013520261447 400.98240570045164 0 0 0 0 -76.001605743651453 220.0698980699708 0 220.0698980699708 339.93503427383257 0 0 0 0 -287.5690327664488 408.7099987303518 0 408.7099987303518 182.85105424181529 0 0 0 0 -149.53317202340622 231.97964130306354 0 231.97964130306354 72.075489081820706 0 0 0 0 417.15971056122362 733.70966915757526 0 733.70966915757526 46.796393301148782 0 0 0 0 -529.28928205069678 857.05480768988491 0 857.05480768988491 101.6704825426641 0 0 0 0 -0.14119544129435724 1.2380942523548981 0 1.2380942523548981 -2.3669731118112054 0 0 0 0 -493.5163721538338 455.11699423949176 0 455.11699423949176 -399.80714802531293 0 0 0 0 -51.950586406397633 740.41533338205772 0 740.41533338205772 80.570896575416555 0 0 0 0 4.9312382054927468 18.712482602996317 0 18.712482602996317 18.415582665260558 0 0 0 0 -459.78108575538499 979.17086609746912 0 979.17086609746912 -481.55644532919359 0 0 0 0 -48.328390460490482 546.82254784072575 0 546.82254784072575 -263.33522854755574 0 0 0 0 -749.8422241543758 168.91777353708494 0 168.91777353708494 -457.50583786734205 0 0 0 0 2.7160737693565125 10.335020441115375 0 10.335020441115375 11.330410738296877 0 0 0 0 -593.43199129979985 -402.29127094581781 0 -402.29127094581781 2641.9518336597248 0 0 0 0 -122.44421749397225 456.02316755049469 0 456.02316755049469 3918.8316611806367 0 0 0 0 25.15083340570709 1081.9234299035234 0 1081.9234299035234 3599.0541880760429 0 0 0 0 540.67300919129775 761.35576382584259 0 761.35576382584259 2840.193868374743 0 0 0 0 41.633576103718951 51.122707628572243 0 51.122707628572243 -1089.2776677197617 0 0 0 0 -33.942695196895897 54.3247919506166 0 54.3247919506166 -14.920229008228397 0 0 0 0 -548.0961422065302 769.96325054710178 0 769.96325054710178 4037.7460885437104 0 0 0 0 462.27033418767678 63.731366536369023 0 63.731366536369023 207.9119827591494 0 0 0 0 -275.25410949481738 -51.714694695565413 0 -51.714694695565413 1877.3104915031872 0 0 0 0 161.59629281554953 462.72249151604774 0 462.72249151604774 678.78053328015085 0 0 0 0 -482.60035952574981 -74.126167503105535 0 -74.126167503105535 1079.6645290359156 0 0 0 0 -459.85613521543564 425.18355425317714 0 425.18355425317714 1565.1227660780423 0 0 0 0 -78.79298506181658 -290.63603031612183 0 -290.63603031612183 754.86147655436071 0 0 0 0 360.48979860560212 -376.99656182235049 0 -376.99656182235049 2261.0530612929288 0 0 0 0 617.11053632468975 993.57440947485884 0 993.57440947485884 2171.5962506857813 0 0 0 0 -240.59789234121126 -236.27314241717613 0 -236.27314241717613 -1995.3973422873169 0 0 0 0 -1342.3345367670408 856.56557627935763 0 856.56557627935763 4371.0913994559451 0 0 0 0 26.534964444625075 595.10792416303593 0 595.10792416303593 -4089.349704822911 0 0 0 0 -14.859815357309088 14.08982579556428 0 14.08982579556428 -3.3969032644674328 0 0 0 0 -1065.5183259827245 589.20805236486922 0 589.20805236486922 -562.4878585980041 0 0 0 0 -801.48556341222866 440.96361085068565 0 440.96361085068565 -1225.2207017590408 0 0 0 0 -101.5940922662412 403.21674283208267 0 403.21674283208267 -1047.5661035135126 0 0 0 0 -550.81876285135877 963.24874325130077 0 963.24874325130077 -1568.8165361859428 0 0 0 0 285.66047085671744 314.59945379947749 0 314.59945379947749 -1301.8107786488108 0 0 0 0 -190.9176169961429 452.21866330769262 0 452.21866330769262 -430.33077086412959 0 0 0 0 48.787681129586417 711.30095497073489 0 711.30095497073489 -787.36160890669271 0 0 0 0 352.9345869137469 484.21291922603996 0 484.21291922603996 -706.38556247086672 0 0 0 0 277.75125638688041 499.53551527647505 0 499.53551527647505 -932.65600958780851 0 0 0 0 166.78773993617506 494.28196500754711 0 494.28196500754711 -696.70814224618516 0 0 0 0 -27.239231839963395 300.4413274459971 0 300.4413274459971 -884.06398054215242 0 0 0 0 154.04385932080913 412.19848634591472 0 412.19848634591472 -853.43124845272541 0 0 0 0 -31.822017402716085 39.801789353577078 0 39.801789353577078 -9.7029432483565472 0 0 0 0 117.48717991700687 123.22161456037429 0 123.22161456037429 -1778.9882225958372 0 0 0 0 -66.306636209803401 -22.231100888704532 0 -22.231100888704532 -1143.0777256980073 0 0 0 0 145.91005844449683 563.07897318721371 0 563.07897318721371 -475.88680123536142 0 0 0 0 187.91752970754169 517.5166322456098 0 517.5166322456098 -572.138356088617 0 0 0 0 63.821683567031869 257.66871617116703 0 257.66871617116703 -421.80228158065256 0 0 0 0 74.727431491293828 409.9484372452207 0 409.9484372452207 -755.70624367181881 0 0 0 0 188.60843066751841 488.49040386400156 0 488.49040386400156 -676.94900828364189 0 0 0 0 234.69483264201699 599.41752136887044 0 599.41752136887044 -663.25689049197535 0 0 0 0 193.8751408487733 519.65687825640634 0 519.65687825640634 -496.57937650371969 0 0 0 0 193.16498110410362 497.74880706635929 0 497.74880706635929 -942.41307453835907 0 0 0 0 105.593781458374 708.44115535714809 0 708.44115535714809 -689.9842514298216 0 0 0 0 -53.800989593772101 464.70277044772592 0 464.70277044772592 -591.55037279656972 0 0 0 0 227.02495443908265 552.47333264986082 0 552.47333264986082 -1376.7397509277107 0 0 0 0 -342.77482537434116 215.51742069328247 0 215.51742069328247 -1184.054124174887 0 0 0 0 -200.00403919614655 1057.7021826425625 0 1057.7021826425625 -584.54298842743447 0 0 0 0 -295.20894947933266 668.69656269888219 0 668.69656269888219 296.29617310802132 0 0 0 0 183.33878075965913 594.39404212276713 0 594.39404212276713 -574.73808058835129 0 0 0 0 48.341311293057515 668.968340220752 0 668.968340220752 -122.4072495905566 0 0 0 0 -44.770064770710803 64.990694962676002 0 64.990694962676002 -10.838406623995525 0 0 0 0 -204.17642171688931 481.29827010833833 0 481.29827010833833 647.3207500347271 0 0 0 0 -12.222904565787758 656.47003099410358 0 656.47003099410358 1272.885364248752 0 0 0 0 -424.80684851669503 389.31788980032798 0 389.31788980032798 1339.9583360772376 0 0 0 0 -46.370697752325555 63.868628205736741 0 63.868628205736741 -10.363752680762964 0 0 0 0 252.6454689319944 320.76081957705901 0 320.76081957705901 281.75346171176352 0 0 0 0 128.1073107902339 451.936574431802 0 451.936574431802 459.77641392804799 0 0 0 0 93.467444023044663 485.69221972685045 0 485.69221972685045 475.05113725924457 0 0 0 0 226.83390703702753 808.63828263200412 0 808.63828263200412 420.85347886994714 0 0 0 0 94.82563565215969 593.88373981038603 0 593.88373981038603 1152.1478809666442 0 0 0 0 176.49764825431339 1092.7259927166742 0 1092.7259927166742 1369.3648445428116 0 0 0 0 403.07741736556636 1096.2023668076363 0 1096.2023668076363 159.86456026688393 0 0 0 0 63.108167925543967 523.79904873651685 0 523.79904873651685 1498.4605926491895 0 0 0 0 -279.30185545017594 465.85921191518719 0 465.85921191518719 2487.8681128419703 0 0 0 0 73.585853403143119 322.4522899879521 0 322.4522899879521 2307.0827514952834 0 0 0 0 87.024084566353849 399.70958544543737 0 399.70958544543737 -117.39926190002006 0 0 0 0 -40.050295195829733 62.021355001003016 0 62.021355001003016 -10.977988142168236 0 0 0 0 126.62588046945166 239.52014937658532 0 239.52014937658532 -26.171023224007513 0 0 0 0 115.33238809889008 1182.6275673327837 0 1182.6275673327837 3698.6033335001848 0 0 0 0 -35.084108836256917 60.246542625379675 0 60.246542625379675 -16.527796605015325 0 0 0 0 108.24186148276203 244.37064521276261 0 244.37064521276261 -609.07175305603596 0 0 0 0 732.82612810173305 778.46198966956581 0 778.46198966956581 2382.1768793178126 0 0 0 0 154.43740991011146 1685.0403090428517 0 1685.0403090428517 1626.9921005779106 0 0 0 0 137.88518128781288 1466.7221810301489 0 1466.7221810301489 -1138.2504752656823 0 0 0 0 -34.344931318286399 642.01053200511524 0 642.01053200511524 140.79884227229923 0 0 0 0 361.31620892728097 781.15164796270255 0 781.15164796270255 102.73206181153364 0 0 0 0 202.66002000651497 557.82912621729338 0 557.82912621729338 43.360281872655833 0 0 0 0 129.8705230286505 574.31530016050237 0 574.31530016050237 56.621416670401231 0 0 0 0 87.174448575693532 632.9421235609625 0 632.9421235609625 166.0728647718206 0 0 0 0 -232.43829512955926 643.54464607720456 0 643.54464607720456 147.27951151681191 0 0 0 0 -2.8636782221365138 566.51779822013486 0 566.51779822013486 98.668737716887335 0 0 0 0 83.768543629039414 806.5749505337235 0 806.5749505337235 0.14398659023572691 0 0 0 0 -428.09589386214066 855.89639395962331 0 855.89639395962331 0.080480304226512089 0 0 0 0 553.19728649882018 705.43787875472844 0 705.43787875472844 -0.15341139286465477 0 0 0 0 347.37201851058489 680.35532101192803 0 680.35532101192803 155.23297557357 0 0 0 0 347.78615662152879 630.73664301582176 0 630.73664301582176 53.583107364494936 0 0 0 0 490.27300693069992 659.01465922583884 0 659.01465922583884 83.30880742239242 0 0 0 0 357.80086049451347 701.81236484579586 0 701.81236484579586 173.1649811668758 0 0 0 0 269.59269173565554 785.9834208977918 0 785.9834208977918 67.166718938339727 0 0 0 0 356.18958727404788 694.45696322440654 0 694.45696322440654 160.20693781338923 0 0 0 0 312.21726126781141 795.35142822054331 0 795.35142822054331 175.58075732098405 0 0 0 0 267.11147236294346 795.37362066113201 0 795.37362066113201 422.88464353280142 0 0 0 0 284.98470547814941 674.6258906647563 0 674.6258906647563 218.2219135005289 0 0 0 0 284.68407972702698 745.53193086090323 0 745.53193086090323 462.82771139322722 0 0 0 0 355.11222462315345 556.14242856042983 0 556.14242856042983 222.06812745508523 0 0 0 0 504.66754306741132 246.30597723195751 0 246.30597723195751 -25.06250127342355 0 0 0 0 733.33049718492839 410.77843660134386 0 410.77843660134386 26.66440860235889 0 0 0 0 348.19250446358637 519.42202077593538 0 519.42202077593538 117.61653368228872 0 0 0 0 667.35533552156994 543.24958019230689 0 543.24958019230689 118.59522384767388 0 0 0 0 482.35227956720701 639.45856349825044 0 639.45856349825044 160.69072956834862 0 0 0 0 613.76818837636165 432.7291756617542 0 432.7291756617542 68.756960147642531 0 0 0 0 878.39877469115163 665.62884285470682 0 665.62884285470682 0.48170199798914837 0 0 0 0 805.09790788954706 532.75788512451254 0 532.75788512451254 67.979768588924344 0 0 0 0 -2.1507993513951078 1770.1085086395688 0 1770.1085086395688 -1197.1357456530459 0 0 0 0 -2399.5410876229143 3072.0170511529868 0 3072.0170511529868 2.5191504482272959 0 0 0 0 -4.8666344298105741 10.247065676109941 0 10.247065676109941 -13.092302660609278 0 0 0 0 -4835.0654755491341 1206.9097169890902 0 1206.9097169890902 412.63100957425195 0 0 0 0 1469.5032682388701 420.34020133553713 0 420.34020133553713 -34.49352714336419 0 0 0 0 -1312.603924413037 584.70083747346507 0 584.70083747346507 -249.41450161558532 0 0 0 0 -0.9644812449478195 312.64888333906856 0 312.64888333906856 -307.55789471484604 0 0 0 0 -910.58692802692531 670.30914807183945 0 670.30914807183945 -315.28480261126242 0 0 0 0 -4.8820353659411211 22.30523430542226 0 22.30523430542226 -41.191041868560546 0 0 0 0 -69.350072525150608 332.54470422672603 0 332.54470422672603 -186.57085490402824 0 0 0 0 1.5731344260517517 -0.72407865721659448 0 -0.72407865721659448 1.6520919440240789 0 0 0 0 0.77021243528724881 235.21732703606176 0 235.21732703606176 -568.20478841316071 0 0 0 0 0.1026806839654455 940.65310116205364 0 940.65310116205364 1519.7358210106686 0 0 0 0 -149.08931930550898 543.04407495361374 0 543.04407495361374 2483.8809411748953 0 0 0 0 -182.6435474048194 724.73305814283231 0 724.73305814283231 1914.029611266742 0 0 0 0 298.66462408845837 782.10797135015309 0 782.10797135015309 1333.5449564627343 0 0 0 0 -16.346437711879844 927.8750290199896 0 927.8750290199896 2145.4387482682068 0 0 0 0 829.93691890224 1250.0989223437355 0 1250.0989223437355 1730.5231529384037 0 0 0 0 -5.8726742690653353 34.130867713755322 0 34.130867713755322 -68.330513392867715 0 0 0 0 7.6982564352897498 9.949811735884694 0 9.949811735884694 -15.627383540613835 0 0 0 0 -171.42855990900716 148.62390034634154 0 148.62390034634154 -136.51763063287945 0 0 0 0 -41.701259900088189 240.57008834627777 0 240.57008834627777 -257.83019804759533 0 0 0 0 101.1111657020956 184.11896391541086 0 184.11896391541086 97.65598254719589 0 0 0 0 172.57497071135003 189.24636636400101 0 189.24636636400101 -12.194406119757332 0 0 0 0 39.585690205072751 314.85735054644465 0 314.85735054644465 248.90374386147414 0 0 0 0 87.852994132408639 119.66213698096908 0 119.66213698096908 1002.304540756988 0 0 0 0 -42.883533342656904 61.971395087446737 0 61.971395087446737 -15.145178260109233 0 0 0 0 -217.94130339016556 41.212240224595007 0 41.212240224595007 1345.7029413505807 0 0 0 0 -11.574197084113948 21.743900252273392 0 21.743900252273392 10.914856002324882 0 0 0 0 -81.4704402575735 -436.07212113705464 0 -436.07212113705464 2114.2077428222401 0 0 0 0 67.654579091235064 332.62739077038714 0 332.62739077038714 241.31882914938615 0 0 0 0 341.80143900946132 983.18623320678307 0 983.18623320678307 1324.5036465493286 0 0 0 0 -303.14910248303204 779.44119768794189 0 779.44119768794189 682.88635474102557 0 0 0 0 -322.37674636742122 413.23175907119094 0 413.23175907119094 110.47802494341158 0 0 0 0 -92.543216433929047 1336.9760837200593 0 1336.9760837200593 -1578.7114072209079 0 0 0 0 -150.04458865996276 995.81254526431076 0 995.81254526431076 -58.298167141780141 0 0 0 0 458.96569534192531 590.95678346825662 0 590.95678346825662 -456.04874657802429 0 0 0 0 -0.046528022678103298 1095.1566831261589 0 1095.1566831261589 -107.98710843889057 0 0 0 0 254.95572937619181 333.63907363622184 0 333.63907363622184 776.09288393956376 0 0 0 0 77.171983330656076 912.83867841589017 0 912.83867841589017 540.54725543705717 0 0 0 0 646.49391413592093 -23.633499016061251 0 -23.633499016061251 1445.6020084813827 0 0 0 0 -40.836022415750449 54.053290468977139 0 54.053290468977139 42.592633458451019 0 0 0 0 -71.087241017980887 79.517167569698358 0 79.517167569698358 97.195356659081881 0 0 0 0 -29.943390515755254 -10.441159511101432 0 -10.441159511101432 363.44194573639834 0 0 0 0 5.7876347221085496 2.0062633502371341 0 2.0062633502371341 1.8374805439946869 0 0 0 0 -40.156798749022073 60.592839977472977 0 60.592839977472977 76.584684395973454 0 0 0 0 -51.801645823363287 27.677834214729955 0 27.677834214729955 80.073880988048586 0 0 0 0 6.0403781725880989 15.068280109949384 0 15.068280109949384 -0.49556827911445112 0 0 0 0 -51.567595223445096 25.358549197808316 0 25.358549197808316 62.346927788654284 0 0 0 0 -93.715955173148359 32.050659683558479 0 32.050659683558479 36.869358506053686 0 0 0 0 -67.251586976323779 55.589662179747393 0 55.589662179747393 4.1365616653201869 0 0 0 0 1.367395791731175 43.277625881697212 0 43.277625881697212 18.471417407176403 0 0 0 0 -121.46801462162819 63.282326018843378 0 63.282326018843378 17.750505580435856 0 0 0 0 -71.101485244281776 74.267371992958942 0 74.267371992958942 11.420050657943648 0 0 0 0 -13.248232525162166 46.403238216881618 0 46.403238216881618 15.660028354468523 0 0 0 0 -121.39958898436316 96.535353538125491 0 96.535353538125491 76.884385442892381 0 0 0 0 17.178577533539929 43.367063671949573 0 43.367063671949573 34.689216750029146 0 0 0 0 7.7732505044610392 53.39340659764958 0 53.39340659764958 47.83940203279235 0 0 0 0 -18.451807646435554 77.970224754564697 0 77.970224754564697 6.2496379224248813 0 0 0 0 -23.45038502591342 80.083151740733229 0 80.083151740733229 23.089673807236977 0 0 0 0 -9.6763449482727992 111.54054032163549 0 111.54054032163549 52.48056117253509 0 0 0 0 33.691716114712563 142.65055246367228 0 142.65055246367228 -61.234816793745267 0 0 0 0 31.151783513058035 141.61938082472989 0 141.61938082472989 50.180732817831085 0 0 0 0 55.543232158035607 275.42802139961714 0 275.42802139961714 218.54917446575564 0 0 0 0 -11.008374795765926 30.877365859379012 0 30.877365859379012 -33.59025797841494 0 0 0 0 115.32158414583682 124.90167757844756 0 124.90167757844756 -46.826905555688427 0 0 0 0 87.473519041203872 273.68426435524088 0 273.68426435524088 204.3132100126968 0 0 0 0 69.621151909125729 159.59537382184499 0 159.59537382184499 97.139700346873724 0 0 0 0 360.69994290908062 -124.43356227667755 0 -124.43356227667755 -324.03076685879205 0 0 0 0 -14.25876528844941 32.357490149484491 0 32.357490149484491 -35.390632449401608 0 0 0 0 57.665168409643229 56.968422884718166 0 56.968422884718166 -42.566598461591639 0 0 0 0 86.245333924714942 128.75500451173866 0 128.75500451173866 -28.742012077207619 0 0 0 0 76.333499054597269 72.488577229461953 0 72.488577229461953 -30.25999130490527 0 0 0 0 59.859188615720086 89.87865711379709 0 89.87865711379709 14.839110396977048 0 0 0 0 111.46342105966687 146.7162910951447 0 146.7162910951447 7.802547361008692 0 0 0 0 80.127601803276775 125.15667912674689 0 125.15667912674689 66.554343121373677 0 0 0 0 109.95701376954457 153.01897078751063 0 153.01897078751063 37.354267755254114 0 0 0 0 76.131133758667602 166.61156828666935 0 166.61156828666935 92.566020587211824 0 0 0 0 102.93774147890326 211.60345451334433 0 211.60345451334433 124.64295398313698 0 0 0 0 120.23881451112902 175.48406885910663 0 175.48406885910663 67.57786135491915 0 0 0 0 100.0330967980135 147.17698977996042 0 147.17698977996042 48.159660240926314 0 0 0 0 122.56492499597516 183.13915755093331 0 183.13915755093331 52.949298165713117 0 0 0 0 93.355622733259224 138.73119443003816 0 138.73119443003816 29.018372276506852 0 0 0 0 116.61687791100485 170.81794818589697 0 170.81794818589697 16.022607818478718 0 0 0 0 108.53475619498204 163.08040381462342 0 163.08040381462342 63.889978359686211 0 0 0 0 142.04295721199014 176.5578042989946 0 176.5578042989946 60.702325095928245 0 0 0 0 120.88248923629726 192.19404423877131 0 192.19404423877131 104.42358890507603 0 0 0 0 109.3399152285856 162.90710258670151 0 162.90710258670151 109.22878493342432 0 0 0 0 98.197223596391268 149.79240052872046 0 149.79240052872046 49.809889215495787 0 0 0 0 113.48843093668984 173.08791508481954 0 173.08791508481954 46.251680332705291 0 0 0 0 102.16423346182 121.66254650069823 0 121.66254650069823 -26.825620347604854 0 0 0 0 91.147843953302072 169.16069229428831 0 169.16069229428831 13.109334304521326 0 0 0 0 53.030063819098359 250.97343760323565 0 250.97343760323565 254.50162157301384 0 0 0 0 96.654719200243562 199.77648369802046 0 199.77648369802046 91.180001776869176 0 0 0 0 91.569420158888533 199.78448451978329 0 199.78448451978329 134.63119875310804 0 0 0 0 120.3101142777632 143.53355510265101 0 143.53355510265101 190.38912451558281 0 0 0 0 172.30759173018851 183.78425679312932 0 183.78425679312932 105.73908803105587 0 0 0 0 -16.303559263113002 46.509179346495898 0 46.509179346495898 -22.000232589224069 0 0 0 0 -168.10971525542982 -81.566089630319766 0 -81.566089630319766 -23.788167147442437 0 0 0 0 131.57141255423267 224.53892466392426 0 224.53892466392426 117.27292515583395 0 0 0 0 -17.100191785838888 137.0188789773747 0 137.0188789773747 10.750398947537178 0 0 0 0 -202.06641096030171 101.50404067057025 0 101.50404067057025 148.53273317652202 0 0 0 0 13.063773567754502 53.58205892938706 0 53.58205892938706 54.833698647212884 0 0 0 0 44.349729269966701 116.79956863336974 0 116.79956863336974 29.119023114129959 0 0 0 0 29.633290100562888 49.970489299045283 0 49.970489299045283 -70.283603035022253 0 0 0 0 13.362886723140036 133.45388091684799 0 133.45388091684799 78.384495424666966 0 0 0 0 -214.80181546507356 41.30799428309183 0 41.30799428309183 498.98017845554568 0 0 0 0 -17.469576872653761 145.24909033163567 0 145.24909033163567 17.615314699607552 0 0 0 0 272.77233038349323 324.01200773325036 0 324.01200773325036 122.47293957431611 0 0 0 0 341.54651646275624 4.3493156791191723 0 4.3493156791191723 -52.468849897893961 0 0 0 0 141.03579155977695 56.5488034498876 0 56.5488034498876 -38.891865866993612 0 0 0 0 -0.48907052966410447 97.162286963663064 0 97.162286963663064 13.914324404104264 0 0 0 0 90.541178075192875 159.60527845788238 0 159.60527845788238 -4.2879955278622219 0 0 0 0 37.109280090453012 80.387511767392425 0 80.387511767392425 6.3001463778728066 0 0 0 0 40.774757012402915 57.655417403555475 0 57.655417403555475 -24.60644232602499 0 0 0 0 15.698206450140788 152.53665386309603 0 152.53665386309603 -45.809326744645659 0 0 0 0 -10.956141017402842 88.230132643813704 0 88.230132643813704 28.54647090813387 0 0 0 0 -112.02223151703038 156.60315015458036 0 156.60315015458036 9.6219830865811673 0 0 0 0 16.981412193638906 41.142182938047299 0 41.142182938047299 57.008110233219185 0 0 0 0 -94.632427720202941 148.17257976877227 0 148.17257976877227 37.859372265444108 0 0 0 0 -372.08564337003827 47.767850167808774 0 47.767850167808774 57.327583967722603 0 0 0 0 21.417008348250565 43.847657603636527 0 43.847657603636527 50.634049686742202 0 0 0 0 -386.96841109248999 277.37448753040735 0 277.37448753040735 -4.0773816229811928 0 0 0 0 -120.7239282145747 157.86702852663802 0 157.86702852663802 11.037777476394695 0 0 0 0 -0.57485358927442576 253.72416814380995 0 253.72416814380995 -111.09619880648097 0 0 0 0 128.83725409361068 138.13853697552804 0 138.13853697552804 -91.080336172512034 0 0 0 0 146.97251771510491 203.06667679351085 0 203.06667679351085 -125.65268203927462 0 0 0 0 61.002144677124306 157.69242775970451 0 157.69242775970451 -72.98105053998006 0 0 0 0 201.61514415564534 91.353709160334347 0 91.353709160334347 -32.805204625095939 0 0 0 0 -84.443064156774199 197.68486049985222 0 197.68486049985222 -80.819358221857328 0 0 0 0 -76.686392166026053 314.78534916595527 0 314.78534916595527 -99.665552192775067 0 0 0 0 236.56990835372108 288.90885044987863 0 288.90885044987863 -135.42152809120307 0 0 0 0 -583.45000358149264 375.47416452466859 0 375.47416452466859 -122.20168409930193 0 0 0 0 -84.525098976796244 193.71094346242512 0 193.71094346242512 -216.94411835903884 0 0 0 0 -76.734343509053588 311.82462843875874 0 311.82462843875874 -216.29232400291949 0 0 0 0 -8.3439723246404469 14.563684042617645 0 14.563684042617645 13.103464538961305 0 0 0 0 -701.6629117493685 463.7902116016503 0 463.7902116016503 -102.2007381843141 0 0 0 0 -578.0011548506809 416.68034208876634 0 416.68034208876634 -311.98723259716644 0 0 0 0 -323.3522702160044 399.82359120673573 0 399.82359120673573 -402.76665512918407 0 0 0 0 -9.5605740820078466 6.6001435106582136 0 6.6001435106582136 -3.7663420428798204 0 0 0 0 -15.014392048135051 81.573228715504229 0 81.573228715504229 -203.22237259149551 0 0 0 0 -10.434011482629757 10.715995438958274 0 10.715995438958274 9.0679788285691814 0 0 0 0 528.84036839347391 -299.36537371977465 0 -299.36537371977465 -9.6022787296242313 0 0 0 0 121.80168368186787 173.16099761520309 0 173.16099761520309 244.16781412690761 0 0 0 0 -41.37964143085992 -1.5195759605630883 0 -1.5195759605630883 57.179572756533162 0 0 0 0 606.75055270393204 199.84171718380094 0 199.84171718380094 -82.957173170776514 0 0 0 0 44.945847322634563 50.873223752085323 0 50.873223752085323 -30.669540093185788 0 0 0 0 165.49801369132547 -92.506354033521347 0 -92.506354033521347 -413.79909708708692 0 0 0 0 55.469774636448065 34.619971644147604 0 34.619971644147604 14.577234300435528 0 0 0 0 55.567677205848213 71.378905984363882 0 71.378905984363882 6.3431568576852442 0 0 0 0 14.939804786435168 6.8105322311505603 0 6.8105322311505603 -6.738987559411953 0 0 0 0 2.7141837507770106 135.63729922176208 0 135.63729922176208 298.74272482488959 0 0 0 0 -87.6121865406094 -154.87637116437327 0 -154.87637116437327 -246.65842209380935 0 0 0 0 -646.37459104500886 167.14867103823053 0 167.14867103823053 -152.08431905307225 0 0 0 0 122.66941166546894 132.17807082411309 0 132.17807082411309 193.78417514442117 0 0 0 0 185.30540801305688 -10.595951044073445 0 -10.595951044073445 295.75538739103649 0 0 0 0 -190.29667422471539 199.40382985636097 0 199.40382985636097 490.47859106304531 0 0 0 0 267.24582293354433 86.999223137730951 0 86.999223137730951 -903.021462268498 0 0 0 0 -3.973049736962551 3.2467069790658343 0 3.2467069790658343 -1.0404657593523758 0 0 0 0 -22.442687114162254 98.638593661198684 0 98.638593661198684 242.73457120328385 0 0 0 0 -83.518593302855152 11.094908797887911 0 11.094908797887911 453.36054798527766 0 0 0 0 -100.5973606522457 35.644933921794291 0 35.644933921794291 384.17185834809789 0 0 0 0 -127.41518929200538 106.3621475030377 0 106.3621475030377 399.23210563505017 0 0 0 0 -95.180703508536681 54.387839032940974 0 54.387839032940974 280.38890482895658 0 0 0 0 -25.028088634372445 40.636573042215446 0 40.636573042215446 14.790952015012152 0 0 0 0 -91.781920166940836 167.33639539829892 0 167.33639539829892 291.64693594745768 0 0 0 0 219.92043585410011 369.04574080522252 0 369.04574080522252 -13.65092595515307 0 0 0 0 -115.18121479105321 126.5062675560257 0 126.5062675560257 329.96956361616321 0 0 0 0 -108.51001334446119 131.72421590751401 0 131.72421590751401 258.41222422587452 0 0 0 0 -152.13243571568864 671.88260426068246 0 671.88260426068246 -172.59866942127701 0 0 0 0 -442.30123353407271 1031.1882018578026 0 1031.1882018578026 -480.84667251627252 0 0 0 0 -315.72766448707989 452.71729835392034 0 452.71729835392034 157.93053854387836 0 0 0 0 -26.20889164660457 50.966696426115959 0 50.966696426115959 17.081874329698621 0 0 0 0 -7.582094023985519 54.578651223484485 0 54.578651223484485 -26.593845865048934 0 0 0 0 -1.3921060835209431 39.95785790985893 0 39.95785790985893 11.643920106441286 0 0 0 0 -975.52203031758108 -314.43072294301237 0 -314.43072294301237 488.30519362039558 0 0 0 0 -1.9301292287564138 32.666190185682353 0 32.666190185682353 1.8004402415172081 0 0 0 0 -173.58097745136774 -129.10409997653642 0 -129.10409997653642 -14.068476609121717 0 0 0 0 -5.9841891269181966 37.269594499390735 0 37.269594499390735 -12.776490850824672 0 0 0 0 165.36944298800881 521.65759986823105 0 521.65759986823105 -154.74240098692462 0 0 0 0 37.726089752096875 37.855051123054636 0 37.855051123054636 10.964021439303906 0 0 0 0 30.646824866040333 59.479098010720918 0 59.479098010720918 -32.829528481004672 0 0 0 0 3.0648121190615711 41.480982979250257 0 41.480982979250257 -24.599712918185105 0 0 0 0 -763.39223264702014 455.11694036342669 0 455.11694036342669 -609.84446876461152 0 0 0 0 42.327242455485248 42.287293934929039 0 42.287293934929039 -25.821034063750631 0 0 0 0 -14.661548166468236 34.556735913186969 0 34.556735913186969 -26.357586720062528 0 0 0 0 8.2552743298676887 34.051698774967917 0 34.051698774967917 -15.513780609566311 0 0 0 0 38.087875527145115 22.344251843718666 0 22.344251843718666 -27.597132059545402 0 0 0 0 28.378192881778887 49.993535699883068 0 49.993535699883068 -28.75067604385913 0 0 0 0 -77.091896578999695 50.154825577905285 0 50.154825577905285 3.2824744333229319 0 0 0 0 -36.278845767089301 48.448504525193087 0 48.448504525193087 0.68976579954605199 0 0 0 0 -41.652323273604132 11.252518421284435 0 11.252518421284435 25.457145503272358 0 0 0 0 -79.00265934673007 47.719142356774682 0 47.719142356774682 5.4192624507604705 0 0 0 0 -128.76200776608857 -10.840986572082329 0 -10.840986572082329 74.024409501660557 0 0 0 0 -47.395806311729075 65.793250655085558 0 65.793250655085558 39.77228614755586 0 0 0 0 -18.413226923417824 79.155367290324648 0 79.155367290324648 -29.514036369684618 0 0 0 0 -14.220631856921045 11.512519723867044 0 11.512519723867044 -1.1246168559779335 0 0 0 0 -38.57147648519458 55.816690305700831 0 55.816690305700831 43.630543811028474 0 0 0 0 -37.752763597773082 48.469107584722224 0 48.469107584722224 11.9278745540214 0 0 0 0 -16.860782102839664 33.168145417610717 0 33.168145417610717 23.420862300828986 0 0 0 0 -83.659327561047576 97.940496336563228 0 97.940496336563228 14.06112968645175 0 0 0 0 -21.068272020692348 83.016023567261072 0 83.016023567261072 -13.30921235504502 0 0 0 0 -22.177655100465927 109.53514024237666 0 109.53514024237666 -6.4856717012589797 0 0 0 0 -57.455806542882783 144.13291699366164 0 144.13291699366164 -28.053747654979816 0 0 0 0 25.944714567249321 84.30345828384452 0 84.30345828384452 -31.183948502737621 0 0 0 0 -7.6427629766230893 125.93197785511802 0 125.93197785511802 -81.016750235110521 0 0 0 0 49.555205005824973 168.63357879692921 0 168.63357879692921 -70.042979388475942 0 0 0 0 0.92758462363100591 2.7653679070369961 0 2.7653679070369961 -7.311269622786142 0 0 0 0 137.63630429258774 -198.2729016165249 0 -198.2729016165249 -359.09354460649774 0 0 0 0 -9.3335716534429594 -2.67371790096513 0 -2.67371790096513 -177.84622898569796 0 0 0 0 379.83126904908931 247.2774080236486 0 247.2774080236486 -170.96617822505209 0 0 0 0 -3.4710614139196352 24.629277545475006 0 24.629277545475006 17.564884947203609 0 0 0 0 -1.0053501271831919 114.13158934583043 0 114.13158934583043 179.63944886978788 0 0 0 0 -9.3305056511890143 51.781523127079709 0 51.781523127079709 0.16830059656058438 0 0 0 0 469.58348953350651 9.6079335621907376 0 9.6079335621907376 -459.83080735870681 0 0 0 0 113.13057531753293 274.66918902283214 0 274.66918902283214 106.11141697323183 0 0 0 0 -9.7227335840816522 56.875681639425238 0 56.875681639425238 10.665059078251943 0 0 0 0 -200.97589866960334 123.45884394425957 0 123.45884394425957 104.3049341806036 0 0 0 0 -60.686729276490951 178.83857673018792 0 178.83857673018792 68.382325641839998 0 0 0 0 -78.200558657765214 95.276528343754762 0 95.276528343754762 -73.01741082114313 0 0 0 0 43.667059377970872 0.054033007472753525 0 0.054033007472753525 -151.23853392404271 0 0 0 0 0.08919676955239364 6.2050172547094604 0 6.2050172547094604 -0.80100644506555341 0 0 0 0 -97.309438969532494 132.44646740157623 0 132.44646740157623 -105.85428398881049 0 0 0 0 -19.990186624381749 40.984694216793287 0 40.984694216793287 11.641282783428323 0 0 0 0 -28.515652756779339 25.328273911057604 0 25.328273911057604 40.746635206731838 0 0 0 0 -4.4296297404300731 27.301530794259179 0 27.301530794259179 151.32242385066638 0 0 0 0 -73.190125491855724 154.80149923591307 0 154.80149923591307 -176.94012146147725 0 0 0 0 -2.1273426698935296 2.4298013174720126 0 2.4298013174720126 9.6811350551173234 0 0 0 0 -219.22287367521858 36.456151859252714 0 36.456151859252714 56.674781432084274 0 0 0 0 -41.614258392084594 65.501724087960611 0 65.501724087960611 -46.917520492799667 0 0 0 0 -38.73404611661681 89.887216760726005 0 89.887216760726005 -65.080199908632494 0 0 0 0 4.0881482835824841 9.0027371252873252 0 9.0027371252873252 4.3112446590559159 0 0 0 0 -95.891195160866118 35.081120867665049 0 35.081120867665049 31.875591935262491 0 0 0 0 0.32003064453158458 40.519487296415292 0 40.519487296415292 2.0740040840811105 0 0 0 0 -36.220013638959216 21.391692971215519 0 21.391692971215519 28.439218328668886 0 0 0 0 29.307455466383544 44.750234272196394 0 44.750234272196394 20.581158900586161 0 0 0 0 -42.785846777958795 57.451255082756688 0 57.451255082756688 13.741297653206857 0 0 0 0 29.432761282490077 33.500714406269935 0 33.500714406269935 5.363759070433602 0 0 0 0 -17.17682416159613 33.519845676489957 0 33.519845676489957 -10.094170972671318 0 0 0 0 -76.655720393730007 111.38309064870737 0 111.38309064870737 3.7978292415573378 0 0 0 0 19.018526564890635 34.092476001402247 0 34.092476001402247 -31.9100213079073 0 0 0 0 24.404919177513875 39.626796062139874 0 39.626796062139874 -26.242975479064626 0 0 0 0 -2.3955556359840244 4.5429614629120785 0 4.5429614629120785 10.718066811813543 0 0 0 0 566.04098796151084 144.4566347302316 0 144.4566347302316 -40.705864490264503 0 0 0 0 116.06394174783782 260.81275696669763 0 260.81275696669763 381.49187132308725 0 0 0 0 128.48285478107573 223.3584171979528 0 223.3584171979528 493.9591641046718 0 0 0 0 3.8266917097774638 11.335074381114183 0 11.335074381114183 -6.1535929516873082 0 0 0 0 8.9007680710637942 6.9813516759604681 0 6.9813516759604681 -10.36446731891192 0 0 0 0 0.56892525961342244 31.895492368741472 0 31.895492368741472 -3.8823314931727424 0 0 0 0 8.795541462484664 -1.3068377708504357 0 -1.3068377708504357 -35.852423128176909 0 0 0 0 2.8954826311837962 0.95387708887900402 0 0.95387708887900402 -9.1873312134304896 0 0 0 0 7.2714483662275597 -15.028854475036496 0 -15.028854475036496 -63.335963398596505 0 0 0 0 298.24854608906026 634.49149933173612 0 634.49149933173612 1036.1307270744583 0 0 0 0 471.51493295402906 362.97505019527671 0 362.97505019527671 -20.390876478719292 0 0 0 0 110.7452462101719 216.58074916364421 0 216.58074916364421 -153.08591641410749 0 0 0 0 947.40286902314983 429.652515149799 0 429.652515149799 180.54660013443208 0 0 0 0 209.96687751611171 -24.301002574533413 0 -24.301002574533413 383.14705861701805 0 0 0 0 106.19908295453206 214.43399211401993 0 214.43399211401993 239.18025614041107 0 0 0 0 5.1434276480665773 22.217456689031124 0 22.217456689031124 -45.763218511813136 0 0 0 0 28.9731320275896 61.017032809468219 0 61.017032809468219 93.48225122178701 0 0 0 0 -32.206922507233685 -33.030466293053905 0 -33.030466293053905 21.636558678812435 0 0 0 0 65.405265588924522 57.615799465515011 0 57.615799465515011 -174.29585715649591 0 0 0 0 -0.75024994530835443 24.494497500658149 0 24.494497500658149 -48.752327920199463 0 0 0 0 155.63124096285173 631.29159457261994 0 631.29159457261994 144.43885483917074 0 0 0 0 30.485842002625759 305.3381777873833 0 305.3381777873833 -97.217280028518871 0 0 0 0 -23.749240695535264 116.24068520119908 0 116.24068520119908 144.94226495245675 0 0 0 0 30.788547115473193 -251.97845407114073 0 -251.97845407114073 -160.29868054388589 0 0 0 0 -3.0693753118299014 0.76311691723125108 0 0.76311691723125108 0.39657169026921224 0 0 0 0 49.522830630281533 56.184298673113517 0 56.184298673113517 81.196683251662762 0 0 0 0 29.484406678755477 92.203450087166857 0 92.203450087166857 61.897459088941105 0 0 0 0 -21.383269160411146 155.13955397558311 0 155.13955397558311 -4.2961954687052639 0 0 0 0 -2.7465698312680615 54.586725336364907 0 54.586725336364907 20.851988841444836 0 0 0 0 -22.982063315128549 40.165328954085993 0 40.165328954085993 6.3228910256236475 0 0 0 0 80.664738290965033 115.24875604127374 0 115.24875604127374 -43.640810297169082 0 0 0 0 -5.3187352530367207 80.342582407505688 0 80.342582407505688 23.423299327791028 0 0 0 0 1.1251970380253624 55.464619533540827 0 55.464619533540827 9.0872383123542022 0 0 0 0 -28.258732935328737 32.392397006510883 0 32.392397006510883 -0.77358414904423967 0 0 0 0 -4.7123414084651323 41.325502498352144 0 41.325502498352144 15.554174712520222 0 0 0 0 -29.424612119692029 58.131747767649358 0 58.131747767649358 21.114406723841967 0 0 0 0 -30.647675836267808 61.566770086697943 0 61.566770086697943 11.810323261510348 0 0 0 0 -35.326514858936207 47.559453363755892 0 47.559453363755892 11.496439396141795 0 0 0 0 87.907942053796432 49.262226173337694 0 49.262226173337694 -4.6444071523583261 0 0 0 0 -20.483629146704622 43.677220523236002 0 43.677220523236002 7.3792809033630817 0 0 0 0 64.664885466561827 58.278070700157059 0 58.278070700157059 32.043725025345339 0 0 0 0 429.62404332707956 77.390794719492987 0 77.390794719492987 -94.12693105683843 0 0 0 0 294.66698173033365 41.887467426866351 0 41.887467426866351 -96.134958076001567 0 0 0 0 398.79172417864902 101.46863609818683 0 101.46863609818683 -62.911902025392919 0 0 0 0 261.11495774693321 199.01182634393626 0 199.01182634393626 145.83013026831759 0 0 0 0 190.50854341997729 78.817772321096527 0 78.817772321096527 -18.751164250046713 0 0 0 0 115.47182292773869 187.54088021074858 0 187.54088021074858 -1.4504881881948677 0 0 0 0 260.4937111577965 319.40699761865108 0 319.40699761865108 -85.783877333065902 0 0 0 0 93.831349170162866 54.706215050991887 0 54.706215050991887 50.665823465074936 0 0 0 0 395.07013700871562 193.40574285185096 0 193.40574285185096 -168.14339086764812 0 0 0 0 -559.27931115666797 288.71210249405158 0 288.71210249405158 183.11257834166463 0 0 0 0 17.203579932785942 -119.66554683816139 0 -119.66554683816139 -297.52121744603886 0 0 0 0 -82.211103665416886 433.79411163950863 0 433.79411163950863 -307.14724530441566 0 0 0 0 -5.0995706516255126 3.5803672585849711 0 3.5803672585849711 -2.4475381610279641 0 0 0 0 -258.80562856326287 -193.76738218872924 0 -193.76738218872924 -103.32374721434098 0 0 0 0 -452.11155665934893 -78.279385701470346 0 -78.279385701470346 18.366910208787885 0 0 0 0 194.54050071691745 285.92237410501548 0 285.92237410501548 -350.65255318189702 0 0 0 0 132.26925637496811 95.972752607338691 0 95.972752607338691 226.13353121115506 0 0 0 0 -8.0689754372355083 3.1108759062616613 0 3.1108759062616613 -1.6895271998413932 0 0 0 0 125.82393617605976 172.29352967369732 0 172.29352967369732 -116.7385974742574 0 0 0 0 32.911437545044464 -64.150693589297589 0 -64.150693589297589 19.117212774050131 0 0 0 0 -1.3260447837038356 22.254831770268357 0 22.254831770268357 -50.450792206599985 0 0 0 0 -44.242617002761108 56.752809174717186 0 56.752809174717186 119.17254293129372 0 0 0 0 3.7857251542372978 179.67484392707593 0 179.67484392707593 288.79870505705549 0 0 0 0 47.900718325534399 -110.36841090968119 0 -110.36841090968119 415.94278009334084 0 0 0 0 315.09270747820847 300.47394150732362 0 300.47394150732362 255.38725353432164 0 0 0 0 372.78284339820675 -79.155620530591477 0 -79.155620530591477 -13.750939056786592 0 0 0 0 135.62890234186489 521.87382234079269 0 521.87382234079269 5.9567603270552354 0 0 0 0 78.412864825018914 177.68104700931872 0 177.68104700931872 68.958999209513422 0 0 0 0 5.5284339050647588 5.0120951808995287 0 5.0120951808995287 2.7055013100039105 0 0 0 0 199.78855652964558 169.71271588590753 0 169.71271588590753 120.4609544300838 0 0 0 0 -0.4644931922271951 13.102664382162871 0 13.102664382162871 -8.8278041236620766 0 0 0 0 259.93024971758132 114.14286177781469 0 114.14286177781469 15.652991360257147 0 0 0 0 252.49802193825599 83.144906534158508 0 83.144906534158508 46.304420790766017 0 0 0 0 109.1877803076386 124.2213500098087 0 124.2213500098087 111.92113441397669 0 0 0 0 125.8917366303067 49.542442276469956 0 49.542442276469956 68.757934935936646 0 0 0 0 100.18148817864858 5.6485158916220826 0 5.6485158916220826 75.982236638878021 0 0 0 0 93.925699823681498 95.013888358269469 0 95.013888358269469 62.980639521265402 0 0 0 0 132.16764825468999 169.51470204652651 0 169.51470204652651 -215.98342823869098 0 0 0 0 74.601920876707226 89.3569980952891 0 89.3569980952891 76.695274486686117 0 0 0 0 98.791584428839997 77.998522804600725 0 77.998522804600725 56.313360552070662 0 0 0 0 101.61251733324025 61.63557126136584 0 61.63557126136584 137.24728033858992 0 0 0 0 36.371158346725053 64.09549079014505 0 64.09549079014505 46.149246598397838 0 0 0 0 134.57699153072463 111.94543420915579 0 111.94543420915579 30.925481152371503 0 0 0 0 19.650274004517996 95.464739330032899 0 95.464739330032899 28.532457221739605 0 0 0 0 59.147317584429402 30.388563418950071 0 30.388563418950071 68.045199720290839 0 0 0 0 38.346627901330066 113.83887595019769 0 113.83887595019769 13.216106170409148 0 0 0 0 65.375902314592935 55.245260244899868 0 55.245260244899868 35.047837249541004 0 0 0 0 12.748820300449495 34.403352626386777 0 34.403352626386777 -29.717025224111268 0 0 0 0 -0.023530248219515215 18.44783968303399 0 18.44783968303399 2.4113125640732278 0 0 0 0 107.95743121951818 154.94026468886295 0 154.94026468886295 39.101086640759604 0 0 0 0 55.466417692136019 92.562308783861226 0 92.562308783861226 15.162214424155536 0 0 0 0 46.8259533673845 97.22086179809412 0 97.22086179809412 26.629285105416784 0 0 0 0 66.158316602050036 65.875996696315269 0 65.875996696315269 54.608975776936859 0 0 0 0 33.335765048301255 56.382659857386898 0 56.382659857386898 99.254893855017144 0 0 0 0 61.099697684243438 121.88641099591041 0 121.88641099591041 124.03720883928327 0 0 0 0 28.129206849713228 77.761219079373404 0 77.761219079373404 81.87922366042767 0 0 0 0 59.567723566520726 69.854658716540143 0 69.854658716540143 30.695195983018493 0 0 0 0 77.611158434254321 80.161382199772561 0 80.161382199772561 70.00458550316398 0 0 0 0 23.892518652690342 79.112265865172958 0 79.112265865172958 28.462170118311406 0 0 0 0 31.140678824206589 55.945539582318816 0 55.945539582318816 -10.723304508079309 0 0 0 0 41.865173610219387 47.633002420203553 0 47.633002420203553 27.082670159235363 0 0 0 0 77.657275561347888 21.055976394973186 0 21.055976394973186 -5.1386030334979296 0 0 0 0 15.887611306854524 92.489441886471468 0 92.489441886471468 -21.660513104247002 0 0 0 0 403.37697106829728 57.424426491517806 0 57.424426491517806 -6.59351605612801 0 0 0 0 137.85575665917713 -36.092034004745074 0 -36.092034004745074 265.41225923388265 0 0 0 0 -37.65869266265193 50.335552890906122 0 50.335552890906122 -29.055001700830758 0 0 0 0 87.299711822284735 -312.55307739099953 0 -312.55307739099953 132.90356424025958 0 0 0 0 -126.84782288693532 27.282401142685558 0 27.282401142685558 87.831931084430835 0 0 0 0 -276.42663266209274 82.888310849237314 0 82.888310849237314 67.273160966986325 0 0 0 0 -160.81141007631959 173.93388437113026 0 173.93388437113026 137.82446369947866 0 0 0 0 -243.78848635050235 315.80789502225525 0 315.80789502225525 -63.848043892763371 0 0 0 0 -18.46679354684602 180.28375815297113 0 180.28375815297113 -61.084370293989195 0 0 0 0 -5.6279050346784061 42.050594916297996 0 42.050594916297996 70.517455552369938 0 0 0 0 78.05502917155718 25.327920763214934 0 25.327920763214934 39.913439082927653 0 0 0 0 49.032166866934858 63.373586371526471 0 63.373586371526471 52.032875348188099 0 0 0 0 23.699245968404284 95.423667222177755 0 95.423667222177755 11.513796513085254 0 0 0 0 85.225514145888155 97.981749066660996 0 97.981749066660996 2.622967491770396 0 0 0 0 53.54729268385563 126.17652517200622 0 126.17652517200622 36.443795313884038 0 0 0 0 63.626250247500138 112.12964790521073 0 112.12964790521073 -3.893176632860559 0 0 0 0 58.51038599704043 99.010737042641267 0 99.010737042641267 -62.456987356825266 0 0 0 0 36.737309365402325 111.87563985554152 0 111.87563985554152 -1.3666708859382197 0 0 0 0 46.953181584744016 88.759274759824621 0 88.759274759824621 -15.666877871961333 0 0 0 0 31.151911937457044 106.4357893532142 0 106.4357893532142 1.8081634921436489 0 0 0 0 22.475041218523984 138.11225268479029 0 138.11225268479029 -17.711043646613689 0 0 0 0 124.86282407356885 348.79112586363749 0 348.79112586363749 -343.3426666422165 0 0 0 0 182.34742061136058 218.88520772648917 0 218.88520772648917 -254.86874647581681 0 0 0 0 122.25121654965915 270.39419616915984 0 270.39419616915984 -298.99923081943416 0 0 0 0 20.463044606789481 181.49920881370781 0 181.49920881370781 -96.699000570730277 0 0 0 0 107.55945989592874 160.0806678703957 0 160.0806678703957 -263.51949868090742 0 0 0 0 139.84591736056609 98.269501672897604 0 98.269501672897604 -148.43225594126852 0 0 0 0 135.96155133418506 53.560298569660517 0 53.560298569660517 -376.56012225504674 0 0 0 0 190.63279720504215 204.67224659641215 0 204.67224659641215 -347.38614699136815 0 0 0 0 213.14600517213694 166.04753903162782 0 166.04753903162782 -452.56718750938307 0 0 0 0 157.66772263706662 46.094997836276889 0 46.094997836276889 -534.11863837527926 0 0 0 0 227.12520351533021 179.10182940567029 0 179.10182940567029 -439.75202265061671 0 0 0 0 -64.686520253657363 -191.59403291210765 0 -191.59403291210765 -339.80461814515729 0 0 0 0 172.95627701809281 107.42923030669044 0 107.42923030669044 -336.2690647909767 0 0 0 0 -20.653340456592559 -76.207127030545962 0 -76.207127030545962 -57.905057512078201 0 0 0 0 -16.693945982173318 46.664085986049031 0 46.664085986049031 113.35150706383865 0 0 0 0 45.263079521100735 57.653353182715364 0 57.653353182715364 -144.75159465313482 0 0 0 0 -2.9536418905190658 150.2609865868435 0 150.2609865868435 112.88925640904313 0 0 0 0 -14.86510150783397 79.048862293821003 0 79.048862293821003 -0.78659316356061026 0 0 0 0 0.67807363660540432 59.713825188096962 0 59.713825188096962 16.15657783896313 0 0 0 0 -29.208351411227916 44.244568702788598 0 44.244568702788598 9.9675896007856295 0 0 0 0 17.373392677080524 35.860523701468921 0 35.860523701468921 26.911049710888477 0 0 0 0 94.427271144200859 61.103667993935233 0 61.103667993935233 -2.614312146732118 0 0 0 0 9.4081701832224951 29.40279603367614 0 29.40279603367614 -23.275878883375128 0 0 0 0 -37.953847701688574 51.071949816432607 0 51.071949816432607 30.456072470588669 0 0 0 0 -42.912676941956306 66.562083440679999 0 66.562083440679999 23.482229598987033 0 0 0 0 -8.58898797164602 38.859945947079723 0 38.859945947079723 18.882597895863 0 0 0 0 -18.713232168633112 56.207038477215974 0 56.207038477215974 19.079752563857255 0 0 0 0 -21.528093664073822 39.633909637726902 0 39.633909637726902 30.455285299372822 0 0 0 0 68.891452538766316 114.64684220567869 0 114.64684220567869 6.7193831208351185 0 0 0 0 41.672105598698181 93.967304012927343 0 93.967304012927343 76.621977412985871 0 0 0 0 -16.271255778046907 70.007379696209682 0 70.007379696209682 73.756642151391134 0 0 0 0 -40.508554726695095 28.675737339593226 0 28.675737339593226 3.5017955672376502 0 0 0 0 -5.8783191969293682 6.7974678883010284 0 6.7974678883010284 -5.0341278182595772 0 0 0 0 -2.2593091605813242 67.991607775598823 0 67.991607775598823 52.459262070507975 0 0 0 0 17.068082769372268 56.791205494148016 0 56.791205494148016 83.987329454779683 0 0 0 0 5.7145307094906457 78.151249909873513 0 78.151249909873513 44.684091695642564 0 0 0 0 30.253490755232633 87.022814988151367 0 87.022814988151367 72.259730678248161 0 0 0 0 8.705641777429264 63.565936155675445 0 63.565936155675445 45.231554782736112 0 0 0 0 31.08936716052267 56.788250410878391 0 56.788250410878391 2.6425030766840791 0 0 0 0 -7.5153121091352659 78.869714335174649 0 78.869714335174649 40.513516820137738 0 0 0 0 7.5585593161558791 75.265868036727625 0 75.265868036727625 -2.7427625744894613 0 0 0 0 10.65873974612623 51.508795699541224 0 51.508795699541224 -9.9827165269562101 0 0 0 0 64.146430691893329 96.384687767855212 0 96.384687767855212 44.25545146400691 0 0 0 0 50.779952910452266 127.36622131137119 0 127.36622131137119 -67.27491592237493 0 0 0 0 -29.523710190264985 41.844931583568595 0 41.844931583568595 5.7259961256800125 0 0 0 0 15.83742282263627 6.353428236078571 0 6.353428236078571 -4.5214421717396931 0 0 0 0 -8.8060707540976892 33.049986494377386 0 33.049986494377386 -19.921850837399575 0 0 0 0 46.405314055897179 87.903343120109639 0 87.903343120109639 45.224084005011719 0 0 0 0 -5.1009949624305335 28.171286654315843 0 28.171286654315843 -1.0399441805968195 0 0 0 0 -29.707195093731571 66.524169999371225 0 66.524169999371225 69.321729167189915 0 0 0 0 3.4133975299700978 65.707282760769885 0 65.707282760769885 1.9265780687419465 0 0 0 0 16.731239888511482 65.982419359970663 0 65.982419359970663 -2.3061812663218006 0 0 0 0 -21.733578941517834 36.679578374006987 0 36.679578374006987 -7.0959871586661052 0 0 0 0 -19.00051544026519 25.308012193686224 0 25.308012193686224 -5.7135271855258907 0 0 0 0 56.361134359573043 87.260407635938463 0 87.260407635938463 81.782339918172511 0 0 0 0 37.936943778899149 93.430140354146715 0 93.430140354146715 54.201530252932571 0 0 0 0 -15.657975602392952 77.235266373753944 0 77.235266373753944 -18.057748034554493 0 0 0 0 -6.7637175004384034 38.786297258059307 0 38.786297258059307 28.150097275893899 0 0 0 0 -75.332184418672114 148.94884031964466 0 148.94884031964466 -27.888004351174459 0 0 0 0 -62.0770060818395 236.55287053412758 0 236.55287053412758 117.41577502008295 0 0 0 0 12.072626115339517 43.423304280157026 0 43.423304280157026 22.408970989665249 0 0 0 0 35.725817956954415 68.006935656670976 0 68.006935656670976 24.20079688981059 0 0 0 0 -12.167693229486297 30.36533138498088 0 30.36533138498088 30.285885915815015 0 0 0 0 -8.3440723559324397 78.044408426314476 0 78.044408426314476 44.11047403444627 0 0 0 0 -35.421540410439775 55.578985670417751 0 55.578985670417751 33.381648953720287 0 0 0 0 -14.60967673173036 79.744046820997028 0 79.744046820997028 -0.57370381255168468 0 0 0 0 -66.786109510834649 75.395073840256373 0 75.395073840256373 46.396209190337686 0 0 0 0 26.801399280270793 33.465257409537458 0 33.465257409537458 33.751841142393971 0 0 0 0 -57.219098551770003 93.204591566272939 0 93.204591566272939 18.002163603916415 0 0 0 0 -63.949654256370195 77.534115936352464 0 77.534115936352464 27.899669186823303 0 0 0 0 -40.077908115694299 53.837017318284779 0 53.837017318284779 20.39520212769412 0 0 0 0 -28.757798563861797 70.688068319635022 0 70.688068319635022 15.473748531308956 0 0 0 0 -32.525000931613704 52.445346804473957 0 52.445346804473957 29.961814305177541 0 0 0 0 7.5830815994087715 31.716770446397533 0 31.716770446397533 24.689529984645787 0 0 0 0 1.5316308524998021 43.363119508445379 0 43.363119508445379 11.069331144804892 0 0 0 0 4.158327863595332 35.037385305811767 0 35.037385305811767 48.014425095950173 0 0 0 0 -19.116269859070599 69.344106250260666 0 69.344106250260666 25.96626381619717 0 0 0 0 23.903051024672791 41.341918365848187 0 41.341918365848187 46.084782800267334 0 0 0 0 35.519220647896873 93.552262848279497 0 93.552262848279497 29.809157804294955 0 0 0 0 4.9661398213978742 14.915117703324672 0 14.915117703324672 7.4453036921307785 0 0 0 0 183.04904433336196 -16.814119375230803 0 -16.814119375230803 221.70974703397951 0 0 0 0 -240.67584339822497 109.2797520304739 0 109.2797520304739 283.84764693281613 0 0 0 0 -290.69340707803349 9.7113375997723779 0 9.7113375997723779 142.46671053225145 0 0 0 0 -61.76605174958604 3.4044322309637209 0 3.4044322309637209 15.064929889806081 0 0 0 0 -0.042161222907015627 -1.2543675097788736 0 -1.2543675097788736 3.3820963638552826 0 0 0 0 -43.599766079427354 -28.284401827440888 0 -28.284401827440888 70.277502339660714 0 0 0 0 249.99934090545139 67.601940708256734 0 67.601940708256734 -108.3754774882691 0 0 0 0 3.6414042562828399 37.918150320227141 0 37.918150320227141 11.274019371092436 0 0 0 0 -33.400007963988173 41.163449529689387 0 41.163449529689387 35.397374034663699 0 0 0 0 -26.593721806289977 25.475068233110505 0 25.475068233110505 22.009777163664694 0 0 0 0 -7.7459144666907349 16.189253659454124 0 16.189253659454124 -16.007797522602175 0 0 0 0 -27.559375468252256 33.16176473941232 0 33.16176473941232 23.465597649221309 0 0 0 0 -2.4543147044001969 2.1753681734447952 0 2.1753681734447952 9.1441474227765411 0 0 0 0 -24.669385903467628 32.046978671904071 0 32.046978671904071 16.360880717693362 0 0 0 0 -193.72606885120513 30.413404295357395 0 30.413404295357395 1.8996801337925717 0 0 0 0 -24.233059518039227 26.04169273696607 0 26.04169273696607 6.4421508793711837 0 0 0 0 -232.4458784870294 316.4559117177123 0 316.4559117177123 -422.61416413421102 0 0 0 0 137.81861448715063 83.381372859927069 0 83.381372859927069 20.074392283153429 0 0 0 0 -2.0190559432376709 1.762115248793819 0 1.762115248793819 -7.7331662004035593 0 0 0 0 -750.23515117992065 -116.46108548702614 0 -116.46108548702614 22.120852076695883 0 0 0 0 -0.41343424675353901 3.0714484461466611 0 3.0714484461466611 -1.751941607397157 0 0 0 0 32.274279366320116 106.55520129558136 0 106.55520129558136 44.930756371853931 0 0 0 0 33.664329217626801 100.85067739740771 0 100.85067739740771 68.33594228660877 0 0 0 0 -15.05622782237333 138.56899779973173 0 138.56899779973173 54.738144129820284 0 0 0 0 -45.084094711573925 72.226658239218523 0 72.226658239218523 235.86393546819454 0 0 0 0 9.4163620695471764 256.37350085240905 0 256.37350085240905 104.84175840718672 0 0 0 0 -13.483809226634548 59.012920012985887 0 59.012920012985887 121.73865105221921 0 0 0 0 -11.544791249479431 38.681462112221197 0 38.681462112221197 142.39290054418962 0 0 0 0 -0.32620485013556788 14.882933754942457 0 14.882933754942457 -1.4602137626644947 0 0 0 0 -54.556765741070194 104.37352970807115 0 104.37352970807115 127.14287146045535 0 0 0 0 -12.212171687639568 20.329750882761402 0 20.329750882761402 -11.763800863740641 0 0 0 0 119.00636347492036 340.58044642526875 0 340.58044642526875 230.81081613336573 0 0 0 0 59.147474337485619 320.50454168283613 0 320.50454168283613 368.46582675010723 0 0 0 0 121.03150962438667 316.86481426936007 0 316.86481426936007 59.035379619948799 0 0 0 0 110.40636108600302 190.4824442313984 0 190.4824442313984 173.4139135505684 0 0 0 0 135.4530573268712 263.66192783952283 0 263.66192783952283 143.54485635572928 0 0 0 0 207.24665429920424 268.74325086761382 0 268.74325086761382 -242.57243980017665 0 0 0 0 184.01455334896309 417.93567048382465 0 417.93567048382465 -41.304210665985011 0 0 0 0 230.07656540402968 191.71189324818261 0 191.71189324818261 -463.64481678395532 0 0 0 0 247.74190514170914 233.65424824466754 0 233.65424824466754 -375.41873034415767 0 0 0 0 235.54972055264807 333.95879977436562 0 333.95879977436562 -357.42188322829315 0 0 0 0 224.34343106704182 233.68863012552902 0 233.68863012552902 -294.20648054378398 0 0 0 0 222.95247547230974 267.41320156645088 0 267.41320156645088 -339.0946307934646 0 0 0 0 169.98106791600003 222.56215715868166 0 222.56215715868166 -71.632014623843133 0 0 0 0 216.35583505792965 323.64279727678513 0 323.64279727678513 -208.59098955139052 0 0 0 0 209.29971532303898 184.93912326772988 0 184.93912326772988 -209.58567414850404 0 0 0 0 168.57084992356249 249.7443607430323 0 249.7443607430323 -93.694352965001599 0 0 0 0 232.56319400987741 279.73936077387225 0 279.73936077387225 -321.5258783934114 0 0 0 0 125.36646134298644 299.0087435227033 0 299.0087435227033 -311.74386063477141 0 0 0 0 204.70661531195037 261.66066069915951 0 261.66066069915951 -419.64432842607494 0 0 0 0 174.98049444526259 25.55343147374515 0 25.55343147374515 -81.924619778626948 0 0 0 0 80.922606479172828 164.65126042837437 0 164.65126042837437 195.6435065518308 0 0 0 0 87.831216282967944 232.72459477711527 0 232.72459477711527 175.98152973302058 0 0 0 0 111.11675721160282 144.73779443910462 0 144.73779443910462 13.607714831538033 0 0 0 0 102.77050446490466 136.47459044141578 0 136.47459044141578 270.09817305297474 0 0 0 0 -13.549507671225825 21.625496146978598 0 21.625496146978598 -9.2026593214106924 0 0 0 0 1025.1108837692882 -761.46576803622884 0 -761.46576803622884 1075.1804121193709 0 0 0 0 10.249260718061123 41.703566358984972 0 41.703566358984972 32.044485110789537 0 0 0 0 99.994553370386711 197.12104007239395 0 197.12104007239395 179.41583642930345 0 0 0 0 522.6121246763505 -266.54028093082889 0 -266.54028093082889 613.47691416775342 0 0 0 0 -24.364619844760455 348.51321942065988 0 348.51321942065988 -586.65017455839734 0 0 0 0 -5.9833217235902225 5.4191844318846165 0 5.4191844318846165 -7.454429718470692 0 0 0 0 -56.28485947378789 51.149868556356488 0 51.149868556356488 -42.332555880466202 0 0 0 0 -775.9695684502658 1280.24955377265 0 1280.24955377265 -417.3235291460478 0 0 0 0 -316.90900595427956 480.04775231677922 0 480.04775231677922 -106.56702901578683 0 0 0 0 -935.2549812727375 1387.6151969362982 0 1387.6151969362982 -1135.8014800761594 0 0 0 0 -1109.2503849727545 580.28185619336 0 580.28185619336 1136.8172664881567 0 0 0 0 -11.104321130711469 -1087.0300122523913 0 -1087.0300122523913 714.86982006034668 0 0 0 0 -4.2811400454000363 4.9613727301213686 0 4.9613727301213686 -5.930266568185715 0 0 0 0 185.97702641661999 173.89599354911479 0 173.89599354911479 -536.64410372826387 0 0 0 0 -22.985076603421476 583.30607336833418 0 583.30607336833418 -696.30060027790023 0 0 0 0 -943.51824586011935 614.62452059728093 0 614.62452059728093 -71.49324254316889 0 0 0 0 -439.15770568767584 1439.1357385496076 0 1439.1357385496076 -753.63470716697339 0 0 0 0 70.232907918434648 200.80153851748764 0 200.80153851748764 125.21065873445332 0 0 0 0 -74.342878430674318 520.61433912414941 0 520.61433912414941 -231.35515549103729 0 0 0 0 -56.4241311654649 50.475578939936213 0 50.475578939936213 -43.484269722656961 0 0 0 0 -528.45920349648077 -163.26624243015249 0 -163.26624243015249 406.25773147250584 0 0 0 0 62.202046614307619 151.90650321818248 0 151.90650321818248 -144.20572173729306 0 0 0 0 -227.12277182098478 579.0932432126865 0 579.0932432126865 -375.68089141498785 0 0 0 0 -134.1306039691263 386.0822915072921 0 386.0822915072921 -22.855951063567773 0 0 0 0 -135.84012374708982 150.87828182385419 0 150.87828182385419 76.044993483737926 0 0 0 0 -398.98188512332126 235.06539327952487 0 235.06539327952487 57.158177732781041 0 0 0 0 -387.6297172375489 437.57512981547916 0 437.57512981547916 0.91643471323914127 0 0 0 0 -322.8742187605385 358.04493718816229 0 358.04493718816229 95.531913449740387 0 0 0 0 -699.87719372715765 502.94341214811038 0 502.94341214811038 -161.440596510045 0 0 0 0 -180.0360623645247 120.64306579359982 0 120.64306579359982 -413.51306812744588 0 0 0 0 -344.40868527075509 250.05434837836947 0 250.05434837836947 18.414860079850769 0 0 0 0 -9.3340373290266143 220.31091431372624 0 220.31091431372624 -240.58027964127541 0 0 0 0 -347.41509942991252 247.21114279163703 0 247.21114279163703 207.27070113513037 0 0 0 0 -179.73410580206837 153.69867271014664 0 153.69867271014664 -136.8908859922376 0 0 0 0 12.384218709068591 136.21555405684194 0 136.21555405684194 65.195832708937814 0 0 0 0 -224.94837875011217 31.699102422309807 0 31.699102422309807 555.32756554352818 0 0 0 0 227.00420712249615 210.14469012493646 0 210.14469012493646 34.697037096484564 0 0 0 0 -316.08584574803535 301.06393735411984 0 301.06393735411984 145.67645844108483 0 0 0 0 -400.15895375034597 558.97447393166658 0 558.97447393166658 351.17236834962387 0 0 0 0 -396.50457975681729 385.59345708284854 0 385.59345708284854 308.59213277313393 0 0 0 0 -366.69046846161655 548.25738065167388 0 548.25738065167388 162.35142262364388 0 0 0 0 -193.4189544217661 -428.29138835456979 0 -428.29138835456979 1395.3371947882115 0 0 0 0 -748.0749061297538 408.76903747701726 0 408.76903747701726 410.9965416167106 0 0 0 0 -42.556850320310815 33.890630742790115 0 33.890630742790115 -20.258418346026133 0 0 0 0 28.757829546113499 91.046889106793969 0 91.046889106793969 34.321527910294208 0 0 0 0 374.32025781557786 365.53846234734647 0 365.53846234734647 105.60219610625063 0 0 0 0 315.13251875084097 62.637676043836109 0 62.637676043836109 278.3922789329954 0 0 0 0 3.2368378962935651 20.172615532049804 0 20.172615532049804 -10.40928631632751 0 0 0 0 1645.9514104702102 461.39530318934703 0 461.39530318934703 99.281618934939615 0 0 0 0 -4.148499969693745 56.870722518085216 0 56.870722518085216 -50.080410745656295 0 0 0 0 175.42539776982449 161.651750523175 0 161.651750523175 119.54295821207324 0 0 0 0 241.26105887205631 200.01052992992481 0 200.01052992992481 -198.51670992876461 0 0 0 0 105.77803518332075 109.55234227498295 0 109.55234227498295 48.622677734936588 0 0 0 0 230.39966397141689 196.13837671439978 0 196.13837671439978 -25.061330359778367 0 0 0 0 -22.325099645464746 28.588623148340695 0 28.588623148340695 -24.550671968624329 0 0 0 0 -43.569185075520693 26.237858605524671 0 26.237858605524671 -12.137396391882874 0 0 0 0 75.926183796822443 60.15247149188508 0 60.15247149188508 -63.330428187663983 0 0 0 0 11.792051136128521 18.889712651573149 0 18.889712651573149 -9.5242348823236558 0 0 0 0 5.27244565973524 104.60810080380179 0 104.60810080380179 49.129184314399026 0 0 0 0 -32.474462958686956 30.025493162711044 0 30.025493162711044 -15.679749884755552 0 0 0 0 4.6763961802644189 210.85881736774172 0 210.85881736774172 478.89129800368391 0 0 0 0 103.73904722050065 22.469085353164701 0 22.469085353164701 -93.350818830929711 0 0 0 0 229.21225692690496 74.65032365515799 0 74.65032365515799 -86.430604147884878 0 0 0 0 114.34624464507215 92.188506567064906 0 92.188506567064906 -25.649983775394503 0 0 0 0 228.72592647472356 65.922012964934765 0 65.922012964934765 -227.98594889009837 0 0 0 0 103.96223331338842 92.624696115890401 0 92.624696115890401 -122.25010388333612 0 0 0 0 212.79853802862635 -28.002371732072788 0 -28.002371732072788 -175.62966250200043 0 0 0 0 176.06010045265248 -30.340744847893802 0 -30.340744847893802 -55.78450748907926 0 0 0 0 151.59786793238891 89.617120906230411 0 89.617120906230411 -251.81722469261149 0 0 0 0 92.441884834996017 142.18479202070739 0 142.18479202070739 -335.45556631093496 0 0 0 0 -57.008823318436043 38.52270059534203 0 38.52270059534203 -184.20428209632519 0 0 0 0 -712.57144792664621 179.32099473870767 0 179.32099473870767 -190.09782058253768 0 0 0 0 -97.242235154662012 211.75486061537686 0 211.75486061537686 -295.74269235199608 0 0 0 0 -130.65076811964536 90.059513621752558 0 90.059513621752558 -224.47333507929579 0 0 0 0 -409.62037244647945 242.33560564887739 0 242.33560564887739 -184.32901336946816 0 0 0 0 97.067704374509049 278.15296738802863 0 278.15296738802863 -90.888654294685693 0 0 0 0 -149.28585295863741 131.14224238074257 0 131.14224238074257 28.892668224638328 0 0 0 0 304.78464051302581 308.97551695913717 0 308.97551695913717 0.5719904465946456 0 0 0 0 656.97527494476526 -345.49643537136217 0 -345.49643537136217 82.633778068746324 0 0 0 0 228.4224136495759 -69.287474116983503 0 -69.287474116983503 -118.98878614859132 0 0 0 0 164.4657452599713 -23.692769475492241 0 -23.692769475492241 8.4081657866045134 0 0 0 0 -20.738138266482565 17.988169041600486 0 17.988169041600486 -0.037905550343566574 0 0 0 0 -0.19347068263596157 1.6419778057540384 0 1.6419778057540384 3.6155881808921322 0 0 0 0 -40.342545643725316 29.540813185973093 0 29.540813185973093 0.0035408946832935213 0 0 0 0 -27.274497496877302 29.167636473051971 0 29.167636473051971 -17.301996292982949 0 0 0 0 276.32721490115728 -101.2196718324667 0 -101.2196718324667 -54.094355191715294 0 0 0 0 -35.515639176621335 39.246633323760761 0 39.246633323760761 -20.024385310664002 0 0 0 0 6.1291066995375161 3.8427321608648128 0 3.8427321608648128 4.6431128041416798 0 0 0 0 24.659525007178672 163.96936304852352 0 163.96936304852352 -161.39470773623907 0 0 0 0 -40.531046188178152 144.25841545630828 0 144.25841545630828 -87.406696632460807 0 0 0 0 -38.278033436879923 126.0853518381482 0 126.0853518381482 -41.625863031251356 0 0 0 0 5.7037649108533515 149.63543038971693 0 149.63543038971693 -37.463851303880801 0 0 0 0 -38.055280947435676 103.28381143443767 0 103.28381143443767 5.2074574609723641 0 0 0 0 71.498102227447816 132.44123948086053 0 132.44123948086053 -59.806876809336245 0 0 0 0 79.177457425230386 108.25773598423257 0 108.25773598423257 11.064978443697328 0 0 0 0 433.20395343362907 10.455877427280939 0 10.455877427280939 -157.43631633762561 0 0 0 0 -687.45818702072347 385.03096507417285 0 385.03096507417285 -74.53944480442442 0 0 0 0 -0.93073663793984451 -1.7767801109863512 0 -1.7767801109863512 -2.3188766515208385 0 0 0 0 -1074.9181111493453 580.79123485731543 0 580.79123485731543 -169.81270497143851 0 0 0 0 -335.52211848014485 209.40927342545183 0 209.40927342545183 -282.46164094420237 0 0 0 0 -338.24153968573228 508.25399556843331 0 508.25399556843331 -527.75508482223086 0 0 0 0 170.80368230300519 252.38801418755611 0 252.38801418755611 -380.49612089748553 0 0 0 0 -315.93098524773814 470.80305726490769 0 470.80305726490769 -249.21623165859637 0 0 0 0 19.876638681831537 133.44982424236514 0 133.44982424236514 -58.926083762828057 0 0 0 0 -76.151758628293464 282.31222863196308 0 282.31222863196308 -107.88792644521163 0 0 0 0 -339.36495924392148 323.20099152121111 0 323.20099152121111 -44.624404832415166 0 0 0 0 -118.00350315723972 228.87717091244576 0 228.87717091244576 -52.742594596362324 0 0 0 0 -239.69318356816802 303.42621050174785 0 303.42621050174785 0.00079244849621318281 0 0 0 0 -198.37122904079115 324.5430421165147 0 324.5430421165147 -94.381423863233067 0 0 0 0 -140.32086847410028 249.51119184075287 0 249.51119184075287 -0.10240091002197005 0 0 0 0 -92.311873944083345 253.98321361606213 0 253.98321361606213 -152.26048650875964 0 0 0 0 -54.111607691560494 203.32076951755153 0 203.32076951755153 -86.587073760922067 0 0 0 0 -98.092989895239953 169.18998445809484 0 169.18998445809484 -81.981806128082098 0 0 0 0 -137.44924345262916 223.89510009086371 0 223.89510009086371 -84.587200032961846 0 0 0 0 -135.17651493654193 199.15213729818061 0 199.15213729818061 -0.027921524611883797 0 0 0 0 -189.92006153952389 144.07981134545116 0 144.07981134545116 -54.049454321269877 0 0 0 0 -316.94425209494875 121.11952970475249 0 121.11952970475249 -1.9428223464055918 0 0 0 0 -201.00695898204594 170.97117446508764 0 170.97117446508764 -0.11178194469539449 0 0 0 0 -167.27369322224331 108.486227307425 0 108.486227307425 -34.221198293402267 0 0 0 0 -96.612337416074297 160.02867104309553 0 160.02867104309553 -54.751195992136218 0 0 0 0 -0.9340585249807063 1.9729158757404832 0 1.9729158757404832 -4.1299344616745373 0 0 0 0 -74.783587852063647 270.19839546948788 0 270.19839546948788 -0.069394450838444754 0 0 0 0 2.0416462806388154 71.08989962360647 0 71.08989962360647 -124.38551232912869 0 0 0 0 58.551829178808475 89.946747532983863 0 89.946747532983863 200.65634509433585 0 0 0 0 22.684737644935012 143.81560136910048 0 143.81560136910048 142.29721334722126 0 0 0 0 626.40109603963447 139.86005438217217 0 139.86005438217217 -98.304256416769931 0 0 0 0 -0.43012709066878863 -1.1534271281076443 0 -1.1534271281076443 2.8287797726798658 0 0 0 0 321.40006615412858 444.5929591023305 0 444.5929591023305 -154.99028879276011 0 0 0 0 270.49999775115248 69.663041959553084 0 69.663041959553084 58.085589332244126 0 0 0 0 216.09216553581791 111.01152542552154 0 111.01152542552154 146.37765488881269 0 0 0 0 112.4760579628728 15.95253489260358 0 15.95253489260358 152.0506355073594 0 0 0 0 68.101872049786749 54.945937253256545 0 54.945937253256545 38.424215498176764 0 0 0 0 308.01829368279505 -7.9604830178795964 0 -7.9604830178795964 -184.77733012444514 0 0 0 0 -23.450679444433263 225.38018114671286 0 225.38018114671286 159.57979921001242 0 0 0 0 44.392419824194803 96.741343262285227 0 96.741343262285227 55.753615734626692 0 0 0 0 14.1159082530693 3.551258141857204 0 3.551258141857204 -6.890429950514033 0 0 0 0 87.391963242797829 13.2796567963087 0 13.2796567963087 -11.808821962855291 0 0 0 0 212.72615647089114 23.049006838828063 0 23.049006838828063 -152.59847048956726 0 0 0 0 6.4065715739284741 24.319585058196679 0 24.319585058196679 39.470222918642122 0 0 0 0 -73.822467750299438 -30.637881993883639 0 -30.637881993883639 241.47263571571239 0 0 0 0 84.898618392405297 159.19136545200308 0 159.19136545200308 -62.670436850909027 0 0 0 0 -98.558017352264869 102.56216510583181 0 102.56216510583181 -44.215983123867773 0 0 0 0 -98.018228907145385 101.25850214374077 0 101.25850214374077 -41.230672480327485 0 0 0 0 -130.75768341242292 87.35963287152299 0 87.35963287152299 -34.278438617446227 0 0 0 0 1.5151069078931663 2.0193492477445716 0 2.0193492477445716 6.6245313792318257 0 0 0 0 -7.1862205292491126 37.342156224513019 0 37.342156224513019 19.503968712764618 0 0 0 0 31.045405955517481 43.803303425033988 0 43.803303425033988 54.739969349247474 0 0 0 0 -5.2187928439712294 3.1420400751013347 0 3.1420400751013347 6.1889344619086444 0 0 0 0 -47.64113925307538 126.51365536680532 0 126.51365536680532 -36.855270136042236 0 0 0 0 -73.535888264352252 85.618131921197346 0 85.618131921197346 -50.260653539051418 0 0 0 0 -72.955688397985796 42.385669635885279 0 42.385669635885279 28.337641706209979 0 0 0 0 243.98899872956827 555.01728261647804 0 555.01728261647804 542.46152138279285 0 0 0 0 -40.458964818637469 13.121540100037237 0 13.121540100037237 163.013611502407 0 0 0 0 -327.11316618221463 -158.47612332788412 0 -158.47612332788412 -432.33657881913678 0 0 0 0 0.36983196683173958 3.1704764132352921 0 3.1704764132352921 4.3828949714408338 0 0 0 0 -21.875357237396656 -113.37529081973844 0 -113.37529081973844 739.20289524953114 0 0 0 0 -73.170269310965523 -335.43859256359792 0 -335.43859256359792 -667.4626280159282 0 0 0 0 2.8086531514295388 4.3187395999752312 0 4.3187395999752312 6.0539981820406865 0 0 0 0 177.37941750206664 49.802058480738197 0 49.802058480738197 -363.90209013814456 0 0 0 0 19.426995275554482 37.579254608537738 0 37.579254608537738 34.4312388559091 0 0 0 0 34.215812263262706 143.15340902066237 0 143.15340902066237 34.489787672675448 0 0 0 0 -144.49641570740096 43.493194147900795 0 43.493194147900795 70.166661119321361 0 0 0 0 -5.1587269035132621 19.912083509074378 0 19.912083509074378 60.138728201504591 0 0 0 0 -168.31235412150272 40.285134812322212 0 40.285134812322212 -88.530155468964949 0 0 0 0 174.4394314699457 785.86132601401187 0 785.86132601401187 1303.177580123418 0 0 0 0 -170.7971826673529 291.95179881251079 0 291.95179881251079 481.27927358233137 0 0 0 0 -16.276249735566751 5.9820632463401751 0 5.9820632463401751 37.199230265611391 0 0 0 0 48.440463474176795 119.19511651570792 0 119.19511651570792 74.220561946203816 0 0 0 0 160.32494801369285 130.0930706927029 0 130.0930706927029 58.21319431757729 0 0 0 0 74.398841329311836 39.393560713026091 0 39.393560713026091 -24.422831418254646 0 0 0 0 111.29975299671605 113.97339747665683 0 113.97339747665683 103.28906413570803 0 0 0 0 -252.1894522648945 -221.00312682641379 0 -221.00312682641379 -154.15079259616323 0 0 0 0 25.149114826925967 29.275054948939399 0 29.275054948939399 34.055889406377503 0 0 0 0 333.33706333103328 307.52622466252069 0 307.52622466252069 201.44890485345968 0 0 0 0 -227.99674256579237 317.25833462864102 0 317.25833462864102 504.24833930109162 0 0 0 0 -29.341767825035141 -13.498789849387336 0 -13.498789849387336 20.811450490783329 0 0 0 0 154.18933523114538 -90.902901854075026 0 -90.902901854075026 292.92824687773827 0 0 0 0 588.77498514857507 241.89943380218028 0 241.89943380218028 -606.78057838359382 0 0 0 0 37.262659407909851 64.643446658254163 0 64.643446658254163 69.949468008800523 0 0 0 0 -17.503142061257677 218.33093988944893 0 218.33093988944893 -5.5568303939871839 0 0 0 0 90.69295289530055 149.22150355043414 0 149.22150355043414 37.212378970740247 0 0 0 0 211.55706359621581 -18.246143822441809 0 -18.246143822441809 1.7044369262293912 0 0 0 0 69.658334230089167 135.75955737965705 0 135.75955737965705 163.73384539791732 0 0 0 0 15.736738671380863 127.81145942093735 0 127.81145942093735 147.32490706174576 0 0 0 0 -2.0900096413677076 1.2359340637197533 0 1.2359340637197533 -0.64908662535668782 0 0 0 0 54.695423241119897 56.483794791580294 0 56.483794791580294 111.581501437111 0 0 0 0 36.234429804847423 110.44471758163854 0 110.44471758163854 18.510883902665228 0 0 0 0 80.346470497897371 150.94927514263509 0 150.94927514263509 90.375354355914169 0 0 0 0 73.488563694259938 178.83582123839005 0 178.83582123839005 64.752797113193083 0 0 0 0 83.942650250174665 245.24761999980001 0 245.24761999980001 153.53914780078048 0 0 0 0 20.743981308731236 141.94314984297671 0 141.94314984297671 43.707509300598758 0 0 0 0 204.55442285567642 165.09018913137334 0 165.09018913137334 20.106259837229459 0 0 0 0 154.9472004371396 37.711973421068251 0 37.711973421068251 -145.25773097088677 0 0 0 0 229.85928673909075 -1.3420649791369215 0 -1.3420649791369215 -115.63139680952008 0 0 0 0 -76.642962431379601 42.598871233956743 0 42.598871233956743 261.61813764394901 0 0 0 0 -52.336860592471794 -28.637553467914586 0 -28.637553467914586 -14.085876907105558 0 0 0 0 -4.0105148542099336 39.403862558792895 0 39.403862558792895 -25.173069019854452 0 0 0 0 18.024445148127796 42.383436671998652 0 42.383436671998652 32.929843215367413 0 0 0 0 -42.92462594285098 81.449957505770726 0 81.449957505770726 31.111695841114852 0 0 0 0 -3.5276671804119957 64.951870316360569 0 64.951870316360569 29.803590346348642 0 0 0 0 -34.23757752675192 79.0137909302357 0 79.0137909302357 38.454663005039038 0 0 0 0 83.526286542357411 -896.86578550096601 0 -896.86578550096601 135.10422499544802 0 0 0 0 -25.055841572467969 54.88630966697167 0 54.88630966697167 -5.134816042356448 0 0 0 0 122.33430222993047 623.37934993382078 0 623.37934993382078 -266.2207632168429 0 0 0 0 -7.7207266193254327 72.23404888517689 0 72.23404888517689 -7.5543926695827395 0 0 0 0 -758.55711243438418 540.90264260242111 0 540.90264260242111 1351.1213275166228 0 0 0 0 8.059784865808119 52.215315908936674 0 52.215315908936674 62.437521710756073 0 0 0 0 49.73161176858639 111.04078401022343 0 111.04078401022343 12.048440142243635 0 0 0 0 5.8824753629843078 40.074069241745761 0 40.074069241745761 23.90082223840102 0 0 0 0 -96.560244963122386 91.03104973565496 0 91.03104973565496 79.893329741731577 0 0 0 0 -13.018553126009465 5.1229947212486877 0 5.1229947212486877 16.897130140683657 0 0 0 0 -9.8776475139383706 10.507685792879698 0 10.507685792879698 -5.7239178153274963 0 0 0 0 41.650676163418666 48.248791584201172 0 48.248791584201172 -39.666615684502176 0 0 0 0 31.360688628155913 88.155727363948245 0 88.155727363948245 15.374696176491852 0 0 0 0 51.027030490473408 47.235490438270062 0 47.235490438270062 4.786558963394782 0 0 0 0 15.323860858044501 4.2601011703977179 0 4.2601011703977179 -2.5661960765746219 0 0 0 0 20.551458453901432 24.676205682197178 0 24.676205682197178 -11.176564794455771 0 0 0 0 26.106795427878751 61.675043772695062 0 61.675043772695062 29.207447981210862 0 0 0 0 41.206747070397796 109.14075207355199 0 109.14075207355199 164.82675445733912 0 0 0 0 24.294792463640988 141.72738347136328 0 141.72738347136328 105.82782802880138 0 0 0 0 10.068237056700209 1.9157248671581613 0 1.9157248671581613 0.19614357676197969 0 0 0 0 3.6018940577034115 1.0694149829670039 0 1.0694149829670039 0.12829455608445173 0 0 0 0 9.3969029109912299 134.27202016359661 0 134.27202016359661 508.41961763009749 0 0 0 0 -5.2188958067763451 -20.884069087762327 0 -20.884069087762327 -84.960146093333606 0 0 0 0 130.26011724161435 -10.976403471082449 0 -10.976403471082449 -206.49594279354642 0 0 0 0 37.136268655161075 30.589024437158514 0 30.589024437158514 -139.56903619383229 0 0 0 0 -15.39783308362621 70.140201063390123 0 70.140201063390123 -15.494350576220313 0 0 0 0 7.7700746104787868 66.829933190711017 0 66.829933190711017 92.585998469541664 0 0 0 0 11.746490138979425 16.314706487486546 0 16.314706487486546 37.274758733015915 0 0 0 0 -1.4542399583481362 0.030372688672684944 0 0.030372688672684944 1.6518205715842953 0 0 0 0 66.181934541206829 78.372347691954928 0 78.372347691954928 46.668115366221173 0 0 0 0 43.676111366277837 29.883461158264254 0 29.883461158264254 60.649293028056491 0 0 0 0 43.315452463166366 -28.055927451023308 0 -28.055927451023308 -251.58525120970808 0 0 0 0 22.181126079609385 13.921802367607597 0 13.921802367607597 -96.814847898029257 0 0 0 0 45.650968220857976 73.388244698042399 0 73.388244698042399 -75.596534393054753 0 0 0 0 -10.212881421888596 -15.241548712190706 0 -15.241548712190706 -78.089749996142928 0 0 0 0 -5.8867436293339566 4.5559976976060739 0 4.5559976976060739 -2.2501629991685093 0 0 0 0 -5.8843417302923626 59.800694949219178 0 59.800694949219178 13.451464819430839 0 0 0 0 23.009070630712813 94.894488356512738 0 94.894488356512738 3.09097242403368 0 0 0 0 46.364624076617474 93.100894144299673 0 93.100894144299673 -12.116650589363417 0 0 0 0 62.193569919480069 98.974789381492883 0 98.974789381492883 2.5414399610017426 0 0 0 0 46.577001326313393 96.604810500861277 0 96.604810500861277 12.238805324363057 0 0 0 0 58.330418914731126 100.15345996903488 0 100.15345996903488 10.609008039871696 0 0 0 0 56.847626102869981 82.929242625337793 0 82.929242625337793 10.264452453002377 0 0 0 0 22.680155593188829 59.115501535328804 0 59.115501535328804 -11.601863573730043 0 0 0 0 72.827755929381965 97.126683708440396 0 97.126683708440396 10.807358481659321 0 0 0 0 64.817693101533223 104.34833499710658 0 104.34833499710658 13.423457334462 0 0 0 0 72.766044699892518 98.756772117281798 0 98.756772117281798 20.012079623353202 0 0 0 0 62.981259900712757 92.157061913487269 0 92.157061913487269 15.614865295654454 0 0 0 0 72.377662833301542 92.057896393735518 0 92.057896393735518 28.396758651768323 0 0 0 0 62.91767741280637 91.784744579301332 0 91.784744579301332 54.781723518710351 0 0 0 0 57.386542301836016 89.837331739603542 0 89.837331739603542 33.46054933022242 0 0 0 0 63.707668063536403 84.808873227768345 0 84.808873227768345 30.622697283572052 0 0 0 0 48.079288017257568 79.908853417429782 0 79.908853417429782 86.633239162620157 0 0 0 0 70.428049124009704 87.557045887529966 0 87.557045887529966 54.179032868385548 0 0 0 0 42.532863077874936 80.075248722263495 0 80.075248722263495 7.0424331000540406 0 0 0 0 47.554903641634155 86.188186774059432 0 86.188186774059432 41.237015481165145 0 0 0 0 42.688444690247707 78.031236644688761 0 78.031236644688761 30.651985130098183 0 0 0 0 45.931207687593997 67.860463090997655 0 67.860463090997655 42.081521198466362 0 0 0 0 35.339391174286902 63.741812864027452 0 63.741812864027452 70.340671681275126 0 0 0 0 13.002311997086508 71.772772156313295 0 71.772772156313295 0.30816350702662021 0 0 0 0 19.114429121284047 11.289084555755835 0 11.289084555755835 55.27314448702964 0 0 0 0 16.717705691953597 58.942523606703617 0 58.942523606703617 22.867396640533116 0 0 0 0 36.76112366511552 60.788952739392698 0 60.788952739392698 14.432195469271392 0 0 0 0 19.315494310634676 7.0621296541357879 0 7.0621296541357879 -36.504348466871306 0 0 0 0 17.957430326985559 83.620578920133994 0 83.620578920133994 28.819641222511564 0 0 0 0 38.253245357544074 33.611261175916297 0 33.611261175916297 -31.744217777784797 0 0 0 0 37.207551436222275 79.216863166642725 0 79.216863166642725 109.51419397167047 0 0 0 0 3.7645494840932727 1.887384036790138 0 1.887384036790138 -1.9340149930348076 0 0 0 0 -10.907908174860331 7.3198458055981632 0 7.3198458055981632 -4.0422553962210941 0 0 0 0 13.278655473859544 30.761676971131237 0 30.761676971131237 96.515418269555084 0 0 0 0 68.797167751934467 87.806574386399006 0 87.806574386399006 86.846792691129849 0 0 0 0 -44.660116502265737 -36.513424704724457 0 -36.513424704724457 39.69028175063977 0 0 0 0 84.480945024170069 77.928185032084002 0 77.928185032084002 86.550880120252259 0 0 0 0 85.144934575385605 67.397300765734144 0 67.397300765734144 125.21088272973429 0 0 0 0 91.046362435988158 108.23213681541529 0 108.23213681541529 113.7138506147021 0 0 0 0 139.38437903447993 119.23988932215434 0 119.23988932215434 49.008622960289358 0 0 0 0 70.798540867574047 93.426688447449123 0 93.426688447449123 85.552757247147383 0 0 0 0 90.719511778635933 96.577862134952738 0 96.577862134952738 54.564631351269782 0 0 0 0 81.570419360257802 98.254681325386628 0 98.254681325386628 55.499431604046549 0 0 0 0 83.055184647972055 97.826023547968362 0 97.826023547968362 31.505801229417557 0 0 0 0 110.95238925897502 102.27344501473999 0 102.27344501473999 21.449127754051005 0 0 0 0 86.71579671168729 90.455560379719827 0 90.455560379719827 15.808470724645304 0 0 0 0 90.867365096073627 94.960042692131537 0 94.960042692131537 10.192762465274427 0 0 0 0 78.89686716383585 104.97858168068342 0 104.97858168068342 20.965666809352115 0 0 0 0 104.47823048600094 82.398261846119567 0 82.398261846119567 15.470070714742178 0 0 0 0 99.990946725651156 86.431957044522278 0 86.431957044522278 13.086895968852332 0 0 0 0 92.310549624976375 94.178835763348616 0 94.178835763348616 9.5914760854211636 0 0 0 0 96.91359533058494 80.938943648274289 0 80.938943648274289 4.4195046886743512 0 0 0 0 88.342977929998597 85.637652575052925 0 85.637652575052925 2.2137897624634206 0 0 0 0 85.99671437743109 69.484071670449339 0 69.484071670449339 -22.727588319627102 0 0 0 0 86.482853129491559 82.740791459873435 0 82.740791459873435 -2.1879328022478148 0 0 0 0 60.701388685934944 80.060439679291449 0 80.060439679291449 -1.8298487058327737 0 0 0 0 66.269395219682337 94.631086809880799 0 94.631086809880799 -0.27694533341855276 0 0 0 0 62.807765920169913 93.903555017212057 0 93.903555017212057 1.6732726451155031 0 0 0 0 75.418190422023144 98.901690858077927 0 98.901690858077927 3.496439068519976 0 0 0 0 71.799105808564491 89.717878370764083 0 89.717878370764083 5.6966687928070314 0 0 0 0 86.601043360802578 89.177156418241793 0 89.177156418241793 5.6428114713908144 0 0 0 0 78.416715249055414 98.878446185561188 0 98.878446185561188 10.077347076323349 0 0 0 0 75.890224940085318 95.590021671392606 0 95.590021671392606 5.8293727739073802 0 0 0 0 67.005543600025703 105.30780438918737 0 105.30780438918737 8.9820404254751338 0 0 0 0 63.264007240299179 101.20686585882504 0 101.20686585882504 6.1944089573516976 0 0 0 0 48.684285048137554 96.519523039885826 0 96.519523039885826 -1.975235099933343 0 0 0 0 52.561304280759941 107.67382990314218 0 107.67382990314218 8.0016240588811343 0 0 0 0 55.423183315622737 98.575756709260531 0 98.575756709260531 10.762135479599237 0 0 0 0 54.891319299340466 101.51716826732445 0 101.51716826732445 6.3443370139721083 0 0 0 0 62.306985421633726 104.1199222303112 0 104.1199222303112 5.4161855261409073 0 0 0 0 51.14854122190809 79.563745285049663 0 79.563745285049663 -1.2854402792654582 0 0 0 0 55.128626399300941 96.824976889288905 0 96.824976889288905 11.290592699748231 0 0 0 0 49.881335942313854 81.850853172709321 0 81.850853172709321 47.31987687657238 0 0 0 0 59.014035068546946 56.763837437189068 0 56.763837437189068 27.22940195150295 0 0 0 0 34.355091978704877 73.099065435133525 0 73.099065435133525 24.98965952960134 0 0 0 0 237.92194597818161 283.57799903658452 0 283.57799903658452 164.04554094866035 0 0 0 0 15.435574928775168 43.083490142496885 0 43.083490142496885 -20.615940769304871 0 0 0 0 20.403893117538246 16.821269636056968 0 16.821269636056968 -44.449544483111822 0 0 0 0 1.1109987077740868 0.52448953600372761 0 0.52448953600372761 0.4339728358336572 0 0 0 0 143.1774325959268 94.737783381395275 0 94.737783381395275 -86.582676084290142 0 0 0 0 88.743891649048237 11.247959602143965 0 11.247959602143965 -142.14977273630211 0 0 0 0 61.59462135440117 67.382775986428896 0 67.382775986428896 -21.658903864445165 0 0 0 0 97.085753213934368 53.308201823369018 0 53.308201823369018 -58.225106246070936 0 0 0 0 54.979562263483444 85.889921434570169 0 85.889921434570169 -6.2150717754266225 0 0 0 0 34.888692752690986 76.170187042022008 0 76.170187042022008 5.3846926669793902 0 0 0 0 57.547024834606418 51.577818768579164 0 51.577818768579164 -56.25905094188056 0 0 0 0 28.666245685360536 96.656712500661342 0 96.656712500661342 -17.940910414123209 0 0 0 0 47.322033803937302 71.28154818405892 0 71.28154818405892 -0.49608948871173197 0 0 0 0 33.772269039787716 98.574767169127881 0 98.574767169127881 16.976647722622147 0 0 0 0 47.485065626191499 106.37652722313942 0 106.37652722313942 3.9903208318501129 0 0 0 0 41.471989931567805 55.247376161009015 0 55.247376161009015 94.799640882876702 0 0 0 0 53.971877468528874 87.838066745933247 0 87.838066745933247 22.66191782723763 0 0 0 0 51.722040788290542 100.42007528891554 0 100.42007528891554 17.559033323617768 0 0 0 0 46.590677161552776 99.298833389606443 0 99.298833389606443 58.749133557314053 0 0 0 0 64.013651111428402 51.862320004616052 0 51.862320004616052 33.439314794018458 0 0 0 0 66.234318714246911 254.09165080744424 0 254.09165080744424 -111.00262446816487 0 0 0 0 5.4108715920119721 28.008831581682898 0 28.008831581682898 179.3344228728165 0 0 0 0 62.118825150731936 92.857070831822057 0 92.857070831822057 17.712142097319884 0 0 0 0 34.341960379177181 35.764506496445392 0 35.764506496445392 20.386864700463775 0 0 0 0 0.075201038993327529 71.599750611865602 0 71.599750611865602 194.99964407872176 0 0 0 0 -3.7228436182329006 120.60112328755349 0 120.60112328755349 108.14783253528003 0 0 0 0 0.7253651809152224 14.126082007714956 0 14.126082007714956 11.258281957252393 0 0 0 0 56.265990260009715 50.351938991650769 0 50.351938991650769 31.933880068304418 0 0 0 0 48.874747509262647 53.294420089870528 0 53.294420089870528 34.959308156248881 0 0 0 0 48.083504040188927 43.876519986188214 0 43.876519986188214 29.557248764736869 0 0 0 0 16.270176456582703 17.99118708189053 0 17.99118708189053 -0.11213910161313834 0 0 0 0 79.288671802358976 76.164147916264483 0 76.164147916264483 44.088169819966424 0 0 0 0 77.721880188742944 82.688253923486627 0 82.688253923486627 35.462655610233924 0 0 0 0 79.838238152760368 92.730562783266578 0 92.730562783266578 207.84399173484417 0 0 0 0 37.545653637773114 31.066728693322972 0 31.066728693322972 -35.061083061082059 0 0 0 0 6.4597208256111873 -4.9730007876345894 0 -4.9730007876345894 -9.9010804287541703 0 0 0 0 9.6824104103321034 13.694305806773457 0 13.694305806773457 21.744438726028477 0 0 0 0 52.985053189797327 70.239087689158623 0 70.239087689158623 19.959320521593327 0 0 0 0 30.291094156320014 57.817230822616693 0 57.817230822616693 61.958050830988213 0 0 0 0 62.517672545083769 127.80573807405017 0 127.80573807405017 145.82468179510033 0 0 0 0 42.302951540631987 48.676895590887796 0 48.676895590887796 18.903900466614346 0 0 0 0 32.368607433523721 35.264283933676779 0 35.264283933676779 42.720966819964815 0 0 0 0 6.7411317024154389 7.589196280297358 0 7.589196280297358 6.1071937033099744 0 0 0 0 76.072718695649883 54.591855021157244 0 54.591855021157244 0.058485670844675042 0 0 0 0 48.807550591751138 52.17642901436966 0 52.17642901436966 25.256761827607988 0 0 0 0 78.540622480122124 63.76498267293573 0 63.76498267293573 28.699785500080907 0 0 0 0 83.211155003858494 73.503990255245299 0 73.503990255245299 -0.0094771740768919699 0 0 0 0 77.522710174755275 72.661772322171601 0 72.661772322171601 27.228506340012245 0 0 0 0 66.762639432749893 78.82206799920823 0 78.82206799920823 42.162341998235206 0 0 0 0 70.194441251876469 80.179022680451453 0 80.179022680451453 22.094412624537654 0 0 0 0 70.389443041466365 83.638409168877388 0 83.638409168877388 21.216391507477965 0 0 0 0 66.688074351201976 94.444042292685481 0 94.444042292685481 0.054479369319631911 0 0 0 0 78.64818218751634 117.60681190989635 0 117.60681190989635 19.993613433442079 0 0 0 0 97.845451432034679 84.647467127910204 0 84.647467127910204 55.841525391093455 0 0 0 0 151.11745825483695 151.23613099610156 0 151.23613099610156 35.54662832019676 0 0 0 0 47.735086967511961 101.96626315683534 0 101.96626315683534 14.01130026071769 0 0 0 0 -196.15358133283644 77.85008439890953 0 77.85008439890953 54.879856758401729 0 0 0 0 2.799644916543917 -4.0998259172380784 0 -4.0998259172380784 -2.7782499949032058 0 0 0 0 33.907623095436065 21.628227676410461 0 21.628227676410461 37.598858148543513 0 0 0 0 307.08311395264536 144.70157165375713 0 144.70157165375713 9.6547982940246584 0 0 0 0 137.37283643897445 125.63702468990414 0 125.63702468990414 26.116174371534726 0 0 0 0 156.14349819034032 76.804234101735346 0 76.804234101735346 54.690643048597849 0 0 0 0 159.21086474741423 123.00001659124973 0 123.00001659124973 20.495189613648108 0 0 0 0 4.9124434619438713 12.804665141497097 0 12.804665141497097 6.0017791038904988 0 0 0 0 131.06564524705391 98.399545417072659 0 98.399545417072659 15.816105670906836 0 0 0 0 30.018872018676248 29.339013023692644 0 29.339013023692644 -30.690241274261069 0 0 0 0 57.309124846302439 112.57785978959873 0 112.57785978959873 15.171009673264962 0 0 0 0 17.858129195986692 37.803681611224818 0 37.803681611224818 -51.100319069932993 0 0 0 0 33.951169371061042 125.27333008310961 0 125.27333008310961 51.052643965791503 0 0 0 0 -10.199446878241133 111.73881404898748 0 111.73881404898748 71.424682380922604 0 0 0 0 62.622362759994758 44.854910246816871 0 44.854910246816871 -4.5219227953712107 0 0 0 0 19.563740045141458 49.133547015058866 0 49.133547015058866 51.855896715764175 0 0 0 0 109.60536041979867 75.029927388604847 0 75.029927388604847 -1.2825149771524593 0 0 0 0 96.125811252266431 69.713985693157156 0 69.713985693157156 -3.3359511384333018 0 0 0 0 94.308098534231249 76.228724285887438 0 76.228724285887438 -19.867497794242809 0 0 0 0 88.065665217010974 75.384240287039574 0 75.384240287039574 -5.9246550684911199 0 0 0 0 93.142631503134908 81.042433363712917 0 81.042433363712917 37.626486387278419 0 0 0 0 31.298167119464779 92.945702518423786 0 92.945702518423786 42.85732822722639 0 0 0 0 112.31016141898726 87.794263212272199 0 87.794263212272199 -12.609305794292595 0 0 0 0 166.87970210013009 131.87917363713495 0 131.87917363713495 -41.737126585037913 0 0 0 0 41.3972915411955 194.40511286117726 0 194.40511286117726 201.33858080353821 0 0 0 0 64.206430346318484 144.14527939302207 0 144.14527939302207 43.876106956956164 0 0 0 0 26.052576265881463 32.203951476751655 0 32.203951476751655 -46.297900274258097 0 0 0 0 40.994828979732119 79.669730510664522 0 79.669730510664522 58.37008220491407 0 0 0 0 22.191432192277716 133.9298573619235 0 133.9298573619235 4.2772068724043493 0 0 0 0 69.534725766923131 71.521618707202862 0 71.521618707202862 70.168611545484168 0 0 0 0 32.460584847303835 120.62707614047395 0 120.62707614047395 7.1743992813135264 0 0 0 0 29.04381133651259 125.60923866798839 0 125.60923866798839 0.08687944506527856 0 0 0 0 32.437086978344425 110.40402490089944 0 110.40402490089944 17.955331805176684 0 0 0 0 21.512815847305319 123.04609240695572 0 123.04609240695572 19.377902912560785 0 0 0 0 53.0650459765302 115.30320181339994 0 115.30320181339994 0.0086180306316236965 0 0 0 0 105.3505940087698 103.9879475796879 0 103.9879475796879 -0.025646613481512759 0 0 0 0 70.587742313146009 93.543403081996075 0 93.543403081996075 15.552141461988867 0 0 0 0 83.734539040509844 110.49571448555071 0 110.49571448555071 10.250861785354573 0 0 0 0 81.124934532718385 105.04176875756434 0 105.04176875756434 -6.6947700533928582 0 0 0 0 81.107734799163154 105.32746816574945 0 105.32746816574945 36.902930250231293 0 0 0 0 76.294814062919613 140.49764259721996 0 140.49764259721996 -15.925669600739639 0 0 0 0 66.854274033517214 70.794321085515264 0 70.794321085515264 60.300431691591342 0 0 0 0 107.02445943927887 138.20404542498363 0 138.20404542498363 7.6665334524295758 0 0 0 0 71.864509434908541 114.33278774627979 0 114.33278774627979 1.3170925463200547 0 0 0 0 9.7662663079252532 24.444450522558888 0 24.444450522558888 9.2348393918372267 0 0 0 0 29.214227174263215 107.01578893572514 0 107.01578893572514 39.77834512636764 0 0 0 0 31.529808131751679 129.38657067089025 0 129.38657067089025 -1.6388161686481908 0 0 0 0 68.484283360165605 70.221565302103414 0 70.221565302103414 69.115761436172136 0 0 0 0 -13.471411496058863 101.97152858080517 0 101.97152858080517 38.998348885352243 0 0 0 0 -119.38754591454926 204.94942070225079 0 204.94942070225079 27.485287161587621 0 0 0 0 -70.924205683615583 86.870021516173438 0 86.870021516173438 133.63368535779591 0 0 0 0 -6.0139653398437076 77.199794112973905 0 77.199794112973905 86.227385635174869 0 0 0 0 -16.331382304198996 69.674586190983973 0 69.674586190983973 218.16183312336216 0 0 0 0 -86.484345531567669 91.364391460817387 0 91.364391460817387 132.31397300833487 0 0 0 0 -71.564800827203726 352.39763269170726 0 352.39763269170726 -116.05806836140982 0 0 0 0 26.842094062903925 -7.335767596232472 0 -7.335767596232472 103.76876283210004 0 0 0 0 23.802206148822734 9.5441274018121476 0 9.5441274018121476 57.674526208429597 0 0 0 0 -0.254756619939144 34.468496304090877 0 34.468496304090877 139.03375342537765 0 0 0 0 -8.4602962072385708 45.124048934711027 0 45.124048934711027 91.734799216705142 0 0 0 0 0.83057921342515328 31.477852067377171 0 31.477852067377171 108.96431041379401 0 0 0 0 26.683586188068148 18.189150290447287 0 18.189150290447287 78.181321502612263 0 0 0 0 19.977945258629916 33.319838123796217 0 33.319838123796217 54.507338602183154 0 0 0 0 28.252368563968048 47.742410355429456 0 47.742410355429456 40.893404268688755 0 0 0 0 43.389880237489706 41.45951588099706 0 41.45951588099706 43.438703935476951 0 0 0 0 42.730146255038562 46.600298921068315 0 46.600298921068315 9.7465137856561341 0 0 0 0 29.025267786222685 79.573453463197438 0 79.573453463197438 8.3610783890471794 0 0 0 0 31.544022609123203 67.818127156744595 0 67.818127156744595 55.904385200388788 0 0 0 0 -7.6465719876541698 86.119705841476389 0 86.119705841476389 68.672166282558464 0 0 0 0 6.2140967361283401 115.22358845756389 0 115.22358845756389 57.959275217464892 0 0 0 0 0.55140938877320878 74.851338614766973 0 74.851338614766973 57.037842267120141 0 0 0 0 18.185632034799724 19.077503530995358 0 19.077503530995358 11.089696571524826 0 0 0 0 57.742176213534549 72.499915951077128 0 72.499915951077128 -5.8178096978372196 0 0 0 0 142.49253551088805 64.4455660942549 0 64.4455660942549 -35.678658201126382 0 0 0 0 49.836490586127674 49.005703842826478 0 49.005703842826478 8.7164863790233085 0 0 0 0 25.769166505366396 44.418508754155823 0 44.418508754155823 5.6818486245441591 0 0 0 0 14.746257317267009 35.507074669003487 0 35.507074669003487 11.18174934948911 0 0 0 0 34.401719090065086 46.718618582510771 0 46.718618582510771 2.3043236233854714 0 0 0 0 79.519436636233877 41.762755545511027 0 41.762755545511027 27.193643641803646 0 0 0 0 4.8907714350937255 28.176778872102403 0 28.176778872102403 -2.2601992387676546 0 0 0 0 49.937747543539444 68.771590745112917 0 68.771590745112917 3.2435120973968878 0 0 0 0 28.526355718800914 39.627027195438131 0 39.627027195438131 -4.5664602069009561 0 0 0 0 46.054504992796865 63.264801249781158 0 63.264801249781158 23.969843364684493 0 0 0 0 -5.7468289102002004 34.580796274641017 0 34.580796274641017 1.3772174599259017 0 0 0 0 -4.080201790670781 1.3323791607769664 0 1.3323791607769664 -3.7863787774865045 0 0 0 0 -138.11520506887064 6.9175063533548382 0 6.9175063533548382 11.754307487601181 0 0 0 0 117.06108475726251 79.630923595273998 0 79.630923595273998 -32.379075525386725 0 0 0 0 -24.864964994802705 56.39982431175072 0 56.39982431175072 11.227757952217075 0 0 0 0 -122.94132960642946 33.793948426853603 0 33.793948426853603 -88.289262550359126 0 0 0 0 46.8303843887374 21.238931976764093 0 21.238931976764093 -15.257286100016671 0 0 0 0 356.62913120165831 129.1872883564356 0 129.1872883564356 5.6516004201257601 0 0 0 0 -355.6925876016212 -111.37611157857464 0 -111.37611157857464 130.21249562572484 0 0 0 0 -9.6713358364610702 58.014113152298918 0 58.014113152298918 3.342479192564781 0 0 0 0 0.3996915357257258 -0.049023277697642698 0 -0.049023277697642698 -1.4840699362551959 0 0 0 0 105.46636920527089 97.101114123157458 0 97.101114123157458 -34.807846374341352 0 0 0 0 -20.761823138411273 125.63343944440567 0 125.63343944440567 143.51788435029448 0 0 0 0 193.54449844030023 150.18573691866186 0 150.18573691866186 -36.184976806529448 0 0 0 0 166.31326246239951 1.4782045385472884 0 1.4782045385472884 -42.461046372918645 0 0 0 0 140.42689718856127 67.260863174742553 0 67.260863174742553 -142.33417122627725 0 0 0 0 39.375016757971025 55.409792654885678 0 55.409792654885678 -53.569459235412069 0 0 0 0 35.561876255817367 12.74275386654449 0 12.74275386654449 -8.6484217599222148 0 0 0 0 100.05788050605042 -0.25145058511407115 0 -0.25145058511407115 -162.79605212880415 0 0 0 0 24.899880286175176 -17.059385070067947 0 -17.059385070067947 -57.280779092048761 0 0 0 0 100.95950867212377 51.18494856262987 0 51.18494856262987 -80.583758112916257 0 0 0 0 37.577081603638362 33.904089346870023 0 33.904089346870023 35.951001576831914 0 0 0 0 37.065835751367558 14.31786762691263 0 14.31786762691263 55.311623927016626 0 0 0 0 -34.873230969969882 20.519513677441864 0 20.519513677441864 -214.70764373448037 0 0 0 0 -2.1242188854205608 10.553407765627497 0 10.553407765627497 -0.9461502276206204 0 0 0 0 44.945852875724086 22.254909579467494 0 22.254909579467494 50.259813458807912 0 0 0 0 58.170423058334563 -47.325156553844863 0 -47.325156553844863 -283.35108079545898 0 0 0 0 3.9054078110114574 -2.8875042709209993 0 -2.8875042709209993 -6.8473517074534413 0 0 0 0 31.965026373567525 -69.864359048631741 0 -69.864359048631741 -114.7087544981332 0 0 0 0 13.036159149548793 9.2437357844990373 0 9.2437357844990373 -1.0852391062836659 0 0 0 0 36.296427360095549 81.313198268326232 0 81.313198268326232 -259.48383155510965 0 0 0 0 68.488966182900185 105.64186031415011 0 105.64186031415011 -381.35375443159137 0 0 0 0 -263.50937781079119 181.35165462593795 0 181.35165462593795 97.883004722061742 0 0 0 0 225.19355194787204 89.81530168018071 0 89.81530168018071 -168.10748671261535 0 0 0 0 139.1356215007836 178.6507895764953 0 178.6507895764953 -198.51295548118287 0 0 0 0 154.36004051045893 -145.2139928307206 0 -145.2139928307206 -788.6667968317488 0 0 0 0 -55.46544991681003 111.72903256729478 0 111.72903256729478 121.64147141843569 0 0 0 0 -147.61413636496582 121.18659561566892 0 121.18659561566892 10.307778202914051 0 0 0 0 -1.4249427757619912 1.9725026320241739 0 1.9725026320241739 -1.6491542346262804 0 0 0 0 -4.9372995914745843 9.6264445151609834 0 9.6264445151609834 -153.50653619985678 0 0 0 0 8.6463198734636535 25.089548451782321 0 25.089548451782321 32.708786764123943 0 0 0 0 41.522859012147819 58.935072396219766 0 58.935072396219766 -12.398011673907604 0 0 0 0 31.508483131696408 18.365941133628382 0 18.365941133628382 6.0964166763399703 0 0 0 0 -73.284004968569207 239.26113079780043 0 239.26113079780043 -35.902914625694393 0 0 0 0 24.988296640379303 109.40095120531623 0 109.40095120531623 108.3537657433626 0 0 0 0 198.87970258959467 204.61344617106079 0 204.61344617106079 26.062375597336427 0 0 0 0 69.650055770049221 198.35122042055445 0 198.35122042055445 298.59465770928364 0 0 0 0 1.2332515128734016 0.55360039682744855 0 0.55360039682744855 -0.30598167521347364 0 0 0 0 42.259213371764417 -25.357657361972088 0 -25.357657361972088 -102.87865428863734 0 0 0 0 98.161999178260885 57.912784134303365 0 57.912784134303365 -17.492100948744337 0 0 0 0 95.903180672608869 58.925061056055711 0 58.925061056055711 28.138582455123924 0 0 0 0 141.16968890532712 71.807773480825063 0 71.807773480825063 4.3261961115640588 0 0 0 0 92.779177697282648 62.99867210679804 0 62.99867210679804 13.849857316716225 0 0 0 0 67.81062975581699 81.718105764557549 0 81.718105764557549 11.200228507361317 0 0 0 0 47.140610367242516 20.021562463593 0 20.021562463593 -172.95357848177082 0 0 0 0 75.583025127598376 89.054683657144778 0 89.054683657144778 33.95551007087488 0 0 0 0 -253.6046366836963 159.39297031116439 0 159.39297031116439 25.861940690323536 0 0 0 0 237.34760989564893 224.70521420200384 0 224.70521420200384 -135.18326683170744 0 0 0 0 6.2000594725963367 26.308419236582658 0 26.308419236582658 -25.658487494428698 0 0 0 0 29.455515006186033 47.950721824272478 0 47.950721824272478 3.8090284827703726 0 0 0 0 201.49694930105761 201.54979139179704 0 201.54979139179704 -102.03351865819423 0 0 0 0 21.170572611306852 40.405651288972877 0 40.405651288972877 0.51360330852912739 0 0 0 0 254.49624398053129 109.7818378734446 0 109.7818378734446 -8.474527899583336 0 0 0 0 8.241492357106317 28.429456667485255 0 28.429456667485255 0.28345057393329398 0 0 0 0 23.833635277384019 27.345087250170764 0 27.345087250170764 -6.4779694266617298 0 0 0 0 246.77482164397588 67.314488799209357 0 67.314488799209357 151.54491325933486 0 0 0 0 -12.556575057807724 19.523060399830754 0 19.523060399830754 -6.061849910844046 0 0 0 0 279.36341523373449 -46.501354097970761 0 -46.501354097970761 3.0775974019779824 0 0 0 0 373.07766568100851 112.00357393322338 0 112.00357393322338 -51.245616958782193 0 0 0 0 5.5716402303461479 5.91843634398316 0 5.91843634398316 -3.7508794710601023 0 0 0 0 349.87848656195274 230.35362383049505 0 230.35362383049505 134.40812017965072 0 0 0 0 247.62113503393448 74.284341091210081 0 74.284341091210081 25.737733366608154 0 0 0 0 -0.17617160431426271 1.4113946786985423 0 1.4113946786985423 -3.2865230881199068 0 0 0 0 -330.112777209245 -41.076491336607432 0 -41.076491336607432 79.117876115327817 0 0 0 0 71.070467347086378 6.7336719246231951 0 6.7336719246231951 -10.967272163106827 0 0 0 0 222.29523044195594 418.69074394318159 0 418.69074394318159 219.922516307146 0 0 0 0 273.25849200639641 126.96262020261202 0 126.96262020261202 24.307605705718743 0 0 0 0 291.02139277785318 171.02308956373599 0 171.02308956373599 76.889657206716947 0 0 0 0 374.90911920397411 163.25625272865 0 163.25625272865 29.9814766329946 0 0 0 0 354.4042724196006 132.98361823099549 0 132.98361823099549 -3.7882554284587968 0 0 0 0 -21.753498067087094 192.29396712687958 0 192.29396712687958 262.65280891213479 0 0 0 0 -4.4827065076112085 5.1699823117384369 0 5.1699823117384369 -12.186379948053457 0 0 0 0 306.22883069808813 100.76319019257426 0 100.76319019257426 43.460819515814364 0 0 0 0 305.46037866344341 94.466001398955996 0 94.466001398955996 -1.9517812113394939 0 0 0 0 2.1278972962530531 -0.13092945966337766 0 -0.13092945966337766 0.36747800663069086 0 0 0 0 -130.94570103624574 229.17720548128273 0 229.17720548128273 632.67580515568261 0 0 0 0 -42.904711929226323 69.086753287709143 0 69.086753287709143 -135.35493530471285 0 0 0 0 78.755729147857409 277.59777017519912 0 277.59777017519912 -8.7197881341853645 0 0 0 0 82.566585564725756 165.59969450390781 0 165.59969450390781 -66.601948665411328 0 0 0 0 -4.3152630249023787 -10.278637917283049 0 -10.278637917283049 -3.9523016307684884 0 0 0 0 72.357078854905922 161.45923168532318 0 161.45923168532318 106.37347257771762 0 0 0 0 -19.234109386899945 120.50554647077661 0 120.50554647077661 459.92444389272714 0 0 0 0 81.952634833395678 136.52504242919531 0 136.52504242919531 160.54115550378629 0 0 0 0 61.487978709432355 58.346543581967126 0 58.346543581967126 -77.664322283422734 0 0 0 0 14.223028366588551 -5.86250532084523 0 -5.86250532084523 -63.249351706574089 0 0 0 0 7.0208613604018169 3.6005158438195508 0 3.6005158438195508 -2.5987761366409572 0 0 0 0 34.3459281324931 33.516942615682638 0 33.516942615682638 -27.789016353272018 0 0 0 0 -2.725053847452358 7.5631894162380462 0 7.5631894162380462 -5.1692904512129871 0 0 0 0 29.62727397575145 21.384822925268963 0 21.384822925268963 -51.365415572829079 0 0 0 0 -13.271504935908524 -62.639071292484005 0 -62.639071292484005 -214.21028206424671 0 0 0 0 81.673676233269362 95.766409896139521 0 95.766409896139521 -123.11254704206658 0 0 0 0 53.153883850733109 28.113574886578135 0 28.113574886578135 -105.78521529308637 0 0 0 0 -2.3719638914744543 1.8853915927178377 0 1.8853915927178377 -1.9437114728520726 0 0 0 0 -207.8982739689036 60.967973452301521 0 60.967973452301521 25.20089227140852 0 0 0 0 -5.6183921461883983 -68.255107295306516 0 -68.255107295306516 -398.98396287523792 0 0 0 0 -7.4954452942038188 173.54946643926087 0 173.54946643926087 -150.41104010591516 0 0 0 0 -5.5740958619753656 157.15034107227984 0 157.15034107227984 -419.12280430781175 0 0 0 0 -92.15062080943062 163.42761940532 0 163.42761940532 101.30794433227857 0 0 0 0 -334.64483545805888 219.46212452056352 0 219.46212452056352 -48.994661122633261 0 0 0 0 -14.84844308713582 125.81717583412683 0 125.81717583412683 -28.668546312925173 0 0 0 0 81.263011481277317 131.02548291423955 0 131.02548291423955 -28.884925689751981 0 0 0 0 58.489770210322604 150.72132157435408 0 150.72132157435408 -43.947929021698656 0 0 0 0 46.41746305558263 110.66712422780984 0 110.66712422780984 -81.569549815787468 0 0 0 0 57.581798102091852 193.57791861310398 0 193.57791861310398 -66.831404157961515 0 0 0 0 48.847214439763775 201.57105748407776 0 201.57105748407776 58.87859321526048 0 0 0 0 96.197419286905642 267.6907953671107 0 267.6907953671107 149.15178741283307 0 0 0 0 70.651125342390515 161.18789478731924 0 161.18789478731924 98.03748292682576 0 0 0 0 94.784032002113236 138.79301296204358 0 138.79301296204358 104.40020392586121 0 0 0 0 109.32948721610774 180.49178604388726 0 180.49178604388726 194.08675409746684 0 0 0 0 15.271657070328729 137.23351909768098 0 137.23351909768098 183.68141950792051 0 0 0 0 94.090222539289243 71.632499050279876 0 71.632499050279876 30.337790961464634 0 0 0 0 91.046171968409908 129.03248979798809 0 129.03248979798809 -21.846560722886352 0 0 0 0 28.990442679947591 163.72818943234597 0 163.72818943234597 -9.4684468379218742 0 0 0 0 97.279224330564645 86.233662455523586 0 86.233662455523586 59.112960794821703 0 0 0 0 154.84719769420917 91.006562606511579 0 91.006562606511579 107.19473956189177 0 0 0 0 96.172070787253091 100.61128826106976 0 100.61128826106976 33.065932050260017 0 0 0 0 77.165202361204138 51.790784425131278 0 51.790784425131278 127.29976356221232 0 0 0 0 123.78113031740128 13.943797727273022 0 13.943797727273022 136.43727662632591 0 0 0 0 27.463806042069336 37.408687821385683 0 37.408687821385683 160.39907586366462 0 0 0 0 58.491661339259736 45.510013758943387 0 45.510013758943387 141.69506990941591 0 0 0 0 43.879228599671478 75.255817836274218 0 75.255817836274218 107.70533565568621 0 0 0 0 -108.50183975643813 67.541032194763829 0 67.541032194763829 113.50764973383411 0 0 0 0 137.76915498223752 -0.71256922359316377 0 -0.71256922359316377 63.191205452079885 0 0 0 0 313.10260814484354 -92.484958290777286 0 -92.484958290777286 130.59847150783753 0 0 0 0 209.24841590936558 85.235705979219347 0 85.235705979219347 140.87424862003536 0 0 0 0 229.6885073139274 67.083107623766409 0 67.083107623766409 87.803203454357572 0 0 0 0 124.22178669325848 -5.8074084435729674 0 -5.8074084435729674 164.6631653556833 0 0 0 0 -36.526573117224288 21.792212933558034 0 21.792212933558034 33.674695569410801 0 0 0 0 261.9723726858083 -24.433771233394509 0 -24.433771233394509 40.03624449664494 0 0 0 0 56.160415009735914 44.991604040611399 0 44.991604040611399 14.400759213315411 0 0 0 0 57.454329231390204 56.564586210355493 0 56.564586210355493 29.703978002538904 0 0 0 0 341.76511423881857 134.23430094881769 0 134.23430094881769 -95.777857615816174 0 0 0 0 205.52155534972644 9.8630827226979818 0 9.8630827226979818 75.796291995138745 0 0 0 0 207.25560323028822 5.772828646351627 0 5.772828646351627 -69.303223368042381 0 0 0 0 109.56387927953256 50.260613440317684 0 50.260613440317684 71.585931683712261 0 0 0 0 50.672081135597182 -39.358590967000055 0 -39.358590967000055 -60.001165972906165 0 0 0 0 84.903844399981608 65.752622526561026 0 65.752622526561026 -73.387870961150838 0 0 0 0 104.25835321464911 -0.66738852748676436 0 -0.66738852748676436 -35.606582826381782 0 0 0 0 -112.40764901695729 -127.49524212924734 0 -127.49524212924734 -260.08815258416871 0 0 0 0 86.985111667898309 213.93870066076488 0 213.93870066076488 -389.09077563806204 0 0 0 0 128.5657147404313 70.296172588712579 0 70.296172588712579 -9.1418700724752853 0 0 0 0 -208.73055774363391 235.58238557470281 0 235.58238557470281 -62.377837675798219 0 0 0 0 14.019467564010718 16.301003281258772 0 16.301003281258772 -20.430665923426943 0 0 0 0 314.01307634656587 53.993448097127839 0 53.993448097127839 -226.22668849632464 0 0 0 0 -266.69431197908125 254.21230960707362 0 254.21230960707362 -115.64890864182962 0 0 0 0 154.23568362793048 173.46736228374357 0 173.46736228374357 -3.8585033017079695 0 0 0 0 40.024504645509296 -5.1428392178277136 0 -5.1428392178277136 101.90167236256821 0 0 0 0 240.51892808243429 28.535633480045362 0 28.535633480045362 -33.509427170472918 0 0 0 0 19.447898734761111 79.503312198656204 0 79.503312198656204 -28.568717649836799 0 0 0 0 -22.854352621890357 4.6839963750890448 0 4.6839963750890448 6.8996264257152404 0 0 0 0 50.219218459373224 268.33571649668738 0 268.33571649668738 206.49260119150858 0 0 0 0 20.83911168582128 56.894247448473493 0 56.894247448473493 46.414905698435291 0 0 0 0 73.343292379606282 132.680857244457 0 132.680857244457 -100.7814973710565 0 0 0 0 20.769054491700871 36.900910360274139 0 36.900910360274139 -18.575635866856999 0 0 0 0 74.267862157859781 132.12203125187443 0 132.12203125187443 -57.798156425400521 0 0 0 0 -189.64181483615539 249.78465872076049 0 249.78465872076049 -116.45970879416564 0 0 0 0 102.05537662784627 229.80035148031129 0 229.80035148031129 -324.0233815581887 0 0 0 0 4.4519266868960869 25.340186465590847 0 25.340186465590847 9.3163578037726609 0 0 0 0 46.579001802122946 51.419134407215999 0 51.419134407215999 21.913115451115118 0 0 0 0 30.923017362758401 58.354960672644665 0 58.354960672644665 9.2937898827458412 0 0 0 0 36.823018741324994 60.346988543486503 0 60.346988543486503 16.846968664790126 0 0 0 0 23.118472489664782 63.18622771506125 0 63.18622771506125 10.058065404795343 0 0 0 0 90.960057999953989 71.073883054235807 0 71.073883054235807 6.1167157634823184 0 0 0 0 96.617852177034365 -3.1827806814035284 0 -3.1827806814035284 7.42770967137767 0 0 0 0 -36.139751407092263 144.90880820224265 0 144.90880820224265 -45.221577893993526 0 0 0 0 68.414302894559086 48.59865928694925 0 48.59865928694925 21.19302114118662 0 0 0 0 -92.570678554173355 33.166393067898753 0 33.166393067898753 15.516488614855916 0 0 0 0 39.81917576619162 104.94267186949583 0 104.94267186949583 -114.08216871741024 0 0 0 0 5.9994310627225786 111.11122500258352 0 111.11122500258352 -25.861243563445896 0 0 0 0 15.376376662252945 46.999891252601486 0 46.999891252601486 -33.703418667933533 0 0 0 0 -38.822322342635744 106.40746313581985 0 106.40746313581985 15.602454270432645 0 0 0 0 -52.772705982359184 51.339002682372666 0 51.339002682372666 -2.8657842712564161 0 0 0 0 -47.626940940215718 62.22750758921029 0 62.22750758921029 17.44945192776504 0 0 0 0 162.07209556145244 82.111500000319211 0 82.111500000319211 190.59818217152497 0 0 0 0 -6.8182913311080657 34.904815639990858 0 34.904815639990858 -19.686365816064978 0 0 0 0 -71.904840812887414 42.066889556339447 0 42.066889556339447 21.961675427373848 0 0 0 0 125.29178180587769 61.351688294926134 0 61.351688294926134 -97.531063445392647 0 0 0 0 312.86564119169634 101.89850497165025 0 101.89850497165025 -91.84921740408754 0 0 0 0 610.31628762783293 -78.968821742190357 0 -78.968821742190357 -232.01205949336872 0 0 0 0 -5.7010742199541085 14.458134390979239 0 14.458134390979239 0.40735554666764529 0 0 0 0 -49.389730762409812 9.7610836864113111 0 9.7610836864113111 6.1398200992186389 0 0 0 0 -157.7558705509 198.34970669494578 0 198.34970669494578 -207.38840536225325 0 0 0 0 -68.105049800178676 50.808510458366072 0 50.808510458366072 37.230966792943946 0 0 0 0 -116.1034445190744 287.39806652703555 0 287.39806652703555 0.36953595344311907 0 0 0 0 -140.33293004339794 197.92827373287582 0 197.92827373287582 -3.5690271546782242 0 0 0 0 -18.160455969758914 190.17057842505892 0 190.17057842505892 -0.91772144788319565 0 0 0 0 20.628403683049555 14.353665835455729 0 14.353665835455729 7.3902374017667398 0 0 0 0 19.679661408787069 58.279465413048456 0 58.279465413048456 1.9003656504501123 0 0 0 0 122.11183612950845 95.903756460174918 0 95.903756460174918 12.933817797720621 0 0 0 0 -223.11477466578071 203.22111189330099 0 203.22111189330099 -47.544157315627672 0 0 0 0 -40.531334937026259 171.09339078066114 0 171.09339078066114 -42.055960581055842 0 0 0 0 -103.71780228809803 330.86850400354888 0 330.86850400354888 -47.689198240652331 0 0 0 0 -76.348206963975827 141.90914449421871 0 141.90914449421871 -65.894345781023731 0 0 0 0 -103.04685970898572 259.31675164243279 0 259.31675164243279 -1.3279403348860797 0 0 0 0 196.14596656506183 179.75855645419506 0 179.75855645419506 -215.31126566035528 0 0 0 0 163.63441554472956 121.5017276720173 0 121.5017276720173 283.77439067499654 0 0 0 0 247.61291474183963 160.65018525195046 0 160.65018525195046 -68.612234660857212 0 0 0 0 -124.54238658465329 261.85053018905455 0 261.85053018905455 146.49515265486116 0 0 0 0 18.637167522203526 340.49671378114726 0 340.49671378114726 50.295655224224902 0 0 0 0 -0.014761842794001723 0.98884638240733125 0 0.98884638240733125 2.9929715928562359 0 0 0 0 -464.59877946456254 4.7885567012635875 0 4.7885567012635875 78.431419135813485 0 0 0 0 1056.719412718594 306.37458401151525 0 306.37458401151525 -131.34327221692365 0 0 0 0 -186.43088605462981 194.24106035558361 0 194.24106035558361 115.69027250361978 0 0 0 0 580.15288213291251 462.62242413796776 0 462.62242413796776 262.64263784262585 0 0 0 0 18.186396801582305 115.61609050595143 0 115.61609050595143 -38.336696082675189 0 0 0 0 -81.19481799393543 144.26570987340165 0 144.26570987340165 40.610509694495704 0 0 0 0 -174.35291996054002 102.45062531313943 0 102.45062531313943 23.313271778577473 0 0 0 0 12.785542244972021 90.685345098660036 0 90.685345098660036 91.091333269032475 0 0 0 0 8.5101275833440013 138.81245982038672 0 138.81245982038672 5.8872583851043601 0 0 0 0 -127.03404312061321 97.355643451337528 0 97.355643451337528 10.204384353841306 0 0 0 0 -99.543965469201794 22.525731950992849 0 22.525731950992849 -52.203389822068857 0 0 0 0 -0.13434082992976926 -0.063812484846152984 0 -0.063812484846152984 8.0177902193580621 0 0 0 0 -233.16939306270069 14.436329703308729 0 14.436329703308729 79.979667516250629 0 0 0 0 -111.96079766644834 46.98202814355318 0 46.98202814355318 32.381900063381181 0 0 0 0 -137.5682172417437 83.952716770261759 0 83.952716770261759 -20.993735444604681 0 0 0 0 -55.265643694961909 -19.308526200897177 0 -19.308526200897177 18.716208770878438 0 0 0 0 68.395164702058537 129.51412811552291 0 129.51412811552291 29.285924402002593 0 0 0 0 0.66302067211574922 41.094053549151965 0 41.094053549151965 -50.359697602108298 0 0 0 0 11.174359067859768 211.02023762925091 0 211.02023762925091 152.82472477206466 0 0 0 0 -249.82993466424523 98.097305403229257 0 98.097305403229257 -4.3939668935527152 0 0 0 0 -249.5742512789584 198.78809861923583 0 198.78809861923583 31.633617440988019 0 0 0 0 -170.11176081739541 230.23490611045418 0 230.23490611045418 -143.11022436001076 0 0 0 0 752.73983276235231 193.41644070681286 0 193.41644070681286 87.774358556023799 0 0 0 0 -11.214873965954096 6.9297051862260588 0 6.9297051862260588 8.3511357424696939 0 0 0 0 538.16718159843003 288.78366786893821 0 288.78366786893821 121.98643223615545 0 0 0 0 647.64804382908187 152.86549099738841 0 152.86549099738841 198.03753188821429 0 0 0 0 -260.64987560040026 139.07003154155245 0 139.07003154155245 -84.36309489973064 0 0 0 0 -646.33066421490366 76.891431832336821 0 76.891431832336821 231.48680814313411 0 0 0 0 1252.8148296918735 304.60181315428417 0 304.60181315428417 -324.44511428925762 0 0 0 0 0.61580911387505388 0.42133503303439568 0 0.42133503303439568 2.7860085617681705 0 0 0 0 -297.83824501735216 184.10046352722929 0 184.10046352722929 189.34704562255502 0 0 0 0 -230.76804430535776 165.36768608952298 0 165.36768608952298 210.25139047581615 0 0 0 0 15.25174234165209 47.149459821909133 0 47.149459821909133 35.671685132506695 0 0 0 0 72.611775355942427 252.06073329331798 0 252.06073329331798 164.38824420625315 0 0 0 0 -52.18534989519685 46.895046021658345 0 46.895046021658345 57.869322069216082 0 0 0 0 112.81591126468265 226.95346777890882 0 226.95346777890882 567.47400772378023 0 0 0 0 0.72233263582241136 14.443036731468709 0 14.443036731468709 16.590203634445658 0 0 0 0 46.30968354732795 -21.314250591625751 0 -21.314250591625751 -219.09964590307209 0 0 0 0 5.9106378607617387 43.424635682903642 0 43.424635682903642 15.725126068743364 0 0 0 0 4.5537462788051926 33.996353729278781 0 33.996353729278781 19.342986434756313 0 0 0 0 12.464458153610728 48.421512511983082 0 48.421512511983082 -12.286247470652512 0 0 0 0 -5.9598885737032106 36.006975154298743 0 36.006975154298743 -69.214445861354761 0 0 0 0 -8.2474458659489756 11.86014407217408 0 11.86014407217408 -7.4118926115697832 0 0 0 0 -28.939881714686635 59.605501142246794 0 59.605501142246794 -49.332982976578933 0 0 0 0 4.624052331558886 5.0886731732064732 0 5.0886731732064732 -2.3171532370542423 0 0 0 0 -16.863171928518568 76.84495263624558 0 76.84495263624558 -57.922543113309075 0 0 0 0 20.924772741709603 -18.02249416959603 0 -18.02249416959603 62.199606343398045 0 0 0 0 12.936591918336717 28.52417030380251 0 28.52417030380251 -11.995516079427773 0 0 0 0 1.9119754197327552 8.1472557857326677 0 8.1472557857326677 9.5756697805855566 0 0 0 0 23.523693551454926 127.53811571171536 0 127.53811571171536 -157.87997250619082 0 0 0 0 -85.888018263387494 52.530901451078535 0 52.530901451078535 57.777464772067958 0 0 0 0 3.4587162675052241 40.306981683078448 0 40.306981683078448 -129.24461605255783 0 0 0 0 98.223100465300377 83.918467901317854 0 83.918467901317854 -62.257102316987584 0 0 0 0 19.036111643887125 56.164656437169469 0 56.164656437169469 -52.156251257587201 0 0 0 0 12.308034755404151 1.1981975532037268 0 1.1981975532037268 -28.264103811146924 0 0 0 0 6.7410785516337626 44.709171931512699 0 44.709171931512699 -51.507969015901445 0 0 0 0 -14.604390662687365 34.868967464284651 0 34.868967464284651 -68.511914996488485 0 0 0 0 -46.53129728602471 102.844395181246 0 102.844395181246 130.91129043558612 0 0 0 0 43.568615485884948 45.881678202769763 0 45.881678202769763 -50.87699892364617 0 0 0 0 -27.853816161543364 63.835977785682189 0 63.835977785682189 -69.536175904131085 0 0 0 0 9.4795307175049857 10.224042504051106 0 10.224042504051106 -1.1848973977128807 0 0 0 0 -43.958560913597466 54.827057632668584 0 54.827057632668584 -59.45354575663805 0 0 0 0 78.902240978350164 25.299158494817675 0 25.299158494817675 -45.330069011079104 0 0 0 0 291.52420646580867 -0.20304734302408178 0 -0.20304734302408178 -74.996489785631638 0 0 0 0 21.347264154581353 -30.63726587651945 0 -30.63726587651945 -25.149425205949228 0 0 0 0 175.50484569075343 81.306632352177985 0 81.306632352177985 -54.12965627160429 0 0 0 0 169.22325758983789 95.197792053466401 0 95.197792053466401 -80.742929912659747 0 0 0 0 472.48021886291099 226.91356069677204 0 226.91356069677204 -28.204467404972092 0 0 0 0 -48.158882487739902 163.09616332435689 0 163.09616332435689 68.842306888938765 0 0 0 0 207.55713605458914 233.27971419823052 0 233.27971419823052 14.578552472892625 0 0 0 0 66.983258140884573 128.4253002480782 0 128.4253002480782 -4.0191898217726703 0 0 0 0 60.054705308677512 156.41920602400933 0 156.41920602400933 -24.417932350668707 0 0 0 0 64.673428769524435 120.86818603224992 0 120.86818603224992 3.1443420986906858 0 0 0 0 95.995818312163465 115.28964599659957 0 115.28964599659957 -6.2393632634230016 0 0 0 0 25.054261966335616 117.16068969513799 0 117.16068969513799 -47.487355485463922 0 0 0 0 -23.808354420609248 130.23788291421624 0 130.23788291421624 9.6614727347587177 0 0 0 0 -61.697996329716261 218.85992973513203 0 218.85992973513203 504.03334215777431 0 0 0 0 -3.0598438157023082 77.809856411731957 0 77.809856411731957 9.8613954502700238 0 0 0 0 204.95530171699102 25.691677969103694 0 25.691677969103694 -108.62016945600772 0 0 0 0 -394.21088797992707 419.43919509339321 0 419.43919509339321 334.2322270005443 0 0 0 0 2.141480572280507 8.6785432408433323 0 8.6785432408433323 -14.715849858636744 0 0 0 0 323.15191549588417 407.01474647313808 0 407.01474647313808 -85.648048030096106 0 0 0 0 -110.73659699706332 339.01323853323993 0 339.01323853323993 293.0364743372993 0 0 0 0 -534.56760891595331 223.41837376432522 0 223.41837376432522 497.56275595537181 0 0 0 0 -352.73019541165559 138.58755387551355 0 138.58755387551355 500.29170370627662 0 0 0 0 -6.499820029053808 -2.6857463821070269 0 -2.6857463821070269 276.02447034556826 0 0 0 0 3.8628358598263759 2.9298299232304323 0 2.9298299232304323 2.7059754589092364 0 0 0 0 624.216650015298 -164.54634784099244 0 -164.54634784099244 -43.290626210531627 0 0 0 0 175.59493824828678 -31.278778918156604 0 -31.278778918156604 44.754192107679046 0 0 0 0 356.99083265003719 159.55998460542469 0 159.55998460542469 -155.35931664591044 0 0 0 0 -92.114411315589678 -16.797506772109045 0 -16.797506772109045 -80.946129381800347 0 0 0 0 2.377803145508576 56.720727845200543 0 56.720727845200543 3.0959561460910834 0 0 0 0 16.41102737338224 56.444633908031392 0 56.444633908031392 -184.24451723875973 0 0 0 0 -8.1076796913047602 10.618172525067081 0 10.618172525067081 14.962869818516126 0 0 0 0 -93.679637660530716 133.76631475070462 0 133.76631475070462 -24.59680817383196 0 0 0 0 110.71059135661926 41.944480963597016 0 41.944480963597016 -29.760677606980607 0 0 0 0 66.325510860195209 72.883292881204397 0 72.883292881204397 -2.5029341668414418 0 0 0 0 124.36462712565844 170.69281437383324 0 170.69281437383324 -111.1005891309178 0 0 0 0 151.7511163204872 133.08630243985681 0 133.08630243985681 -95.692291283194209 0 0 0 0 117.50523756496204 130.93248843557922 0 130.93248843557922 -85.917950318340445 0 0 0 0 72.834326698310178 162.00683041302364 0 162.00683041302364 -91.645561738740071 0 0 0 0 98.510876218169869 140.383250542327 0 140.383250542327 -64.999965995608363 0 0 0 0 101.39433607699902 138.15387582616677 0 138.15387582616677 -94.048679359504604 0 0 0 0 -11.74541141075315 174.20385683300992 0 174.20385683300992 -7.251710126089165 0 0 0 0 39.267478860260084 68.924003321518825 0 68.924003321518825 -60.946606182613479 0 0 0 0 21.90858036420299 9.6917328666144016 0 9.6917328666144016 1.3639509813661448 0 0 0 0 69.507823100023799 80.852654619468694 0 80.852654619468694 -1.279321986350709 0 0 0 0 118.31542785143165 41.306915777151517 0 41.306915777151517 -35.140255371064995 0 0 0 0 23.594959758605341 62.344341498460409 0 62.344341498460409 -45.319907181285856 0 0 0 0 102.89480493991869 169.83715985574963 0 169.83715985574963 -1.8567010929918979 0 0 0 0 43.564708473655628 154.27526764681534 0 154.27526764681534 -3.4708585666376166 0 0 0 0 70.763299874219229 139.58404370195785 0 139.58404370195785 24.638603125415102 0 0 0 0 87.732558821446219 114.02566538686051 0 114.02566538686051 14.465362896335137 0 0 0 0 139.7194923520874 99.850425853634079 0 99.850425853634079 14.644748508471821 0 0 0 0 108.79390681842051 139.54485749830565 0 139.54485749830565 23.462177200643055 0 0 0 0 53.763757134685875 11.466397255888296 0 11.466397255888296 225.99177321192292 0 0 0 0 -77.454010788424057 -13.023218920294312 0 -13.023218920294312 222.16641234204144 0 0 0 0 -73.115569704058544 82.337005207118409 0 82.337005207118409 364.08070348395268 0 0 0 0 -14.457499442563858 39.970360403960512 0 39.970360403960512 -33.699281573208282 0 0 0 0 88.415986343432451 -256.91453505600657 0 -256.91453505600657 196.87424752677907 0 0 0 0 -117.73568502380658 17.44824408815839 0 17.44824408815839 202.79091817655353 0 0 0 0 4.1682840381254209 82.994835593606695 0 82.994835593606695 2.3840548942971509 0 0 0 0 21.150284293281928 25.354055594187187 0 25.354055594187187 33.964226774826557 0 0 0 0 -53.509042046964169 151.52995509996981 0 151.52995509996981 -10.941438628117794 0 0 0 0 297.96982939685404 233.16469052575849 0 233.16469052575849 -185.71613638677809 0 0 0 0 -101.78776238991122 482.85183781461637 0 482.85183781461637 -328.02423199314944 0 0 0 0 -212.10090812887938 161.39635196349991 0 161.39635196349991 54.115952367981663 0 0 0 0 -166.30105147592258 313.90593211565647 0 313.90593211565647 -136.46172463723633 0 0 0 0 -781.22225980419171 480.67295834315701 0 480.67295834315701 31.468059792576241 0 0 0 0 45.547026796812133 442.01993106534246 0 442.01993106534246 -393.65222647281553 0 0 0 0 -298.26010952192883 919.57963706586906 0 919.57963706586906 -911.24988995195417 0 0 0 0 143.96576448374253 233.10244989525017 0 233.10244989525017 -1423.2047752819035 0 0 0 0 -699.28233527125849 944.79292499741496 0 944.79292499741496 -1037.1859853878468 0 0 0 0 -80.673709401904489 111.95285890369087 0 111.95285890369087 -1054.8912080060545 0 0 0 0 77.31182432960486 382.43599204553993 0 382.43599204553993 -2118.9986692183229 0 0 0 0 -13.325974104839077 9.3561045437748334 0 9.3561045437748334 10.276101980067494 0 0 0 0 31.741846490661089 50.538138065359391 0 50.538138065359391 49.371151839312333 0 0 0 0 -428.23370396652899 85.323845837765475 0 85.323845837765475 119.28095863971976 0 0 0 0 33.889182167029503 -109.02004822676918 0 -109.02004822676918 -22.092563955851801 0 0 0 0 9.9760029481476522 89.839890696375733 0 89.839890696375733 167.12942136656784 0 0 0 0 34.367749575584241 47.769637564151964 0 47.769637564151964 -29.141608122946334 0 0 0 0 8.9941853997297585 132.00152014836931 0 132.00152014836931 -90.248372414325786 0 0 0 0 17.515526739310445 10.953954284476495 0 10.953954284476495 -24.678889037937424 0 0 0 0 115.91803974309005 -173.12052466724708 0 -173.12052466724708 -226.89988202602035 0 0 0 0 40.464789234247291 219.60056908147089 0 219.60056908147089 -548.371767360597 0 0 0 0 4.9414979316643439 126.0423194588584 0 126.0423194588584 -769.41619678994175 0 0 0 0 -96.486015018788748 220.21041534542564 0 220.21041534542564 -729.04137235490998 0 0 0 0 70.104672307206783 515.34959612147941 0 515.34959612147941 -996.98533553401467 0 0 0 0 85.795267468842212 418.55058005389219 0 418.55058005389219 -619.66766861361248 0 0 0 0 98.791143537979224 303.69680205387431 0 303.69680205387431 -430.01433025311417 0 0 0 0 66.689167059637839 389.52112875097191 0 389.52112875097191 -651.73636241956046 0 0 0 0 91.199848630996712 111.74571282567467 0 111.74571282567467 -408.84252659299818 0 0 0 0 -12.348135749576613 286.34806306881728 0 286.34806306881728 -303.22750876999635 0 0 0 0 29.9223675019457 224.61789009785207 0 224.61789009785207 -251.84365844762715 0 0 0 0 -76.810435909268563 191.17089064945321 0 191.17089064945321 -28.789188829159684 0 0 0 0 36.730011593026575 45.95736394805499 0 45.95736394805499 -44.113870198675386 0 0 0 0 34.408482276352288 35.163251050154713 0 35.163251050154713 17.531043256282203 0 0 0 0 1.2373342651553685 131.88325323515892 0 131.88325323515892 16.070839536059793 0 0 0 0 42.559022840082946 41.293177031470947 0 41.293177031470947 -37.43604718091423 0 0 0 0 94.833735652544419 161.00241679511419 0 161.00241679511419 -328.83374086179901 0 0 0 0 94.132844070409192 47.425871545312475 0 47.425871545312475 -184.56131127803928 0 0 0 0 174.69387879766873 177.10828557558852 0 177.10828557558852 -228.48639908868063 0 0 0 0 191.60568264545873 -40.788577229366638 0 -40.788577229366638 10.303710030116235 0 0 0 0 -113.29275161419355 123.35568980388325 0 123.35568980388325 40.871457509056199 0 0 0 0 -18.956776588674984 196.92266199413734 0 196.92266199413734 -114.37287253008981 0 0 0 0 -44.218252315855352 32.406966228858437 0 32.406966228858437 -5.7774612561661343 0 0 0 0 38.598672454806604 42.847563279328085 0 42.847563279328085 52.441684358028503 0 0 0 0 37.655932583336835 100.85933425528856 0 100.85933425528856 4.1498120241885772 0 0 0 0 72.026624988935509 49.242171808754392 0 49.242171808754392 -31.091250189689163 0 0 0 0 35.968558471024153 87.015004463215519 0 87.015004463215519 -24.479975503381866 0 0 0 0 -4.7341148944396991 108.97379486741556 0 108.97379486741556 42.489829389882743 0 0 0 0 39.390880134233157 99.940325936851877 0 99.940325936851877 -23.878383404277656 0 0 0 0 -121.18621445472672 -120.56616246344129 0 -120.56616246344129 605.97020885418169 0 0 0 0 90.011237730017456 -76.579467918912997 0 -76.579467918912997 208.46008327054005 0 0 0 0 15.517887484592762 43.857119935816598 0 43.857119935816598 38.281200181219944 0 0 0 0 -81.077486923022661 127.51034019138024 0 127.51034019138024 488.31322979927063 0 0 0 0 -9.2300708168331767 0.18260993031435646 0 0.18260993031435646 914.09847593387531 0 0 0 0 -7.244643686542986 32.683892629035654 0 32.683892629035654 -34.495016065135133 0 0 0 0 -27.792534853098914 219.23079478206637 0 219.23079478206637 564.3445390930865 0 0 0 0 41.059862663038075 229.90139672902296 0 229.90139672902296 481.47232001215798 0 0 0 0 100.96017314164783 100.75392919473234 0 100.75392919473234 413.48028446747048 0 0 0 0 207.23388666484971 206.65808728439151 0 206.65808728439151 482.48117282129897 0 0 0 0 346.84808095678454 66.798075582453748 0 66.798075582453748 508.96171758649871 0 0 0 0 344.41077984630829 -132.1925299486611 0 -132.1925299486611 672.49053096037824 0 0 0 0 153.67852334788768 -7.5921067378076259 0 -7.5921067378076259 601.9928252568061 0 0 0 0 260.20188479527133 155.31837206758792 0 155.31837206758792 432.11687210839591 0 0 0 0 157.17571237796801 28.760232287575491 0 28.760232287575491 474.55734164637397 0 0 0 0 -45.500128807929286 188.60632368476945 0 188.60632368476945 236.78084993238735 0 0 0 0 43.615998735738685 100.41391341334383 0 100.41391341334383 475.51053557952321 0 0 0 0 147.82687007825007 188.99091866920935 0 188.99091866920935 204.35722117178375 0 0 0 0 83.176151226951333 55.750233588651099 0 55.750233588651099 -104.4070561012777 0 0 0 0 59.526541759929387 311.44024234077369 0 311.44024234077369 7.5046551799605368 0 0 0 0 5.053426105514518 109.41386450612481 0 109.41386450612481 216.45056283312442 0 0 0 0 -192.37226698245649 229.82898836490131 0 229.82898836490131 41.049230499867917 0 0 0 0 -37.412610400904668 157.33899652722903 0 157.33899652722903 33.087897802462976 0 0 0 0 -19.11582105284856 191.14107802941407 0 191.14107802941407 535.22448617788905 0 0 0 0 -20.584561948169721 139.90812923432168 0 139.90812923432168 256.15983464575402 0 0 0 0 287.56086041388335 175.85024286877888 0 175.85024286877888 8.8148475663692807 0 0 0 0 281.54596496203158 -123.81631852006103 0 -123.81631852006103 358.40633367625924 0 0 0 0 88.306930451428343 -59.283486158594314 0 -59.283486158594314 877.41152613321901 0 0 0 0 22.057935055306473 40.74837991743054 0 40.74837991743054 -18.33454772941819 0 0 0 0 26.220617907467386 11.149321053641195 0 11.149321053641195 -33.744806737988739 0 0 0 0 11.67593206060701 81.93115432781633 0 81.93115432781633 800.77866886681295 0 0 0 0 51.149611339933472 182.18628285582236 0 182.18628285582236 594.95934181958 0 0 0 0 0.41248122617253102 -18.522574211514439 0 -18.522574211514439 792.99104607959453 0 0 0 0 159.92587870647549 297.60981914829608 0 297.60981914829608 792.62501112710379 0 0 0 0 109.15698105620686 58.020270084161893 0 58.020270084161893 331.49139523640042 0 0 0 0 -64.547183108094032 53.428347710992966 0 53.428347710992966 332.6595871535219 0 0 0 0 118.85211676836479 12.03783841862969 0 12.03783841862969 264.83971601573285 0 0 0 0 31.188444553379668 215.64226198611868 0 215.64226198611868 178.93295823526569 0 0 0 0 -39.501027931459248 50.535847660168656 0 50.535847660168656 263.75055238699133 0 0 0 0 212.59268832637463 -61.203678701458557 0 -61.203678701458557 -85.445343884857721 0 0 0 0 -26.590327325509861 -94.286634795163991 0 -94.286634795163991 193.53646611387376 0 0 0 0 -157.27343730638677 180.25669040889625 0 180.25669040889625 -134.4607522289707 0 0 0 0 118.36467088254722 129.63899093002328 0 129.63899093002328 -848.35519341562031 0 0 0 0 -45.091073833580595 34.72772492581862 0 34.72772492581862 370.19848466340954 0 0 0 0 -16.318436431421731 8.2788154644792087 0 8.2788154644792087 3.510755879579996 0 0 0 0 -16.018219836361823 85.782421883628558 0 85.782421883628558 -252.1436117896701 0 0 0 0 34.534872437448939 388.8339209424048 0 388.8339209424048 -614.49720924488065 0 0 0 0 -30.211977654850159 7.825141423297552 0 7.825141423297552 3.7756499398732259 0 0 0 0 -131.59573383971292 147.38535729770592 0 147.38535729770592 -108.93614339562896 0 0 0 0 -66.339769421916571 48.116670153060113 0 48.116670153060113 170.69027642204856 0 0 0 0 -2.5926348472203244 3.2471000214136438 0 3.2471000214136438 172.86050573977263 0 0 0 0 -39.090304960824142 36.676873640949452 0 36.676873640949452 85.728040340916777 0 0 0 0 -47.441813901357818 122.14074523090676 0 122.14074523090676 -11.345894662576029 0 0 0 0 -81.576627218571957 131.4641691806537 0 131.4641691806537 83.021182109812798 0 0 0 0 -83.174528002084116 121.54071235655647 0 121.54071235655647 204.48492400795658 0 0 0 0 -45.582087858871091 107.51659019078943 0 107.51659019078943 37.985108845619834 0 0 0 0 -96.150310411685496 180.29522550864931 0 180.29522550864931 33.720544898435946 0 0 0 0 -16.069099462438317 118.33626723962698 0 118.33626723962698 -49.671251322331955 0 0 0 0 -55.322967365180375 129.86278029669484 0 129.86278029669484 -7.9971860397072305 0 0 0 0 -35.095237404253567 147.36171110642317 0 147.36171110642317 -147.97554085787851 0 0 0 0 -7.8154653063393198 141.68623990086417 0 141.68623990086417 270.16624901859905 0 0 0 0 28.774273754496789 36.178094108502137 0 36.178094108502137 382.44193378652562 0 0 0 0 40.829156421018524 93.187344423922241 0 93.187344423922241 185.63863775349455 0 0 0 0 1.7960627842403483 171.92463428330302 0 171.92463428330302 32.664051263236615 0 0 0 0 103.86715758293576 174.82957247038212 0 174.82957247038212 -37.355577053669549 0 0 0 0 141.65195523177681 287.81995971953438 0 287.81995971953438 430.35299465689604 0 0 0 0 134.10873902650201 321.69769335991441 0 321.69769335991441 301.24128596158698 0 0 0 0 384.96355010322441 557.56489426759072 0 557.56489426759072 -7.2661721672993735 0 0 0 0 57.295290228910744 477.68397077796726 0 477.68397077796726 1750.7508980425628 0 0 0 0 84.189067789171531 205.13819984636575 0 205.13819984636575 370.24820793793333 0 0 0 0 -144.87640520356945 301.62662525759515 0 301.62662525759515 -696.94820246124982 0 0 0 0 -5.90274862322633 6.1521913274106481 0 6.1521913274106481 2.5138798481174049 0 0 0 0 40.880018341886171 183.60873145939695 0 183.60873145939695 699.70610158091586 0 0 0 0 -0.23271045173410698 1.1465955104104779 0 1.1465955104104779 0.41119797517855261 0 0 0 0 -179.22333650510836 -136.39722520346936 0 -136.39722520346936 -107.64212953426613 0 0 0 0 64.173500630800845 71.796070761170995 0 71.796070761170995 64.282561621132118 0 0 0 0 -106.03199903111181 -108.34062737968179 0 -108.34062737968179 -110.85024485440226 0 0 0 0 599.52397947137797 984.64888902793246 0 984.64888902793246 658.43337832880206 0 0 0 0 1034.4950837892829 243.37025346725204 0 243.37025346725204 -39.063499033044536 0 0 0 0 11.329023604242934 9.7840868542800408 0 9.7840868542800408 7.4688603861510785 0 0 0 0 391.68337947025793 -493.46810814327364 0 -493.46810814327364 620.60497009923711 0 0 0 0 360.68067145638634 684.99606623441287 0 684.99606623441287 -1362.5137147004934 0 0 0 0 116.61307455759379 1098.8872910782993 0 1098.8872910782993 1115.7299196821477 0 0 0 0 1592.4556366569159 704.29679280477285 0 704.29679280477285 339.92407719445328 0 0 0 0 691.98258552391053 501.38126672945509 0 501.38126672945509 -122.66819878954266 0 0 0 0 481.17562669700419 445.64397289518092 0 445.64397289518092 305.49630503791923 0 0 0 0 750.12846871578222 760.47104297541227 0 760.47104297541227 141.90165656385943 0 0 0 0 332.17309184255282 425.92319486239285 0 425.92319486239285 157.78032169647918 0 0 0 0 523.71383405928827 244.06699558982291 0 244.06699558982291 -593.13700215378776 0 0 0 0 148.09719601556571 357.89022539500002 0 357.89022539500002 -109.57406726072077 0 0 0 0 102.61858422716614 -32.283673958801955 0 -32.283673958801955 -521.50525640808337 0 0 0 0 -23.491805889098032 -414.06883819144036 0 -414.06883819144036 -871.87250171597407 0 0 0 0 -43.555919152582646 -130.91009464190574 0 -130.91009464190574 -463.49184070667252 0 0 0 0 110.46023872210935 -15.873617277575249 0 -15.873617277575249 -381.25431564226164 0 0 0 0 91.54447906956193 64.905140124181344 0 64.905140124181344 -248.68193129912834 0 0 0 0 280.73959948097763 271.17921306970857 0 271.17921306970857 -289.64762482105289 0 0 0 0 452.70802761604864 274.20613397066336 0 274.20613397066336 -315.1423163057334 0 0 0 0 368.79779389550094 69.026363225530076 0 69.026363225530076 -606.26009519910804 0 0 0 0 411.91967062113349 270.97220831401944 0 270.97220831401944 -270.68043822434265 0 0 0 0 410.08211651401507 345.50831649187239 0 345.50831649187239 -310.53662038340553 0 0 0 0 753.00845096249395 -194.24474909551282 0 -194.24474909551282 -297.72537721320987 0 0 0 0 136.82409089255816 564.03315639091306 0 564.03315639091306 -476.2336839296695 0 0 0 0 166.6346783034096 160.38775441463076 0 160.38775441463076 -388.84490591732902 0 0 0 0 -3.5612428678725507 2.4412391394136534 0 2.4412391394136534 -6.1965807848518466 0 0 0 0 137.19063042218841 121.67276279699217 0 121.67276279699217 -88.532811003737152 0 0 0 0 948.67859080730705 313.84893628817372 0 313.84893628817372 -1037.248807005235 0 0 0 0 -250.68082093121484 -812.01446144632791 0 -812.01446144632791 1629.5143940210546 0 0 0 0 43.982117539148931 1204.3976431426281 0 1204.3976431426281 129.33790520517505 0 0 0 0 149.91029401704145 239.50101147154783 0 239.50101147154783 -677.06791128472832 0 0 0 0 891.81815475837402 -81.125529606884356 0 -81.125529606884356 25.457813568209531 0 0 0 0 22.506244555264999 3.2136025791837142 0 3.2136025791837142 -19.203967076955706 0 0 0 0 -18.398349042385234 -74.785016704860027 0 -74.785016704860027 5.7387784218335582 0 0 0 0 810.79278157631052 501.87386565514316 0 501.87386565514316 -124.12140166730387 0 0 0 0 912.96243528958439 1178.8449716962423 0 1178.8449716962423 146.33903032916987 0 0 0 0 1245.3247039584166 915.24809714592629 0 915.24809714592629 261.32661945959262 0 0 0 0 1219.910707371615 1065.8260258752707 0 1065.8260258752707 282.35207849374274 0 0 0 0 29.691599181438505 -26.853640788365738 0 -26.853640788365738 -292.15104952019465 0 0 0 0 49.380302345132804 -101.65323382163479 0 -101.65323382163479 -384.38341237427085 0 0 0 0 17.393787499494664 6.736889998653794 0 6.736889998653794 -20.420762522460961 0 0 0 0 8.1428930035617668 50.515652708345442 0 50.515652708345442 -79.924976220383542 0 0 0 0 -56.594758651146549 139.58368220680859 0 139.58368220680859 5.5020882196404273 0 0 0 0 -13.636817132577562 155.31561450511799 0 155.31561450511799 -191.27231371105881 0 0 0 0 56.178773106824508 31.292203367464523 0 31.292203367464523 18.085374228619855 0 0 0 0 -210.52124782745523 -67.697211005714053 0 -67.697211005714053 -313.86956838992774 0 0 0 0 517.39947344126995 460.28553889213072 0 460.28553889213072 -515.66353348949633 0 0 0 0 -136.60926417517476 175.18831083385157 0 175.18831083385157 -43.050001533987597 0 0 0 0 -65.22395872756897 281.13952288922155 0 281.13952288922155 -190.559566910797 0 0 0 0 -8.944082886002434 100.04466345609399 0 100.04466345609399 -110.42084195628559 0 0 0 0 128.37965397355583 251.14137687804759 0 251.14137687804759 -338.42537547278334 0 0 0 0 38.295687398280052 21.970508085341272 0 21.970508085341272 11.395534931826774 0 0 0 0 52.995042443726561 263.90951094222692 0 263.90951094222692 -327.49286505320197 0 0 0 0 143.11098473527818 309.16524804607616 0 309.16524804607616 -37.219210320567512 0 0 0 0 23.814923669058771 198.50631612484722 0 198.50631612484722 -139.59701376022713 0 0 0 0 216.61422406981728 94.210667295628809 0 94.210667295628809 -430.65848143390031 0 0 0 0 -176.6605434325902 541.82062578697514 0 541.82062578697514 899.78407450358645 0 0 0 0 14.814303127510527 7.9287869435706142 0 7.9287869435706142 4.3787091425892299 0 0 0 0 -62.808965045103832 625.07132046637344 0 625.07132046637344 674.19216839301225 0 0 0 0 281.92831940634642 -46.651421368806041 0 -46.651421368806041 344.89551818315522 0 0 0 0 58.41876210673945 211.19550930230616 0 211.19550930230616 748.61616710668022 0 0 0 0 152.5386996541265 356.78063680534501 0 356.78063680534501 309.88385661380016 0 0 0 0 339.05435140313057 -17.600080687567242 0 -17.600080687567242 -149.71465978075867 0 0 0 0 629.84860888148251 385.83943339570396 0 385.83943339570396 110.55224239004019 0 0 0 0 393.23011689582927 72.540639503677085 0 72.540639503677085 -294.03408482809755 0 0 0 0 163.77217003039186 -77.008671563486132 0 -77.008671563486132 1.7434265262127155 0 0 0 0 26.845084734100965 64.81861102952098 0 64.81861102952098 -140.14418513241981 0 0 0 0 5.282688111531229 5.1782840469074642 0 5.1782840469074642 3.9758178290497455 0 0 0 0 39.865113788335293 58.072106632334908 0 58.072106632334908 148.75555665379943 0 0 0 0 105.62746428407991 269.1719748630494 0 269.1719748630494 740.38802610017592 0 0 0 0 90.786488107747573 8.7948962927184766 0 8.7948962927184766 127.56642198171903 0 0 0 0 18.360119503783551 12.20505275466023 0 12.20505275466023 7.8337437476035632 0 0 0 0 -5.6174577857964323 36.078522990435886 0 36.078522990435886 -65.81495597303001 0 0 0 0 55.806785915199725 42.3654781304067 0 42.3654781304067 163.64916764871305 0 0 0 0 -104.63364862246635 177.52347795460037 0 177.52347795460037 319.83574374632735 0 0 0 0 246.5761521418317 -7.4147278722011833 0 -7.4147278722011833 117.05733397783479 0 0 0 0 447.00747744381806 238.86533947466887 0 238.86533947466887 152.32399496485596 0 0 0 0 121.950430680723 125.42538898309522 0 125.42538898309522 202.49452731791825 0 0 0 0 4.9582855636363661 4.7727645587676193 0 4.7727645587676193 0.87931350623575444 0 0 0 0 212.15910872472159 -172.40794876831933 0 -172.40794876831933 23.172482882363056 0 0 0 0 316.72770771575597 373.65933099228641 0 373.65933099228641 143.6952662813419 0 0 0 0 163.16741722746519 37.183369765421958 0 37.183369765421958 -231.3818100305798 0 0 0 0 12.246303481088205 -5.643155575642453 0 -5.643155575642453 -20.965842713434711 0 0 0 0 4.2015798528009327 -74.112303898509708 0 -74.112303898509708 -117.90099880130492 0 0 0 0 137.33720984478714 39.724442266568076 0 39.724442266568076 -181.18888250560485 0 0 0 0 217.74164345237659 30.389790775509027 0 30.389790775509027 -235.55078036629129 0 0 0 0 74.960876495330012 83.420799267427356 0 83.420799267427356 -22.508642098211567 0 0 0 0 124.75131121302547 190.03450849003275 0 190.03450849003275 95.82972412284289 0 0 0 0 357.54494333999173 121.51387534642708 0 121.51387534642708 -188.58931271736128 0 0 0 0 176.36922187016899 -114.18694600706658 0 -114.18694600706658 -130.77090622595279 0 0 0 0 -2.30923489225097 -10.957403556138161 0 -10.957403556138161 -51.091235656494973 0 0 0 0 -68.194549709704006 -17.761541300191311 0 -17.761541300191311 -123.49380105058663 0 0 0 0 -74.310284440696705 6.9675755013740854 0 6.9675755013740854 -222.11144039724604 0 0 0 0 36.0619646282139 4.8494911749294261 0 4.8494911749294261 -27.895742594089825 0 0 0 0 63.682510454234972 44.374274004347996 0 44.374274004347996 -23.867281766566748 0 0 0 0 -26.369788365496788 -122.44595962282619 0 -122.44595962282619 -272.01563401409658 0 0 0 0 42.017293836662532 14.869614730843551 0 14.869614730843551 -41.812336153650222 0 0 0 0 -40.948664882249432 -12.840463064887444 0 -12.840463064887444 -214.28698212726158 0 0 0 0 205.12947655806784 9.3299662398494547 0 9.3299662398494547 -233.93671661414555 0 0 0 0 160.2533317025518 93.646081196406158 0 93.646081196406158 53.263362751131353 0 0 0 0 66.353231191700957 6.587447232713032 0 6.587447232713032 -86.355082683383074 0 0 0 0 151.38572463398032 112.6281365451996 0 112.6281365451996 58.93993889207195 0 0 0 0 99.660421529562882 102.04418665269623 0 102.04418665269623 255.04863405885408 0 0 0 0 25.053281929724221 12.645485934734964 0 12.645485934734964 5.9013507299048342 0 0 0 0 3.0214548113260449 -1.5038726868163508 0 -1.5038726868163508 -2.183747905891039 0 0 0 0 359.23202563962695 301.35136687963677 0 301.35136687963677 148.92756378633203 0 0 0 0 402.72961842157383 369.77438510163483 0 369.77438510163483 153.57618283521151 0 0 0 0 361.82951681349005 318.87634841666295 0 318.87634841666295 185.5246779609879 0 0 0 0 225.18586965782742 178.9017936297023 0 178.9017936297023 48.141170792792764 0 0 0 0 262.4509851637049 222.84592532798342 0 222.84592532798342 -0.032794689854199532 0 0 0 0 128.17431399344787 156.64447367298999 0 156.64447367298999 45.719441785622621 0 0 0 0 59.962233551010286 105.52948099252171 0 105.52948099252171 60.055568978583324 0 0 0 0 76.684013257878718 17.867982128334091 0 17.867982128334091 -64.864172380776068 0 0 0 0 208.3464370450456 -86.228817383918795 0 -86.228817383918795 -143.47124047624538 0 0 0 0 14.570772159944227 4.4842895863243939 0 4.4842895863243939 -134.13101719466795 0 0 0 0 213.41222874993946 63.783362303005561 0 63.783362303005561 -17.088345783471595 0 0 0 0 77.090536972192609 16.386518410582767 0 16.386518410582767 -57.537886441397092 0 0 0 0 55.604236974308151 25.208159424975747 0 25.208159424975747 -0.01385594459134154 0 0 0 0 357.45555130144203 77.338075484869478 0 77.338075484869478 -27.067231580993393 0 0 0 0 15.703481829715884 -4.0195983060715719 0 -4.0195983060715719 -12.770246027486508 0 0 0 0 75.753500594397309 71.960017159105533 0 71.960017159105533 56.680047673437741 0 0 0 0 1.583932447283587 100.54409609745926 0 100.54409609745926 26.801434468914522 0 0 0 0 22.301070166622068 19.085454249333651 0 19.085454249333651 12.82245755992156 0 0 0 0 536.66573178848193 184.55629210280313 0 184.55629210280313 -252.81925204919389 0 0 0 0 71.24211173805088 253.69286156133603 0 253.69286156133603 -260.35436769288026 0 0 0 0 1252.1830170304092 -427.96179012680295 0 -427.96179012680295 -170.80335331201786 0 0 0 0 23.846436101359018 2.3143261807605313 0 2.3143261807605313 2.141850515906274 0 0 0 0 1154.7107349938815 1523.8095240001858 0 1523.8095240001858 1847.1424916327828 0 0 0 0 1780.1471319564807 -358.82223507860908 0 -358.82223507860908 1163.594952512306 0 0 0 0 1409.6087777064167 1738.8861383946642 0 1738.8861383946642 1112.414570837509 0 0 0 0 691.8313964944864 797.79548735431308 0 797.79548735431308 131.60500159562798 0 0 0 0 2537.190670646989 782.02957236194561 0 782.02957236194561 -237.2413729007967 0 0 0 0 -12.027071069001977 114.28175260628632 0 114.28175260628632 135.04981793105253 0 0 0 0 -243.9961211769114 -232.68556389051082 0 -232.68556389051082 -137.01993544241122 0 0 0 0 189.57921062970854 53.258548679004889 0 53.258548679004889 -79.338737796177156 0 0 0 0 29.375193272658009 1.8118420288838593 0 1.8118420288838593 -26.992888081464514 0 0 0 0 3.6542970195012288 18.156865060068554 0 18.156865060068554 -24.364023373387681 0 0 0 0 18.550666646769969 -239.70790441380814 0 -239.70790441380814 -345.06710433812987 0 0 0 0 -10.848636385147984 108.07001232823677 0 108.07001232823677 -73.809879123276914 0 0 0 0 88.774072180975054 -1.9210862651998468 0 -1.9210862651998468 -126.55424023998785 0 0 0 0 296.09741736693104 315.11465539189521 0 315.11465539189521 402.19213770495753 0 0 0 0 64.671817129911489 3.6132773437043966 0 3.6132773437043966 -11.559579865950381 0 0 0 0 377.58677193398034 448.75982523107086 0 448.75982523107086 459.66493265143072 0 0 0 0 493.6419416157587 337.20833737956855 0 337.20833737956855 260.90179227049521 0 0 0 0 316.91709785248895 322.02233971006353 0 322.02233971006353 348.21673771165661 0 0 0 0 497.13777911198667 341.22189499343585 0 341.22189499343585 0.59404408892442007 0 0 0 0 664.68222587568016 489.65920707282203 0 489.65920707282203 126.9113269711961 0 0 0 0 1353.6326196194714 651.51808035960858 0 651.51808035960858 -0.41580987167253625 0 0 0 0 812.2015982678713 836.64378815905548 0 836.64378815905548 479.94960070267553 0 0 0 0 1364.8004454034381 695.12554882323457 0 695.12554882323457 104.8956686960737 0 0 0 0 2514.9032259888409 888.94279537675902 0 888.94279537675902 -99.953108607587637 0 0 0 0 530.63287605762889 761.4044759939934 0 761.4044759939934 306.91055224608863 0 0 0 0 1544.1343816245162 36.600209440465733 0 36.600209440465733 -123.69191841053544 0 0 0 0 294.9466210001483 643.02459174216347 0 643.02459174216347 0.18948118318256404 0 0 0 0 -462.68417167021835 -262.79322401360332 0 -262.79322401360332 -83.945129989675479 0 0 0 0 -1540.8485187676051 597.10266532936294 0 597.10266532936294 -1.3296971910021966 0 0 0 0 -1570.602287574422 -160.5191879307622 0 -160.5191879307622 -353.98897868709173 0 0 0 0 -1611.6322354898512 -209.76972944175213 0 -209.76972944175213 293.26937849588285 0 0 0 0 -653.07602348379442 595.0741829896433 0 595.0741829896433 126.76735151551475 0 0 0 0 379.81185808919781 89.411302969645476 0 89.411302969645476 33.570442624768475 0 0 0 0 -624.54097502057994 453.41326520032453 0 453.41326520032453 872.02884919267672 0 0 0 0 -588.19482607748068 446.89677012045286 0 446.89677012045286 -9.9024499977276719 0 0 0 0 -1385.3232823255967 128.45818283151857 0 128.45818283151857 288.95626225852175 0 0 0 0 -1328.2737739635286 -57.241850227752366 0 -57.241850227752366 -341.8321353009087 0 0 0 0 -356.11390747838595 545.43776080333919 0 545.43776080333919 -109.17142553489248 0 0 0 0 -1097.1104611148205 108.12531692011839 0 108.12531692011839 -343.24095756522729 0 0 0 0 -1091.5095352586859 487.98310568421778 0 487.98310568421778 100.38853369912249 0 0 0 0 -247.36204250632727 391.63105964023271 0 391.63105964023271 -95.675352973135887 0 0 0 0 -39.669531566920341 913.40650028228993 0 913.40650028228993 164.48573230225338 0 0 0 0 445.87942919102352 1051.586703123332 0 1051.586703123332 219.3828061845561 0 0 0 0 -354.11793794124969 499.89043732917344 0 499.89043732917344 100.41027910374396 0 0 0 0 952.6914899598778 617.56379503331846 0 617.56379503331846 277.7345448773267 0 0 0 0 791.98661411352441 691.89404906180425 0 691.89404906180425 394.78960414917674 0 0 0 0 823.50490028838249 571.77886223683527 0 571.77886223683527 274.15414231203613 0 0 0 0 14.3444314781309 6.353541126724366 0 6.353541126724366 -10.487010772144572 0 0 0 0 -2355.7727800839202 285.42852148319071 0 285.42852148319071 -253.59979179939546 0 0 0 0 -3303.2797674771864 -1130.8233670411719 0 -1130.8233670411719 -616.67565979849314 0 0 0 0 -1627.494671486842 327.09588253719267 0 327.09588253719267 61.653356061549857 0 0 0 0 -1680.7094900615648 -81.601396161377124 0 -81.601396161377124 -201.40693777590059 0 0 0 0 -2040.1714652483788 -10.851723287036293 0 -10.851723287036293 139.09418976622692 0 0 0 0 -1950.0855532300775 -384.37323837711301 0 -384.37323837711301 -745.18941882974468 0 0 0 0 -15.459261796829502 25.215514445047319 0 25.215514445047319 -6.8313646610623664 0 0 0 0 -3093.8867825544003 -397.24473975507863 0 -397.24473975507863 219.41149763594149 0 0 0 0 -2440.5113412883875 311.58041317585594 0 311.58041317585594 69.301709241219214 0 0 0 0 -3115.0321317231137 -281.27244069614244 0 -281.27244069614244 -41.705725927422463 0 0 0 0 940.88913660204344 605.5748101453355 0 605.5748101453355 290.36099465603183 0 0 0 0 1602.4483970570436 860.29019285960385 0 860.29019285960385 0.87624849297571927 0 0 0 0 1017.7655134110028 607.52137342499918 0 607.52137342499918 226.32459714041033 0 0 0 0 1594.4668298456454 591.81294013765728 0 591.81294013765728 190.03742225465248 0 0 0 0 -3896.0226238562464 -447.87515147489466 0 -447.87515147489466 446.79798939099055 0 0 0 0 1912.0570684155755 766.50647788656897 0 766.50647788656897 -44.676826208626153 0 0 0 0 -4.9763322435005364 7.3241236708987287 0 7.3241236708987287 -0.54728409367083941 0 0 0 0 1188.06012367121 785.8658738856393 0 785.8658738856393 185.37666665612778 0 0 0 0 1028.6134613365284 1043.6991567525165 0 1043.6991567525165 -0.14197465097095119 0 0 0 0 992.38056855410105 953.20285528020759 0 953.20285528020759 194.43963660574855 0 0 0 0 1207.4296062807043 849.61262082408575 0 849.61262082408575 200.55616327071039 0 0 0 0 786.465969827972 1052.199926087429 0 1052.199926087429 259.50041946071724 0 0 0 0 771.16830645189839 984.6920212711957 0 984.6920212711957 318.26894201942196 0 0 0 0 808.00859518591369 1006.4531255420306 0 1006.4531255420306 293.78868439170765 0 0 0 0 889.65891227684187 985.53907604985579 0 985.53907604985579 300.45903673765861 0 0 0 0 805.39704076588714 1017.6904992261416 0 1017.6904992261416 417.72442084352951 0 0 0 0 823.26735219232069 955.12506663530803 0 955.12506663530803 483.63023164923652 0 0 0 0 555.52906835341855 1151.4180964460975 0 1151.4180964460975 521.74103015207947 0 0 0 0 1155.5684458147589 763.4103929205703 0 763.4103929205703 260.36146143547376 0 0 0 0 891.83805813356594 735.41305238876157 0 735.41305238876157 272.84306447525159 0 0 0 0 904.17400644171721 950.55983170591207 0 950.55983170591207 353.12547796971921 0 0 0 0 826.11320513089595 911.20905901621882 0 911.20905901621882 377.41768598100316 0 0 0 0 822.92666246186855 976.21120901635732 0 976.21120901635732 508.51268696473562 0 0 0 0 867.95083681467077 850.24858116425094 0 850.24858116425094 407.14219155212049 0 0 0 0 649.48464704380604 794.71548687134054 0 794.71548687134054 466.98657572592492 0 0 0 0 785.82368511696404 747.89826306585746 0 747.89826306585746 322.8533212441107 0 0 0 0 675.28004986507585 763.97647212373704 0 763.97647212373704 502.01385901420144 0 0 0 0 706.93854147189995 640.17403461945651 0 640.17403461945651 364.98438255212386 0 0 0 0 20.489614175225142 628.35415471973829 0 628.35415471973829 815.53244718874339 0 0 0 0 527.35866122873267 559.72492812070413 0 559.72492812070413 431.98802355561929 0 0 0 0 -43.554208732719417 53.301996915004565 0 53.301996915004565 -9.386756183423131 0 0 0 0 1074.8442103997222 1002.3911936927398 0 1002.3911936927398 813.19606928521534 0 0 0 0 -22.156905786084224 12.813829234673449 0 12.813829234673449 11.70019736469186 0 0 0 0 611.84381065386697 948.80837583713583 0 948.80837583713583 842.69001573175046 0 0 0 0 693.39439297800709 801.21195942971099 0 801.21195942971099 466.75071310112253 0 0 0 0 438.80960315509583 804.45611833114526 0 804.45611833114526 725.44678876164835 0 0 0 0 433.85402998088102 650.80013907088141 0 650.80013907088141 508.81381185282953 0 0 0 0 730.36964729433384 873.61651598004755 0 873.61651598004755 638.1182902775472 0 0 0 0 731.19623222111841 875.02108607238915 0 875.02108607238915 609.2604145523801 0 0 0 0 703.93980487751833 795.94547735702508 0 795.94547735702508 659.45610075403238 0 0 0 0 670.39685691511841 938.18050004466204 0 938.18050004466204 666.9428367247092 0 0 0 0 741.40643391823687 1041.7607537257136 0 1041.7607537257136 817.96418349753367 0 0 0 0 681.12780731105886 879.3056067955622 0 879.3056067955622 860.52938845519384 0 0 0 0 672.91749428062758 901.89464111850248 0 901.89464111850248 835.12803510202502 0 0 0 0 -31.433928397309501 40.608032795877079 0 40.608032795877079 -36.238379786358564 0 0 0 0 -35.832893372235731 29.859935075487556 0 29.859935075487556 -21.928523724054941 0 0 0 0 594.56053754931781 906.96289949629863 0 906.96289949629863 854.54305137848496 0 0 0 0 559.41113741771915 982.03766259222903 0 982.03766259222903 866.8800581296673 0 0 0 0 -150.63357301126962 -0.65112599996882636 0 -0.65112599996882636 66.264110040952801 0 0 0 0 -36.319042770283247 41.71712716692204 0 41.71712716692204 -32.352048801770934 0 0 0 0 45.857786344597116 174.78445191945502 0 174.78445191945502 54.911655829069787 0 0 0 0 -28.891320739610819 48.315783710160758 0 48.315783710160758 -10.758570350037189 0 0 0 0 -25.75660654596868 65.573277407202113 0 65.573277407202113 -15.583540816878667 0 0 0 0 -11.079737334366655 50.878097326472925 0 50.878097326472925 -18.822510429192334 0 0 0 0 726.94073926507372 934.23237179953821 0 934.23237179953821 757.51477326004533 0 0 0 0 500.27068565659283 1069.9948831750444 0 1069.9948831750444 838.41351026548364 0 0 0 0 744.82282406398735 1052.5822371231479 0 1052.5822371231479 625.89054982116068 0 0 0 0 813.45676226171781 920.59179213555763 0 920.59179213555763 747.09762845476507 0 0 0 0 947.38105982761408 742.90049057567012 0 742.90049057567012 1190.1175819258206 0 0 0 0 -58.880647944839438 299.47281972650671 0 299.47281972650671 1163.1648723242724 0 0 0 0 810.82245659281034 1094.2618505832652 0 1094.2618505832652 891.87494749162579 0 0 0 0 1402.5045969292551 1467.2973432489525 0 1467.2973432489525 1481.4388354259863 0 0 0 0 772.38297921903722 1038.5007180277171 0 1038.5007180277171 884.02959778177319 0 0 0 0 744.27258412742776 781.50400418423669 0 781.50400418423669 1179.476239221287 0 0 0 0 842.67255051017855 1022.4948538913741 0 1022.4948538913741 1159.5761401251311 0 0 0 0 346.39535216220975 610.26432197648683 0 610.26432197648683 741.86168239705148 0 0 0 0 91.664607917395188 819.63792816834757 0 819.63792816834757 1047.3535710915166 0 0 0 0 404.15251767554696 832.95603760881204 0 832.95603760881204 1045.9777152267343 0 0 0 0 506.32770567529951 865.29451046080794 0 865.29451046080794 1011.6705666341732 0 0 0 0 402.31876235578079 755.35834553793552 0 755.35834553793552 1103.8157317901787 0 0 0 0 299.0844943872944 579.37986014907074 0 579.37986014907074 712.94997403735033 0 0 0 0 984.42487029907352 492.19398570712656 0 492.19398570712656 722.80421428615227 0 0 0 0 22.489381513364833 5.9624377424652266 0 5.9624377424652266 -17.10123571288517 0 0 0 0 1259.5399979507565 1068.6130234047814 0 1068.6130234047814 975.78493736110977 0 0 0 0 1019.9483932633084 879.74518090196943 0 879.74518090196943 880.55869020347018 0 0 0 0 -18.203317189673115 7.0224639023109887 0 7.0224639023109887 10.600476709493705 0 0 0 0 -46.848463440095657 22.843135358882137 0 22.843135358882137 -98.394438416551566 0 0 0 0 -55.550988061805157 45.834127487023352 0 45.834127487023352 -26.598601874218389 0 0 0 0 -108.67668880568817 76.521097697594087 0 76.521097697594087 -43.865756702725776 0 0 0 0 -59.186975207092473 68.339858318024199 0 68.339858318024199 -107.7161757791182 0 0 0 0 -118.6756586434276 49.388803740079311 0 49.388803740079311 3.0797009005327709 0 0 0 0 -116.85417605093608 38.694397770179421 0 38.694397770179421 43.720868422533385 0 0 0 0 -57.830297545850044 -0.75393033069121884 0 -0.75393033069121884 38.155409905200941 0 0 0 0 1156.018003153149 249.57147761956003 0 249.57147761956003 -49.664669297460932 0 0 0 0 -44.52053630264529 62.207211839650682 0 62.207211839650682 -50.318161289650902 0 0 0 0 -87.048370500095189 40.806018303148448 0 40.806018303148448 -13.099839805276133 0 0 0 0 -110.72621995701775 23.41797566270543 0 23.41797566270543 71.696658469125396 0 0 0 0 -134.50101853784872 27.501194690979901 0 27.501194690979901 71.256770405074349 0 0 0 0 -117.70356798809371 -10.538944602085394 0 -10.538944602085394 99.783721874235198 0 0 0 0 -108.98458226078947 24.50489924075373 0 24.50489924075373 62.444025633565616 0 0 0 0 -117.48573083413066 45.712551529202756 0 45.712551529202756 82.269751376414206 0 0 0 0 1167.4707338022854 214.97094981429109 0 214.97094981429109 -229.21998365098261 0 0 0 0 631.1736638158909 -901.79803388359869 0 -901.79803388359869 -893.03363718069158 0 0 0 0 -1097.0824657926041 -2098.1534659952631 0 -2098.1534659952631 -1320.7018014298519 0 0 0 0 -1367.0196631515428 455.3090016926526 0 455.3090016926526 145.67000310873846 0 0 0 0 -19.227931214976707 931.74756653304212 0 931.74756653304212 -451.7655112388311 0 0 0 0 -38.870523136749398 535.31397747341543 0 535.31397747341543 505.97879885560542 0 0 0 0 391.62235698317818 744.62099514278816 0 744.62099514278816 603.1259347969899 0 0 0 0 -161.36425603636599 809.5317299323724 0 809.5317299323724 229.5110847594915 0 0 0 0 -197.90299171183142 -24.451606682196143 0 -24.451606682196143 217.48384342488498 0 0 0 0 -266.49002157599898 30.356501859805576 0 30.356501859805576 181.73436302258779 0 0 0 0 -175.8520092874769 168.29348341407331 0 168.29348341407331 262.16341369484144 0 0 0 0 -45.961441123858094 16.86940598351066 0 16.86940598351066 -69.467628927959595 0 0 0 0 -57.032604090927634 55.62068239209475 0 55.62068239209475 -46.648817673602025 0 0 0 0 432.69754156915042 550.20954763571171 0 550.20954763571171 -219.48693443809316 0 0 0 0 -23.074021670950373 45.911777854417608 0 45.911777854417608 -55.110401155664817 0 0 0 0 -39.578509406033845 41.985968923254404 0 41.985968923254404 -36.81147705175681 0 0 0 0 -795.56298005787721 74.337814109176179 0 74.337814109176179 629.10936109168688 0 0 0 0 -139.16353610571241 -112.87066763853727 0 -112.87066763853727 12.775477628179942 0 0 0 0 -11.293242186877507 23.771390394660386 0 23.771390394660386 46.950127598689534 0 0 0 0 -172.88576196354188 -45.138175003232391 0 -45.138175003232391 -58.241749371387414 0 0 0 0 -433.84752336122438 154.48641006961225 0 154.48641006961225 8.7865292270798818 0 0 0 0 -346.50909973382659 243.66148971916846 0 243.66148971916846 14.212836194828924 0 0 0 0 -278.97821978658612 225.13313871405626 0 225.13313871405626 -79.026280060526915 0 0 0 0 -1389.4186140653146 -12.052237156116462 0 -12.052237156116462 496.52986689387762 0 0 0 0 -13.710062185806237 22.557931808806998 0 22.557931808806998 34.288772482661784 0 0 0 0 -931.58877392607246 27.147072950210713 0 27.147072950210713 -38.152944840388955 0 0 0 0 -706.12154436451237 709.90129225340934 0 709.90129225340934 736.6669258346883 0 0 0 0 -231.15907617366611 293.52618699800223 0 293.52618699800223 -399.16258764252416 0 0 0 0 42.115250655286218 628.53693384015423 0 628.53693384015423 -155.57935998034372 0 0 0 0 -2.5467614080637304 3.1318095018233407 0 3.1318095018233407 -2.0079627516170149 0 0 0 0 199.58250345035412 -29.738212728192593 0 -29.738212728192593 -750.01411131409986 0 0 0 0 -271.88527987743146 -800.7835026972316 0 -800.7835026972316 -1576.4977778649318 0 0 0 0 6.1283801907435986 7.9764535437202824 0 7.9764535437202824 -14.239790097439766 0 0 0 0 -128.75495023584517 317.7246000797677 0 317.7246000797677 963.23248466708537 0 0 0 0 521.96618922876951 1730.0081504836726 0 1730.0081504836726 1472.4724302248069 0 0 0 0 914.09936192009627 697.78045428685436 0 697.78045428685436 568.9979383511818 0 0 0 0 -379.94070603801083 747.16868622495531 0 747.16868622495531 685.73573493577715 0 0 0 0 1114.249669680401 1631.0715324990451 0 1631.0715324990451 1204.4619797812193 0 0 0 0 852.4224796710987 730.97585070452624 0 730.97585070452624 725.86672624347557 0 0 0 0 442.28502232764731 1115.2066145346398 0 1115.2066145346398 371.87318438620423 0 0 0 0 512.63434802570555 696.84819463824897 0 696.84819463824897 100.47087697056122 0 0 0 0 214.06096636911388 466.92901283789979 0 466.92901283789979 110.47528506272647 0 0 0 0 -656.45310123156014 239.65045573645148 0 239.65045573645148 -117.53239746100735 0 0 0 0 -715.13341163819132 641.75885835247936 0 641.75885835247936 242.1732816369331 0 0 0 0 -1840.0075094799395 -187.44043795065954 0 -187.44043795065954 -20.958468993252609 0 0 0 0 -1591.778331018977 -36.928583520777465 0 -36.928583520777465 240.01147440745262 0 0 0 0 -1931.9075692364568 182.47147564098123 0 182.47147564098123 270.73943830089411 0 0 0 0 -2046.9923649059183 -538.23133327434334 0 -538.23133327434334 358.41910855205788 0 0 0 0 572.0659154830646 468.91588094666076 0 468.91588094666076 360.48598446660617 0 0 0 0 -64.105075541396218 60.048255648660415 0 60.048255648660415 -5.8881755312759196 0 0 0 0 -19.186260602869929 23.080382481315425 0 23.080382481315425 13.451332085901527 0 0 0 0 -47.225670137560655 36.301398917009976 0 36.301398917009976 -17.366921236768036 0 0 0 0 -55.965560253971489 56.592608010832919 0 56.592608010832919 -9.7961582773714326 0 0 0 0 -60.086843282624613 66.73767555115046 0 66.73767555115046 -5.5741082953900332 0 0 0 0 -1057.7701639730585 10.381144202638097 0 10.381144202638097 -524.20902978588128 0 0 0 0 -42.751108959120756 69.815789443338872 0 69.815789443338872 -13.102134956629016 0 0 0 0 -1073.8230106951451 -54.109531788570166 0 -54.109531788570166 392.31361679996189 0 0 0 0 -518.97238244521941 688.20002465191646 0 688.20002465191646 687.726895562344 0 0 0 0 -521.04069629259629 194.86375306195532 0 194.86375306195532 106.63029999643913 0 0 0 0 -0.23945067694512545 2297.7910890384237 0 2297.7910890384237 2291.2129535109489 0 0 0 0 661.68144232359191 2044.3769564174763 0 2044.3769564174763 -0.61374433282617247 0 0 0 0 2017.8335599447273 3504.1195315750192 0 3504.1195315750192 1179.5771603652393 0 0 0 0 1374.1741548161372 655.6739413491523 0 655.6739413491523 -2635.1819333071035 0 0 0 0 -718.75676374205432 659.58064638970609 0 659.58064638970609 155.18743687089591 0 0 0 0 -1029.5764672506339 865.72955527740851 0 865.72955527740851 3062.3586071284044 0 0 0 0 12.648312775362967 15.699855869633126 0 15.699855869633126 14.857559450356064 0 0 0 0 -856.85349963279441 1487.0330406397043 0 1487.0330406397043 -261.23904289112033 0 0 0 0 23.245169859368332 33.627776783693392 0 33.627776783693392 31.661670308912903 0 0 0 0 -975.57972813287779 868.07840063839103 0 868.07840063839103 934.88221810519462 0 0 0 0 365.48218027702751 1105.0814113941124 0 1105.0814113941124 -76.259464652321185 0 0 0 0 370.51873095315386 1658.9845199813135 0 1658.9845199813135 1038.3193413446702 0 0 0 0 251.26414836327604 1299.2191769729143 0 1299.2191769729143 1.9201883239547897 0 0 0 0 747.35064218833577 1060.8643113955877 0 1060.8643113955877 98.581333898218872 0 0 0 0 406.24515720161435 1267.580818965962 0 1267.580818965962 447.30604987865809 0 0 0 0 520.2884932200941 1094.0895462909357 0 1094.0895462909357 710.54211509579909 0 0 0 0 260.28618441024446 1335.4185784648944 0 1335.4185784648944 694.34616903063397 0 0 0 0 -21.351830143102688 1638.2069455279095 0 1638.2069455279095 3308.833850171417 0 0 0 0 -27.613064049022796 1470.7915186470345 0 1470.7915186470345 1495.2090737052786 0 0 0 0 406.67308267060071 1037.6695785360535 0 1037.6695785360535 1298.9012780263729 0 0 0 0 98.37597317356267 926.16148109552159 0 926.16148109552159 1314.0173338259883 0 0 0 0 -50.596941797528416 753.29928425248363 0 753.29928425248363 1113.4650965510082 0 0 0 0 135.62578546552686 865.06891007472586 0 865.06891007472586 889.27126230232534 0 0 0 0 171.62111478039878 569.51116241590353 0 569.51116241590353 742.39479951195244 0 0 0 0 233.55480928521138 886.2957747405344 0 886.2957747405344 95.566820162668591 0 0 0 0 367.1023341797918 533.94322314133024 0 533.94322314133024 126.72000449594634 0 0 0 0 388.30598818877479 664.25494968847488 0 664.25494968847488 68.308593123641913 0 0 0 0 151.65339540020796 603.9616199361044 0 603.9616199361044 103.86308252161962 0 0 0 0 411.49001958061126 670.92380681419309 0 670.92380681419309 -103.34471315893461 0 0 0 0 149.93886783853668 622.70167001400841 0 622.70167001400841 682.60072583239526 0 0 0 0 -68.383025943734538 701.20748785266187 0 701.20748785266187 2069.5589413647831 0 0 0 0 369.68955321162503 403.37357737400453 0 403.37357737400453 762.40039172043907 0 0 0 0 390.94964577281644 127.60582533373235 0 127.60582533373235 1839.9911517998262 0 0 0 0 1025.9618883037474 1281.662910863517 0 1281.662910863517 1384.7522650064275 0 0 0 0 -930.32782087683154 21.803550273696601 0 21.803550273696601 899.14062763245602 0 0 0 0 589.49970615832717 177.12167639564723 0 177.12167639564723 -716.7095420875994 0 0 0 0 4.8136757351171013 22.438043497646561 0 22.438043497646561 28.14224821297762 0 0 0 0 67.213635382446228 336.17160932560364 0 336.17160932560364 1290.8885666542919 0 0 0 0 -505.48634012524599 1371.1248648400297 0 1371.1248648400297 1172.3154114147619 0 0 0 0 -776.68009302246355 637.09303368184555 0 637.09303368184555 1409.3669589477358 0 0 0 0 -627.37893910105777 1608.7755907595965 0 1608.7755907595965 4100.2765300386091 0 0 0 0 -587.45991078394582 492.27769435562368 0 492.27769435562368 -452.53048204140941 0 0 0 0 -1957.3662713040685 853.36336219844816 0 853.36336219844816 4484.6965721801716 0 0 0 0 8.4031528928185253 17.767610418978485 0 17.767610418978485 20.509720358969275 0 0 0 0 525.10934817964517 2632.6527660343709 0 2632.6527660343709 -417.36826913597179 0 0 0 0 1.3174378930307284 656.70949094994467 0 656.70949094994467 1163.7813693003664 0 0 0 0 -1217.2548545476166 2980.8693477902852 0 2980.8693477902852 18.542415120798978 0 0 0 0 235.37154810217908 424.76402855975175 0 424.76402855975175 226.49335614815573 0 0 0 0 504.7825791969226 2433.5727892207251 0 2433.5727892207251 4450.6966283762013 0 0 0 0 -2021.8090926537707 266.09318201219685 0 266.09318201219685 4021.1163965197193 0 0 0 0 -1105.9328549524944 -1117.6099098671111 0 -1117.6099098671111 6679.2279909848876 0 0 0 0 -565.41001848614542 -307.97499504074949 0 -307.97499504074949 3693.1944494046875 0 0 0 0 713.55133093770382 -2115.6929075651497 0 -2115.6929075651497 -354.7669952276774 0 0 0 0 11.533741688964597 14.719292577738436 0 14.719292577738436 21.456964409406936 0 0 0 0 987.89765724280005 1206.4767318875183 0 1206.4767318875183 -57.898162848403445 0 0 0 0 823.12254420814861 782.65485201910633 0 782.65485201910633 -328.15062945374302 0 0 0 0 380.877640178398 756.3334153134565 0 756.3334153134565 417.73713597543247 0 0 0 0 110.33615176481544 86.360053480952047 0 86.360053480952047 -478.8789600900509 0 0 0 0 2.45225981352894 11.249313332562849 0 11.249313332562849 19.137025311544164 0 0 0 0 2304.0036991025554 3992.6939603936917 0 3992.6939603936917 4666.8920482278336 0 0 0 0 148.48010161061757 1599.4123473098389 0 1599.4123473098389 3462.2440146224108 0 0 0 0 -180.83210953546222 627.20625005940747 0 627.20625005940747 2882.2557229222803 0 0 0 0 1383.7369309098294 -599.90005914898302 0 -599.90005914898302 2438.1415706204498 0 0 0 0 1291.6671184252627 1173.9694367774928 0 1173.9694367774928 838.28808706335985 0 0 0 0 -95.570291852134687 465.43962294157973 0 465.43962294157973 137.47784503929142 0 0 0 0 -0.022423312133469153 384.13750940861428 0 384.13750940861428 -120.73413520028407 0 0 0 0 585.17164611815679 766.59666678851681 0 766.59666678851681 83.139737411474925 0 0 0 0 72.324910286053637 292.30409244110342 0 292.30409244110342 -97.969658171379706 0 0 0 0 103.70099217351526 198.62188090207201 0 198.62188090207201 38.319318347799708 0 0 0 0 -583.68278820505657 73.298502235233173 0 73.298502235233173 41.824806033633649 0 0 0 0 -610.80650513047067 537.87919173681507 0 537.87919173681507 -82.323843337595463 0 0 0 0 -306.48622510958376 276.34624002302553 0 276.34624002302553 -95.703473481320543 0 0 0 0 -321.30627627545618 292.60540849321114 0 292.60540849321114 125.89949205431913 0 0 0 0 -320.77506267158606 230.06492460966911 0 230.06492460966911 95.809902483975748 0 0 0 0 -19.041062236738071 441.24352476581771 0 441.24352476581771 -127.92334865063458 0 0 0 0 -464.14571433710807 310.22389329578436 0 310.22389329578436 99.882488573384762 0 0 0 0 -345.33958014585369 90.10622669467557 0 90.10622669467557 174.93863730682642 0 0 0 0 -254.79159651460941 160.84007631056738 0 160.84007631056738 84.240351528522297 0 0 0 0 -67.594608563042129 79.523402693372191 0 79.523402693372191 36.327756067679729 0 0 0 0 -39.091981951714843 169.73080823324563 0 169.73080823324563 58.066656104740105 0 0 0 0 -323.01932608024799 252.94064344720755 0 252.94064344720755 55.990899122054543 0 0 0 0 -328.20564513273712 224.88131736430296 0 224.88131736430296 61.435753874931834 0 0 0 0 -337.66499212484632 257.34449196246806 0 257.34449196246806 121.94127344813751 0 0 0 0 32.202346446297355 48.617871013115433 0 48.617871013115433 66.702626267680728 0 0 0 0 -426.19675411873322 -140.59622652582038 0 -140.59622652582038 1190.83697041913 0 0 0 0 135.41258749614099 -1101.053747216336 0 -1101.053747216336 1382.7562447644596 0 0 0 0 1.2498553779159636 10.656766014512542 0 10.656766014512542 13.300642806362362 0 0 0 0 61.24992729285384 78.107282652421503 0 78.107282652421503 102.75737895612255 0 0 0 0 -257.10436245929304 1064.8740754979153 0 1064.8740754979153 859.67934620774031 0 0 0 0 478.09720693454437 -324.04268061182665 0 -324.04268061182665 207.72670273573021 0 0 0 0 722.34989189431508 47.425816592589399 0 47.425816592589399 -402.49569294106914 0 0 0 0 339.18918961469171 778.93078606842937 0 778.93078606842937 232.70047935072216 0 0 0 0 192.09692398886546 1358.5476468960405 0 1358.5476468960405 -957.5978303599004 0 0 0 0 180.20244848707807 638.25440238957526 0 638.25440238957526 577.87102001477615 0 0 0 0 84.969912004715297 -83.994177247717744 0 -83.994177247717744 851.59051660609475 0 0 0 0 124.10906367527787 395.5957357185398 0 395.5957357185398 115.90688880410744 0 0 0 0 71.358657281394699 163.03038910329633 0 163.03038910329633 -109.52151012528338 0 0 0 0 -9.5484984097215033 18.746241977364775 0 18.746241977364775 -51.311871514515246 0 0 0 0 51.185864300616231 -225.35126418987056 0 -225.35126418987056 212.71014360693516 0 0 0 0 37.174951997003518 118.6154941089917 0 118.6154941089917 -32.363028339284938 0 0 0 0 102.06454718580972 78.88266331147679 0 78.88266331147679 -29.686442601581803 0 0 0 0 -36.757506090478273 278.05766492753173 0 278.05766492753173 -304.25651118715177 0 0 0 0 -45.884225815593098 67.518404648384035 0 67.518404648384035 -42.573381588302595 0 0 0 0 289.06487101293169 55.678558588551823 0 55.678558588551823 -201.4251989532786 0 0 0 0 230.76271721678495 6.699224291874998 0 6.699224291874998 -233.79845378352911 0 0 0 0 81.859766014822526 521.25004810094833 0 521.25004810094833 -483.18829035352974 0 0 0 0 311.38942406422575 393.92727744374133 0 393.92727744374133 -575.10919559869217 0 0 0 0 22.940126394096296 186.61256571681588 0 186.61256571681588 110.62306370539591 0 0 0 0 70.338878857330712 115.0667447097286 0 115.0667447097286 110.48070745770855 0 0 0 0 -57.360479671860958 102.21239596867508 0 102.21239596867508 70.480831850873074 0 0 0 0 150.98162495528231 85.566149631493317 0 85.566149631493317 176.86245676332328 0 0 0 0 44.741579586552689 104.50334020676382 0 104.50334020676382 -14.495199831522768 0 0 0 0 -19.875942309866716 77.231306272681778 0 77.231306272681778 -20.408861358419358 0 0 0 0 108.05513987183804 235.98091479399591 0 235.98091479399591 -7.3186647554684896 0 0 0 0 129.0701551354141 194.42602473023726 0 194.42602473023726 -43.765992468397599 0 0 0 0 1.2556997243085561 161.98480188088391 0 161.98480188088391 -13.861705643904401 0 0 0 0 7.110641758104876 60.494252982831313 0 60.494252982831313 -68.927349188321728 0 0 0 0 145.58659010722073 119.81567694937638 0 119.81567694937638 21.378085685520801 0 0 0 0 421.82425334951404 49.868293813206037 0 49.868293813206037 76.093943298619706 0 0 0 0 444.74391799991645 217.83776877132186 0 217.83776877132186 -184.27401802071836 0 0 0 0 415.1152280472852 9.7043329027765139 0 9.7043329027765139 -125.35683370757033 0 0 0 0 198.40939748488017 -51.823838619926391 0 -51.823838619926391 208.21262225421378 0 0 0 0 48.637182076122372 65.000747071776772 0 65.000747071776772 -40.087096605989217 0 0 0 0 -271.42295894255949 -87.089747195386735 0 -87.089747195386735 138.862186144406 0 0 0 0 504.53838844546408 522.37738981570146 0 522.37738981570146 115.81485539428968 0 0 0 0 -40.248790131717328 -0.39127541163159663 0 -0.39127541163159663 2.7360528717746035 0 0 0 0 30.936054182395083 -3.2052437739744732 0 -3.2052437739744732 -6.2820046640885039 0 0 0 0 1507.1719480437896 1237.4299042375205 0 1237.4299042375205 327.47332178007946 0 0 0 0 -39.16740753844762 27.769949554255902 0 27.769949554255902 6.1007198455969274 0 0 0 0 875.15466002415315 -172.65918674373006 0 -172.65918674373006 9.6474533767031971 0 0 0 0 -109.35859700203582 276.4696669764453 0 276.4696669764453 436.7222554142927 0 0 0 0 -138.77299951884197 231.60712828671967 0 231.60712828671967 205.46451602759771 0 0 0 0 -10.717027665400835 143.65536271120553 0 143.65536271120553 0.81622010973509873 0 0 0 0 364.30092390577192 198.42179469873372 0 198.42179469873372 -105.41285541120305 0 0 0 0 120.36389293604589 162.02594105117714 0 162.02594105117714 130.44372159129125 0 0 0 0 15.591707332272136 18.889603070586105 0 18.889603070586105 11.223352691234879 0 0 0 0 -5.7277084019618769 29.737550206148569 0 29.737550206148569 -7.371823691127986 0 0 0 0 364.28904570516278 221.29035673341212 0 221.29035673341212 212.80647583599784 0 0 0 0 36.861869936896255 242.03612492258253 0 242.03612492258253 99.129243873230735 0 0 0 0 160.24866013634892 141.07675602790187 0 141.07675602790187 140.92359847050102 0 0 0 0 216.1408070806865 83.42036530155201 0 83.42036530155201 141.37025642374647 0 0 0 0 870.88145263587649 142.82994021052582 0 142.82994021052582 -87.776886606938206 0 0 0 0 599.51624252196052 219.9541691868435 0 219.9541691868435 -4.472187377687078 0 0 0 0 219.74552132445388 103.62421136087505 0 103.62421136087505 222.4706163466326 0 0 0 0 291.22698449663585 206.93363075904199 0 206.93363075904199 146.12367341434583 0 0 0 0 160.18582755792886 -14.762758831704559 0 -14.762758831704559 -154.68280198826687 0 0 0 0 283.46412516760756 181.72158970998134 0 181.72158970998134 67.227293627045583 0 0 0 0 156.05677288965126 96.275114248440673 0 96.275114248440673 112.98682874988299 0 0 0 0 401.67974163682084 66.815075001664809 0 66.815075001664809 -376.7770716276209 0 0 0 0 304.01596024324681 39.681011486401985 0 39.681011486401985 8.4780514954327373 0 0 0 0 29.710097011098306 131.10136682783553 0 131.10136682783553 -1.2753934471059551 0 0 0 0 307.88915422561695 289.3245252691886 0 289.3245252691886 -155.46709245022066 0 0 0 0 382.84174762221664 113.3840056977424 0 113.3840056977424 -248.77259128323931 0 0 0 0 472.19009236468992 343.51388575290184 0 343.51388575290184 -444.31057473510737 0 0 0 0 567.55330421538383 152.48759461879672 0 152.48759461879672 -336.62677857768722 0 0 0 0 389.04286173719447 147.42161471358122 0 147.42161471358122 -186.75052066604985 0 0 0 0 317.0208575270517 35.240099758892029 0 35.240099758892029 10.645451381802559 0 0 0 0 390.36957258722032 35.612813298974288 0 35.612813298974288 26.882666821518796 0 0 0 0 54.874750207654017 127.14882386813377 0 127.14882386813377 3.4058068670070725 0 0 0 0 -311.89754151025409 813.75554127855685 0 813.75554127855685 464.77631644283247 0 0 0 0 263.12085847483831 -35.015633730305126 0 -35.015633730305126 12.956321345816832 0 0 0 0 335.21512432092277 -2.2579951724910643 0 -2.2579951724910643 26.753963260853197 0 0 0 0 -1096.0969581660756 17.176123939603713 0 17.176123939603713 126.68016815037117 0 0 0 0 462.45549345405743 90.225154116982594 0 90.225154116982594 8.2103649470082019 0 0 0 0 -628.76980308116617 469.19593957859252 0 469.19593957859252 -132.44368791402667 0 0 0 0 341.83446942940645 56.46259293469484 0 56.46259293469484 35.281073954953172 0 0 0 0 409.14841506686935 59.029933542653453 0 59.029933542653453 34.844647174084457 0 0 0 0 3.6214418526685392 4.5417642320544473 0 4.5417642320544473 3.0791776130333233 0 0 0 0 -183.83235441526631 256.29210932189017 0 256.29210932189017 -527.36432402441278 0 0 0 0 716.42841176078946 181.13368111592354 0 181.13368111592354 -219.97776108059043 0 0 0 0 -757.32149168691831 -1.1331543163396418 0 -1.1331543163396418 -29.803971363522578 0 0 0 0 -248.17333191877697 309.57267602253705 0 309.57267602253705 -83.241708322319028 0 0 0 0 -310.07148916808364 766.50630921403717 0 766.50630921403717 89.706187909003347 0 0 0 0 0.81127082090824842 519.68347937091312 0 519.68347937091312 -247.456449657755 0 0 0 0 2.5191962773678824 807.82611185168207 0 807.82611185168207 -419.78123892816802 0 0 0 0 92.915029871182924 453.20290313419719 0 453.20290313419719 -347.65989991516108 0 0 0 0 370.43037039550109 880.64552318129063 0 880.64552318129063 21.884809399271035 0 0 0 0 20.147776989760132 449.84893690889908 0 449.84893690889908 -390.55414940234914 0 0 0 0 23.231847608520184 365.74066712916829 0 365.74066712916829 576.825022799203 0 0 0 0 402.01015937053307 -14.455951081861713 0 -14.455951081861713 -258.53168468677904 0 0 0 0 252.5484338774113 107.07819389490032 0 107.07819389490032 -339.79259780364009 0 0 0 0 -341.08489559855661 419.31441525607079 0 419.31441525607079 -231.74859850923531 0 0 0 0 302.08595063347821 248.38424768858476 0 248.38424768858476 -575.25687430409016 0 0 0 0 -49.373058312456124 669.78072835792409 0 669.78072835792409 -1011.8401508377574 0 0 0 0 -903.94384262661333 1006.4681079808997 0 1006.4681079808997 -376.33146020654385 0 0 0 0 -310.40837030381226 703.22572298550767 0 703.22572298550767 -514.60181544092484 0 0 0 0 -961.28827464624192 1105.5781102106921 0 1105.5781102106921 -503.90851995509365 0 0 0 0 -910.98928489396349 785.55626739760919 0 785.55626739760919 -213.31110192343476 0 0 0 0 -1133.2171157000266 800.92472811107655 0 800.92472811107655 -364.0471451857702 0 0 0 0 -1087.1822325266903 338.13144123834354 0 338.13144123834354 -324.01628734584665 0 0 0 0 -1267.8970304809664 590.7495387959525 0 590.7495387959525 16.322862028333475 0 0 0 0 -1070.9538866857765 -5.8308400655951118 0 -5.8308400655951118 79.451133312439197 0 0 0 0 34.825964592062519 142.67283190241506 0 142.67283190241506 -905.44643304594047 0 0 0 0 110.60791382561729 -108.18640673063055 0 -108.18640673063055 -356.46434615253384 0 0 0 0 -12.402294261657062 5.1342672123153363 0 5.1342672123153363 -4.5341396886589109 0 0 0 0 -245.90449849126162 -178.74354258664971 0 -178.74354258664971 87.567164030508138 0 0 0 0 120.25450182879285 183.09358940893435 0 183.09358940893435 26.490824553373386 0 0 0 0 -723.88759410523926 193.79829386436177 0 193.79829386436177 168.9046499226888 0 0 0 0 -575.8913714411101 370.6501438875257 0 370.6501438875257 16.534742000032566 0 0 0 0 0.19974565697339131 341.75971410373586 0 341.75971410373586 -153.66368014063301 0 0 0 0 -307.49769286726223 625.57182273835497 0 625.57182273835497 -421.08791536578792 0 0 0 0 -543.49434042870416 309.78690570455001 0 309.78690570455001 121.52558695884363 0 0 0 0 -122.88080631860066 381.10982100100591 0 381.10982100100591 -122.84380033937828 0 0 0 0 -380.2892962292899 437.0323591684737 0 437.0323591684737 -290.72999035060639 0 0 0 0 -455.54886931828514 704.42381724747065 0 704.42381724747065 -1181.9754350939038 0 0 0 0 535.21457205414481 69.825286214589141 0 69.825286214589141 -256.84576036897488 0 0 0 0 -817.32185686085722 595.72678988000916 0 595.72678988000916 -128.01172416294503 0 0 0 0 -0.54564256938009947 4.3389315777452566 0 4.3389315777452566 -0.31559543628836195 0 0 0 0 348.99312319699675 315.14586435704405 0 315.14586435704405 -462.6999791432936 0 0 0 0 160.53550325149263 183.73205321975001 0 183.73205321975001 -100.83491370468982 0 0 0 0 40.575908387007075 599.38932961903629 0 599.38932961903629 -553.68815214018832 0 0 0 0 14.99750578378098 394.52201805404115 0 394.52201805404115 -331.99683863472455 0 0 0 0 45.6913881770015 304.85213401178044 0 304.85213401178044 -115.16551997685747 0 0 0 0 125.6998399515287 283.75465729454299 0 283.75465729454299 -356.26696613008789 0 0 0 0 -29.190154293515661 494.99340476763973 0 494.99340476763973 -311.39182382918807 0 0 0 0 94.934446809751535 332.37699206511297 0 332.37699206511297 -359.22751551372858 0 0 0 0 -144.77403953289468 262.40074923066277 0 262.40074923066277 302.7625831152809 0 0 0 0 -18.514716548546858 211.59193095124283 0 211.59193095124283 72.261219992651604 0 0 0 0 -92.911068470930331 195.94296847558871 0 195.94296847558871 172.94325159261643 0 0 0 0 -62.014417947706534 137.19851806970109 0 137.19851806970109 -22.73423686823844 0 0 0 0 9.1316482433866 18.977341527565912 0 18.977341527565912 17.741574354762832 0 0 0 0 -74.632470824173652 67.917255186664988 0 67.917255186664988 164.00797438414884 0 0 0 0 -501.3733609526098 133.38665740932993 0 133.38665740932993 -54.816446200064092 0 0 0 0 -173.75759395686327 204.49463913917134 0 204.49463913917134 166.38004402911611 0 0 0 0 -549.62799045436986 170.49214611134812 0 170.49214611134812 42.319670580138336 0 0 0 0 746.33737464282603 -43.005460029562528 0 -43.005460029562528 94.283594644955883 0 0 0 0 474.48509242632281 705.9454321314588 0 705.9454321314588 164.84068024464068 0 0 0 0 196.5588695815386 285.94587822857284 0 285.94587822857284 121.22539227781454 0 0 0 0 61.218252708509681 471.3222313876613 0 471.3222313876613 232.52801340977021 0 0 0 0 64.168261477541819 514.95097483944483 0 514.95097483944483 343.19455793275847 0 0 0 0 301.90731806389522 590.09714134113892 0 590.09714134113892 227.8372825050792 0 0 0 0 -55.648278478940483 595.17053716625742 0 595.17053716625742 607.80284406600913 0 0 0 0 -33.952237926496309 677.37369126662816 0 677.37369126662816 445.88334161385137 0 0 0 0 -29.544029548967956 592.56194063339353 0 592.56194063339353 370.14030396181624 0 0 0 0 63.153835563200118 769.87062645339029 0 769.87062645339029 416.63347481813616 0 0 0 0 41.128072212755796 609.78865658274663 0 609.78865658274663 1272.4153771453348 0 0 0 0 86.690954623532889 365.35825555458723 0 365.35825555458723 490.32261287019355 0 0 0 0 554.80651179673077 -102.5589086945547 0 -102.5589086945547 924.80284177144495 0 0 0 0 -84.548061549648992 400.09907626973654 0 400.09907626973654 558.50985726663203 0 0 0 0 29.043639326402626 472.67172033435781 0 472.67172033435781 478.08310392530257 0 0 0 0 15.002755071594947 144.10450134998246 0 144.10450134998246 232.23889990178577 0 0 0 0 -205.29808885604143 113.8339530856374 0 113.8339530856374 253.32094171200151 0 0 0 0 357.13602822180837 -30.556379314431979 0 -30.556379314431979 224.63043334454051 0 0 0 0 83.057402060461754 348.7860566880845 0 348.7860566880845 -232.91372427692113 0 0 0 0 144.286693099552 -108.52736530653146 0 -108.52736530653146 -412.08915724654798 0 0 0 0 -352.16147400156115 263.16623055725722 0 263.16623055725722 -159.67327106159064 0 0 0 0 143.09839311531687 432.55843149896828 0 432.55843149896828 -1217.6731404863567 0 0 0 0 -239.94309769191386 69.287073542760481 0 69.287073542760481 64.855528253523516 0 0 0 0 -157.30110234286985 168.43915605700022 0 168.43915605700022 126.51211542954115 0 0 0 0 -88.229601996332349 169.91151840524617 0 169.91151840524617 -196.89375167153048 0 0 0 0 -227.79416631605091 1.1548924768849247 0 1.1548924768849247 30.877955235555419 0 0 0 0 -247.20608600145351 38.197207141376566 0 38.197207141376566 38.758777903960436 0 0 0 0 -173.01293122857896 15.395372627193865 0 15.395372627193865 8.8477085591730429 0 0 0 0 -271.89679421367964 62.818047271005526 0 62.818047271005526 51.342182868742384 0 0 0 0 -293.70944235178467 171.99658446350804 0 171.99658446350804 -133.66547409169289 0 0 0 0 -179.8173475722615 34.290455719739839 0 34.290455719739839 -44.546261357376352 0 0 0 0 -1040.9286242965027 443.11774337647512 0 443.11774337647512 456.63138865242945 0 0 0 0 -4.0943880888453776 0.42295431790076776 0 0.42295431790076776 -4.5300060321192461 0 0 0 0 -429.52988878804899 329.29455966036039 0 329.29455966036039 -114.22221775789512 0 0 0 0 -232.30087660216668 -238.94933274351934 0 -238.94933274351934 448.15522475645048 0 0 0 0 991.15387149311209 219.03257381900039 0 219.03257381900039 -171.4823998968568 0 0 0 0 -479.20822704145394 254.42219636532172 0 254.42219636532172 139.4266011930049 0 0 0 0 -150.18503650803177 -163.7669857211622 0 -163.7669857211622 -161.11343370800932 0 0 0 0 4.8704420879337533 22.117120837892205 0 22.117120837892205 33.99660371858883 0 0 0 0 -238.59744530175885 251.17701621574088 0 251.17701621574088 -143.49911262831301 0 0 0 0 -0.47448843884163594 10.429191226441532 0 10.429191226441532 2.731895496595655 0 0 0 0 -1183.1386800384353 -275.03670136739674 0 -275.03670136739674 77.453067865491903 0 0 0 0 -4.6843906394468462 8.7409414775391951 0 8.7409414775391951 -14.133692375623866 0 0 0 0 -39.783949538074467 67.003989070949189 0 67.003989070949189 -58.662044187706499 0 0 0 0 119.18860254948959 193.88840474204335 0 193.88840474204335 -130.93946109409444 0 0 0 0 142.10325268505221 415.57236096489441 0 415.57236096489441 -266.57586914527928 0 0 0 0 -1259.4862153007853 927.11506026722782 0 927.11506026722782 733.05235723116857 0 0 0 0 -20.20596033243055 156.29190186438791 0 156.29190186438791 100.34095093967335 0 0 0 0 180.53380898662726 361.49758179135097 0 361.49758179135097 -373.09663211208135 0 0 0 0 160.09807591956996 160.09863560524172 0 160.09863560524172 -135.92178615188459 0 0 0 0 101.0382023810962 92.767821010602347 0 92.767821010602347 -348.73639802655089 0 0 0 0 -23.316292408742399 46.484082782249729 0 46.484082782249729 -64.249780258494411 0 0 0 0 -286.75895329070045 427.76671138056554 0 427.76671138056554 -220.82892271174205 0 0 0 0 -318.42538603325374 165.88557439648139 0 165.88557439648139 -94.092998974127113 0 0 0 0 -118.31323350195999 78.667651131630919 0 78.667651131630919 -63.372558263363317 0 0 0 0 -90.102883925806964 342.69343362469226 0 342.69343362469226 -191.99147406037082 0 0 0 0 -37.647750635151169 19.005706576048397 0 19.005706576048397 43.179742650361732 0 0 0 0 -187.45591959354351 87.32775741952355 0 87.32775741952355 60.880196644233365 0 0 0 0 -86.692530355016061 117.95573961347691 0 117.95573961347691 -37.698422863410087 0 0 0 0 -197.39989017833432 22.203940416715341 0 22.203940416715341 107.20191978668663 0 0 0 0 929.86005485198712 721.40569932331982 0 721.40569932331982 -981.02964639221318 0 0 0 0 124.96725608553243 -154.76818715069749 0 -154.76818715069749 1449.4481251438701 0 0 0 0 35.450340613618209 -1023.6380345791731 0 -1023.6380345791731 -1761.3735531728016 0 0 0 0 -1621.1721362677126 -176.40409175483364 0 -176.40409175483364 960.91499961056252 0 0 0 0 -664.30983164782083 374.83344908741492 0 374.83344908741492 -161.84419893944869 0 0 0 0 -203.04772636930284 493.16207501327153 0 493.16207501327153 -626.13132186915027 0 0 0 0 -17.614555638057936 471.76661182594671 0 471.76661182594671 -149.04098099205294 0 0 0 0 -9.2685085025150329 424.21795296696655 0 424.21795296696655 -415.67010120264604 0 0 0 0 -160.51306788687361 377.01187288688379 0 377.01187288688379 -314.07381914067082 0 0 0 0 -64.376607027690625 279.97464191846666 0 279.97464191846666 -540.87684783848817 0 0 0 0 -42.081769423210062 -95.122342891510925 0 -95.122342891510925 -558.51400720965103 0 0 0 0 -53.978092866695079 160.14910680930188 0 160.14910680930188 136.73166730781668 0 0 0 0 -16.648506871096998 5.5540952941464354 0 5.5540952941464354 3.0143689500576727 0 0 0 0 -27.877604551060358 -211.87307454075199 0 -211.87307454075199 -177.55005867098953 0 0 0 0 -24.148466976999771 -244.78341450580774 0 -244.78341450580774 48.413653160157992 0 0 0 0 259.26522275750176 99.415148281710572 0 99.415148281710572 -98.11817166118999 0 0 0 0 -79.215972235571826 624.8916441914771 0 624.8916441914771 -26.608819725108333 0 0 0 0 -2.5276237867098814 25.988623146291104 0 25.988623146291104 -18.812090797798248 0 0 0 0 35.327477138518589 409.60556223055755 0 409.60556223055755 -387.85141136978928 0 0 0 0 -18.397214195675787 36.516247199879345 0 36.516247199879345 -47.320958908333239 0 0 0 0 -596.05348133293592 52.2709478486031 0 52.2709478486031 310.13692041739705 0 0 0 0 1272.6475446152926 960.16826110962938 0 960.16826110962938 -133.07017807039665 0 0 0 0 491.61627950931143 1054.9465892552798 0 1054.9465892552798 312.7614739035489 0 0 0 0 863.67937885737774 -96.994136808669282 0 -96.994136808669282 135.1793321138166 0 0 0 0 -146.64040884790302 -133.00771271107806 0 -133.00771271107806 -724.40298983821413 0 0 0 0 -1047.4733178359602 -471.05816719953145 0 -471.05816719953145 -158.89101033938641 0 0 0 0 -354.5572638282174 353.50265254463011 0 353.50265254463011 -32.27816095417802 0 0 0 0 -545.93577208574425 156.34219316993767 0 156.34219316993767 96.450331057923904 0 0 0 0 -486.13862305838848 209.56707734800148 0 209.56707734800148 41.814283466985216 0 0 0 0 0.79776584778115023 0.055030547600384949 0 0.055030547600384949 -5.3585311765114341 0 0 0 0 -120.55027918089218 922.84230142814204 0 922.84230142814204 380.47714338540391 0 0 0 0 266.44819273615576 317.04311563260126 0 317.04311563260126 62.650117295179371 0 0 0 0 -1029.4364834247426 752.85337230847654 0 752.85337230847654 143.14439676310576 0 0 0 0 554.33705551345702 499.42985476415561 0 499.42985476415561 -1009.97640213864 0 0 0 0 -500.42805575826787 117.91683955315602 0 117.91683955315602 33.238457292725798 0 0 0 0 -965.85903122091986 -982.52979763278438 0 -982.52979763278438 -1069.5284267385578 0 0 0 0 -1.279113263720852 -3.0386062188204335 0 -3.0386062188204335 -10.310313721193438 0 0 0 0 -235.42936525458208 784.47870280073403 0 784.47870280073403 -24.021725954335125 0 0 0 0 -1745.7706320939251 920.14285421411478 0 920.14285421411478 504.24615483392336 0 0 0 0 -14.222631378502449 11.509104972167208 0 11.509104972167208 -12.430237089110449 0 0 0 0 -2064.0214123402211 -238.55041267829347 0 -238.55041267829347 422.51388411303924 0 0 0 0 173.79153463962575 -338.90740419006761 0 -338.90740419006761 -423.3166995204665 0 0 0 0 -1163.4041920500167 -137.98406631038233 0 -137.98406631038233 -54.459023124818486 0 0 0 0 -363.64377232137485 189.51260397323495 0 189.51260397323495 -8.2666264691688411 0 0 0 0 5.276023944004919 382.12185674074408 0 382.12185674074408 -8.6447781315800967 0 0 0 0 -143.71546619871333 632.80824217136433 0 632.80824217136433 138.14121218476066 0 0 0 0 -7.7595295588734743 13.786293906159884 0 13.786293906159884 -15.095731040465864 0 0 0 0 -2334.3239426787914 -167.06066145313889 0 -167.06066145313889 854.14804952245322 0 0 0 0 1323.6689928484775 -327.57935406990919 0 -327.57935406990919 -1429.576429479217 0 0 0 0 -1447.7708058986027 1925.6589017998813 0 1925.6589017998813 939.52154836412228 0 0 0 0 962.32360784788034 486.77752899893767 0 486.77752899893767 23.006477245478891 0 0 0 0 -618.36928727239138 509.929251939393 0 509.929251939393 64.312474903766997 0 0 0 0 361.19075390294165 517.34079076132184 0 517.34079076132184 -33.692779102391796 0 0 0 0 1739.2892825446106 628.46646936321849 0 628.46646936321849 -467.73434835784428 0 0 0 0 629.37134950401014 231.2761216903491 0 231.2761216903491 -176.03845093262498 0 0 0 0 300.17447237187298 333.26696539107797 0 333.26696539107797 -120.33045063178724 0 0 0 0 295.83229353676143 310.43594898789161 0 310.43594898789161 -107.28612865955802 0 0 0 0 -634.43698586092796 393.14807609013224 0 393.14807609013224 -6.4597623134832247 0 0 0 0 223.69280900532613 362.95918025355786 0 362.95918025355786 -71.348570763111638 0 0 0 0 190.68034700927092 216.33668255995144 0 216.33668255995144 -7.9925126795060351 0 0 0 0 -259.4178378834913 280.83284808909229 0 280.83284808909229 -11.571813614791608 0 0 0 0 239.7468753784924 180.88340109799901 0 180.88340109799901 -3.2684747836028691 0 0 0 0 -87.240607267754967 -257.79470576460881 0 -257.79470576460881 -203.43374862401834 0 0 0 0 276.5421385922964 -60.397780763334595 0 -60.397780763334595 -97.689084668425494 0 0 0 0 613.26407843329616 -193.34177555227598 0 -193.34177555227598 -324.61663906915055 0 0 0 0 -583.21304593198874 -897.09039840441983 0 -897.09039840441983 -738.44575768031063 0 0 0 0 278.13892868575931 110.30135005591728 0 110.30135005591728 88.867966502744821 0 0 0 0 253.2519453210698 95.022374841370038 0 95.022374841370038 105.3330202103607 0 0 0 0 287.67975165013922 121.21531847897859 0 121.21531847897859 100.43331370542001 0 0 0 0 225.15817072047503 82.411837305393419 0 82.411837305393419 105.51446301525721 0 0 0 0 261.33538443235011 107.31578265114513 0 107.31578265114513 121.18030755085056 0 0 0 0 276.35967590365908 -7.2392700383315969 0 -7.2392700383315969 24.767694271547953 0 0 0 0 46.83587237179745 -94.086543034703936 0 -94.086543034703936 -6.8869287661364069 0 0 0 0 129.98261320991151 87.760885488241911 0 87.760885488241911 111.95903579989681 0 0 0 0 -27.321027041802154 162.12750222972136 0 162.12750222972136 52.82921037817141 0 0 0 0 244.35654863610398 100.87286727632454 0 100.87286727632454 64.256670038346783 0 0 0 0 195.78730694520709 204.01959088702279 0 204.01959088702279 7.6621131779975258 0 0 0 0 318.79731348052155 134.75322367900662 0 134.75322367900662 46.546429724927293 0 0 0 0 255.68968481161392 174.88764344819492 0 174.88764344819492 273.68771719711367 0 0 0 0 254.48930745208054 153.43945058615645 0 153.43945058615645 133.80027942711604 0 0 0 0 346.09726209371001 185.702188850948 0 185.702188850948 49.588790189744032 0 0 0 0 197.42222294025123 147.71524715228588 0 147.71524715228588 158.50422312739829 0 0 0 0 279.96825254270516 176.17535100702662 0 176.17535100702662 146.20602309401875 0 0 0 0 -7.6404158116922929 39.965104377686728 0 39.965104377686728 -44.067605639375998 0 0 0 0 333.57837196881883 242.07401788012066 0 242.07401788012066 96.451150641019922 0 0 0 0 369.01702044534613 281.20229715884489 0 281.20229715884489 -80.964709700347157 0 0 0 0 -392.82899044007354 103.06096152952887 0 103.06096152952887 -25.703668213056517 0 0 0 0 532.52324910223251 431.19571520894533 0 431.19571520894533 98.236294427442772 0 0 0 0 14.890414486291633 4.6139341742236475 0 4.6139341742236475 -16.969757402681495 0 0 0 0 340.34992547951697 93.833648647305381 0 93.833648647305381 124.22575236330158 0 0 0 0 -246.81598503333953 106.38128164578302 0 106.38128164578302 -59.513680583298992 0 0 0 0 140.88911075522628 21.357126820377744 0 21.357126820377744 -6.9695466524208314 0 0 0 0 145.73320034557401 54.316923281332492 0 54.316923281332492 -11.9810715732674 0 0 0 0 -76.014949005497328 80.26619334120187 0 80.26619334120187 -86.907976398721075 0 0 0 0 93.721977569290516 54.799289983554338 0 54.799289983554338 -33.416924456049642 0 0 0 0 333.39132406286808 163.54829394997796 0 163.54829394997796 72.653229987583472 0 0 0 0 46.876743168728453 -14.816237900562314 0 -14.816237900562314 -54.150815594222848 0 0 0 0 426.44086294273438 152.36273481086391 0 152.36273481086391 7.3405384032375878 0 0 0 0 332.73108154045258 158.12748056393593 0 158.12748056393593 42.958182541507995 0 0 0 0 438.65272898423427 101.9131520889423 0 101.9131520889423 22.112315828926512 0 0 0 0 392.97418763741734 121.53104727497703 0 121.53104727497703 14.229781370842829 0 0 0 0 327.06237123521896 105.93495532025008 0 105.93495532025008 79.59135131064977 0 0 0 0 370.74383271334227 125.97233749106817 0 125.97233749106817 61.379604828682204 0 0 0 0 -329.51110287171468 330.28684123157655 0 330.28684123157655 129.38416383131516 0 0 0 0 -444.41362830513754 214.81199911358635 0 214.81199911358635 78.479686020080408 0 0 0 0 -383.39671030951286 187.16625210945131 0 187.16625210945131 10.462074616909376 0 0 0 0 -324.57311662896973 225.89277873033279 0 225.89277873033279 -6.6667152935624472 0 0 0 0 -318.39377385603802 218.76960236618106 0 218.76960236618106 -40.197562803994515 0 0 0 0 -345.28406084929884 247.92783528652581 0 247.92783528652581 -28.945982427583658 0 0 0 0 -485.17372604618504 422.73313377009799 0 422.73313377009799 -106.71691980670039 0 0 0 0 389.56905696422109 -13.202087133255191 0 -13.202087133255191 -47.85980122768342 0 0 0 0 -297.91816055788513 234.64888894440082 0 234.64888894440082 -49.091163771910942 0 0 0 0 -202.77501579406817 378.52033259466589 0 378.52033259466589 -219.36011882857565 0 0 0 0 -281.8905022768522 206.20327483793881 0 206.20327483793881 -35.981288610877527 0 0 0 0 -57.550424741965799 300.31101615463785 0 300.31101615463785 -139.45328702496772 0 0 0 0 34.900916955419234 360.65861054852212 0 360.65861054852212 -78.572217940680275 0 0 0 0 -22.751075741754903 390.70033932971091 0 390.70033932971091 -186.12722132338422 0 0 0 0 -244.85211123719091 302.5862030145945 0 302.5862030145945 -79.875508768072905 0 0 0 0 529.51917673896241 227.92101104134417 0 227.92101104134417 -227.56828703416977 0 0 0 0 385.82319336335058 145.4619740789949 0 145.4619740789949 -50.653128902682511 0 0 0 0 502.6833371161174 -20.575912175992471 0 -20.575912175992471 -188.892380554189 0 0 0 0 599.9900890997742 -90.230898705020081 0 -90.230898705020081 108.94778631542249 0 0 0 0 844.21497909999744 389.05540536210538 0 389.05540536210538 -133.43209048756398 0 0 0 0 22.524543239720515 334.23444465826287 0 334.23444465826287 -82.107771424794919 0 0 0 0 -191.72632037869334 906.54026921602053 0 906.54026921602053 609.0707659360487 0 0 0 0 1.7589365131373 0.10974671128246882 0 0.10974671128246882 -9.4607503839429512 0 0 0 0 12.539698900459086 7.1974643712311952 0 7.1974643712311952 -8.0978563813174844 0 0 0 0 -995.26550528543703 905.86039633692963 0 905.86039633692963 -108.46757341301418 0 0 0 0 2708.7445066105356 -463.29797506066097 0 -463.29797506066097 -812.72391250825603 0 0 0 0 -746.87813151687442 1659.3651502125031 0 1659.3651502125031 -313.94618625077419 0 0 0 0 2655.4797419088718 -33.60379746563558 0 -33.60379746563558 283.25278711575083 0 0 0 0 -12.798081046224979 829.4261228298783 0 829.4261228298783 -129.12097174052906 0 0 0 0 1735.8032402616518 1125.6823750154872 0 1125.6823750154872 -449.87201173259382 0 0 0 0 665.90582715015626 1570.4501936557717 0 1570.4501936557717 -455.5878861456622 0 0 0 0 341.21536403622304 1003.4749999760388 0 1003.4749999760388 140.69813203163721 0 0 0 0 -77.363253685558448 858.95955155030606 0 858.95955155030606 95.63567564789264 0 0 0 0 49.42638425892801 776.87668418358589 0 776.87668418358589 309.11193554847705 0 0 0 0 71.452982193979551 679.95601604967305 0 679.95601604967305 215.50038043083623 0 0 0 0 705.6176315372868 567.28260311138729 0 567.28260311138729 183.62195873665041 0 0 0 0 5.990139968956619 9.7957611169288299 0 9.7957611169288299 3.812562718215645 0 0 0 0 -619.04583095267299 282.42337889325609 0 282.42337889325609 -195.00952210752985 0 0 0 0 2856.7507461354544 1064.1696542026621 0 1064.1696542026621 -405.32825292355847 0 0 0 0 2149.7279981853208 33.019709247608262 0 33.019709247608262 -348.94035325184814 0 0 0 0 248.3082527167353 523.1011445582626 0 523.1011445582626 56.957584065065021 0 0 0 0 172.23495162867039 635.40822495110115 0 635.40822495110115 -23.886933482584936 0 0 0 0 48.204057912284043 680.16730374239705 0 680.16730374239705 127.59140180207032 0 0 0 0 -217.11404093987949 815.32340398040833 0 815.32340398040833 155.68955356178049 0 0 0 0 -170.28209589458129 499.39863523035092 0 499.39863523035092 47.883811365729343 0 0 0 0 -43.860062588559231 675.32150576009735 0 675.32150576009735 -246.81830268829435 0 0 0 0 -505.55348780111672 284.2642290785061 0 284.2642290785061 -551.04811449532281 0 0 0 0 -8.6115403406656696 388.73447708857384 0 388.73447708857384 -334.05035539188611 0 0 0 0 -51.453662375366548 503.51229917658384 0 503.51229917658384 -672.26627729598295 0 0 0 0 99.07680202933625 599.28804039182569 0 599.28804039182569 -611.33662409827957 0 0 0 0 -68.858946978762106 565.406945967512 0 565.406945967512 -740.82733559091412 0 0 0 0 21.843834275565527 13.249319715763477 0 13.249319715763477 -12.31800979654183 0 0 0 0 70.757187788491137 272.67877085940108 0 272.67877085940108 -412.93027423427338 0 0 0 0 393.43703364402973 -4.4630066465106211 0 -4.4630066465106211 -547.90636263927627 0 0 0 0 23.401268173032207 14.884534568438561 0 14.884534568438561 -10.614759207698029 0 0 0 0 103.41708676283451 251.85706745687958 0 251.85706745687958 -508.90927336231744 0 0 0 0 317.99612601352419 -24.791063162539103 0 -24.791063162539103 -464.92180320920579 0 0 0 0 457.50832457330398 -163.13829318745206 0 -163.13829318745206 -327.76289495862704 0 0 0 0 -133.76299934864073 1201.8374747960436 0 1201.8374747960436 -654.07432363334283 0 0 0 0 109.84808086530029 -168.50011567257766 0 -168.50011567257766 -46.07322354857547 0 0 0 0 54.892355324242089 -20.307234217892528 0 -20.307234217892528 -169.39738700742646 0 0 0 0 -1.1387656447500376 -6.395816046967326 0 -6.395816046967326 6.2383494237861106 0 0 0 0 1467.5571375991713 338.46587844201395 0 338.46587844201395 -40.818774060972373 0 0 0 0 1330.4574862928002 1136.9933684179816 0 1136.9933684179816 1317.9729270346752 0 0 0 0 -575.32973746182688 -312.76503496268469 0 -312.76503496268469 240.92018861018323 0 0 0 0 51.722967996625812 42.572366561420949 0 42.572366561420949 -43.321005304309779 0 0 0 0 69.921892837199266 10.748366245278703 0 10.748366245278703 -42.09620310750006 0 0 0 0 42.245853378073178 17.541988528673201 0 17.541988528673201 -31.246310262431958 0 0 0 0 12.812142492941348 54.65876340932391 0 54.65876340932391 -34.682265311606443 0 0 0 0 25.143587786264106 12.139020740926867 0 12.139020740926867 -20.762910539921904 0 0 0 0 45.758182832200873 26.773426717050469 0 26.773426717050469 -112.71491773802836 0 0 0 0 48.517116601171438 15.225703799013445 0 15.225703799013445 -88.988366726052618 0 0 0 0 9.5200531706920515 -2.7607962363851648 0 -2.7607962363851648 6.4986770770282778 0 0 0 0 174.17816128270351 -35.86674455971297 0 -35.86674455971297 -170.25029736249689 0 0 0 0 44.561018069503703 17.590634011860956 0 17.590634011860956 -22.944771691174065 0 0 0 0 39.546270267223008 68.499957959330459 0 68.499957959330459 -126.77332312313229 0 0 0 0 -11.779700283366765 165.95499013364201 0 165.95499013364201 -234.45855242645848 0 0 0 0 114.07070222523816 151.13901466022912 0 151.13901466022912 -238.11829696747191 0 0 0 0 110.53522963569412 116.08553875813959 0 116.08553875813959 -318.26775195995106 0 0 0 0 130.50489986492175 51.625045847471938 0 51.625045847471938 -267.50285380010973 0 0 0 0 239.87174672540277 39.117185688263817 0 39.117185688263817 -186.51684099134886 0 0 0 0 327.34595596654981 156.34082084551619 0 156.34082084551619 -335.21951632148557 0 0 0 0 143.05136170441256 242.60036480858616 0 242.60036480858616 -197.58562916252913 0 0 0 0 102.26611394195425 190.53489079836072 0 190.53489079836072 -248.79562705714852 0 0 0 0 -269.14359532549861 219.594613597631 0 219.594613597631 -211.63119329206529 0 0 0 0 28.233930307517738 -0.36532507075670395 0 -0.36532507075670395 -4.4464834046551545 0 0 0 0 121.35816958435316 23.724277920766326 0 23.724277920766326 -26.18450854438197 0 0 0 0 81.080939170624418 48.613195623411045 0 48.613195623411045 -30.944247035618034 0 0 0 0 53.23793233070657 26.820811242523718 0 26.820811242523718 -28.643538278413047 0 0 0 0 135.03933949121711 16.682501385212163 0 16.682501385212163 -27.544778429073631 0 0 0 0 96.907021230064856 49.616246886027511 0 49.616246886027511 -28.687647438408021 0 0 0 0 74.22542825214623 19.656183493234494 0 19.656183493234494 -39.503388135282876 0 0 0 0 -119.10356044406944 299.19845896761763 0 299.19845896761763 -232.61077493795483 0 0 0 0 38.606089939911456 24.409529162806287 0 24.409529162806287 -21.476150522239131 0 0 0 0 -108.81568346690619 237.2472752677877 0 237.2472752677877 -219.86335223758874 0 0 0 0 138.00733852440135 82.535757644739533 0 82.535757644739533 -69.382744843227556 0 0 0 0 103.19641685552084 11.838823672790681 0 11.838823672790681 -71.603454218931688 0 0 0 0 474.18912544373597 130.67124013911962 0 130.67124013911962 15.590337501234899 0 0 0 0 5.7590718647115864 110.50657536055951 0 110.50657536055951 -75.294535812099639 0 0 0 0 496.93617123470176 72.946385936054867 0 72.946385936054867 36.435980354843196 0 0 0 0 82.811634047699926 91.863975558412491 0 91.863975558412491 -73.767944045021437 0 0 0 0 122.70664730803583 35.374661974269202 0 35.374661974269202 -24.464653803726833 0 0 0 0 83.428534778926405 66.274345446880034 0 66.274345446880034 -50.65358681879934 0 0 0 0 127.38133904157439 47.259835944463703 0 47.259835944463703 -52.764106081827777 0 0 0 0 109.42565450481197 40.128038004706468 0 40.128038004706468 -18.152789756302809 0 0 0 0 64.409669655615289 69.599441891665265 0 69.599441891665265 -48.809531452411647 0 0 0 0 112.71817845710757 56.770136038545388 0 56.770136038545388 -65.835661298318882 0 0 0 0 698.33392590665608 -186.12392478697438 0 -186.12392478697438 30.905977900663856 0 0 0 0 -1133.8207862603304 451.55203133669784 0 451.55203133669784 257.71521111830953 0 0 0 0 651.68756884444156 -310.41157093345191 0 -310.41157093345191 552.50951510336017 0 0 0 0 83.859748402321046 80.329057883043845 0 80.329057883043845 -66.802734308819709 0 0 0 0 39.51558098365058 119.28281977016559 0 119.28281977016559 -71.288209330253267 0 0 0 0 45.927454172875798 -2.0839707608345179 0 -2.0839707608345179 0.50848147108058583 0 0 0 0 117.03275559182657 85.000533171152711 0 85.000533171152711 -91.517637425225985 0 0 0 0 -1459.0781309119047 -385.86070386349093 0 -385.86070386349093 963.64333120788797 0 0 0 0 -1183.8736844073283 501.35164656117558 0 501.35164656117558 637.0669839468901 0 0 0 0 79.476276348505053 88.940310426103679 0 88.940310426103679 -76.988536928869507 0 0 0 0 81.175785469626135 90.290815365919116 0 90.290815365919116 -102.95545726329146 0 0 0 0 77.733180295203056 88.469150169617933 0 88.469150169617933 -77.115848743651895 0 0 0 0 24.532822829788486 48.74486543817585 0 48.74486543817585 -34.1956701061548 0 0 0 0 -53.776168529177085 47.999534962527832 0 47.999534962527832 -16.348085426725447 0 0 0 0 60.404867967044609 43.287176514450067 0 43.287176514450067 -37.82624158303166 0 0 0 0 -939.72521139348828 -493.46926353101844 0 -493.46926353101844 -207.00788828464283 0 0 0 0 -2472.4777523329758 2231.5337141288928 0 2231.5337141288928 -2098.8711012937783 0 0 0 0 150.84991010664089 -57.373142109657238 0 -57.373142109657238 -18.083353409139818 0 0 0 0 26.013242173723214 30.223164864578735 0 30.223164864578735 -36.783803498393048 0 0 0 0 53.243062984067365 43.240749543082529 0 43.240749543082529 -54.143342124003539 0 0 0 0 49.949877345672576 1.7052971313562466 0 1.7052971313562466 -18.630575347970762 0 0 0 0 83.326819158230137 76.150318442928892 0 76.150318442928892 -59.506010936413077 0 0 0 0 38.141607778889011 60.976006917509949 0 60.976006917509949 -6.6871310158039705 0 0 0 0 34.932649828886497 165.04274294858442 0 165.04274294858442 -180.98615523572516 0 0 0 0 71.836738308513304 97.590191253966623 0 97.590191253966623 -63.531272596283088 0 0 0 0 82.019311322059366 25.877349580754526 0 25.877349580754526 -30.294630897167735 0 0 0 0 83.308521667044261 42.738189644660451 0 42.738189644660451 -173.36731570273594 0 0 0 0 31.798573543881744 36.370832735744983 0 36.370832735744983 -48.749989698641301 0 0 0 0 -55.728681788648828 257.00612700266174 0 257.00612700266174 -190.21423098780815 0 0 0 0 96.944143939719652 47.813856073875286 0 47.813856073875286 -55.654787010942528 0 0 0 0 -281.37163699525991 -52.228074749333246 0 -52.228074749333246 106.01913162791971 0 0 0 0 -50.298712989169871 86.321173770770656 0 86.321173770770656 -47.15312424709191 0 0 0 0 39.770736858976306 39.606699076770383 0 39.606699076770383 -34.690163798093863 0 0 0 0 14.260852899640383 25.803344270663452 0 25.803344270663452 -32.394511030952891 0 0 0 0 3.6231065070732882 10.464268316658973 0 10.464268316658973 2.5714428563062128 0 0 0 0 78.102472479091375 37.782948723936443 0 37.782948723936443 26.694332448190835 0 0 0 0 -56.690271817345035 73.891683275061155 0 73.891683275061155 -1.9357143403522059 0 0 0 0 67.233399629418273 2.8314513844979956 0 2.8314513844979956 -76.05401344873826 0 0 0 0 34.606584157794714 36.162602768276805 0 36.162602768276805 -19.644472856091014 0 0 0 0 15.349458237610719 25.247551059181774 0 25.247551059181774 -32.805696332098506 0 0 0 0 48.529016867467192 12.532312485801008 0 12.532312485801008 -24.005502255666975 0 0 0 0 13.772271256004302 38.62549148529709 0 38.62549148529709 -30.766823819471316 0 0 0 0 32.59439647544059 50.071188116248777 0 50.071188116248777 -36.712846133788844 0 0 0 0 18.524522702355171 44.020735953031362 0 44.020735953031362 -37.488540052070675 0 0 0 0 -4.6606283427195194 40.781531393022775 0 40.781531393022775 -17.955549689365579 0 0 0 0 34.758411089213041 32.812202091660765 0 32.812202091660765 -46.663853729707625 0 0 0 0 34.879894945705018 33.486865184724593 0 33.486865184724593 -43.130525633830985 0 0 0 0 48.578647543268744 29.212669876804284 0 29.212669876804284 -46.783755618312966 0 0 0 0 32.22881843050709 36.396464718710376 0 36.396464718710376 -35.509259483746064 0 0 0 0 33.395628017315175 40.934173173583986 0 40.934173173583986 -48.201048087255913 0 0 0 0 33.385074859193992 29.916741875264051 0 29.916741875264051 -39.443533566336555 0 0 0 0 38.705401685001561 39.146423385089292 0 39.146423385089292 -45.797785067197765 0 0 0 0 -3197.7251467063179 -142.0105668112592 0 -142.0105668112592 466.60117720808375 0 0 0 0 -1005.0542319223023 1219.2705963735953 0 1219.2705963735953 -446.45260814018911 0 0 0 0 31.694356857280411 57.626096390319276 0 57.626096390319276 -33.094902764001887 0 0 0 0 81.101625151975895 -95.725495551554104 0 -95.725495551554104 -414.43575692824561 0 0 0 0 99.835095459849981 -1.1505424510896773 0 -1.1505424510896773 -47.375080061531435 0 0 0 0 -14.402339285094058 71.820266321648887 0 71.820266321648887 -38.690118821825308 0 0 0 0 10.575948624318698 84.429024392415158 0 84.429024392415158 -61.715889453145792 0 0 0 0 50.18627312322954 45.61978961370427 0 45.61978961370427 -22.29594814222116 0 0 0 0 38.97498493183582 71.234438806092825 0 71.234438806092825 -30.080897663791749 0 0 0 0 -57.107822820972387 37.020816340316898 0 37.020816340316898 -5.624174305080528 0 0 0 0 -246.1632636001741 184.09087117846684 0 184.09087117846684 110.49691242987888 0 0 0 0 -651.2760154279531 430.16940817888008 0 430.16940817888008 318.32411454896192 0 0 0 0 -689.07388476522874 -447.81190143024759 0 -447.81190143024759 11.495804588590545 0 0 0 0 -3299.9217237935227 -1282.8701155131575 0 -1282.8701155131575 -20.646583269697203 0 0 0 0 -2677.56007849858 1771.2289747375257 0 1771.2289747375257 -405.72135195521741 0 0 0 0 -244.64044131413721 1142.9456705422529 0 1142.9456705422529 -1891.1070399103187 0 0 0 0 -31.155739064534373 4.1061501217150465 0 4.1061501217150465 1.7711054920053968 0 0 0 0 -208.81956537217775 289.38456474894878 0 289.38456474894878 -873.85284348298535 0 0 0 0 -477.45176268066643 59.148754558167667 0 59.148754558167667 59.059352546433729 0 0 0 0 8.6431221647486467 12.06155845937505 0 12.06155845937505 -24.029860263644096 0 0 0 0 -280.38413489861705 277.39260787915362 0 277.39260787915362 -102.40662148006368 0 0 0 0 79.235608598930412 -146.45044469254742 0 -146.45044469254742 -103.45408541352617 0 0 0 0 -2606.8204245377274 970.2938863582192 0 970.2938863582192 25.665386850752725 0 0 0 0 -1285.1914453189383 530.13078700861399 0 530.13078700861399 129.40986561881721 0 0 0 0 32.168318834714228 40.830414862581392 0 40.830414862581392 -53.786857848594082 0 0 0 0 34.384035193143063 35.478118482380523 0 35.478118482380523 -48.336751763943539 0 0 0 0 40.486776171630481 40.822244002263687 0 40.822244002263687 -63.406447793371626 0 0 0 0 11.654456952259352 56.324390084652805 0 56.324390084652805 -49.454825876320228 0 0 0 0 9.0227824777757633 48.882024883313534 0 48.882024883313534 -44.728306221332332 0 0 0 0 -5.0096987348350126 9.3639936572192255 0 9.3639936572192255 -7.7365277438849063 0 0 0 0 -28.002694622249692 83.955410922540977 0 83.955410922540977 -66.84784476445202 0 0 0 0 27.712359382899734 38.434525504673189 0 38.434525504673189 -34.13141897893717 0 0 0 0 67.414601979726285 -11.195149760128515 0 -11.195149760128515 129.85952662001546 0 0 0 0 20.64873395826335 34.788398707751952 0 34.788398707751952 -23.62207215476009 0 0 0 0 -137.12644689012086 46.818305284150028 0 46.818305284150028 191.89859831882177 0 0 0 0 17.315444776766526 43.996856623859458 0 43.996856623859458 -39.12290205798854 0 0 0 0 26.560864532002597 35.479310214796897 0 35.479310214796897 -31.293862735668881 0 0 0 0 1274.8545250496245 1453.8440451483038 0 1453.8440451483038 1021.4171771349465 0 0 0 0 2283.3891336711386 1425.5290965193217 0 1425.5290965193217 626.05746457810892 0 0 0 0 34.40522148729724 43.514412240287811 0 43.514412240287811 -46.119585516929874 0 0 0 0 -12.569629269471861 30.65159372108964 0 30.65159372108964 -38.898375681293523 0 0 0 0 31.969288833919563 41.048408427953859 0 41.048408427953859 -43.608166493559111 0 0 0 0 2208.6635000044771 1419.6159794891428 0 1419.6159794891428 834.05426420495496 0 0 0 0 3028.9474280915165 1835.361490425772 0 1835.361490425772 929.59909227573371 0 0 0 0 0.30412013340782096 7.1560686160028837 0 7.1560686160028837 -4.6596234658978659 0 0 0 0 10.923611776252912 -3.3601721552570751 0 -3.3601721552570751 -7.9700475661728376 0 0 0 0 1203.1899953709799 1292.6412619312614 0 1292.6412619312614 566.63900834094056 0 0 0 0 1265.7945060583152 1230.9485976442884 0 1230.9485976442884 533.03946728232859 0 0 0 0 1671.3010899315123 1119.2990685726254 0 1119.2990685726254 555.99814736046028 0 0 0 0 1253.8238133500563 1191.8032756558496 0 1191.8032756558496 946.25193515775914 0 0 0 0 1164.517909168615 1111.7665151102847 0 1111.7665151102847 1012.2115850139671 0 0 0 0 1186.3093161703018 1065.7415248298425 0 1065.7415248298425 401.19923966523493 0 0 0 0 1137.6954830153218 688.67337959983956 0 688.67337959983956 492.85512729443508 0 0 0 0 749.12078608882439 887.46527116326979 0 887.46527116326979 719.72770363456584 0 0 0 0 -258.76405338070617 277.65129921014704 0 277.65129921014704 580.26773453479291 0 0 0 0 108.65561827039346 640.12948595140915 0 640.12948595140915 733.79202319358046 0 0 0 0 -272.30582200141725 204.71476978141254 0 204.71476978141254 486.32836466949811 0 0 0 0 -758.46064896027383 64.563402328753 0 64.563402328753 488.8298773989618 0 0 0 0 -782.09019515800173 579.28868356523253 0 579.28868356523253 260.38800257071853 0 0 0 0 -312.8084220305027 -429.54701874073908 0 -429.54701874073908 147.40934895560349 0 0 0 0 564.82700515292527 390.23731741389565 0 390.23731741389565 199.14483222720628 0 0 0 0 1020.782484419411 702.14597676992344 0 702.14597676992344 346.62861245952081 0 0 0 0 1025.7431944455748 929.80973654844092 0 929.80973654844092 -31.335002156667542 0 0 0 0 2820.4845412701361 1886.0965821439613 0 1886.0965821439613 476.33362354783094 0 0 0 0 28.121156535824412 895.56512428852693 0 895.56512428852693 1950.2814250550364 0 0 0 0 1672.7647669464859 -77.232695737174254 0 -77.232695737174254 -298.05558610611479 0 0 0 0 10.188667485619447 9.2684567169339829 0 9.2684567169339829 7.0039814970562873 0 0 0 0 -774.20744855412704 218.42125127017607 0 218.42125127017607 701.84287466708702 0 0 0 0 -281.4317564262019 1284.7285902672247 0 1284.7285902672247 1624.4990930463191 0 0 0 0 813.06327159254579 1145.3854248869202 0 1145.3854248869202 -58.027926743136959 0 0 0 0 1197.6305500405579 2149.0542255989603 0 2149.0542255989603 749.87068281540451 0 0 0 0 2502.4471917000919 1167.2952485443711 0 1167.2952485443711 -27.012925359771543 0 0 0 0 121.49473050795496 49.397366205285834 0 49.397366205285834 742.68134497113715 0 0 0 0 162.07537045788195 83.786485273652943 0 83.786485273652943 32.899680803244337 0 0 0 0 23.154003536161326 190.8547184018862 0 190.8547184018862 -23.235996317482204 0 0 0 0 26.432778708647277 27.104369435977645 0 27.104369435977645 12.699021154493103 0 0 0 0 -33.883475552254822 77.521657588089511 0 77.521657588089511 -4.8485436801220203 0 0 0 0 13.853957914658736 34.215396830247613 0 34.215396830247613 -28.321844895602126 0 0 0 0 78.891520166422197 16.884852974679688 0 16.884852974679688 -94.951801423259894 0 0 0 0 20.872299374513631 29.096195296819928 0 29.096195296819928 -40.916448433080731 0 0 0 0 156.11845500652271 67.993285661146729 0 67.993285661146729 -83.027210912881856 0 0 0 0 51.955961396663042 29.257626149045336 0 29.257626149045336 -40.374553378502242 0 0 0 0 17.520750817508087 38.968622589916777 0 38.968622589916777 -42.644415812661464 0 0 0 0 12.159259790113893 19.635431142325743 0 19.635431142325743 -34.109337996779232 0 0 0 0 45.157342388731195 12.897197043438609 0 12.897197043438609 -110.38036452978122 0 0 0 0 86.781297660563723 44.009289551098846 0 44.009289551098846 85.269136399383569 0 0 0 0 1311.4227613626135 1242.8034626788667 0 1242.8034626788667 441.66650425185799 0 0 0 0 169.88964652990489 378.50704759580873 0 378.50704759580873 663.92798729481365 0 0 0 0 -131.72459713146964 382.48084414878758 0 382.48084414878758 -608.26375444595033 0 0 0 0 -242.27976342452894 485.18519742151148 0 485.18519742151148 -514.33803903303487 0 0 0 0 2.6798266909688664 0.49704540420719923 0 0.49704540420719923 -1.1642775050105314 0 0 0 0 -15.971739676402649 89.965552094494342 0 89.965552094494342 328.92057182305871 0 0 0 0 -0.65672721655573696 357.30140876884798 0 357.30140876884798 -605.09672477479398 0 0 0 0 38.987697167671286 194.55137304482741 0 194.55137304482741 245.67577379841532 0 0 0 0 -2.4208064681423593 -1.4377293680440459 0 -1.4377293680440459 2.4110120471326582 0 0 0 0 -0.11655063830492003 382.19364113561852 0 382.19364113561852 220.42502699422766 0 0 0 0 54.173690169671318 128.34576612487581 0 128.34576612487581 122.94868716993369 0 0 0 0 -26.627942381986941 53.682008860704627 0 53.682008860704627 214.94033233031951 0 0 0 0 80.617305407700769 82.25640397332063 0 82.25640397332063 186.21246935035015 0 0 0 0 38.330771883236594 283.59123171225474 0 283.59123171225474 -22.013678243172762 0 0 0 0 -2.2150360496766552 -1.282757559740503 0 -1.282757559740503 2.0569588601359357 0 0 0 0 20.142870989104267 168.10598480772023 0 168.10598480772023 263.23662637734378 0 0 0 0 72.008700286081876 126.08769019798638 0 126.08769019798638 132.0345563939045 0 0 0 0 -228.08083224357233 189.09359983812953 0 189.09359983812953 130.42297096444963 0 0 0 0 51.904769007625873 99.772056380565118 0 99.772056380565118 175.79297459219015 0 0 0 0 -0.84385417671804674 7.2333886678284784 0 7.2333886678284784 -2.7212431218949291 0 0 0 0 161.23344806914247 152.4655867257261 0 152.4655867257261 -40.458513406978454 0 0 0 0 58.264926802192349 26.541570766768928 0 26.541570766768928 -19.784466299512133 0 0 0 0 -321.18621117084695 397.34114493213929 0 397.34114493213929 -403.91478350576654 0 0 0 0 1.5944948293777088 3.163744507432483 0 3.163744507432483 0.55658617126907473 0 0 0 0 0.020743377841426991 15.976664132309452 0 15.976664132309452 -4.1261446283497207 0 0 0 0 89.98904775808569 75.932445565616717 0 75.932445565616717 -67.671678517071996 0 0 0 0 -0.027018522992449334 8.422536241443936 0 8.422536241443936 -7.9176106941562523 0 0 0 0 347.46437480041641 -66.782102730154293 0 -66.782102730154293 7.7746963547397172 0 0 0 0 -196.62348093299079 120.87495916586704 0 120.87495916586704 102.07352560290201 0 0 0 0 0.71069323699342313 11.543562694422548 0 11.543562694422548 -0.91649549615964077 0 0 0 0 22.810656260815449 234.43635450648435 0 234.43635450648435 0.84541059110961214 0 0 0 0 513.02865718555404 331.19758273038678 0 331.19758273038678 10.106262838038674 0 0 0 0 -37.649105092685204 539.84108959628611 0 539.84108959628611 -252.22246689569874 0 0 0 0 -296.85550779968617 408.24107066229044 0 408.24107066229044 -82.050683265126281 0 0 0 0 285.08389103831723 152.49809653666853 0 152.49809653666853 -78.510711523926147 0 0 0 0 0.36438362449188588 11.827547831714782 0 11.827547831714782 -2.8191659661001438 0 0 0 0 -236.18610213461261 403.49936204696405 0 403.49936204696405 -197.28450291033369 0 0 0 0 -0.60392311173692104 6.7494143948146075 0 6.7494143948146075 -1.9090692986861484 0 0 0 0 696.88849987993308 55.13890236874613 0 55.13890236874613 -285.0487092874755 0 0 0 0 -1919.8446266720321 977.29202331707677 0 977.29202331707677 -8.6216852938960074 0 0 0 0 -460.90861031887471 934.14308397239802 0 934.14308397239802 -449.0850247878443 0 0 0 0 -1247.8262058059336 515.85214296541562 0 515.85214296541562 -182.08952025969484 0 0 0 0 -616.52216659813712 702.03756781344237 0 702.03756781344237 -276.89046010827587 0 0 0 0 -329.3467282474885 384.33932723034741 0 384.33932723034741 -177.42259470598583 0 0 0 0 -767.03834763838677 959.27052129520598 0 959.27052129520598 -313.18058552463481 0 0 0 0 -416.21034405038517 816.74522874473041 0 816.74522874473041 -261.80715455538302 0 0 0 0 -395.93837508035358 820.99356820734829 0 820.99356820734829 -402.6969450553006 0 0 0 0 -388.12303371179587 759.52450446834337 0 759.52450446834337 -365.99505759545718 0 0 0 0 -329.97460286749993 775.52753219014994 0 775.52753219014994 -410.83671369268995 0 0 0 0 -414.69238025587401 680.10518297885574 0 680.10518297885574 -385.37690482217295 0 0 0 0 -331.52039563763537 809.74254587319592 0 809.74254587319592 -355.9100597720826 0 0 0 0 -147.44046607919154 654.10410631259583 0 654.10410631259583 -386.4540537816938 0 0 0 0 80.064568861720204 124.20556482892034 0 124.20556482892034 1.7484001916227498 0 0 0 0 -801.64363064256031 307.47925764319371 0 307.47925764319371 -104.74106700858101 0 0 0 0 -487.27973056776682 392.76180720225238 0 392.76180720225238 -298.29817321657902 0 0 0 0 -39.889326081027036 8.5064583231253437 0 8.5064583231253437 2.9585708858311648 0 0 0 0 -39.580737296974945 25.98491972729083 0 25.98491972729083 9.6724739676243132 0 0 0 0 463.1881440439538 121.21896702420781 0 121.21896702420781 11.674416274763644 0 0 0 0 -444.08807463096309 472.70886881386377 0 472.70886881386377 -233.01918317406671 0 0 0 0 -423.15635176122305 466.94606358442616 0 466.94606358442616 -282.51138325428474 0 0 0 0 -442.57411473659158 462.95685717358538 0 462.95685717358538 -196.68766360182781 0 0 0 0 -294.3500258224667 564.26713729929907 0 564.26713729929907 -362.48939350869659 0 0 0 0 -275.4580681968655 505.31360382006824 0 505.31360382006824 -313.12960709688195 0 0 0 0 -413.81353094580118 442.28232045689947 0 442.28232045689947 -220.73365182311682 0 0 0 0 -410.84494021923456 555.81922536227648 0 555.81922536227648 -325.83125174394809 0 0 0 0 -556.03998428065097 532.00727367070795 0 532.00727367070795 -329.64880254212039 0 0 0 0 -372.52068031369708 628.60907961038902 0 628.60907961038902 -324.81269822188187 0 0 0 0 -640.30045116099063 441.4659009121533 0 441.4659009121533 -297.95692547285853 0 0 0 0 -538.90280806041119 434.41554629128586 0 434.41554629128586 -333.52386630148976 0 0 0 0 -596.633150310372 426.34555348059803 0 426.34555348059803 -316.40487966945511 0 0 0 0 -499.76088073223946 415.38839175960675 0 415.38839175960675 -316.1018432075798 0 0 0 0 -629.92843445530161 251.07985358883161 0 251.07985358883161 -407.74700482661137 0 0 0 0 46.901734753896882 169.01596182977761 0 169.01596182977761 -14.357994793948876 0 0 0 0 -600.05662319099065 283.26936654539895 0 283.26936654539895 -401.0841979215038 0 0 0 0 -961.53288909012917 184.9485360107501 0 184.9485360107501 -341.64234056191344 0 0 0 0 -549.79342197527876 362.57986752206489 0 362.57986752206489 -343.24786679638783 0 0 0 0 -725.43904039022163 273.53354752779705 0 273.53354752779705 -385.66319185431348 0 0 0 0 -1050.5514930624631 212.28799894025724 0 212.28799894025724 -160.40726421261206 0 0 0 0 -1035.9802721142187 345.01208829550887 0 345.01208829550887 -88.751308946186327 0 0 0 0 -1130.9476614480664 361.79291436935091 0 361.79291436935091 24.328556796303019 0 0 0 0 -757.94115278229583 399.91224810607673 0 399.91224810607673 -299.2625337406057 0 0 0 0 -736.89760193543043 357.21668213828525 0 357.21668213828525 -224.0580254473316 0 0 0 0 -869.40522798994789 467.73628246009321 0 467.73628246009321 -22.784466492848878 0 0 0 0 -669.10336921818089 662.54791416846274 0 662.54791416846274 -325.46355483340085 0 0 0 0 -612.77317619808309 570.76511954696616 0 570.76511954696616 -178.70737812120933 0 0 0 0 -875.15662983938819 583.42194311808998 0 583.42194311808998 -117.45649244557717 0 0 0 0 -740.67908636541688 775.99289994404535 0 775.99289994404535 18.757885548955528 0 0 0 0 -1044.6604950435139 774.823582619425 0 774.823582619425 240.46891166374553 0 0 0 0 -1071.7988241615094 497.6615874790441 0 497.6615874790441 204.19011070937268 0 0 0 0 -1215.9582320740446 616.20323566647858 0 616.20323566647858 228.48756137985038 0 0 0 0 -1708.0960355118732 1239.6478339601817 0 1239.6478339601817 308.78588366561598 0 0 0 0 -1315.9130242106912 754.97866616192186 0 754.97866616192186 904.71667291534686 0 0 0 0 300.18071552740003 1043.5279278149392 0 1043.5279278149392 -396.56138577655111 0 0 0 0 -2867.2984247054264 1165.4674465613061 0 1165.4674465613061 800.66682903316905 0 0 0 0 -576.57269642168831 1381.9649218662307 0 1381.9649218662307 -522.45643926007324 0 0 0 0 345.5453683896485 616.22210637281387 0 616.22210637281387 -302.90504318333205 0 0 0 0 -117.75239242229145 938.80181321100827 0 938.80181321100827 -379.85393182513144 0 0 0 0 -276.00138970612898 726.84040328914489 0 726.84040328914489 -288.84806492430653 0 0 0 0 89.44811806351936 866.95324129095752 0 866.95324129095752 -250.46405309101101 0 0 0 0 1438.9218271500868 456.63652728562556 0 456.63652728562556 -169.20398982227152 0 0 0 0 -705.54653457106906 2680.4747831507702 0 2680.4747831507702 -1059.314799841115 0 0 0 0 1957.8663177954732 1438.5570458511047 0 1438.5570458511047 -527.04727337011718 0 0 0 0 -11.30539255167723 20.088935677334064 0 20.088935677334064 -16.762855236133802 0 0 0 0 -5197.5873063510735 -503.99062326958119 0 -503.99062326958119 1369.0795275744676 0 0 0 0 -3159.3501128730677 -223.95281623791243 0 -223.95281623791243 -319.07745693752076 0 0 0 0 533.99272583507991 399.81859051906576 0 399.81859051906576 447.05103405711634 0 0 0 0 736.73041278161691 480.03674478289577 0 480.03674478289577 -126.56134290052432 0 0 0 0 861.49811956103076 705.79135003791453 0 705.79135003791453 255.70731307236383 0 0 0 0 -1566.9927186418936 730.17940108535117 0 730.17940108535117 -129.74821042280018 0 0 0 0 -4565.5354764907315 2330.9324224127377 0 2330.9324224127377 -636.36988595119874 0 0 0 0 -20.251061417755494 45.216181289630129 0 45.216181289630129 -56.076200050236835 0 0 0 0 -1539.0803425782797 -2101.5922482163537 0 -2101.5922482163537 -553.22936403446522 0 0 0 0 -3752.1079528535338 387.25550634988645 0 387.25550634988645 250.12894154286988 0 0 0 0 646.30242837918922 59.336287479916479 0 59.336287479916479 -1138.8369641591187 0 0 0 0 -1294.8549886033579 191.38513776997706 0 191.38513776997706 -428.43530140647226 0 0 0 0 -1280.7024669466336 452.14900017014315 0 452.14900017014315 -195.72008053931654 0 0 0 0 -20.198022128066171 50.192742925020951 0 50.192742925020951 -78.954443174132848 0 0 0 0 250.47812830786279 424.75399310230523 0 424.75399310230523 -120.86717566929656 0 0 0 0 290.63188191564404 712.42356236956766 0 712.42356236956766 -227.08403059458851 0 0 0 0 474.10026606935571 513.94508027307756 0 513.94508027307756 -691.30308936068832 0 0 0 0 260.32131942598789 640.92965230404207 0 640.92965230404207 -373.98102305965949 0 0 0 0 -491.79928819977795 778.80024816839978 0 778.80024816839978 -306.3755903532292 0 0 0 0 0.50817142477676036 6.6050784531227293 0 6.6050784531227293 -0.012364174462703659 0 0 0 0 -1107.8575291379834 357.46751276431007 0 357.46751276431007 -148.50245897766581 0 0 0 0 1460.455412590818 665.7625049152266 0 665.7625049152266 -255.35160699052994 0 0 0 0 757.07660031037813 397.57179071342625 0 397.57179071342625 196.84336951777368 0 0 0 0 565.30425187064611 273.46680257380103 0 273.46680257380103 60.580951888674463 0 0 0 0 484.41365843107633 259.60536612661599 0 259.60536612661599 159.95125263349473 0 0 0 0 76.606567509676097 377.9722608218035 0 377.9722608218035 220.12863798729086 0 0 0 0 440.84679938414774 314.65634199862689 0 314.65634199862689 96.492731594786164 0 0 0 0 -2.6870429707923904 13.82391539819946 0 13.82391539819946 -140.15773158602315 0 0 0 0 349.5504347999522 688.76285705844748 0 688.76285705844748 -585.43224674739395 0 0 0 0 -774.62405795305131 626.86393836297225 0 626.86393836297225 -402.43817932534148 0 0 0 0 2.0875445676093705 1.7082976968630632 0 1.7082976968630632 -3.4626654038820845 0 0 0 0 344.83304504039006 314.43983418480684 0 314.43983418480684 263.29283715346537 0 0 0 0 -0.79326151538717937 5.0645948030734189 0 5.0645948030734189 -1.1394140503754926 0 0 0 0 -265.1431220004597 476.37029004293436 0 476.37029004293436 -523.73174547663803 0 0 0 0 -586.44335111737018 533.45082984775945 0 533.45082984775945 -468.17480270733358 0 0 0 0 -362.52389393134217 710.8706763210248 0 710.8706763210248 -519.74353895732202 0 0 0 0 -254.70873907697387 479.82920731358536 0 479.82920731358536 -581.82827781208471 0 0 0 0 -170.12183527072193 661.99139419967833 0 661.99139419967833 -539.34939666093851 0 0 0 0 -223.20330868312158 580.59505262730818 0 580.59505262730818 -509.6115718737783 0 0 0 0 -221.94404623194714 592.31413739883465 0 592.31413739883465 -427.85283144463028 0 0 0 0 -31.547554476492223 807.52805049202652 0 807.52805049202652 -329.87959774270166 0 0 0 0 -161.68355596706533 511.76132676335419 0 511.76132676335419 -153.66468344514942 0 0 0 0 60.590221361206204 489.46387168681031 0 489.46387168681031 -259.75657302160744 0 0 0 0 -186.24960561534817 494.74105080329969 0 494.74105080329969 -106.41851998931816 0 0 0 0 -183.48615065446938 637.56509765865849 0 637.56509765865849 -381.54148785333018 0 0 0 0 -200.89296950552671 458.00746618957965 0 458.00746618957965 -159.81070614619966 0 0 0 0 -3.0850141037142009 2.9222365338986549 0 2.9222365338986549 0.48993153250607691 0 0 0 0 -219.97952278124285 556.88955008525954 0 556.88955008525954 47.351647137755208 0 0 0 0 -67.426808726711897 200.52643893766617 0 200.52643893766617 256.98910370306839 0 0 0 0 193.83141726680333 193.55989006110576 0 193.55989006110576 -86.083265875994584 0 0 0 0 212.56247791369969 308.52394187885693 0 308.52394187885693 -442.05442811468311 0 0 0 0 486.44752347934991 59.136214145020858 0 59.136214145020858 -254.88137378044848 0 0 0 0 0.28530909938854165 217.70439604049716 0 217.70439604049716 260.79504097834615 0 0 0 0 -3.1250384884671689 2.9874999803386686 0 2.9874999803386686 0.58072019578729339 0 0 0 0 205.78620148732443 25.411365894557093 0 25.411365894557093 138.71094825643559 0 0 0 0 0.12873005848086905 363.25325553180483 0 363.25325553180483 -365.16607323461722 0 0 0 0 86.091507654055022 339.16489339055624 0 339.16489339055624 -525.08454720848022 0 0 0 0 -26.953124151215889 617.61768007315914 0 617.61768007315914 -606.8774001076581 0 0 0 0 316.72102900044047 362.77887706943102 0 362.77887706943102 -482.4860690966816 0 0 0 0 -255.31766289788357 465.6194158002545 0 465.6194158002545 -515.84825559893943 0 0 0 0 0.19939078517835804 439.13547985982837 0 439.13547985982837 -618.22520372294821 0 0 0 0 -49.614495361875015 272.50054565876758 0 272.50054565876758 854.68040689905774 0 0 0 0 0.53027269191807136 412.19226286013509 0 412.19226286013509 414.31520980792243 0 0 0 0 22.78467861784884 314.74216076007997 0 314.74216076007997 407.43309642286204 0 0 0 0 79.588385116483551 357.0783919479054 0 357.0783919479054 429.95460757723595 0 0 0 0 143.98107385193725 391.68996793587803 0 391.68996793587803 7.7700073423220601 0 0 0 0 -0.39287329134822357 412.8045434199239 0 412.8045434199239 414.48786181420269 0 0 0 0 81.708317092794459 338.75904712575539 0 338.75904712575539 -24.775435685423872 0 0 0 0 0.98210853657094088 523.31752400688504 0 523.31752400688504 -137.20552880342439 0 0 0 0 171.53065595167573 446.83111739512424 0 446.83111739512424 -430.20254114383783 0 0 0 0 172.31716220662565 398.61722388548515 0 398.61722388548515 -180.95439575232376 0 0 0 0 179.77436753723305 389.17928443837627 0 389.17928443837627 -178.33064389437459 0 0 0 0 110.16159336639248 365.64778498146916 0 365.64778498146916 55.081367875474825 0 0 0 0 46.923276094988978 330.33120327995948 0 330.33120327995948 -211.27308189273754 0 0 0 0 106.65654925263516 433.56951987786852 0 433.56951987786852 -193.9347728468274 0 0 0 0 140.63831590446352 350.58951236472922 0 350.58951236472922 -264.26399300265257 0 0 0 0 75.648852325466578 220.12500304060541 0 220.12500304060541 7.6083036223917588 0 0 0 0 99.917129429319175 231.0985456654771 0 231.0985456654771 27.724408258299491 0 0 0 0 -16.992437458737811 23.478053392665373 0 23.478053392665373 -13.559898190872259 0 0 0 0 -32.967872671525356 33.13845775900289 0 33.13845775900289 -14.922480809364743 0 0 0 0 131.07998071442125 356.78189341858592 0 356.78189341858592 -1508.7576996369421 0 0 0 0 73.439171832233114 290.72907933413126 0 290.72907933413126 134.99012545869482 0 0 0 0 -7.3319016864272157 6.9063173772655375 0 6.9063173772655375 -3.8003084461759364 0 0 0 0 -588.28073733087513 444.59819775630513 0 444.59819775630513 -308.11330527238317 0 0 0 0 450.90265723228367 114.46879597827274 0 114.46879597827274 -897.12011161137934 0 0 0 0 -43.691835440658792 41.555568262239397 0 41.555568262239397 -26.15618412609453 0 0 0 0 9.8425590168626513 162.83144193897351 0 162.83144193897351 -91.133571027240578 0 0 0 0 -24.632133182545658 67.374506788193685 0 67.374506788193685 -334.22929492212643 0 0 0 0 75.716920361352095 203.1115282689907 0 203.1115282689907 -366.29028624129387 0 0 0 0 160.09913648542715 359.31275051050488 0 359.31275051050488 -240.4509732277711 0 0 0 0 137.57445659251607 469.69529310291091 0 469.69529310291091 -468.66621553705045 0 0 0 0 159.10891264134511 300.65761218144007 0 300.65761218144007 -666.82239400422986 0 0 0 0 -19.6095082824 48.177532509317786 0 48.177532509317786 -80.067386693948464 0 0 0 0 33.095136151547194 271.99650942944572 0 271.99650942944572 -534.78896404219995 0 0 0 0 5.8366845828713849 216.69975609954798 0 216.69975609954798 -608.46167442724436 0 0 0 0 -734.89784688167856 604.64869475089131 0 604.64869475089131 -696.67943726023668 0 0 0 0 -349.86458344724088 320.96458460021449 0 320.96458460021449 -610.9318952620979 0 0 0 0 -660.59957180556376 632.94446894356179 0 632.94446894356179 128.06947631488038 0 0 0 0 24.972356334677897 141.16666302095291 0 141.16666302095291 -382.49772812076026 0 0 0 0 505.85192666661169 490.80722558160824 0 490.80722558160824 -635.41899730114437 0 0 0 0 -22.088189867307804 51.272588777463341 0 51.272588777463341 -78.246781949100182 0 0 0 0 11.563654967258174 6.1993707115668641 0 6.1993707115668641 -16.365529324575739 0 0 0 0 167.0938502610079 445.66863090596962 0 445.66863090596962 543.26801262244749 0 0 0 0 422.37908490716654 209.98751585735818 0 209.98751585735818 -675.98550642001373 0 0 0 0 -164.55733516785403 -207.89097232463564 0 -207.89097232463564 -273.71225667650106 0 0 0 0 -213.99987245662851 215.10257651704171 0 215.10257651704171 -653.90894929161095 0 0 0 0 -204.30216996085073 181.06880093226778 0 181.06880093226778 -541.49732206352201 0 0 0 0 -595.85685248463415 299.79687955725512 0 299.79687955725512 -575.4071607343094 0 0 0 0 276.97951282619033 380.79911272670188 0 380.79911272670188 -813.68141726722115 0 0 0 0 178.05651182525617 796.64604758468909 0 796.64604758468909 -1477.3815609539333 0 0 0 0 -142.45638824060734 1024.4911311551955 0 1024.4911311551955 -736.51097576225538 0 0 0 0 -389.43731814175771 494.37877814968556 0 494.37877814968556 -408.22083188767465 0 0 0 0 -321.31189987217658 725.72198645007074 0 725.72198645007074 -1007.3261767869171 0 0 0 0 -629.72764076699241 1226.939120664523 0 1226.939120664523 -801.65083894189229 0 0 0 0 -910.974797136696 1007.6670749060866 0 1007.6670749060866 -226.72255816517281 0 0 0 0 -736.80788481777563 1468.345960580551 0 1468.345960580551 -596.57426510059759 0 0 0 0 -897.29451187372615 1641.4181356062768 0 1641.4181356062768 -783.21472655871185 0 0 0 0 -327.91821262339363 1806.340186722334 0 1806.340186722334 -1299.4087476985433 0 0 0 0 -96.653275982385821 1108.3842186749205 0 1108.3842186749205 -1332.5329685793613 0 0 0 0 158.69389791692083 1199.8974445717599 0 1199.8974445717599 -1296.1569993588755 0 0 0 0 277.12320164033736 1358.1809716704629 0 1358.1809716704629 -1200.4502087767485 0 0 0 0 594.20748784211173 1176.1101765283765 0 1176.1101765283765 -1315.4679629932007 0 0 0 0 400.96346586399886 872.8522001290653 0 872.8522001290653 -954.89130491584501 0 0 0 0 287.28003980046196 1098.5944223141503 0 1098.5944223141503 -1248.2777110063016 0 0 0 0 270.24891369557008 1032.5366106497413 0 1032.5366106497413 -1576.4388647905769 0 0 0 0 312.64903437419707 978.30707529990286 0 978.30707529990286 -1533.5709449637279 0 0 0 0 21.941237611802535 633.69065431348167 0 633.69065431348167 -1824.2870719179687 0 0 0 0 -17.513080753211398 949.49472132438746 0 949.49472132438746 -1164.9278753348071 0 0 0 0 314.44864090872579 485.27532025881726 0 485.27532025881726 -1749.1791163417147 0 0 0 0 256.25350270816125 334.59697086546953 0 334.59697086546953 -1806.3000011730323 0 0 0 0 10.187689301921637 -52.678817826728505 0 -52.678817826728505 -1971.1039756548532 0 0 0 0 314.24749175854959 506.75430542382975 0 506.75430542382975 -2487.1367963957096 0 0 0 0 154.92248716380709 -51.140844114006995 0 -51.140844114006995 -3301.5424368201584 0 0 0 0 90.197593567980221 787.55368734938838 0 787.55368734938838 -2124.4517731050273 0 0 0 0 183.44662751116266 962.76945738936865 0 962.76945738936865 -1464.084095989441 0 0 0 0 -54.202315532456851 1228.8242884609754 0 1228.8242884609754 -890.05443457288766 0 0 0 0 296.65121495935728 1006.5964585968081 0 1006.5964585968081 -1532.6389039308497 0 0 0 0 -44.023071471361618 1131.8286609923841 0 1131.8286609923841 -1159.7545430749888 0 0 0 0 265.53141702829816 998.06583381872019 0 998.06583381872019 -2288.5389648604478 0 0 0 0 -108.72696632120642 1404.332845032355 0 1404.332845032355 -1344.5649496306787 0 0 0 0 165.71405384774334 923.16661650815331 0 923.16661650815331 -2325.7346530945724 0 0 0 0 -0.29932968108187197 1570.2651463998839 0 1570.2651463998839 -1325.8276479777048 0 0 0 0 -0.46623305379762314 1327.901138815485 0 1327.901138815485 -3954.9085029039652 0 0 0 0 -614.00140854048368 987.23160196319668 0 987.23160196319668 -2326.8501050420759 0 0 0 0 340.7029427456655 759.49078457656378 0 759.49078457656378 -3455.8751001624969 0 0 0 0 -253.29061007125711 -10.909125834294855 0 -10.909125834294855 -3061.9514621071767 0 0 0 0 -5.1573898119037267 7.4603797108941663 0 7.4603797108941663 -8.3924777314476149 0 0 0 0 320.25438850330102 -130.35997279360231 0 -130.35997279360231 -6181.8821661612064 0 0 0 0 -1470.4488561469479 2181.6184808398684 0 2181.6184808398684 -1909.2704639152234 0 0 0 0 -226.38117213762598 1147.2294479000484 0 1147.2294479000484 -1814.7974671575357 0 0 0 0 -741.48086699898704 1185.0371308880549 0 1185.0371308880549 -1004.8750780262344 0 0 0 0 110.41830762267637 180.80726151035924 0 180.80726151035924 -1023.9363392239593 0 0 0 0 57.095499561401084 949.93062420599199 0 949.93062420599199 -2589.9688068952019 0 0 0 0 4561.5163527619152 -11.085691086454972 0 -11.085691086454972 -2134.6588124750888 0 0 0 0 3816.1748416226474 758.87914330451531 0 758.87914330451531 -2362.3591079651214 0 0 0 0 3992.7604701166274 349.06216888125527 0 349.06216888125527 -2011.1260506077633 0 0 0 0 4863.871679581971 -626.76200634985116 0 -626.76200634985116 -1408.3894328398092 0 0 0 0 -2726.3641670038778 1169.1971706710628 0 1169.1971706710628 -307.4551370604604 0 0 0 0 0.66610288251809635 9.9748718337732214 0 9.9748718337732214 -40.308738561581727 0 0 0 0 3986.3938478766649 -478.13154059998487 0 -478.13154059998487 -952.51648803734497 0 0 0 0 3196.8021197267808 -1697.8507981252587 0 -1697.8507981252587 1305.2144353904732 0 0 0 0 3414.4282612099487 166.967902331593 0 166.967902331593 -1088.599630621291 0 0 0 0 1881.7498252743389 213.48809495621481 0 213.48809495621481 1825.2815260926 0 0 0 0 2752.3372219030571 561.88795129591745 0 561.88795129591745 395.01160468153103 0 0 0 0 3839.0574585550639 -585.41390934834362 0 -585.41390934834362 194.84415481739416 0 0 0 0 2414.0353132545715 385.74574288139047 0 385.74574288139047 857.50076914891179 0 0 0 0 -1387.80577991053 210.45800110967502 0 210.45800110967502 -185.81327495255391 0 0 0 0 -1682.2092551477108 882.42448677335415 0 882.42448677335415 -312.02770850994239 0 0 0 0 -1384.5608080849197 1453.4189948067633 0 1453.4189948067633 -713.3269419612916 0 0 0 0 -665.89950813888572 1359.4702797651771 0 1359.4702797651771 -1092.9830901322894 0 0 0 0 -871.87504238726979 992.19521459294629 0 992.19521459294629 -324.83453548039688 0 0 0 0 -425.12402460334124 1182.0003029330037 0 1182.0003029330037 -983.87904430343042 0 0 0 0 -421.35702099575428 1073.9281245048405 0 1073.9281245048405 -510.23975448661076 0 0 0 0 -460.63543346709412 1240.1186575047295 0 1240.1186575047295 -679.77547244798916 0 0 0 0 -560.9861787502814 872.58259055278722 0 872.58259055278722 -590.68949533430168 0 0 0 0 -421.36756363058521 1069.9171792796151 0 1069.9171792796151 -425.58354299145867 0 0 0 0 -200.26547770196339 689.61318111506989 0 689.61318111506989 -501.58070911379764 0 0 0 0 -383.34894932377938 594.83623962678394 0 594.83623962678394 -545.88458661796903 0 0 0 0 -250.22630705332267 921.42948785163026 0 921.42948785163026 -993.08147968912454 0 0 0 0 -95.379409816290718 697.17147838772144 0 697.17147838772144 -772.0535031662439 0 0 0 0 -37.431928279052954 493.29338655449646 0 493.29338655449646 -924.52083906662665 0 0 0 0 160.14851637520769 326.1943371675261 0 326.1943371675261 -297.1550001618416 0 0 0 0 -199.92624258735304 405.67164611219596 0 405.67164611219596 -310.37349269631159 0 0 0 0 -185.99801380783174 296.3349769561537 0 296.3349769561537 -148.81070005378524 0 0 0 0 -210.6449294692211 317.94812602893853 0 317.94812602893853 -144.0011391929329 0 0 0 0 -209.09686982347193 132.28831126145633 0 132.28831126145633 421.04039556304997 0 0 0 0 212.7874348450714 343.79153747959754 0 343.79153747959754 371.33987092044117 0 0 0 0 -337.43839277383813 403.97305841282105 0 403.97305841282105 716.31169551381208 0 0 0 0 996.90024251079012 847.7309687792058 0 847.7309687792058 516.564298669462 0 0 0 0 -1343.4935147213691 -39.642940052170161 0 -39.642940052170161 -44.475534413737478 0 0 0 0 817.55914131344252 1539.5206064793947 0 1539.5206064793947 332.41332894496736 0 0 0 0 965.26976517561707 3173.5251576686387 0 3173.5251576686387 -1223.3229739775861 0 0 0 0 821.72030449497106 889.81830034534141 0 889.81830034534141 1078.1434379809366 0 0 0 0 2209.0153374598594 860.44357411054807 0 860.44357411054807 341.70040960582264 0 0 0 0 19.806995084502262 35.622347777618629 0 35.622347777618629 -31.911121651749568 0 0 0 0 38.190964892659395 44.193890223550625 0 44.193890223550625 -30.576526764497771 0 0 0 0 1.5087818272243965 19.808943648162881 0 19.808943648162881 -42.776006989661767 0 0 0 0 2722.959104665264 2488.0232244921312 0 2488.0232244921312 307.53487451927504 0 0 0 0 198.3449003111491 -120.05188263988771 0 -120.05188263988771 -459.5798542410721 0 0 0 0 113.80733342273743 219.79808588776859 0 219.79808588776859 -557.35555235711581 0 0 0 0 -668.83315659726213 242.17864767186029 0 242.17864767186029 -215.81701933208387 0 0 0 0 -302.01489742405101 -90.310692007733223 0 -90.310692007733223 -80.26841622869415 0 0 0 0 -560.77767066819069 621.78348719597579 0 621.78348719597579 -133.14366808534305 0 0 0 0 -1244.0515505241128 197.32546502066634 0 197.32546502066634 89.595303551408506 0 0 0 0 -4.5429971221064278 40.212444744120461 0 40.212444744120461 -64.801057351019693 0 0 0 0 1225.3484360147995 1547.150631641287 0 1547.150631641287 1694.7160114182843 0 0 0 0 0.11695051113601096 19.850127291378186 0 19.850127291378186 -5.7507786879480705 0 0 0 0 1841.7957161707382 1460.2741649461641 0 1460.2741649461641 1727.2377973437615 0 0 0 0 6139.1131489128456 1607.0191357557014 0 1607.0191357557014 308.16495723946355 0 0 0 0 -1440.5954302964528 1081.225517905307 0 1081.225517905307 -941.06652064452192 0 0 0 0 -1240.626880717813 437.3890503832688 0 437.3890503832688 -192.69564223197767 0 0 0 0 -5.0005341320396468 6.6589763695426427 0 6.6589763695426427 -7.4731813405716849 0 0 0 0 203.70707355804916 248.24184378107975 0 248.24184378107975 -668.05245628152625 0 0 0 0 -584.20366884604482 1101.6501243803932 0 1101.6501243803932 -1034.3288212895695 0 0 0 0 -2194.2938879548892 1041.1302662650951 0 1041.1302662650951 -56.947597819035764 0 0 0 0 -2115.694237407748 1245.3885666309088 0 1245.3885666309088 -136.23835901424877 0 0 0 0 -2071.3006470775035 619.09827156047459 0 619.09827156047459 -481.46076108091984 0 0 0 0 -1110.2653660329161 926.66870829725372 0 926.66870829725372 -360.78554429000633 0 0 0 0 -1236.1452616541792 763.31651474377577 0 763.31651474377577 -491.45337531179075 0 0 0 0 -1225.1261198345455 868.78861815701475 0 868.78861815701475 -724.83213679545224 0 0 0 0 -712.80882311872847 430.10883085613204 0 430.10883085613204 -457.60930419151089 0 0 0 0 -1809.6347986029359 1873.4444167190068 0 1873.4444167190068 -2559.0650603354516 0 0 0 0 -1268.9112835617416 850.76398924250952 0 850.76398924250952 -656.24802270284192 0 0 0 0 -1926.1548994829209 1222.6750734085999 0 1222.6750734085999 -584.96236982901155 0 0 0 0 -1294.4275125932327 318.11695985251936 0 318.11695985251936 -287.78863814219767 0 0 0 0 -1731.676778780442 -660.1255497591228 0 -660.1255497591228 -2004.3189874452678 0 0 0 0 -1213.708555157471 -156.50131711194535 0 -156.50131711194535 -479.38685770658776 0 0 0 0 -620.77032433416753 32.741812880333782 0 32.741812880333782 -1171.9729288703838 0 0 0 0 -586.27501002535428 211.87587934565545 0 211.87587934565545 -513.33865457749926 0 0 0 0 2439.1763248383068 529.08077116123786 0 529.08077116123786 -996.71372135895399 0 0 0 0 4067.6891313035849 -26.237509116409001 0 -26.237509116409001 -1609.5624144108224 0 0 0 0 3729.7334780324163 -404.77581768603432 0 -404.77581768603432 -1984.6287816176664 0 0 0 0 4245.9158604610275 -31.662781641851325 0 -31.662781641851325 -1316.4876141033164 0 0 0 0 3734.3693530934615 413.95954762111887 0 413.95954762111887 -1686.2909369474728 0 0 0 0 4653.9301710973523 1556.289596698417 0 1556.289596698417 -576.84260559931863 0 0 0 0 -3908.7781809299777 1014.9014552076615 0 1014.9014552076615 8.5171330179684901 0 0 0 0 -5.9869439971321299 12.146915088218037 0 12.146915088218037 -24.420314919299742 0 0 0 0 2266.9649569659814 -75.288416813064941 0 -75.288416813064941 -3040.2812537126501 0 0 0 0 63.829621532757301 2852.8632964371527 0 2852.8632964371527 -2848.4134365640912 0 0 0 0 -2972.4296910368867 1387.3127708794605 0 1387.3127708794605 10.333493974156227 0 0 0 0 2114.8752737398027 819.19686129688853 0 819.19686129688853 -1214.4585971775546 0 0 0 0 2161.2422100991535 959.79365969596074 0 959.79365969596074 -929.83335883174368 0 0 0 0 3558.6056073571963 326.05214313019314 0 326.05214313019314 -2325.5047319960422 0 0 0 0 2798.6008051458339 608.56166956403285 0 608.56166956403285 -784.07548314054657 0 0 0 0 2795.0431944811717 671.38479053294577 0 671.38479053294577 4.0497519851778634 0 0 0 0 3096.5845209065592 1939.7274808879001 0 1939.7274808879001 734.32593791627005 0 0 0 0 4570.8267155926442 1180.6724060094166 0 1180.6724060094166 -446.44708594213625 0 0 0 0 2449.6129859632347 1757.1447355985183 0 1757.1447355985183 -295.99591931226041 0 0 0 0 2826.4025367394497 1373.3643866277516 0 1373.3643866277516 -1.9163081131264335 0 0 0 0 3030.366093156772 1998.6830498875042 0 1998.6830498875042 229.6896563626733 0 0 0 0 2765.8253184257774 935.96535238371598 0 935.96535238371598 76.064669426414184 0 0 0 0 2270.5920368660009 1398.0543621425168 0 1398.0543621425168 -150.44925085134855 0 0 0 0 1632.4350611739792 1687.7359095061411 0 1687.7359095061411 198.03702749518197 0 0 0 0 1763.2902761867153 1232.2379154677237 0 1232.2379154677237 419.77777588022764 0 0 0 0 1503.1074170903012 1034.2465281428522 0 1034.2465281428522 87.606949272576458 0 0 0 0 300.66697435051901 2178.3213834455864 0 2178.3213834455864 -709.01083335734756 0 0 0 0 -250.24268881914031 667.2097686211182 0 667.2097686211182 -82.985119888843656 0 0 0 0 -1153.5069051503888 265.48608391904486 0 265.48608391904486 425.56209659804699 0 0 0 0 -364.85503160992812 1287.3107703450082 0 1287.3107703450082 451.34364299948538 0 0 0 0 411.00618014253268 770.12957391168811 0 770.12957391168811 470.78383970727737 0 0 0 0 1022.7956914251408 1363.8956238508617 0 1363.8956238508617 553.05990235844365 0 0 0 0 -310.68403748777928 937.74524282728999 0 937.74524282728999 546.71838777967673 0 0 0 0 -127.9442987072689 703.76583902978837 0 703.76583902978837 650.58201113980431 0 0 0 0 1735.5603924847965 736.39450077285892 0 736.39450077285892 529.52387726448615 0 0 0 0 1958.7844207531016 1069.8871810453093 0 1069.8871810453093 317.45929538154542 0 0 0 0 1984.524524035256 1182.9284939621434 0 1182.9284939621434 740.01410823314109 0 0 0 0 3420.6017136022274 457.65833218332136 0 457.65833218332136 376.79666824836204 0 0 0 0 1790.2238733353952 882.67860971765026 0 882.67860971765026 920.98628602402641 0 0 0 0 -825.7372977584746 74.655139824729304 0 74.655139824729304 -290.55506111504747 0 0 0 0 -802.80558525960078 124.91743257253893 0 124.91743257253893 -311.03154808109002 0 0 0 0 -476.4062799893436 -46.571688297871788 0 -46.571688297871788 -576.649463591928 0 0 0 0 -1060.8198835329167 126.84286857562938 0 126.84286857562938 124.54668924114412 0 0 0 0 -872.39668526388414 232.32223242718374 0 232.32223242718374 -273.78252367679966 0 0 0 0 -814.70093162907142 410.11369905963511 0 410.11369905963511 381.25880783800312 0 0 0 0 -827.62890829452954 477.20406995029498 0 477.20406995029498 165.95832833362147 0 0 0 0 -632.17906113277422 581.37969774358953 0 581.37969774358953 -290.75776230457632 0 0 0 0 -844.28506613550417 463.25073568071912 0 463.25073568071912 -206.72765151912472 0 0 0 0 -877.18986450515513 484.08173158853333 0 484.08173158853333 281.18686465611063 0 0 0 0 -596.09597394065349 298.59125118905558 0 298.59125118905558 -110.49134275392407 0 0 0 0 -853.92085702181066 880.78938976299855 0 880.78938976299855 41.277814911798487 0 0 0 0 -217.89839336075238 707.88873604392256 0 707.88873604392256 312.52583816049901 0 0 0 0 -876.02976511698216 858.36758866260925 0 858.36758866260925 20.290979573691402 0 0 0 0 -878.21896607979943 844.12687444480616 0 844.12687444480616 639.76428430332362 0 0 0 0 -746.43089117688942 1141.6129990676304 0 1141.6129990676304 313.67666666174227 0 0 0 0 -1028.5212953525568 1065.942978176113 0 1065.942978176113 446.26591991893656 0 0 0 0 -895.76606368247303 1436.3627638030548 0 1436.3627638030548 -501.58232916718953 0 0 0 0 -1022.1602803283058 1086.4992758154435 0 1086.4992758154435 535.36370671042278 0 0 0 0 -1029.5305293448673 1410.0350578251259 0 1410.0350578251259 -474.10237716786287 0 0 0 0 -1274.3973306475091 1370.2631427202268 0 1370.2631427202268 -76.513262677934335 0 0 0 0 2468.399679261267 1132.4358998927592 0 1132.4358998927592 141.33630279739191 0 0 0 0 -6.405707318744561 28.925945906964557 0 28.925945906964557 -29.788093874593404 0 0 0 0 1086.7812864802836 785.09964138404666 0 785.09964138404666 509.17225062658736 0 0 0 0 2153.3852678737458 648.57809775882174 0 648.57809775882174 235.90322300713888 0 0 0 0 959.90048511141504 928.59632581061032 0 928.59632581061032 468.82159526138639 0 0 0 0 950.03660796633631 1042.1394565578521 0 1042.1394565578521 421.85955899679948 0 0 0 0 -189.29899341309101 836.20303514759587 0 836.20303514759587 602.40987387466157 0 0 0 0 1099.4081906707579 886.87037706648789 0 886.87037706648789 274.70603438447506 0 0 0 0 45.512899842957268 788.33830479689789 0 788.33830479689789 447.40558039753705 0 0 0 0 55.334732892632019 785.41882830920804 0 785.41882830920804 146.94439239574058 0 0 0 0 -567.82511325347878 747.41362094972055 0 747.41362094972055 721.56941485449715 0 0 0 0 1051.3895599491952 653.64443661331461 0 653.64443661331461 227.10100711100949 0 0 0 0 1623.7241568319878 80.928561142481158 0 80.928561142481158 47.620950528122194 0 0 0 0 8.441629789099153 7.4696452122336296 0 7.4696452122336296 -30.845787862299439 0 0 0 0 -13.156053440705413 42.675819036097764 0 42.675819036097764 -73.000566459984839 0 0 0 0 1751.3819259196753 993.43699601287835 0 993.43699601287835 103.02752582824724 0 0 0 0 165.6272018202726 -133.66315404659053 0 -133.66315404659053 -126.01191252497841 0 0 0 0 1189.6546574966851 1198.5363321081368 0 1198.5363321081368 273.13873284017609 0 0 0 0 1823.5617159784742 707.19580219354793 0 707.19580219354793 236.72578339127358 0 0 0 0 1278.486342621909 861.09193567500915 0 861.09193567500915 747.02153296599136 0 0 0 0 1255.613511951844 976.05585110273751 0 976.05585110273751 223.08818810763478 0 0 0 0 1490.20156363571 969.60897712033693 0 969.60897712033693 170.54104100432596 0 0 0 0 1536.9522876953124 1387.1485222164229 0 1387.1485222164229 623.07686291627397 0 0 0 0 760.14447798959736 851.11850366024009 0 851.11850366024009 512.26380503414111 0 0 0 0 754.82980794575997 904.43484545576212 0 904.43484545576212 73.846802927058889 0 0 0 0 146.37075779646693 830.8109732800549 0 830.8109732800549 444.30168409767793 0 0 0 0 142.13822733756388 910.89337575330865 0 910.89337575330865 454.32119516328385 0 0 0 0 829.50405875254364 869.44301430576525 0 869.44301430576525 188.66836430826515 0 0 0 0 829.55487805927214 872.99253724780351 0 872.99253724780351 411.53673719427024 0 0 0 0 691.74187093341607 725.40518386594704 0 725.40518386594704 470.86291100369999 0 0 0 0 692.0076142532489 986.34863579694138 0 986.34863579694138 209.12173693014483 0 0 0 0 219.83551509170502 801.12956293297611 0 801.12956293297611 311.62129968286899 0 0 0 0 2659.8933688387988 1044.0628263876224 0 1044.0628263876224 -119.38008291136794 0 0 0 0 163.99597037008061 4.9704948533253628 0 4.9704948533253628 78.021070421142213 0 0 0 0 -103.28661034559627 48.050958352816451 0 48.050958352816451 192.6736439407905 0 0 0 0 -0.94320036306547905 9.2098639626986483 0 9.2098639626986483 6.9924694949949782 0 0 0 0 1630.3247013401124 914.02904012009094 0 914.02904012009094 135.31973783038848 0 0 0 0 1799.2958312034934 339.7545752608612 0 339.7545752608612 177.06894822962931 0 0 0 0 1270.7616177386226 446.22320594574194 0 446.22320594574194 406.01171205209539 0 0 0 0 10.425572229339707 25.982911318996202 0 25.982911318996202 -82.435043014704874 0 0 0 0 936.13350222157896 914.5225091066568 0 914.5225091066568 266.55012084806458 0 0 0 0 -6.3623881285193349 35.269531087935079 0 35.269531087935079 -76.78894042521955 0 0 0 0 9.954670382936996 -3.5239661019771233 0 -3.5239661019771233 -3.7541811238713478 0 0 0 0 483.12319205427048 230.40090349183629 0 230.40090349183629 -209.48948059790109 0 0 0 0 191.70916444839349 7.03357070377524 0 7.03357070377524 -149.77953837855603 0 0 0 0 -94.855012168482062 1117.2362065091256 0 1117.2362065091256 304.36892181274015 0 0 0 0 647.73057400178368 549.59036518065841 0 549.59036518065841 81.033351861602569 0 0 0 0 -119.21995697627426 930.87443100502787 0 930.87443100502787 105.9261175020365 0 0 0 0 -329.29719317629088 744.77710564019469 0 744.77710564019469 -56.826750864158385 0 0 0 0 -416.36239175894298 637.28189065242623 0 637.28189065242623 -264.91233850151002 0 0 0 0 -815.68622355203843 1089.9193179963004 0 1089.9193179963004 -280.56529037983455 0 0 0 0 -809.70924821580411 2403.1676426931208 0 2403.1676426931208 730.50254679755017 0 0 0 0 -553.13547850750911 -79.314606467099566 0 -79.314606467099566 -90.75211958802538 0 0 0 0 1.584362064271545 7.3484242748416904 0 7.3484242748416904 -13.462933454935197 0 0 0 0 4729.646462013563 2297.1533842073286 0 2297.1533842073286 -283.77726635292856 0 0 0 0 233.62018092020298 39.851383440254722 0 39.851383440254722 -195.17399399981878 0 0 0 0 -1303.2478784386767 -1739.7182740902572 0 -1739.7182740902572 3694.1489075419158 0 0 0 0 1249.4732076780638 -2261.0688683498447 0 -2261.0688683498447 2893.2051946225401 0 0 0 0 -548.45059552363819 1064.9370409648 0 1064.9370409648 2033.5414029527747 0 0 0 0 2687.4082014320884 1321.3522291103909 0 1321.3522291103909 188.91204928365732 0 0 0 0 1934.6187742905458 1771.9686610881763 0 1771.9686610881763 1657.1940489645931 0 0 0 0 2705.8295302577899 2464.984269068631 0 2464.984269068631 1461.4011412932668 0 0 0 0 -564.57863505574642 1116.1543669885468 0 1116.1543669885468 -180.9623689489199 0 0 0 0 -718.35610553310346 857.26783465331619 0 857.26783465331619 -384.18395096684253 0 0 0 0 -722.0536079531098 1015.9650342264354 0 1015.9650342264354 -231.62166424704628 0 0 0 0 -373.0153067363367 1334.8712543369145 0 1334.8712543369145 -292.86277679565683 0 0 0 0 -567.84031034820509 1064.2576832348986 0 1064.2576832348986 96.642782160201023 0 0 0 0 -70.648317451792536 1103.170799709751 0 1103.170799709751 19.261285027718259 0 0 0 0 -464.46747471689014 921.0062505141359 0 921.0062505141359 265.27425078247325 0 0 0 0 -818.01732520111545 950.04013462528746 0 950.04013462528746 76.64430505373457 0 0 0 0 -938.35349595626758 1099.8094573836497 0 1099.8094573836497 153.12232426452829 0 0 0 0 -1067.9351309647973 1098.2462406530904 0 1098.2462406530904 116.72631897614338 0 0 0 0 -888.17627537164662 921.73060274249656 0 921.73060274249656 268.64195584057597 0 0 0 0 -890.11233649463747 889.13773373878473 0 889.13773373878473 -59.209328031531186 0 0 0 0 -179.82973880062491 1142.5795313318868 0 1142.5795313318868 296.8550615776403 0 0 0 0 -604.92933763154724 1160.5655283593333 0 1160.5655283593333 147.31679883282777 0 0 0 0 -424.33442035380813 888.50158922534069 0 888.50158922534069 -14.799261197666056 0 0 0 0 -422.85177575937996 916.54645789881397 0 916.54645789881397 388.9579936494556 0 0 0 0 136.7230405299706 871.85389639351069 0 871.85389639351069 176.11437060670869 0 0 0 0 147.99135690598723 832.7407657194608 0 832.7407657194608 13.749206035550742 0 0 0 0 -415.95807321777465 662.16326736081419 0 662.16326736081419 -268.37150155852578 0 0 0 0 -433.65712063203682 711.67700987108765 0 711.67700987108765 247.9435477759107 0 0 0 0 -904.48234760508171 707.41212836889588 0 707.41212836889588 -345.04840848251479 0 0 0 0 -1251.197585028538 897.07430324715097 0 897.07430324715097 25.602751263399114 0 0 0 0 -902.10611991380574 808.53019276107079 0 808.53019276107079 149.16462846333889 0 0 0 0 -1273.8102298098675 656.28410181028448 0 656.28410181028448 -220.52446381779737 0 0 0 0 -1279.0901772301695 468.31093543237705 0 468.31093543237705 -796.72253414334409 0 0 0 0 -1239.3614267379307 765.88571715299258 0 765.88571715299258 -305.48310845402739 0 0 0 0 -1593.6070629369642 968.00625435865004 0 968.00625435865004 -420.16700657102774 0 0 0 0 -2033.5025383112225 1265.3816566790338 0 1265.3816566790338 -1264.1890886379042 0 0 0 0 -1789.5219692850987 678.69337199588335 0 678.69337199588335 -260.7738166296258 0 0 0 0 -1578.6109752635966 882.40097313744991 0 882.40097313744991 -293.92213256943069 0 0 0 0 -2079.4331956754322 634.62260297467219 0 634.62260297467219 183.95318103259342 0 0 0 0 -1346.1273265208292 911.11047356500058 0 911.11047356500058 -0.12660437567137706 0 0 0 0 -1663.0240693938758 865.65289021864919 0 865.65289021864919 53.045135154854506 0 0 0 0 -3070.3275110876893 639.47404786932384 0 639.47404786932384 83.163813414961623 0 0 0 0 -1875.7670371853601 -720.74631820093418 0 -720.74631820093418 -7.6919224174998817 0 0 0 0 -16.738313513095505 6.2338617377525303 0 6.2338617377525303 -3.4055394594646629 0 0 0 0 -1379.5177980218141 102.86100468307086 0 102.86100468307086 180.88123759829614 0 0 0 0 -1264.2026254039883 235.69606715511691 0 235.69606715511691 84.056752372398478 0 0 0 0 -24.027801059259218 -76.603743112435041 0 -76.603743112435041 -409.91929623517353 0 0 0 0 -45.348703678631864 -15.124827906618521 0 -15.124827906618521 68.963766240514815 0 0 0 0 -772.83375915814395 -16.748005347089929 0 -16.748005347089929 120.44531585361074 0 0 0 0 -7.3447349451188302 -2.2876804493060519 0 -2.2876804493060519 11.567957985896513 0 0 0 0 -1151.9674691255204 487.05249049960548 0 487.05249049960548 20.084616021158581 0 0 0 0 -1269.6384213712299 578.62789750058073 0 578.62789750058073 -46.255040618518251 0 0 0 0 -7.3189293890692397 -1.4200362548614578 0 -1.4200362548614578 7.6640416645372937 0 0 0 0 -1209.3080953401804 562.45471732913575 0 562.45471732913575 -53.589681994775674 0 0 0 0 -8.6913575773924094 -40.029284276351518 0 -40.029284276351518 112.6315519641721 0 0 0 0 -75.601492956528091 8.1631484171666671 0 8.1631484171666671 77.997543777219107 0 0 0 0 -950.27109966931084 966.02799696760655 0 966.02799696760655 -5.5609403017006116 0 0 0 0 -1295.2691542589819 837.71163248391531 0 837.71163248391531 100.09624037577669 0 0 0 0 -1653.0671516161456 677.0137566115809 0 677.0137566115809 147.97310755960643 0 0 0 0 -1408.3776616616087 439.29276597230637 0 439.29276597230637 232.06528475300183 0 0 0 0 -1247.657459093025 644.19004236705587 0 644.19004236705587 148.70497918424434 0 0 0 0 -1151.5861177728511 671.98014253350084 0 671.98014253350084 -82.303326428260334 0 0 0 0 -1096.1589216468419 874.2646898540861 0 874.2646898540861 -62.994451473890877 0 0 0 0 -547.06823455255289 818.92682837855409 0 818.92682837855409 -383.95050338569126 0 0 0 0 -455.83204289111563 237.74214835523117 0 237.74214835523117 -82.151593563641654 0 0 0 0 -1003.0639947290765 495.63015066123899 0 495.63015066123899 -202.48866908321725 0 0 0 0 -2.3493822762392256 -0.093995712222195493 0 -0.093995712222195493 2.0597370335820386 0 0 0 0 235.34864829762228 -491.79762628120989 0 -491.79762628120989 352.6145857032825 0 0 0 0 -1165.5989597386433 571.77180504382159 0 571.77180504382159 -212.3071172358068 0 0 0 0 -1308.0556953901323 901.16067773416671 0 901.16067773416671 -363.18780974826586 0 0 0 0 -126.96130958610593 -5.9624880757328356 0 -5.9624880757328356 256.93744560622099 0 0 0 0 23.760070999036543 -162.33952439408313 0 -162.33952439408313 237.60085101275763 0 0 0 0 -160.5082532198503 35.568597630244767 0 35.568597630244767 203.88702756296334 0 0 0 0 -91.169790315972932 6.9915950009090011 0 6.9915950009090011 150.89722237587557 0 0 0 0 -257.16989928761905 90.144319055827509 0 90.144319055827509 224.0919587356675 0 0 0 0 -407.71025621324225 395.21588221497586 0 395.21588221497586 -139.84311290344158 0 0 0 0 -584.90630473097553 -121.59577021828954 0 -121.59577021828954 405.94414495103933 0 0 0 0 -75.233256559404253 248.54246058505305 0 248.54246058505305 -532.07693297165679 0 0 0 0 199.96864522892429 -162.63946356698216 0 -162.63946356698216 362.01471036412937 0 0 0 0 -10.314205460224827 -0.85017650451599991 0 -0.85017650451599991 0.066725828109604354 0 0 0 0 -140.8298627838376 284.1235991516387 0 284.1235991516387 -38.093009393689044 0 0 0 0 -364.47906592939398 344.84826552122649 0 344.84826552122649 341.08216296619139 0 0 0 0 -361.35383538196402 126.17220092582966 0 126.17220092582966 198.95099221733108 0 0 0 0 -404.03682025178568 351.83096331538218 0 351.83096331538218 576.34678262006855 0 0 0 0 -316.81607670614903 299.54695711095337 0 299.54695711095337 -55.080406062790644 0 0 0 0 -461.20971460807777 12.726443334407122 0 12.726443334407122 -85.54461979215921 0 0 0 0 -76.259824281318288 13.615318719308561 0 13.615318719308561 39.627186357869505 0 0 0 0 -98.441409625360393 7.0928387585609016 0 7.0928387585609016 67.054220996307549 0 0 0 0 -11.058531265254715 85.462091719587534 0 85.462091719587534 26.951636094898276 0 0 0 0 -22.384424045216321 7.7673767904903315 0 7.7673767904903315 4.2245324415457475 0 0 0 0 25.907059086566733 117.5747227026668 0 117.5747227026668 180.22956829424584 0 0 0 0 -20.272901653983837 6.3775496465157744 0 6.3775496465157744 51.747362536289138 0 0 0 0 41.463517803174909 143.15365176519481 0 143.15365176519481 217.05313007876248 0 0 0 0 -250.53357935886015 77.208134819979932 0 77.208134819979932 80.143790146354149 0 0 0 0 -150.43438155649346 164.64693161778996 0 164.64693161778996 286.19455809823194 0 0 0 0 -63.570302884391737 1.9785301072936221 0 1.9785301072936221 7.3735321311225812 0 0 0 0 -36.515516454048338 133.79092372576997 0 133.79092372576997 240.40034965371706 0 0 0 0 -133.79235291339864 45.453439022416205 0 45.453439022416205 604.00106515016705 0 0 0 0 -34.993656499723272 0.082510034310537606 0 0.082510034310537606 -0.51737911994430652 0 0 0 0 -226.10151707814657 -577.00107743827266 0 -577.00107743827266 1874.3738573631999 0 0 0 0 -18.216074192292581 54.12459765013773 0 54.12459765013773 530.02986306554885 0 0 0 0 -51.943715067893208 45.089133991716153 0 45.089133991716153 -111.42881679306447 0 0 0 0 -62.205997413460864 60.874483801590031 0 60.874483801590031 -52.836967321068911 0 0 0 0 -53.620666963455733 28.104016464139931 0 28.104016464139931 13.429648691166221 0 0 0 0 -86.992670384162921 77.867088626486293 0 77.867088626486293 9.2754189314232462 0 0 0 0 -106.26960980371223 82.175979125000595 0 82.175979125000595 55.090770874940063 0 0 0 0 -151.38186800408221 196.87671025483633 0 196.87671025483633 -43.03534069338275 0 0 0 0 -106.65465507906629 80.995549380064404 0 80.995549380064404 73.681972642105393 0 0 0 0 -131.54550504661165 79.625666544179694 0 79.625666544179694 77.44978501229707 0 0 0 0 -116.28058540409256 57.307500001074004 0 57.307500001074004 109.07352016475488 0 0 0 0 -103.86058138568478 60.17554782640218 0 60.17554782640218 60.959944079393608 0 0 0 0 -103.52595117818419 58.444415674449374 0 58.444415674449374 65.940783504953288 0 0 0 0 -85.162448951050465 41.212489478100906 0 41.212489478100906 50.851381299784407 0 0 0 0 -96.915813623476424 55.426694938265427 0 55.426694938265427 37.418060077179689 0 0 0 0 -77.852380874523078 61.015211553545669 0 61.015211553545669 38.618981909472495 0 0 0 0 -81.203718617922277 57.385107655562024 0 57.385107655562024 62.087493587790505 0 0 0 0 -110.87412067707919 25.315316453019477 0 25.315316453019477 105.61945275089238 0 0 0 0 -58.840324589400552 54.841407058265759 0 54.841407058265759 6.3364437333766546 0 0 0 0 -117.96047684089717 13.517639983865593 0 13.517639983865593 53.104410913048923 0 0 0 0 -104.45245205755054 16.732236079333234 0 16.732236079333234 20.991276722070324 0 0 0 0 -174.50614841916831 23.435949266531679 0 23.435949266531679 79.205185358936433 0 0 0 0 -117.27544467631378 27.03170857978148 0 27.03170857978148 72.632494417259295 0 0 0 0 -119.99793391753337 34.048191140216659 0 34.048191140216659 54.926683399897229 0 0 0 0 -99.726764016733796 43.008201768347135 0 43.008201768347135 55.881560581834492 0 0 0 0 -122.655927727159 56.213250680237252 0 56.213250680237252 48.28383492786088 0 0 0 0 -67.206613469417789 48.268161628544476 0 48.268161628544476 39.815444322481198 0 0 0 0 -152.76672376689385 131.65148236934328 0 131.65148236934328 46.428894263426628 0 0 0 0 -121.40485068158887 65.023631893280253 0 65.023631893280253 108.72509214463935 0 0 0 0 -80.032312487222953 6.8854527095500089 0 6.8854527095500089 101.29395711516827 0 0 0 0 -96.519528984164936 34.697069018024195 0 34.697069018024195 67.57926335965783 0 0 0 0 -95.967829109518789 32.430003917396789 0 32.430003917396789 60.392247761210456 0 0 0 0 -79.662900255607383 30.48263455407141 0 30.48263455407141 34.232882704140138 0 0 0 0 -74.434665673761629 16.343094392865169 0 16.343094392865169 55.833663005812014 0 0 0 0 -63.500819153654447 14.712912131999474 0 14.712912131999474 19.961410176325444 0 0 0 0 -72.583898593176855 35.495800947752286 0 35.495800947752286 20.903378807425383 0 0 0 0 -16.901991557161978 7.1812513645440674 0 7.1812513645440674 11.473385074372146 0 0 0 0 -83.430249674924198 29.647375956072665 0 29.647375956072665 4.8365203074718011 0 0 0 0 -65.50759055974504 31.449711557248154 0 31.449711557248154 -10.912493569721335 0 0 0 0 -69.807021969378184 29.353774461276316 0 29.353774461276316 31.486652899955516 0 0 0 0 104.71308837304241 117.72240007526489 0 117.72240007526489 53.22276483054884 0 0 0 0 -41.447479660266254 208.47475140627648 0 208.47475140627648 140.12094780520783 0 0 0 0 -119.80964852392208 -18.760169069129915 0 -18.760169069129915 55.374244217229716 0 0 0 0 -43.108024731519293 14.229541497400518 0 14.229541497400518 -2.1161666894721307 0 0 0 0 -220.94061045337003 169.75306366878795 0 169.75306366878795 -109.93262168195724 0 0 0 0 -17.462266970403775 8.7385647952038283 0 8.7385647952038283 -1.8662365829515579 0 0 0 0 29.647522067294631 -73.155994339176686 0 -73.155994339176686 46.425529385254777 0 0 0 0 -260.70572136690316 329.20217250643327 0 329.20217250643327 -43.314566120806035 0 0 0 0 -89.416339517403685 81.292480509186134 0 81.292480509186134 -8.7906121838532272 0 0 0 0 -273.92443104585982 138.77026214863145 0 138.77026214863145 391.45609384809723 0 0 0 0 -70.915010151877937 31.264790451315037 0 31.264790451315037 -13.521948848346135 0 0 0 0 -97.899474986945279 80.783029270496627 0 80.783029270496627 -99.302503323960991 0 0 0 0 141.45272707357071 43.25693508850236 0 43.25693508850236 -111.32246261527325 0 0 0 0 -40.066602215505554 35.83675767868408 0 35.83675767868408 -152.4267179031649 0 0 0 0 -196.841706960171 -124.14383055614417 0 -124.14383055614417 -23.627678487580852 0 0 0 0 0.1863071712529063 -0.67436519592396493 0 -0.67436519592396493 1.2900676128319191 0 0 0 0 -384.6835990971158 -5.4849979189857549 0 -5.4849979189857549 66.676668665302714 0 0 0 0 -179.00279284176213 108.58180568550779 0 108.58180568550779 -59.622173045154341 0 0 0 0 8.2059456839197082 -251.25416287188273 0 -251.25416287188273 -118.03267107529246 0 0 0 0 -2.6386279160996366 1.7547216549046922 0 1.7547216549046922 -0.1102660824258237 0 0 0 0 27.862432016398088 114.75103742469219 0 114.75103742469219 30.430054493765056 0 0 0 0 -36.259989159339966 -25.156336231983914 0 -25.156336231983914 24.435524019078002 0 0 0 0 152.06381600454188 64.087081767973359 0 64.087081767973359 3.6390625725543941 0 0 0 0 3.6030586182241677 -7.5609751122829039 0 -7.5609751122829039 -11.045948656432302 0 0 0 0 0.21456287102226668 0.89332006073635739 0 0.89332006073635739 7.9405830754718352 0 0 0 0 35.457032016227458 47.595628074159322 0 47.595628074159322 -10.213229040855367 0 0 0 0 50.145921180075675 12.2989433978546 0 12.2989433978546 27.388092462337227 0 0 0 0 -28.617896918483893 47.965172897373122 0 47.965172897373122 29.70238737537511 0 0 0 0 6.4195011672163673 39.934703836874178 0 39.934703836874178 27.484989629687334 0 0 0 0 17.829229457152906 34.503893065095326 0 34.503893065095326 22.962402550911065 0 0 0 0 22.826367382047465 47.255125341740495 0 47.255125341740495 25.58490598688536 0 0 0 0 -4.152512335945671 3.265155235939261 0 3.265155235939261 16.138176374791001 0 0 0 0 47.237367964975419 38.080462085024919 0 38.080462085024919 15.712117503164336 0 0 0 0 -28.640214069644571 13.428745553470435 0 13.428745553470435 63.790034607609414 0 0 0 0 -12.527961646242289 9.3693826975455394 0 9.3693826975455394 1.0036458652876519 0 0 0 0 -18.104793509526644 25.892575405188836 0 25.892575405188836 24.554249068896752 0 0 0 0 -11.697997343296429 19.918809270415153 0 19.918809270415153 13.670287626772435 0 0 0 0 -11.685831877651111 15.993238609426108 0 15.993238609426108 9.7546452763096951 0 0 0 0 -4.1974325768696872 24.37791371919684 0 24.37791371919684 16.031857512076385 0 0 0 0 16.744650345783157 26.083835029063266 0 26.083835029063266 22.557196402300178 0 0 0 0 -0.39219036497425463 14.177334929224738 0 14.177334929224738 4.0300227440133227 0 0 0 0 -3.7307277918962427 28.526127589070029 0 28.526127589070029 18.286304903107521 0 0 0 0 -1.9414472553471569 22.490456747698772 0 22.490456747698772 16.118483407008171 0 0 0 0 -6.5284870012301042 25.294961594234636 0 25.294961594234636 14.084237070602683 0 0 0 0 9.7196269768173806 43.492442523134741 0 43.492442523134741 24.432785543860518 0 0 0 0 -45.727022926344944 47.689964025899826 0 47.689964025899826 52.506850518671854 0 0 0 0 -0.40216699680171075 3.8512375530574445 0 3.8512375530574445 -2.4103133708719895 0 0 0 0 0.5783474309137091 40.050339804340183 0 40.050339804340183 25.741666291145521 0 0 0 0 0.085777439169561376 18.193836695638971 0 18.193836695638971 0.073397176486292182 0 0 0 0 17.490019773482345 38.365112994099036 0 38.365112994099036 20.609917192261491 0 0 0 0 -10.806662078088266 44.079544586295015 0 44.079544586295015 36.411853586258076 0 0 0 0 -16.010697200050345 61.719236958688271 0 61.719236958688271 0.88278826983878389 0 0 0 0 -168.84659036652738 -6.4756331323296763 0 -6.4756331323296763 56.704953604366892 0 0 0 0 -19.601472214635578 16.973916459828615 0 16.973916459828615 13.705320086894062 0 0 0 0 -32.310666563239522 23.346201839031188 0 23.346201839031188 5.6442416606420807 0 0 0 0 -27.244550991854027 19.925613812675721 0 19.925613812675721 19.085642216748511 0 0 0 0 -8.6867135728008122 -2.9785064894214628 0 -2.9785064894214628 -0.4470152028670924 0 0 0 0 -79.37219819126949 229.28860009248865 0 229.28860009248865 179.41107990165619 0 0 0 0 314.8398882148831 126.61612637988219 0 126.61612637988219 4.2511845422923216 0 0 0 0 -181.86640599706152 -50.856585248544434 0 -50.856585248544434 115.43407161984578 0 0 0 0 0.094781597971805631 2.1247582017650046 0 2.1247582017650046 2.9979406314141386 0 0 0 0 -178.02274198655141 26.789665035917096 0 26.789665035917096 229.24596362243756 0 0 0 0 -161.39865337507217 149.59127233976324 0 149.59127233976324 190.69664678010668 0 0 0 0 -167.35293192266545 14.285085415311187 0 14.285085415311187 210.33694306482357 0 0 0 0 201.17400958423241 -83.278306339048868 0 -83.278306339048868 -85.303959881559422 0 0 0 0 -14.719352696296156 -3.7962491853023295 0 -3.7962491853023295 21.421230829490938 0 0 0 0 -70.976969773619459 31.944211597350002 0 31.944211597350002 -9.773156345357549 0 0 0 0 -82.303056872282468 171.04839397510113 0 171.04839397510113 62.985639911349153 0 0 0 0 145.30627254531282 204.5306018255551 0 204.5306018255551 65.434241636561637 0 0 0 0 157.53190773330425 167.09608713799935 0 167.09608713799935 56.052218214474124 0 0 0 0 236.75581523176879 132.17510641686567 0 132.17510641686567 30.768881795353082 0 0 0 0 157.48616083582098 158.05520829110543 0 158.05520829110543 38.783611046037549 0 0 0 0 79.218187224654685 94.158195215161868 0 94.158195215161868 41.718579160275112 0 0 0 0 19.717768240341684 111.78609554331524 0 111.78609554331524 58.399139407777511 0 0 0 0 -3.9208714306441834 75.303093457659998 0 75.303093457659998 45.749752519057893 0 0 0 0 39.696048310886908 87.534126089733036 0 87.534126089733036 45.085410329367733 0 0 0 0 33.99005927241501 57.276908703716799 0 57.276908703716799 39.61859379463931 0 0 0 0 20.031387748771522 58.662825182029337 0 58.662825182029337 39.508915841346607 0 0 0 0 21.26575745664195 75.016593171227214 0 75.016593171227214 20.161199061622028 0 0 0 0 25.639097970706644 62.534406934724757 0 62.534406934724757 28.528691685853119 0 0 0 0 31.026729024524684 82.989721933014152 0 82.989721933014152 45.603071854395239 0 0 0 0 59.285479952886817 74.270880864387436 0 74.270880864387436 50.766293385975587 0 0 0 0 23.535008437760972 49.860503982058681 0 49.860503982058681 34.725906624733497 0 0 0 0 44.181929998239866 62.199532417585033 0 62.199532417585033 41.394526488524207 0 0 0 0 19.754784598281159 9.3420739757249436 0 9.3420739757249436 4.4113762205988962 0 0 0 0 34.091241767735482 56.038610013694324 0 56.038610013694324 33.089250342793093 0 0 0 0 4.5219805468027481 30.735885141724808 0 30.735885141724808 18.812281341031735 0 0 0 0 23.419041293782357 28.635214562594228 0 28.635214562594228 10.643577874441689 0 0 0 0 3.7628685036178098 25.308734267815368 0 25.308734267815368 20.290010033268231 0 0 0 0 12.8844680026682 29.565722363361616 0 29.565722363361616 9.904153923262264 0 0 0 0 9.7067528655024944 43.313342142108013 0 43.313342142108013 24.913547335454496 0 0 0 0 -22.100836701706129 29.479270476014616 0 29.479270476014616 6.0934688875874663 0 0 0 0 42.200360654191627 34.939536636869889 0 34.939536636869889 123.5754650133058 0 0 0 0 10.265329262008891 42.608502833016246 0 42.608502833016246 23.86578684968481 0 0 0 0 -30.434537393884966 47.369392767017416 0 47.369392767017416 -4.930200844501087 0 0 0 0 10.458273602314875 41.873864007051452 0 41.873864007051452 25.015945398718486 0 0 0 0 -23.628617128050585 27.122005666579078 0 27.122005666579078 18.21013438396615 0 0 0 0 -46.020339687936939 65.164967247863387 0 65.164967247863387 11.413278912306851 0 0 0 0 -147.60957453370793 220.37242436794622 0 220.37242436794622 56.704893904461642 0 0 0 0 21.258585063173086 58.637264109696844 0 58.637264109696844 -21.87061720607926 0 0 0 0 -94.298320942019927 66.210380440708832 0 66.210380440708832 54.706874938299734 0 0 0 0 -0.89472014705053482 9.9900484316107026 0 9.9900484316107026 0.54632994687312575 0 0 0 0 3.4081899858503135 6.9555823742180349 0 6.9555823742180349 3.6045314924148357 0 0 0 0 360.20672264974564 121.61040415830939 0 121.61040415830939 -174.72352993087407 0 0 0 0 -101.43894469505994 256.46544595889839 0 256.46544595889839 -6.6531893029605271 0 0 0 0 -30.057732806300919 91.045351876520726 0 91.045351876520726 34.98990364108613 0 0 0 0 2.0130886733386433 52.658709470171743 0 52.658709470171743 54.812686888305166 0 0 0 0 11.235154145077104 75.343522096536617 0 75.343522096536617 40.84302483186184 0 0 0 0 -27.026042854664411 46.164453474952097 0 46.164453474952097 11.949244660576369 0 0 0 0 1.8436519154402049 95.717590163215391 0 95.717590163215391 12.988899328032858 0 0 0 0 38.5891846422453 72.020641911964731 0 72.020641911964731 -16.810564637686184 0 0 0 0 -24.247496754069289 70.368051829647811 0 70.368051829647811 51.820599647075142 0 0 0 0 7.1575017096802185 120.12245434189572 0 120.12245434189572 7.921469893954054 0 0 0 0 36.70978184096748 103.89005916330825 0 103.89005916330825 7.4091300866020902 0 0 0 0 90.937050489417743 127.25150503249824 0 127.25150503249824 5.5230223707794721 0 0 0 0 107.93270816419681 124.90777140858336 0 124.90777140858336 -14.170960020921484 0 0 0 0 80.04447220039583 -70.864936159008721 0 -70.864936159008721 295.17452099083312 0 0 0 0 284.76105691695921 -86.745385875383363 0 -86.745385875383363 98.278300019184826 0 0 0 0 44.597449157441588 43.173685119827496 0 43.173685119827496 185.99471608619206 0 0 0 0 32.572035331373627 94.798225475789877 0 94.798225475789877 21.933577656156558 0 0 0 0 -16.65509606202977 135.11010111486394 0 135.11010111486394 256.82830048995311 0 0 0 0 2.1841260253786459 133.30065264685072 0 133.30065264685072 72.787679037212911 0 0 0 0 -21.338394189835526 -12.781331764736024 0 -12.781331764736024 -36.854098342455472 0 0 0 0 35.002354052525334 170.98614873609313 0 170.98614873609313 145.52100561351472 0 0 0 0 -277.34493013196379 54.861152936124881 0 54.861152936124881 95.256169291664264 0 0 0 0 0.6222079323107641 3.5841405039200254 0 3.5841405039200254 1.3164360839771234 0 0 0 0 0.2965757950140393 2.4050385720634679 0 2.4050385720634679 1.1585735752726904 0 0 0 0 -390.4353015501656 235.95474038715292 0 235.95474038715292 464.36322298488449 0 0 0 0 444.96429973444174 76.18370136559497 0 76.18370136559497 -10.934627380105667 0 0 0 0 63.732882949028863 122.69832560352006 0 122.69832560352006 78.885562023664534 0 0 0 0 242.45576855332183 69.383067424350884 0 69.383067424350884 69.083778754990362 0 0 0 0 234.92045919292286 -93.280190926686373 0 -93.280190926686373 102.03508412577867 0 0 0 0 0.64332149135690209 4.9827279985626873 0 4.9827279985626873 2.5975572331011136 0 0 0 0 20.047815153530792 127.14825230504175 0 127.14825230504175 -215.09802848224354 0 0 0 0 71.465330632483528 338.37278178287488 0 338.37278178287488 -412.20864853863532 0 0 0 0 -279.93254250763857 339.2830538575472 0 339.2830538575472 50.12702292373433 0 0 0 0 -136.14978813075868 66.748572587188391 0 66.748572587188391 213.01920005491047 0 0 0 0 84.408122493019619 164.40579993467054 0 164.40579993467054 -289.34124699312088 0 0 0 0 -4.3678336221530003 -1.2316346878377775 0 -1.2316346878377775 0.56021190398194776 0 0 0 0 -2.0583338315409492 118.26372051079852 0 118.26372051079852 -17.804018902912503 0 0 0 0 -41.482318632057286 109.94779603290226 0 109.94779603290226 321.42549450745037 0 0 0 0 130.15230523158971 28.886498699546792 0 28.886498699546792 -474.15604026301662 0 0 0 0 -49.045192914301879 -31.944109685371586 0 -31.944109685371586 -200.0126852060057 0 0 0 0 19.314583852676151 148.67426717859189 0 148.67426717859189 -108.24598845349465 0 0 0 0 77.138280884151754 146.91231368885929 0 146.91231368885929 -7.4408616904838709 0 0 0 0 -24.321198267927684 123.43518933805899 0 123.43518933805899 112.81203813199681 0 0 0 0 -19.758983678562799 138.27676936295757 0 138.27676936295757 61.671528821319953 0 0 0 0 -66.685459393444035 89.491616334838909 0 89.491616334838909 47.086727451562183 0 0 0 0 -41.58033834224716 100.02045539925189 0 100.02045539925189 13.377363437975873 0 0 0 0 -40.372864783494151 105.00172187211683 0 105.00172187211683 24.664166252570794 0 0 0 0 27.449870105403534 40.220132635585287 0 40.220132635585287 -34.189036392714115 0 0 0 0 -20.349376136728097 51.443089661354406 0 51.443089661354406 -22.011301869471936 0 0 0 0 40.804969351618638 53.090387826604456 0 53.090387826604456 -38.068281338553788 0 0 0 0 -15.213582997367773 42.027867784739769 0 42.027867784739769 13.681583615659939 0 0 0 0 -73.664650732160226 38.083142241554924 0 38.083142241554924 34.015945318238664 0 0 0 0 -17.333603385581227 9.2365623221958231 0 9.2365623221958231 4.6904276069108164 0 0 0 0 -29.510206392260443 68.000514920479418 0 68.000514920479418 32.516265018421109 0 0 0 0 -28.101117078076271 42.116394050906692 0 42.116394050906692 15.115858532872821 0 0 0 0 20.906576156870869 130.82936675370001 0 130.82936675370001 47.79243827002756 0 0 0 0 -33.055345420389102 38.787983546096044 0 38.787983546096044 14.608887223509875 0 0 0 0 -76.347154062072534 68.050159969635189 0 68.050159969635189 53.361896459597475 0 0 0 0 -25.075069953514458 69.626918599929482 0 69.626918599929482 0.58411127179921163 0 0 0 0 -97.8832463354629 132.70734573810796 0 132.70734573810796 38.162646560234862 0 0 0 0 48.931717064406257 86.116100302072937 0 86.116100302072937 24.995757481461624 0 0 0 0 -18.111878983734641 100.03074928215688 0 100.03074928215688 -79.311203017870866 0 0 0 0 -102.81979794665676 63.414608141764802 0 63.414608141764802 191.74921966533611 0 0 0 0 -7.4099486184676167 85.893700341624879 0 85.893700341624879 -42.223590659183721 0 0 0 0 -15.375945251054532 30.778730551691133 0 30.778730551691133 0.51501495473724845 0 0 0 0 130.28501702749054 87.832439506086303 0 87.832439506086303 -2.5303399532864068 0 0 0 0 -43.306298717463505 158.60988928622282 0 158.60988928622282 -17.307412854037466 0 0 0 0 39.213779373079888 91.399487843227234 0 91.399487843227234 18.423410447438073 0 0 0 0 22.626809543136915 68.210111721468593 0 68.210111721468593 -145.05407854222904 0 0 0 0 -4.1980727232574964 26.765932428406334 0 26.765932428406334 -7.8433664885757928 0 0 0 0 66.389037296825308 122.52237497772364 0 122.52237497772364 -44.119170821202609 0 0 0 0 8.2292250742842015 5.3991672280766423 0 5.3991672280766423 3.5775515062116021 0 0 0 0 -65.854284472457948 57.626443779623514 0 57.626443779623514 23.665761274638498 0 0 0 0 -39.933647659490816 41.754219258649755 0 41.754219258649755 1.9535505027270119 0 0 0 0 -55.195457852896652 56.569051098318596 0 56.569051098318596 22.688707867509947 0 0 0 0 -90.627028479477303 30.342454518890008 0 30.342454518890008 -5.4709100325962936 0 0 0 0 -4.9875255754138976 74.28602161486431 0 74.28602161486431 3.1262510929611835 0 0 0 0 -66.135948475654004 80.031862527586782 0 80.031862527586782 21.944892335668555 0 0 0 0 -60.894171623018337 82.694681109000157 0 82.694681109000157 87.631801823281421 0 0 0 0 -63.526363304286861 91.406604019474798 0 91.406604019474798 64.725041982565017 0 0 0 0 -37.986053080901911 115.46922761663154 0 115.46922761663154 166.15916950131214 0 0 0 0 -43.16530791837431 81.069717818361823 0 81.069717818361823 69.794288613960816 0 0 0 0 72.733836403942405 158.72331808864328 0 158.72331808864328 164.67712898828177 0 0 0 0 57.235306411341298 116.72188380390617 0 116.72188380390617 89.347715600300944 0 0 0 0 -3.1540509151927836 101.10246465237651 0 101.10246465237651 189.42264193845403 0 0 0 0 -52.686261590228241 27.92742226680457 0 27.92742226680457 105.92673977440063 0 0 0 0 -40.513750125370279 15.301954971222585 0 15.301954971222585 34.906610662810635 0 0 0 0 -53.002340191116673 68.308592648039848 0 68.308592648039848 85.526172100078838 0 0 0 0 896.14860907499678 -347.99171132183938 0 -347.99171132183938 -701.45126868830539 0 0 0 0 -401.9743734313015 500.01827767442683 0 500.01827767442683 38.90246615527758 0 0 0 0 1.1647668940923808 15.186634901361924 0 15.186634901361924 -2.4257653947624318 0 0 0 0 -139.36962048573787 134.29693435684885 0 134.29693435684885 -76.129641688006814 0 0 0 0 -203.7373205302174 374.15143206878156 0 374.15143206878156 282.59630563183327 0 0 0 0 1.9470244150393512 -2.7913973286938756 0 -2.7913973286938756 -20.000255906207453 0 0 0 0 -109.89982490216789 76.49047608005003 0 76.49047608005003 -113.29128666155157 0 0 0 0 -0.28542064617185758 0.62564802943462894 0 0.62564802943462894 -4.1504493214598597 0 0 0 0 98.070890251299716 1.5291497865073325 0 1.5291497865073325 36.868230703209434 0 0 0 0 -75.339793091803585 -119.61019414440852 0 -119.61019414440852 401.61540213226544 0 0 0 0 1.8328276098939256 5.623004924002835 0 5.623004924002835 -1.6801213715963357 0 0 0 0 -166.03752267746313 107.59547471646329 0 107.59547471646329 14.35379327127157 0 0 0 0 132.55173020692018 266.40925222765145 0 266.40925222765145 339.38259599883622 0 0 0 0 320.33928759816627 242.94502811238272 0 242.94502811238272 114.49466900709376 0 0 0 0 145.92133287542674 130.47122013166154 0 130.47122013166154 113.02815685931637 0 0 0 0 -44.539414881481207 39.049488678427224 0 39.049488678427224 13.804046545697929 0 0 0 0 30.931069409554766 75.896442213816044 0 75.896442213816044 30.845686267255587 0 0 0 0 1.0792258819514737 0.16868884917377613 0 0.16868884917377613 8.9285799113345234 0 0 0 0 -107.19862455404655 29.126594670342456 0 29.126594670342456 -20.901791348100232 0 0 0 0 -209.29265604177635 19.666287116157037 0 19.666287116157037 46.967469204824738 0 0 0 0 -119.12151935512338 3.7887422013136529 0 3.7887422013136529 -21.376089971410693 0 0 0 0 -2.9109441037189754 86.174254664470482 0 86.174254664470482 31.747141525545885 0 0 0 0 -40.071019442242687 102.97235443673526 0 102.97235443673526 95.289479395225499 0 0 0 0 -56.5418441464426 117.87258082384142 0 117.87258082384142 95.828855716170438 0 0 0 0 -8.219270584100741 119.11683985764421 0 119.11683985764421 75.653508769377368 0 0 0 0 -162.80327860152101 42.318704534532571 0 42.318704534532571 84.679976084385999 0 0 0 0 -28.250174857574166 99.868838776708799 0 99.868838776708799 60.233971189671138 0 0 0 0 1.7876684625589405 55.489472452738482 0 55.489472452738482 6.7038253274495219 0 0 0 0 11.377233064611573 71.537655552559499 0 71.537655552559499 50.804935680702329 0 0 0 0 -2.9277225107798586 68.173598137003864 0 68.173598137003864 17.455784703726749 0 0 0 0 -45.396809574558944 29.480605561148472 0 29.480605561148472 13.633020682407206 0 0 0 0 -41.226784479546041 97.283073333259381 0 97.283073333259381 76.224943589713803 0 0 0 0 -35.146596444414172 46.8761758200435 0 46.8761758200435 24.334215087073972 0 0 0 0 -39.599301063339226 89.741257386254802 0 89.741257386254802 80.288130637849463 0 0 0 0 -24.908152707474073 85.261372352682884 0 85.261372352682884 25.308486102643656 0 0 0 0 -40.65389781956037 80.901754776970847 0 80.901754776970847 55.281896230847451 0 0 0 0 -23.430186879966641 83.168964408494503 0 83.168964408494503 -16.490661808275036 0 0 0 0 -63.935158303836943 47.919766032253392 0 47.919766032253392 10.752327657621208 0 0 0 0 -6.9265996435351553 55.281934917090439 0 55.281934917090439 28.589645147047122 0 0 0 0 47.410564494057326 136.65704939606712 0 136.65704939606712 -78.938177735197314 0 0 0 0 -48.562509811324162 50.354860751215142 0 50.354860751215142 -0.30198431238193874 0 0 0 0 -171.83147001481848 95.489753035760714 0 95.489753035760714 228.33742421845636 0 0 0 0 -5.7894562880683225 163.55865933469113 0 163.55865933469113 -75.126831325693274 0 0 0 0 -201.99560871403082 129.20909847106577 0 129.20909847106577 55.438326750916531 0 0 0 0 -70.275523966308128 53.259966472094504 0 53.259966472094504 7.2303623493426237 0 0 0 0 -149.89235606935472 -24.258993448417414 0 -24.258993448417414 264.73334726791472 0 0 0 0 -45.465433851743001 46.91818625516953 0 46.91818625516953 -48.726533701479639 0 0 0 0 -76.047121447365498 57.573609613105873 0 57.573609613105873 3.0278334713220829 0 0 0 0 -19.627859108507803 16.471558383607615 0 16.471558383607615 12.942546298371624 0 0 0 0 -99.367759607557673 42.43266929767924 0 42.43266929767924 34.109022439763066 0 0 0 0 -158.93981912234449 47.668184746116822 0 47.668184746116822 88.949738186809554 0 0 0 0 -130.66624356537068 -3.3702815613723942 0 -3.3702815613723942 83.81521709941309 0 0 0 0 -73.909264882172124 31.08503145262565 0 31.08503145262565 17.67873379295612 0 0 0 0 -15.546349159253394 9.4346446662448784 0 9.4346446662448784 36.71291007786688 0 0 0 0 36.943254100653576 87.634451782424549 0 87.634451782424549 -57.000187638416719 0 0 0 0 -68.548962462169584 206.42797780926821 0 206.42797780926821 -74.230641065770214 0 0 0 0 2.6090008526872381 -1.9990010354113679 0 -1.9990010354113679 9.9594580773436547 0 0 0 0 -412.88329661048192 -203.25502247105624 0 -203.25502247105624 343.76094582508176 0 0 0 0 -0.778492036218978 4.0370432717457163 0 4.0370432717457163 34.484527660301524 0 0 0 0 -251.1714030719595 -401.5851279546057 0 -401.5851279546057 860.69674082068445 0 0 0 0 -173.48437786844443 199.21901317209557 0 199.21901317209557 -141.85203573034869 0 0 0 0 -5.621975936257968 3.5296934244125211 0 3.5296934244125211 2.8286435381161223 0 0 0 0 -123.12055119370052 -80.514447566632839 0 -80.514447566632839 482.3011562086084 0 0 0 0 -25.292201077521895 -35.03915115442355 0 -35.03915115442355 -79.260135542090211 0 0 0 0 -41.369384267367423 45.496192389194789 0 45.496192389194789 -277.45300924481307 0 0 0 0 -297.82455903067603 462.78914925487754 0 462.78914925487754 -596.16848616439211 0 0 0 0 -604.70332370142569 40.703808945811488 0 40.703808945811488 387.52373691823868 0 0 0 0 -193.98050713482371 118.8581803128227 0 118.8581803128227 -80.48386950094033 0 0 0 0 -18.434079763581394 226.86293001998718 0 226.86293001998718 -378.94672396978012 0 0 0 0 -486.34151991456747 75.031335152483507 0 75.031335152483507 594.20669920710634 0 0 0 0 -7.634616742017954 1.4068336734265543 0 1.4068336734265543 3.0193517232420892 0 0 0 0 -136.61599932657555 89.966139040366443 0 89.966139040366443 -89.139946564220054 0 0 0 0 -670.10720836471592 72.66979631035916 0 72.66979631035916 135.29645134817122 0 0 0 0 -331.71324447766528 327.94510617708704 0 327.94510617708704 326.51734262176251 0 0 0 0 128.54723050763278 -173.79880524214434 0 -173.79880524214434 287.88984913387549 0 0 0 0 -614.85065483854851 271.77046268388199 0 271.77046268388199 215.59867648360049 0 0 0 0 -304.31718858844397 248.14812471183885 0 248.14812471183885 -409.75223598798311 0 0 0 0 19.398831326275825 16.920612520335325 0 16.920612520335325 9.3962863072148206 0 0 0 0 321.49388424902281 -22.119546222219014 0 -22.119546222219014 2.7560626519762081 0 0 0 0 -1066.0982326148805 902.22150832580996 0 902.22150832580996 -345.92798006499544 0 0 0 0 -702.05154730047798 69.678734382857115 0 69.678734382857115 -68.863661425000032 0 0 0 0 433.78985188920342 1199.2730281469808 0 1199.2730281469808 246.86354315429048 0 0 0 0 -82.762984888016945 206.30878843925558 0 206.30878843925558 27.624070847944523 0 0 0 0 -0.99807238814817367 3.601515858719381 0 3.601515858719381 13.311887850525162 0 0 0 0 -444.24115561915823 -321.94319138521672 0 -321.94319138521672 1448.1767282902852 0 0 0 0 1687.960988752573 819.37422127322566 0 819.37422127322566 204.57842799979608 0 0 0 0 52.957768082299481 47.471053869328621 0 47.471053869328621 -700.808187872894 0 0 0 0 71.865368109848532 -133.65453758882492 0 -133.65453758882492 73.7759415268157 0 0 0 0 -269.83899564412422 -234.52990447272532 0 -234.52990447272532 355.68112752717127 0 0 0 0 -358.6826974930882 -42.189763436120984 0 -42.189763436120984 847.03409309407868 0 0 0 0 -396.62239481050347 256.11924467228118 0 256.11924467228118 -2.5953573301209758 0 0 0 0 -270.12837957251941 164.71735925176927 0 164.71735925176927 -93.828480539700649 0 0 0 0 -181.02337957113923 120.93444938761331 0 120.93444938761331 -160.48335398027484 0 0 0 0 -131.30664650841618 102.83912731017176 0 102.83912731017176 -104.76378528212263 0 0 0 0 -107.14523837735942 125.80590818761652 0 125.80590818761652 -103.68924391843757 0 0 0 0 287.87384907518572 -46.780760647243369 0 -46.780760647243369 -256.08718685195981 0 0 0 0 188.25113307140055 -179.5011622756133 0 -179.5011622756133 123.25600643654343 0 0 0 0 194.36714573919016 -261.80396891494206 0 -261.80396891494206 -112.43716304642658 0 0 0 0 128.95878725670991 105.78460448213991 0 105.78460448213991 -109.49845077429927 0 0 0 0 2.2494997612929097 0.56485563399908045 0 0.56485563399908045 -9.364311087297672 0 0 0 0 429.6355975297447 15.727934951564748 0 15.727934951564748 -107.13209193856437 0 0 0 0 247.41801164002027 -95.713987060511954 0 -95.713987060511954 0.80271021550106525 0 0 0 0 -21.401348449120835 92.529272405024443 0 92.529272405024443 -38.501283909757134 0 0 0 0 -99.664156913549959 17.402572212094412 0 17.402572212094412 1198.6440434431997 0 0 0 0 288.75262314735483 9.0459916215838803 0 9.0459916215838803 50.678085762837327 0 0 0 0 -8.8352268242742866 179.21575344243138 0 179.21575344243138 -161.90000005672209 0 0 0 0 -26.301341386809725 29.115063654330939 0 29.115063654330939 -3.4389779039922459 0 0 0 0 197.89453680672159 665.47446191789891 0 665.47446191789891 -404.1063329100084 0 0 0 0 -285.07776430057856 428.42470146703994 0 428.42470146703994 132.77722519561803 0 0 0 0 1259.7761908724788 -574.67327423641177 0 -574.67327423641177 -586.54188138736436 0 0 0 0 5.5841069803839787 5.7490243775903878 0 5.7490243775903878 5.5442270096622144 0 0 0 0 -843.78759833407457 592.00686285304482 0 592.00686285304482 189.31376531200112 0 0 0 0 232.20097101894498 109.39048366011764 0 109.39048366011764 63.498966289091186 0 0 0 0 289.68361546071537 134.96529388432759 0 134.96529388432759 4.9725292944854118 0 0 0 0 273.70027398636012 108.47997308345884 0 108.47997308345884 -37.96339626495228 0 0 0 0 221.07429013799992 88.826692921401104 0 88.826692921401104 25.740166043524141 0 0 0 0 946.44018220361977 311.92352925882676 0 311.92352925882676 -290.26233479960501 0 0 0 0 883.06859665307502 -195.45669009512881 0 -195.45669009512881 -74.205560546095512 0 0 0 0 2.1622838363402153 1.3072672637203127 0 1.3072672637203127 -3.5959410003103791 0 0 0 0 1036.6648078499929 22.04263668364058 0 22.04263668364058 -12.108227814098427 0 0 0 0 -22.178705765309726 95.949757299702497 0 95.949757299702497 -31.957996428882296 0 0 0 0 -426.67923669375523 427.19998163527725 0 427.19998163527725 -167.73967213065225 0 0 0 0 -116.99249897700065 159.52553300250383 0 159.52553300250383 -210.33027130948176 0 0 0 0 -381.37934339053936 143.67278694535838 0 143.67278694535838 -138.51057618268715 0 0 0 0 -74.705741136800498 407.41377729424221 0 407.41377729424221 -358.53021734960112 0 0 0 0 -135.68477401286509 142.66526973518557 0 142.66526973518557 -52.646347891735786 0 0 0 0 -127.45056507972731 93.304420807857809 0 93.304420807857809 -147.45815557726746 0 0 0 0 -95.477696244226536 93.213257441301721 0 93.213257441301721 -147.18015475304674 0 0 0 0 -159.37555464207981 90.654251546525302 0 90.654251546525302 -88.156069253767782 0 0 0 0 -155.12375422862169 157.6202334892505 0 157.6202334892505 -124.00611687172022 0 0 0 0 -141.31082365008842 83.488109932085536 0 83.488109932085536 -158.39021760242758 0 0 0 0 -176.00203557633358 107.87607022782959 0 107.87607022782959 -146.93933958325647 0 0 0 0 2.9994154743981198 176.65129227880811 0 176.65129227880811 45.549265170384842 0 0 0 0 -45.585803416906856 139.37959560271747 0 139.37959560271747 23.080164440582394 0 0 0 0 -42.194071244259248 155.13151680524675 0 155.13151680524675 37.983863440920231 0 0 0 0 -64.956472148121975 111.01511078780914 0 111.01511078780914 -101.0589685079874 0 0 0 0 -86.283908449080627 224.18342653565588 0 224.18342653565588 20.74598561732455 0 0 0 0 270.0904295630753 275.27551040374351 0 275.27551040374351 -20.830872501039266 0 0 0 0 -65.621455775421055 268.30446247373811 0 268.30446247373811 127.77730066636991 0 0 0 0 23.738605454142089 217.35326487442399 0 217.35326487442399 -67.856136756270985 0 0 0 0 15.920279196026968 141.11310079105914 0 141.11310079105914 33.273523253796611 0 0 0 0 -23.696126381466076 94.241471450853354 0 94.241471450853354 -29.58943542725882 0 0 0 0 221.05754431589776 137.94857259123978 0 137.94857259123978 -30.787259264097884 0 0 0 0 190.12450555766554 117.06460868476483 0 117.06460868476483 -32.206941986486072 0 0 0 0 190.98493183062237 113.74373625992462 0 113.74373625992462 -24.826759636513998 0 0 0 0 153.94229373551025 85.787689748531307 0 85.787689748531307 -42.267970449232052 0 0 0 0 164.25984936667373 132.6157162505715 0 132.6157162505715 -7.4248903365601109 0 0 0 0 55.511669851024635 40.865103894241543 0 40.865103894241543 -44.668875897290491 0 0 0 0 101.55059655811783 120.22301479201587 0 120.22301479201587 -6.8313471409546764 0 0 0 0 -20.685890765453223 -86.512282812574995 0 -86.512282812574995 -120.49814813015109 0 0 0 0 290.73188261158066 432.85869970428757 0 432.85869970428757 282.85423846153572 0 0 0 0 -437.54637910581368 11.272138325810374 0 11.272138325810374 569.63869682715449 0 0 0 0 78.327449074412129 64.712904994425628 0 64.712904994425628 -26.786578622345186 0 0 0 0 167.2777403007276 135.16997458706737 0 135.16997458706737 -11.660473569323131 0 0 0 0 -16.941806827328897 107.71899131565884 0 107.71899131565884 -18.614673289835061 0 0 0 0 219.39474031165446 123.2777243570988 0 123.2777243570988 -41.400196855220202 0 0 0 0 181.92199410540343 100.39639923575396 0 100.39639923575396 -30.837194391795492 0 0 0 0 -3.9221085757235414 160.48184318172298 0 160.48184318172298 32.789534031067404 0 0 0 0 23.644436551450781 174.20806898757326 0 174.20806898757326 -15.412132571913247 0 0 0 0 5.1864973976480542 148.9554193990362 0 148.9554193990362 -46.168874930974368 0 0 0 0 26.859042775092234 90.173176387656184 0 90.173176387656184 -7.9827758712132582 0 0 0 0 -8.8018875970083172 165.42719056371607 0 165.42719056371607 -25.966191810484389 0 0 0 0 35.74148335738802 67.042892134336014 0 67.042892134336014 69.386167721024904 0 0 0 0 -19.178686957071477 148.86118785139388 0 148.86118785139388 -20.261206613507625 0 0 0 0 -4.1584649232853508 167.14514794159149 0 167.14514794159149 0.22430970306822928 0 0 0 0 18.8867726513854 32.502288774750923 0 32.502288774750923 -9.6619210965657203 0 0 0 0 12.552965425798902 50.268714631109333 0 50.268714631109333 -56.819671877875408 0 0 0 0 421.53053862130037 594.59092003270553 0 594.59092003270553 -1005.1772915025105 0 0 0 0 -212.84337169198261 700.61257503978868 0 700.61257503978868 -929.82962625076948 0 0 0 0 35.905295952999921 24.878091323484227 0 24.878091323484227 -7.6979277428408732 0 0 0 0 28.195841507462319 326.43368204853493 0 326.43368204853493 -616.83852566009546 0 0 0 0 465.71533214725787 423.59729401981508 0 423.59729401981508 -605.10982226315298 0 0 0 0 828.51491758031261 -170.60860434915134 0 -170.60860434915134 -92.475412008681246 0 0 0 0 -587.03090377343869 357.14382111043267 0 357.14382111043267 -210.54642934329661 0 0 0 0 -739.54129225805809 1275.2239846014193 0 1275.2239846014193 -617.38318057762945 0 0 0 0 71.033146881425637 37.512413949417351 0 37.512413949417351 -9.313938577420231 0 0 0 0 27.629175896945782 21.931129084852643 0 21.931129084852643 10.315667245644757 0 0 0 0 162.36831836104466 38.184094227830712 0 38.184094227830712 -29.864384106672333 0 0 0 0 71.838786027321476 18.602681423415561 0 18.602681423415561 -3.2714193999312329 0 0 0 0 60.183103708855924 50.441797782119011 0 50.441797782119011 -25.154888421494434 0 0 0 0 63.262549355056763 36.684984674026168 0 36.684984674026168 -46.383113283292005 0 0 0 0 60.10690629765304 61.814200026130038 0 61.814200026130038 -72.001758830437211 0 0 0 0 16.16916511952877 33.568108493478576 0 33.568108493478576 -46.065258256192465 0 0 0 0 94.469773843913572 32.334404765972522 0 32.334404765972522 -99.629676807409396 0 0 0 0 114.41819369218138 89.884193367068292 0 89.884193367068292 -24.03321370888716 0 0 0 0 102.65758316243591 37.757511514262205 0 37.757511514262205 -59.652649943304823 0 0 0 0 2.5289920706816247 3.5406731808977927 0 3.5406731808977927 3.5434410589575549 0 0 0 0 55.476301967555173 49.967108127386297 0 49.967108127386297 -23.83833604209131 0 0 0 0 756.76038809274905 511.61807977133867 0 511.61807977133867 126.63000024075154 0 0 0 0 9.9354620730155148 106.92140520584508 0 106.92140520584508 293.11816595052369 0 0 0 0 254.84113877243362 157.62841394876887 0 157.62841394876887 -21.041345513855049 0 0 0 0 84.838152689218987 127.85700894333058 0 127.85700894333058 160.03356725782214 0 0 0 0 -48.611688050914381 10.065953830544458 0 10.065953830544458 143.28278745557327 0 0 0 0 21.619124082681083 27.519881647908733 0 27.519881647908733 236.47911432640103 0 0 0 0 54.711274208857503 -26.038258676812802 0 -26.038258676812802 13.908386693292414 0 0 0 0 1.2289776396043237 -2.3362224015833988 0 -2.3362224015833988 -2.3750449157377602 0 0 0 0 70.571527413281729 95.202924774424901 0 95.202924774424901 106.04482444920905 0 0 0 0 27.963467325993406 31.618825690452013 0 31.618825690452013 -71.568399366407903 0 0 0 0 37.651910600637223 64.944570875005752 0 64.944570875005752 -12.817796834297409 0 0 0 0 -262.14516120962799 226.9458122721262 0 226.9458122721262 244.82259256090629 0 0 0 0 22.43037119883229 244.66190768647209 0 244.66190768647209 -915.65272919596009 0 0 0 0 204.4667716853146 311.64663299503081 0 311.64663299503081 27.652240032235568 0 0 0 0 235.94490029408416 -165.84178943634299 0 -165.84178943634299 120.07052763690444 0 0 0 0 -360.22426887562324 134.2910141707107 0 134.2910141707107 102.02320768333448 0 0 0 0 -22.529986445995746 183.46908435794467 0 183.46908435794467 -12.096641272477427 0 0 0 0 -7.5387149825983215 183.04433522049658 0 183.04433522049658 -116.40779781625315 0 0 0 0 52.529702153968373 68.73473971174117 0 68.73473971174117 57.581601298594421 0 0 0 0 39.050654481587117 90.068961157611739 0 90.068961157611739 -55.622329896918927 0 0 0 0 -228.356300379186 72.530996966996099 0 72.530996966996099 254.4553007874274 0 0 0 0 -254.96595202275785 268.92154541378841 0 268.92154541378841 -56.844967699080371 0 0 0 0 -203.54654839987052 169.96887459296977 0 169.96887459296977 42.935592092100705 0 0 0 0 -278.77619236438477 280.73916597282732 0 280.73916597282732 -9.3386542452190042 0 0 0 0 -150.5463057208035 239.79987896865623 0 239.79987896865623 -115.87654467112952 0 0 0 0 -709.76060809160845 699.62911885309904 0 699.62911885309904 -275.68095300739697 0 0 0 0 -413.12859976210166 116.6046376337888 0 116.6046376337888 399.59428000791559 0 0 0 0 -7.4668971689453087 -2.8079604782151577 0 -2.8079604782151577 1.3497719765946874 0 0 0 0 41.262414410055499 144.32587154894281 0 144.32587154894281 60.652495877671754 0 0 0 0 -10.4698121660835 19.795577445277814 0 19.795577445277814 11.920277539034217 0 0 0 0 -33.385340791603085 197.39799071997163 0 197.39799071997163 -949.65008976253239 0 0 0 0 280.27347211699816 231.99981866501435 0 231.99981866501435 -961.38863830275113 0 0 0 0 -813.16943956972682 351.67353807819586 0 351.67353807819586 -608.04333326482174 0 0 0 0 -540.91967685625423 -42.764310826853261 0 -42.764310826853261 -574.01652062646099 0 0 0 0 -8.1261004379193764 395.6199566050218 0 395.6199566050218 -2004.3887054752645 0 0 0 0 -274.31195755966473 -32.343017266399329 0 -32.343017266399329 -418.03693661547254 0 0 0 0 -346.31190365183284 -19.10803128594597 0 -19.10803128594597 -211.96089430044435 0 0 0 0 -300.19520455224847 108.07587587610132 0 108.07587587610132 -272.11454231714816 0 0 0 0 -350.63468626905524 143.67323349356263 0 143.67323349356263 -53.272026982148645 0 0 0 0 -40.202183593792142 -77.252187532052972 0 -77.252187532052972 94.942508609707147 0 0 0 0 156.42627656148397 349.97545864998472 0 349.97545864998472 131.32294880094798 0 0 0 0 183.00323054280307 -39.305242313759976 0 -39.305242313759976 -163.55137649804601 0 0 0 0 -133.10032941011013 388.34005002103743 0 388.34005002103743 -608.59658441226134 0 0 0 0 -557.53388970745436 240.09245077300511 0 240.09245077300511 -41.763802016565023 0 0 0 0 -531.28590450441698 136.10131815799377 0 136.10131815799377 163.1134518624491 0 0 0 0 -984.27689868728339 -91.746455815711215 0 -91.746455815711215 112.05263425325052 0 0 0 0 -569.74164703572751 9.0521379277051892 0 9.0521379277051892 -221.59147525726394 0 0 0 0 -513.84212369932357 -106.87456988404378 0 -106.87456988404378 -27.955451888941525 0 0 0 0 -431.95100526546594 174.98813398841594 0 174.98813398841594 -193.08858093691254 0 0 0 0 -387.30254831867933 265.25561547071538 0 265.25561547071538 -423.32542309880228 0 0 0 0 -288.67849853963708 472.25928758544455 0 472.25928758544455 5.225389651279329 0 0 0 0 -221.91487026207324 525.30193407855677 0 525.30193407855677 -218.62790498632057 0 0 0 0 -124.08365361476899 597.26402067868548 0 597.26402067868548 -379.46502442642304 0 0 0 0 -180.48592201506108 554.66953520237985 0 554.66953520237985 -401.21890721034833 0 0 0 0 -127.20432011566299 655.86472044501897 0 655.86472044501897 -209.21422586377412 0 0 0 0 -286.62665561049653 429.79448067828935 0 429.79448067828935 -401.4122960797431 0 0 0 0 -229.53247196160373 458.05259937236951 0 458.05259937236951 -1099.0056093115682 0 0 0 0 -227.35833886812907 504.70263971391796 0 504.70263971391796 -319.61657142214244 0 0 0 0 -150.15862997584918 510.20560035727158 0 510.20560035727158 -502.33239161693018 0 0 0 0 -88.547726654796861 361.20162879343434 0 361.20162879343434 -203.89178871907097 0 0 0 0 -414.42342996624575 580.63641925890124 0 580.63641925890124 -275.76249098564767 0 0 0 0 -117.41178828215925 393.00983270170036 0 393.00983270170036 -236.28501320713929 0 0 0 0 -52.955176518855296 646.98293064045129 0 646.98293064045129 -543.96446987120726 0 0 0 0 -40.540642931300681 602.15702559008423 0 602.15702559008423 -417.53144539959249 0 0 0 0 -36.967660015987349 518.64347527127484 0 518.64347527127484 -453.80434296190651 0 0 0 0 -10.267018584607285 521.43381246641184 0 521.43381246641184 -517.80712804170253 0 0 0 0 38.252436934053549 615.92864635089427 0 615.92864635089427 -708.64629038119892 0 0 0 0 45.988429447083035 564.40102128456874 0 564.40102128456874 -515.8823976327003 0 0 0 0 -54.917269660640159 791.65086882401829 0 791.65086882401829 -600.06316609959504 0 0 0 0 32.181789940026647 557.68876844178794 0 557.68876844178794 -701.68759529415547 0 0 0 0 24.245789554464864 590.05953511852567 0 590.05953511852567 -744.38350324912972 0 0 0 0 26.196920065645827 655.7615296620279 0 655.7615296620279 -1421.560741598114 0 0 0 0 -279.28584919178684 853.73242078815474 0 853.73242078815474 -708.71651534212106 0 0 0 0 -339.21564591212064 483.97790321884781 0 483.97790321884781 -471.13970054133097 0 0 0 0 -135.91266039160837 617.41245429698847 0 617.41245429698847 -403.29200383639363 0 0 0 0 30.993698706588475 505.46263360751846 0 505.46263360751846 -72.496543818258488 0 0 0 0 -87.745526615537528 744.06289584594469 0 744.06289584594469 -250.37323592042412 0 0 0 0 95.674428572645411 514.97588038799722 0 514.97588038799722 -489.58837896091063 0 0 0 0 -80.563738636104972 723.59387253738169 0 723.59387253738169 -347.35341507305566 0 0 0 0 -74.275797632239119 640.52247814316434 0 640.52247814316434 -327.65841974734394 0 0 0 0 -24.069052277642186 754.58944570957101 0 754.58944570957101 -159.11574525025753 0 0 0 0 -734.58768388680619 31.393606368256769 0 31.393606368256769 -530.29073717953361 0 0 0 0 147.66717258693825 191.6243213796306 0 191.6243213796306 -534.83308538368919 0 0 0 0 -278.53244199741312 221.44309321745277 0 221.44309321745277 -71.383239757240517 0 0 0 0 563.77175507346692 221.80598557847634 0 221.80598557847634 -122.43477615559027 0 0 0 0 385.0357653782994 -322.53098217137835 0 -322.53098217137835 -1.0447453943461369 0 0 0 0 20.710458253134703 15.621265980908092 0 15.621265980908092 -3.2785495563980476 0 0 0 0 -71.850430123427941 -67.103246994407982 0 -67.103246994407982 102.62601340100173 0 0 0 0 169.88202563275627 -51.491105485815524 0 -51.491105485815524 175.49452344159545 0 0 0 0 773.31365401763469 -253.25069744598773 0 -253.25069744598773 235.80768361006153 0 0 0 0 211.7308126079879 229.33993100790326 0 229.33993100790326 132.43414461035854 0 0 0 0 968.47812102364333 565.87946711510313 0 565.87946711510313 254.4256102249592 0 0 0 0 1720.132629618558 -106.66663206806379 0 -106.66663206806379 162.19932541158641 0 0 0 0 482.68360276140447 412.38521883562782 0 412.38521883562782 429.00249476276065 0 0 0 0 1436.9794338140346 959.99125465459042 0 959.99125465459042 657.32826299633234 0 0 0 0 10.48561038718006 8.1750049994121952 0 8.1750049994121952 -0.31997899886405223 0 0 0 0 -1427.8503381083938 1032.4991884995354 0 1032.4991884995354 1559.5118189183195 0 0 0 0 19.64458925362851 473.77758090295208 0 473.77758090295208 63.020580800779186 0 0 0 0 -199.59502246981356 613.83678155730604 0 613.83678155730604 127.80665051801316 0 0 0 0 207.52173590110033 681.14182777824976 0 681.14182777824976 95.936165266220542 0 0 0 0 70.406921667978168 420.68393014403205 0 420.68393014403205 378.94913751540395 0 0 0 0 -224.60571128167794 239.24111347625785 0 239.24111347625785 654.98708084786199 0 0 0 0 -230.84932958199352 441.75790998337698 0 441.75790998337698 1076.3491652473945 0 0 0 0 423.10477480656118 729.46367894629554 0 729.46367894629554 646.26883959765883 0 0 0 0 1.1813866622491105 4.1657800042937936 0 4.1657800042937936 9.5044430033412652 0 0 0 0 -40.547928750776919 484.50649621540202 0 484.50649621540202 699.72657200451681 0 0 0 0 -351.29811677944963 576.8411380502763 0 576.8411380502763 351.08333714164507 0 0 0 0 -150.04918118601199 5.6502826196981459 0 5.6502826196981459 234.93777550143801 0 0 0 0 -101.01717808174726 20.158616041430832 0 20.158616041430832 137.50755423088529 0 0 0 0 -108.55162174643556 46.094845342205417 0 46.094845342205417 15.459168993562344 0 0 0 0 -14.00364338288631 1.6489462585733881 0 1.6489462585733881 7.8373093712865076 0 0 0 0 188.73511362007412 803.04574602687899 0 803.04574602687899 1262.2902135429058 0 0 0 0 -40.23235835850096 19.731476932973848 0 19.731476932973848 32.923578755196033 0 0 0 0 -21.741009586385189 96.364308774300525 0 96.364308774300525 47.489467200655781 0 0 0 0 -506.11697137395095 -35.849115539857848 0 -35.849115539857848 109.2301079806457 0 0 0 0 -47.267246838222491 -23.014846234069864 0 -23.014846234069864 0.31366925959991931 0 0 0 0 340.6085989496496 415.75602956690818 0 415.75602956690818 -794.67090736711725 0 0 0 0 -979.2896580400411 598.46460473283696 0 598.46460473283696 2646.5611528805148 0 0 0 0 13.688020620846686 -1.0818246670899025 0 -1.0818246670899025 1.0285943604882868 0 0 0 0 -39.525581714624423 256.59746869778928 0 256.59746869778928 936.99266915383396 0 0 0 0 -178.17031406235765 -81.37428266333518 0 -81.37428266333518 -72.795639980413398 0 0 0 0 -226.28813343681395 -35.11522998392411 0 -35.11522998392411 31.374813467231434 0 0 0 0 -69.622608182995464 108.08988411373139 0 108.08988411373139 -30.491538873313743 0 0 0 0 38.602557338630049 9.6368810744375111 0 9.6368810744375111 2.9914736069853056 0 0 0 0 1201.9020282118872 65.718053187554688 0 65.718053187554688 756.88045464822983 0 0 0 0 139.65937951196975 56.6371561346823 0 56.6371561346823 -26.783471675764304 0 0 0 0 46.096441140325624 97.92441138425238 0 97.92441138425238 85.510279217810194 0 0 0 0 -182.7792027634132 48.016275032370686 0 48.016275032370686 87.149071412062767 0 0 0 0 -385.79214442723605 -26.402798329731922 0 -26.402798329731922 155.35845083068489 0 0 0 0 -194.33907626113796 -106.53446088037344 0 -106.53446088037344 187.81848892005655 0 0 0 0 -168.00294217542978 58.10594125733769 0 58.10594125733769 67.131777681574931 0 0 0 0 -145.52577701740665 -1.5510061901986774 0 -1.5510061901986774 -55.100044698664533 0 0 0 0 -15.996135767506445 -6.6490583529908918 0 -6.6490583529908918 1.8519029111720151 0 0 0 0 -593.54762469654088 537.26017712747762 0 537.26017712747762 -262.81771719423705 0 0 0 0 -648.38339715823531 95.702795835904908 0 95.702795835904908 -109.0727362867292 0 0 0 0 4.8708982899552211 58.827875695166767 0 58.827875695166767 27.506259612258873 0 0 0 0 10.379510568230415 14.655947170099239 0 14.655947170099239 11.761871123611513 0 0 0 0 -42.040762061197483 14.316600468263019 0 14.316600468263019 38.6076353150576 0 0 0 0 -175.20635708582267 33.299092169450432 0 33.299092169450432 934.93025105584456 0 0 0 0 80.30731698577074 506.77331428486195 0 506.77331428486195 615.09163998273652 0 0 0 0 -5.5657721003146037 1.7922541581681202 0 1.7922541581681202 7.0308170521250162 0 0 0 0 -218.79352662067686 34.11430863426267 0 34.11430863426267 120.98096084501231 0 0 0 0 -139.40006709734371 104.288447288518 0 104.288447288518 -17.91175953885795 0 0 0 0 -32.826286698960757 -0.85779335875758989 0 -0.85779335875758989 20.162832352122223 0 0 0 0 -396.32807209585735 375.06944477393881 0 375.06944477393881 558.43826289208846 0 0 0 0 -349.96014418463074 -345.88486826738227 0 -345.88486826738227 1240.731554545604 0 0 0 0 -163.47515521003515 113.61403515695565 0 113.61403515695565 -21.481870117387189 0 0 0 0 5.7967578689162735 3.9793912521811592 0 3.9793912521811592 3.5019996920772414 0 0 0 0 -156.71923206122119 146.03833560695307 0 146.03833560695307 -12.01250748369057 0 0 0 0 2.3485146767213507 -0.65808946496115084 0 -0.65808946496115084 0.14193430016262809 0 0 0 0 -290.53817234130111 452.0829419327074 0 452.0829419327074 -469.42206109269137 0 0 0 0 -456.42187739796645 465.75621995800611 0 465.75621995800611 103.50648444479521 0 0 0 0 -443.72215974087885 161.90222435515352 0 161.90222435515352 50.500388331652175 0 0 0 0 -448.1070484915108 142.70601503471335 0 142.70601503471335 203.84687679153922 0 0 0 0 -440.59185418883135 132.05815222303318 0 132.05815222303318 180.56955705677319 0 0 0 0 -208.36496768277721 253.05589403882186 0 253.05589403882186 220.48538116539714 0 0 0 0 -448.28057216166053 316.36829486910256 0 316.36829486910256 320.08626556341005 0 0 0 0 -400.91894699594559 306.80500576053328 0 306.80500576053328 453.41314820279513 0 0 0 0 -128.30633565355674 381.48216046315247 0 381.48216046315247 212.27104344303734 0 0 0 0 -40.705203107849229 227.67871054999341 0 227.67871054999341 321.0196589918196 0 0 0 0 -32.824763154341781 185.8134626742708 0 185.8134626742708 192.94549042222934 0 0 0 0 -21.722021177236456 333.34145995477866 0 333.34145995477866 200.49579772462675 0 0 0 0 -57.561572894614073 288.64993033012979 0 288.64993033012979 298.11188348113865 0 0 0 0 135.602881780389 256.61051508177479 0 256.61051508177479 220.93253304974314 0 0 0 0 122.77165104843516 137.56433534279859 0 137.56433534279859 98.259771928394912 0 0 0 0 343.22723591380054 174.4198742188546 0 174.4198742188546 104.32425830337388 0 0 0 0 552.21279217997289 342.5795397012032 0 342.5795397012032 115.09109648628146 0 0 0 0 395.75527438016434 481.63650537846934 0 481.63650537846934 233.10397501323678 0 0 0 0 222.3480893664273 384.7260573478934 0 384.7260573478934 188.86104135226924 0 0 0 0 59.132562524959212 344.73590017785773 0 344.73590017785773 246.52215631281615 0 0 0 0 -9.3433328728278866 435.58407301942043 0 435.58407301942043 251.87696346262419 0 0 0 0 -235.45583442988573 306.8074974427027 0 306.8074974427027 340.84487900881913 0 0 0 0 -214.02043872827198 229.65726753819899 0 229.65726753819899 441.73329127060879 0 0 0 0 44.240519308004878 448.65831854137696 0 448.65831854137696 304.90792112798681 0 0 0 0 945.96547371524503 241.08226317125082 0 241.08226317125082 222.26964410049732 0 0 0 0 429.95413329900475 291.82846796844206 0 291.82846796844206 258.90118659931068 0 0 0 0 101.89967948908452 356.85480772169194 0 356.85480772169194 375.43388301218056 0 0 0 0 496.94358881442167 646.56577505628229 0 646.56577505628229 448.03372947517346 0 0 0 0 61.574565091257682 -12.36873691622327 0 -12.36873691622327 998.32769428390327 0 0 0 0 655.18849591410253 952.19418831909775 0 952.19418831909775 971.81174026579322 0 0 0 0 132.70479208043253 343.17834389565314 0 343.17834389565314 260.59398238767426 0 0 0 0 151.56295595852134 253.91577401946984 0 253.91577401946984 566.37043621772364 0 0 0 0 -231.5288122033744 315.8026563061012 0 315.8026563061012 132.51516609271584 0 0 0 0 -261.47650763223646 216.32690843464843 0 216.32690843464843 412.42547343380329 0 0 0 0 -316.31131778098825 -45.899635563993286 0 -45.899635563993286 143.90572712199264 0 0 0 0 -411.77599418102182 62.227247688160787 0 62.227247688160787 21.526127553526862 0 0 0 0 -561.16705917246145 -168.34526773724008 0 -168.34526773724008 -205.073855266186 0 0 0 0 -547.08262604297488 334.69558347323346 0 334.69558347323346 -78.916331932041203 0 0 0 0 -602.70870552877022 463.71380210272741 0 463.71380210272741 -194.39211234909772 0 0 0 0 -4.9733168294041548 -5.0579726557584497 0 -5.0579726557584497 -0.071850582680047848 0 0 0 0 -430.46360225627723 -344.75751410986322 0 -344.75751410986322 -13.430055824225633 0 0 0 0 -449.20554858009928 87.549311629409658 0 87.549311629409658 270.83649002846505 0 0 0 0 -1020.9216081800696 -9.2778932408027686 0 -9.2778932408027686 267.74648198192335 0 0 0 0 -228.08375553864607 313.43801236768081 0 313.43801236768081 208.07957391322452 0 0 0 0 -478.87670469070872 171.75898563287592 0 171.75898563287592 293.21994131152223 0 0 0 0 
</DataArray>
<DataArray type="Float64" Name="cross_section_updated" format="ascii">
1 1 1 1 1 1 1 0.0025650641929413319 1 0.0071793439830487409 1 1 1 1 1 1 1 1 1 0.010955983342949539 1 1 1 1 1 1 1 1 1 1 1 0.012709830336830402 1 1 0.014486501484626511 1 1 3.620020949668401e-12 1 1 1 1 1 1 1 1 1 1 1 0.0053972755916546229 1 1 1 1 1 1 1 1 1 1 1 1 1 0.0035875898983390719 1 1 1 1 1 1 1 1 1 1 1 1 1 1 1 0.0092635104555982908 1 1 1 0.0098698947821033479 1 1 1 1 1 0.016895421792379996 1 1 1 1 1 1 1 1 1 1 1 1 1 1 1 1 1 1 1 1 1 0.013676407119720145 1 0.011163695604209802 1 1 1 1 1 1 1 1 1 1 1 1 1 0.0091640168300453212 1 0.011026006610488796 1 0.0082525999293953795 1 1 1 0.0082529131918719911 1 1 1 1 1 1 1 0.011244797896430507 1 1 1 1 1 1 1 1 1 1 1 1 1 1 1 1 1 1 1 1 1 1 1 1 1 1 1 1 1 1 1 1 1 0.00080823163438457565 1 0.00072770617716300806 1 0.01716187488670759 1 1 0.0087219661128423477 1 1 1 1 1 1 1 0.014138276321746614 1 1 1 1 1 1 1 0.0053150934611161729 1 1 1 1 1 1 1 1 1 1 1 0.0026527607987382532 1 1 0.0010914681509261448 1 1 1 1 1 1 1 1 1 1 1 1 1 1 1 1 1 1 1 1 1 1 1 1 1 1 1 1 1 1 1 1 1 1 1 0.0012766781609275628 1 1 1 1 1 0.0023797733719748068 1 1 1 1 1 1 1 1 1 1 1 1 1 1 1 1 0.0097731431011900197 1 1 1 1 1 1 1 1 0.0084997048688835314 1 1 1 1 1 0.0095370909648099592 1 1 1 1 1 1 1 1 1 1 1 1 0.0093844159449056191 1 1 1 1 0.009842448854323442 1 1 1 0.010069305753133424 1 1 1 1 1 1 1 1 1 1 1 1 1 1 1 1 1 1 1 1 1 1 1 1 1 1 1 1 1 1 1 1 1 1 1 0.0035774273397798408 1 0.0045445677961367392 1 1 1 1 1 1 1 1 1 1 1 1 1 1 1 1 1 1 0.011396339180879726 1 1 1 1 1 1 1 1 1 1 1 1 1 1 1 1 1 1 1 0.0094864227299155182 0.0082447557951643713 1 1 0.013838434142462448 1 1 1 1 1 1 0.015716279971645312 1 1 1 1 1 1 0.009188942760022932 1 1 0.0090593769401535115 1 0.0096839201049889745 1 1 1 1 1 1 0.0089155273996946588 1 1 0.0095311114547890208 1 1 1 1 1 1 1 1 1 1 1 1 1 1 1 1 1 1 1 1 1 1 0.0098277008997942755 1 1 1 1 1 0.0087834435415172288 1 1 1 1 1 1 1 1 1 1 1 1 1 1 1 1 1 1 1 1 1 1 0.0091519206486857622 1 1 1 0.007805447091891988 1 1 1 1 1 1 1 1 1 0.012945582749164387 1 0.01269786982387075 1 1 0.0069304012317786164 1 1 1 0.0099206476051164824 1 0.010040629255342728 1 1 1 1 1 0.0074157659681575727 1 1 1 1 0.0087968471256239904 1 0.0081932136425914119 0.01134978621538494 1 1 1 1 1 1 1 1 1 0.010015536149969473 1 1 0.011244547028863801 1 1 1 1 1 0.011115005888195558 1 1 1 1 0.010333816033672186 1 1 1 0.0088699335142590485 1 0.012218240740811723 1 0.010627943387050309 1 1 1 1 1 1 1 1 1 1 1 1 0.00062006427171469765 1 1 1 0.0098827684961646581 1 1 1 1 1 1 1 1 1 1 1 1 1.5372486530246254e-10 1 1 1 1 1 0.012002698564061873 1 1 0.0057461519205345545 1 1 0.010126649359707286 1 1 1 1 1 1 1 1 1 1 1 1 1 1 1 1 1 0.005571574919941152 1 0.015755827870007011 1 0.012491739357115644 1 0.0054464152447902311 1 1 1 1 0.0068209774213577479 1 1 1 1 0.014032558932538852 1 1 1 1 0.0095401767875880374 1 1 1 1 1 0.010271086895875661 1 1 0.010494213259604639 1 0.011295995296301826 0.0091963033851267771 0.010217624164577594 1 1 1 1 1 1 1 1 1 1 1 1 1 1 1 1 1 1 0.0097845724309930798 1 1 1 1 1 1 1 1 1 0.0083853618917390446 1 1 1 1 1 0.0090600907271754377 1 1 1 1 1 1 1 0.0078228763121251706 1 1 0.010414835502690813 0.011351272021743785 1 1 1 1 1 0.015148074728067984 1 0.0061353028940837797 1 1 1 1 1 1 1 0.0099373363681335078 1 1 0.0090054744317234169 1 1 1 1 1 1 0.0051803963969478221 1 0.007910873611719757 1 1 0.0095985047584474861 1 1 1 1 1 1 1 1 1 1 1 1 1 1 1 1 1 1 1 1 1 1 0.011150442680570222 1 1 1 1 1 1 1 0.010224502057198557 1 1 1 0.01084001062453511 1 0.01359948108930507 1 1 1 0.0097329976183005429 1 1 1 0.0157035824430403 1 1 1 1 1 1 1 1 1 0.010030940086376873 1 1 1 1 1 1 1 1 0.0023610540921276384 1 0.0043787817213934996 0.007979245166275413 0.013072711176683016 1 1 0.011646426696487125 1 0.012863699675297092 1 1 1 1 1 1 1 1 1 1 1 1 1 1 1 1 1 1 1 1 1 1 1 1 1 0.010567345901713389 0.0097554989693524052 0.0089051308360394502 1 1 1 1 1 1 1 1 1 1 1 1 1 1 1 1 1 1 1 1 1 1 1 1 1 1 1 1 1 0.0091660027858737232 1 1 1 1 1 0.0073911826874777636 1 1 1 0.016468470470353679 1 1 0.0068064458434756916 0.0025175202431180644 1 0.01339735787323116 1 1 1 1 1 1 0.006981232927023821 1 1 1 1 1 0.0076123170042718177 1 0.013730324833545852 1 1 1 0.0099522667471875128 1 0.018061805313848371 1 0.0078538569895744651 1 1 1 1 1 0.01187194379020768 1 1 1 0.016175455909666212 1 1 1 1 1 1 1 1 0.011019252435815204 1 1 1 1 1 1 0.010790269770249314 1 1 1 1 1 1 1 1 0.012795709970672574 1 1 0.014673045989693496 1 1 1 1 1 1 0.012297003747798824 1 0.012678169376673029 1 0.014280129931023986 1 1 1 1 1 1 1 1 1 1 1 0.012516431463876879 0.0038485950766563026 5.5831419348839617e-11 1 1 0.010422153729615601 1 1 1 1 1 0.010050274433707705 0.005342838601394638 1 1 0.0074431269740697914 0.01277947204808135 0.015003704075075149 1 1 1 1 1 1 1 1 1 1 1 1 1 1 1 1 1 1 1 1 1 1 1 1 1 1 1 1 1 1 1 1 1 0.00065947393927947955 1 1 1 1 1 1 1 0.0035322483221282598 1 1 1 1 1 1 0.0075544344301396119 1 1 1 1 1 1 1 1 1 1 1 1 1 1 1 1 1 1 1 1 1 1 1 1 1 1 1 1 1 1 1 1 1 1 1 1 1 1 1 1 1 1 1 1 1 1 1 1 1 1 1 1 1 1 0.010245098034305235 1 1 1 0.010682828673546698 1 1 0.0069931335073082565 1 1 1 1 1 1 0.006507599527055213 1 1 1 1 1 1 1 1 1 1 0.0023009083367731839 1 1 1 1 0.0087819569812408477 1 1 1 1 1 1 1 1 1 1 1 1 1 1 1 1 1 1 1 1 1 1 1 1 0.010737443109064462 1 1 1 1 0.010842220031208121 1 1 1 1 1 1 1 1 1 1 1 1 1 1 1 1 1 1 1 1 1 1 1 1 1 1 1 1 1 1 1 1 1 1 1 1 1 1 0.011993397710450191 1 1 1 1 1 0.0091431581023225551 1 1 1 0.012866110429399651 0.0086619492576710602 1 1 1 1 1 1 1 1 1 0.010142655324121754 1 1 1 0.01064450022343987 1 1 1 1 1 1 0.010291340643843494 1 1 1 1 1 1 1 1 1 1 0.0046756847764855333 0.0061094830139371021 1 1 1 1 1 1 1 1 1 0.00448369628091079 1 1 0.0082445677265877704 1 1 1 0.0062995993650839322 0.01005791590063982 1 1 0.009811481660650186 1 1 0.0057013683724192032 0.009479657084712198 1 1 1 0.012783523898758102 1 1 1 1 1 0.009934304769281593 1 1 1 1 1 1 1 1 1 0.011216897129979655 1 1 1 1 1 1 1 1 1 1 1 1 1 1 1 0.0075006166227594186 1 1 1 1 1 1 0.0086043436758615303 1 1 1 1 1 1 1 1 1 1 1 1 1 1 1 1 0.0094322718967876952 0.00090108604125752837 1 1 1 1 1 1 1 1 1 1 1 1 1 1 1 1 1 1 1 1 1 1 1 1 1 1 1 1 1 1 1 1 1 1 1 1 1 1 1 1 1 1 1 1 0.0095891837031270473 1 0.0088545408406820944 1 1 1 0.01000980425179044 1 1 1 1 1 1 1 1 1 0.018831025186523138 1 1 0.017907748726361201 1 1 1 1 1 0.0099600422281784888 1 1 1 1 1 1 1 0.01623920525240969 1 1 0.010084680514649254 1 1 1 1 1 1 0.010198806678753686 1 1 1 1 1 1 1 1 1 1 1 1 0.0088962729468978798 1 1 1 1 1 1 1 1 1 1 1 1 1 1 1 1 1 1 1 1 1 1 1 1 1 1 1 1 1 1 1 1 1 1 1 1 1 1 1 1 1 1 1 1 1 1 1 1 1 1 1 1 1 1 1 1 1 1 1 1 1 1 1 1 1 1 1 1 1 1 1 1 1 1 1 1 1 1 1 1 1 1 1 1 1 1 1 1 1 0.0098416935313336909 1 1 1 1 1 1 1 1 1 1 1 0.010067459158033204 1 1 1 0.0099091526893668926 1 1 1 1 1 1 1 1 1 1 1 1 1 1 1 1 1 1 1 1 1 1 1 1 1 1 1 1 1 1 1 1 1 1 1 1 1 1 1 1 1 1 1 1 1 1 1 1 1 1 1 1 1 1 1 1 1 1 1 1 1 1 1 1 1 1 1 1 1 1 1 1 1 1 1 1 1 1 1 1 1 1 1 1 1 1 1 1 1 1 1 1 1 1 1 1 1 1 1 1 1 1 1 1 1 1 1 1 1 1 1 1 0.0084194539808906607 1 1 1 1 1 1 1 1 1 1 0.0063336119294974038 1 1 1 1 0.01008032226231511 1 1 1 0.012169228382572285 0.010231949945618685 1 1 1 1 1 1 1 1 1 1 1 1 1 1 1 1 1 1 1 0.0099937185714778429 0.011993254362037636 1 1 0.0058127910708063099 1 1 1 1 1 1 0.01202405758234173 1 1 1 1 1 0.011439620355492196 1 1 1 1 1 1 0.0091780843231789137 1 1 1 1 1 1 0.014429915336122701 1 0.0076312740192883578 1 1 1 1 1 1 1 1 1 1 1 1 1 1 1 1 1 0.010829173503329239 1 1 1 1 1 1 1 0.0082244142175429812 1 1 1 1 1 0.0058459305428022312 1 1 1 1 1 1 1 0.0057334400058614114 1 1 1 0.010124502848951659 1 1 0.010631714996015063 1 1 1 1 1 1 1 1 1 1 1 1 1 1 0.010878895685107807 1 1 1 1 1 1 1 1 0.0077674431668339084 1 1 1 1 1 1 0.0098299471968780975 1 1 1 1 1 0.01007712788597083 1 1 1 1 1 1 1 1 1 1 1 1 1 1 1 1 1 1 1 0.010065140469167332 1 1 1 0.0022963011780685206 1 0.0043374618597628641 1 1 1 1 1 1 1 1 1 1 1 1 1 1 1 1 1 1 1 1 1 1 1 1 1 0.010246398044510096 1 1 0.010121895195558447 1 1 1 1 1 1 1 1 0.0089239050825497355 1 1 1 1 1 1 1 1 1 1 1 0.007035828763151902 1 1 1 1 1 1 1 1 1 1 1 1 1 1 1 1 1 0.0098203670799980308 1 1 1 1 1 1 1 1 1 1 0.0075999293769805545 1 1 1 1 1 1 1 1 0.0088314683666342042 1 1 1 1 1 1 0.0043240959299908205 1 1 1 1 1 1 1 1 1 1 1 1 1 1 1 1 1 1 1 1 1 1 1 1 1 1 1 1 1 0.0097508247302297932 1 0.0099304576502317662 1 1 1 1 1 1 1 0.013364999480188992 1 0.011355574393965569 1 1 1 1 1 1 1 1 1 1 1 1 1 1 0.012459177639197854 1 0.012036628056201773 1 1 1 1 1 1 0.013476248411693958 1 1 1 1 1 1 1 1 1 0.0089197565128664499 1 0.0081028302379692312 1 1 1 1 1 1 1 1 0.0091830737251027798 1 1 0.011968318239662615 1 1 1 1 1 0.0094147304403378023 1 1 1 1 0.0064743058089939453 0.015356972047436523 1 0.0016402238616471682 0.0089183532716102954 1 1 1 1 0.015863612867124705 1 1 1 1 1 1 1 1 1 1 1 1 1 1 1 1 1 1 1 1 1 0.015264907848303311 0.015107142243828892 1 1 1 1 1 0.0095193728068561009 1 1 1 0.0097936507858718096 1 1 1 1 1 1 1 0.0097257220209843107 1 1 1 1 1 0.013827494660220811 1 1 1 0.012227265299554695 1 1 1 1 1 1 1 1 1 0.0097316512302154864 1 1 1 1 1 1 -1.6739867825243948e-10 0.0093945878986786482 1 1 1 1 1 1 0.0025288629769448442 1 1 1 1 1 1 1 1 1 1 1 1 1 0.0094553006724347605 1 1 1 1 1 0.0078287557829037624 1 1 0.0053437651388068726 1 1 1 1 1 1 1 0.010778179943539835 1 1 1 1 0.010075866885864405 1 1 1 1 1 1 1 1 1 1 1 1 1 1 1 1 1 1 1 1 1 1 1 1 1 1 1 1 1 1 1 0.011969451042803354 1 1 1 0.0022883815825971501 1 1 0.022746707522499618 1 1 1 1 1 1 0.0094496724778008814 0.017786605122734916 1 1 1 1 0.012653836438876805 1 1 1 1 1 1 1 0.014198302105422611 1 1 1 1 1 1 1 0.012228851062619249 1 1 1 1 1 1 1 1 1 1 1 1 1 1 1 0.0087612478678505967 1 1 0.0095719134489724023 1 1 1 1 1 1 1 1 1 0.0091887286392743489 1 0.0025385585562676775 1 1 0.0070198801863175092 1 1 1 1 1 1 1 1 1 1 1 1 1 1 1 1 0.0094240977527297667 1 1 1 1 1 0.010344782926908817 1 1 1 1 1 1 1 1 1 1 1 0.011054167886299412 1 1 1 1 1 1 1 0.0083819807659967285 1 1 1 1 0.011586542359874448 1 1 1 1 1 4.6869514380709631e-09 1 1 0.010000410448006293 1 1 1 1 1 1 0.013192361617184983 1 0.004477211928781772 0.0098447485919244161 1 0.0073028216138037241 1 1 0.01372641199851285 0.0070281523254705231 1 0.0052015671115344317 1 0.01741675321548615 1 1 1 1 1 1 1 -3.7340943184749342e-09 1 1 1 1 1 1 1 1 1 1 1 1 1 1 1 1 1 1 1 1 1 1 1 3.3607315402806037e-09 1 1 1 1 1 1 1 1 1 1 1 1 1 1 0.014807070498919342 1 0.0099027543340289015 1 1 1 1 1 1 1 1 1 1 1 1 1 1 1 1 1 1 1 1 1 1 1 1 1 1 1 1 1 1 1 1 1 1 1 1 1 1 1 0.0067790360220990262 1 1 1 1 1 1 1 1 1 1 1 0.010121089063860696 1 1 1 1 1 1 1 1 1 1 1 1 1 1 1 1 1 1 1 1 1 1 1 1 1 1 1 0.012476691964199964 1 1 1 1 1 1 1 1 1 0.010211924775527776 1 1 1 1 0.010212131812352546 1 1 1 1 1 1 1 1 1 1 1 1 1 1 0.013973720941057768 1 1 1 1 0.011455374500635496 1 1 1 1 1 1 1 1 1 1 1 1 0.0090004669538176832 1 1 1 1 1 1 0.0096933833240720815 1 1 1 1 1 1 1 1 1 1 0.0096936288561365949 1 1 1 1 1 1 1 1 1 1 1 1 1 1 1 1 1 1 1 1 1 1 1 1 1 1 1 1 1 1 1 1 1 1 0.0010279797459127396 1 1 1 1 0.010185512939418183 0.0011424858467091528 1 1 0.010930578767232234 1 1 1 1 0.010202377583836167 1 1 1 1 1 1 1 1 1 1 1 1 1 1 1 1 0.0070109810927435345 1 1 1 0.022718552923895734 1 1 1 1 1 0.018291636365195599 1 1 0.010007957774012135 1 1 1 1 1 1 1 1 1 1 1 1 1 1 1 1 1 0.01231327012543449 1 1 1 1 1 1 1 1 1 1 1 0.016194416052293464 1 1 1 -1.7511060726449479e-09 1 1 1 1 -2.168514994307924e-09 -1.8153193635794818e-09 1 1 1 1 1 1 1 1 1 1 1 1 1 1 1 0.0087754646735424338 1 1 1 1 1 1 1 1 1 1 1 0.0078248537253296016 1 1 1 1 1 0.011318943425784198 1 1 1 1 1 1 1 1 1 0.0090493890517871628 1 1 1 1 1 1 1 1 1 1 1 1 1 1 1 1 1 1 1 1 1 1 1 1 1 0.0066830311687410045 1 1 1 1 1 1 0.0088714158312330205 1 1 1 1 1 1 1 1 1 1 1 1 1 1 1 1 1 1 1 1 1 1 1 1 1 1 1 1 1 1 1 1 1 1 1 1 1 1 1 1 1 1 1 1 1 1 1 1 1 1 1 1 1 1 1 1 1 1 1 0.012204038297982988 1 1 1 1 1 1 1 0.014890845142985458 1 1 1 0.010918481200802917 1 0.0094998670669588555 1 1 1 1 1 0.010757522972966083 -9.5966352729043303e-09 1 1 1 1 1 1 1 1 0.010436915896695062 1 1 1 1 1 1 1 0.0055941148684021955 1 0.0086172953000747503 1 1 0.013958164969492218 0.010041108816054925 1 1 1 0.0001939190421244158 1 1 1 1 1 1 1 1 0.0092967501667546061 1 1 1 1 0.0087966172337134562 1 1 1 1 1 1 1 1 1 1 1 1 1 1 1 0.011567775144653741 1 1 1 1 0.012308006955817763 0.010844507921442008 1 1 1 1 0.010539171206611716 1 1 1 1 1 0.0115331500730676 1 1 1 1 1 1 1 1 1 1 1 1 0.010622870516215639 1 1 1 1 1 1 1 1 0.010462759285781532 1 0.010462617679495197 1 1 1 1 1 1 1 1 1 1 1 1 1 1 1 1 0.011827369110554008 1 1 1 1 1 1 1 0.0058163708722933014 1 0.010336912544441917 1 1 1 0.0099046456845592323 1 1 1 1 1 1 1 1 1 1 1 1 1 1 1 1 1 1 1 1 1 1 1 1 1 1 1 1 1 1 1 0.0084749369227024585 1 1 1 1 1 1 1 0.016212956010584555 1 1 1 0.016454062076388911 1 1 1 1 1 0.020754692187669968 1 1 1 1 1 0.0060261728197139874 1 1 1 1 0.0046865661716619308 1 1 1 0.011558710246906332 1 1 0.0099680498417191593 1 1 1 1 0.0039439444988628378 1 1 0.0027158577817508606 1 1 1 0.011718122338644225 1 1 1 1 1 0.010298488450700591 1 1 1 1 1 1 1 0.010345500228685741 1 1 1 1 1 1 1 1 1 1 1 1 0.0075521158168234889 1 1 1 0.022880923504649701 1 1 0.0098578503698833544 1 1 0.0051055342536651394 1 1 1 0.0092385741816328124 1 1 0.0076919445979551429 0.015785244981525857 1 1 1 1 7.8097192462989184e-09 1 1 1 1 1 1 1 1 0.0092165509048184949 1 1 1 1 1 0.01054466120835364 0.0097034711263026749 1 1 1 1 0.011562049047026193 1 1 1 1 1 1 1 0.011018271764925484 1 1 1 1 1 1 1 1 1 -1.9199807646530509e-09 1 1 0.0016622726724987436 1 1 1 1 0.010060044758919771 0.002527551852380433 1 0.010726974984653935 1 1 1 1 1 0.010761925284490305 1 1 0.01021985272592861 1 1 0.010018763503160021 1 0.0080340478393350484 1 1 1 1 1 1 0.0045425067689024157 1 1 1 1 1 1 1 1 1 1 1 1 1 1 0.010027853557643275 1 1 1 1 1 1 1 1 0.022999313508488755 1 1 1 1 1 1 1 1 1 1 1 1 1 0.017388400944444174 1 1 1 1 1 1 1 1 1 1 0.02217276333922253 1 1 1 0.0068265148913970765 1 0.010253136431754141 1 1 1 1 0.0047667273700832073 1 1 1 1 1 0.010483854974006395 1 1 1 1 1 1 1 1 1 1 1 1 1 1 1 1 1 1 1 1 1 0.014142762226407483 1 1 1 1 1 1 1 1 1 1 1 1 1 1 0.0085377676560850942 1 0.01339629050198784 1 1 0.0099778353470262732 1 1 0.0063796602425830115 1 0.014399283043536314 1 1 1 1 1 0.0082545885364004035 1 0.012758790405949329 1 1 0.01184501204033254 1 0.015096374924555858 1 1 1 1 0.0095370955704864521 0.010008186357500013 1 1 1 1 1 1 1 1 0.015854374601947944 1 1 1 1 0.01366226305274814 1 0.013591320350012127 1 1 1 1 1 1 1 1 1 1 0.011623304145396468 1 1 0.010252997063381092 0.0096083698894121536 1 1 1 1 0.0096231517856819604 1 1 1 1 1 1 1 1 1 1 1 1 1 0.0096311943875245568 1 0.010008618783116235 1 1 1 0.0080714232045440634 1 1 1 0.017030216897217974 1 1 1 1 1 1 0.010379667676197586 1 1 1 1 1 1 1 0.01189466813249427 1 1 1 0.010461473735044337 1 1 1 1 1 1 1 1 1 1 1 1 1 1 1 1 1 1 1 0.0099434409830475162 1 1 0.010521656094647548 1 1 1 1 1 1 1 1 1 1 1 1 1 1 1 1 1 1 1 1 1 1 1 1 0.0055215086997003338 1 0.0099960642314271334 0.015565271252901825 1 1 1 0.0071362199211172789 1 0.010184138593201471 1 1 0.0065222447490455651 1 1 1 1 1 0.010369516588225072 1 1 1 1 1 0.0087886330277616095 1 0.010299736451689918 1 1 1 1 1 0.010679404127887482 1 1 1 1 1 1 1 1 1 0.013418043176229973 1 1 0.0096099585193632139 1 1 0.01031696074598464 1 1 0.010591217295048271 1 0.0096136573232118369 1 1 1 1 1 1 0.0097575126290653652 0.010938073301299657 1 1 1 0.0099853852012293035 0.0097471945121956356 0.019865054660471226 0.010781512203161127 1 1 1 0.019384961942965032 1 1 1 1 1 1 1 0.010307857305384182 1 1 1 1 1 1 1 1 1 0.012594239277980557 1 1 1 0.016714523906767868 1 1 1 1 1 1 1 1 1 0.010553019407428896 1 1 0.011618515785284418 1 1 0.0098188406090149311 1 1 1 1 1 1 1 1 1 1 1 1 1 1 1 1 1 1 1 1 1 1 1 1 1 1 1 1 1 1 1 1 1 1 1 1 1 1 1 1 1 0.0064201643239821457 1 0.013507040933162138 1 1 1 1 1 1 1 0.0095187990466569089 0.0081827141918403845 1 1 1 1 1 1 0.011171204886431297 1 1 1 1 1 1 1 1 1 1 1 1 1 1 1 1 1 1 0.03558771048055797 1 0.009626538122199612 0.0096466135992281585 1 1 1 1 1 0.0097375202934938052 1 1 1 1 0.0099065518344499913 1 1 1 1 1 1 1 1 1 1 0.0099789990663739277 1 1 0.0095649667629352526 1 0.010191843169790044 1 1 0.0077472716508906816 0.0099814706376737724 1 1 0.0078275310386997088 1 1 1 1 1 1 1 1 0.011943513882879014 1 1 0.011109468809098522 1 0.0064355538096378395 1 0.010716360330688606 1 1 1 0.0057816006367745268 1 1 0.0097281376140277293 1 0.0088620520375289578 1 1 1 1 1 1 1 1 1 1 1 1 0.0091250035625882395 0.010000545593590638 1 0.0074804861307721168 1 1 1 1 1 1 1 1 1 1 1 1 1 1 1 1 1 1 1 1 1 0.010375124436291034 1 1 1 1 1 1 1 1 1 0.0097194113842541882 1 1 1 1 0.010742436917682037 1 1 1 1 1 1 1 1 1 1 1 1 1 1 1 1 1 1 1 1 1 1 1 1 1 1 1 1 1 1 1 0.016419675323843162 1 1 1 0.0099933563940187136 1 0.0098975423179554715 1 1 1 1 0.0096405514362454675 1 0.0062074770692438531 1 1 5.029262943601065e-11 0.012719141381753349 0.0029450175807560208 0.01001901282131383 1 1 1 0.016379305995462865 0.00073445865882646594 1 1 1 1 1 1 1 0.0092431787322199213 1 1 1 1 1 1 1 1 1 1 0.010452126566554929 1 1 1 1 1 1 1 1 1 1 1 1 1 1 1 1 1 1 1 1 1 1 1 0.0097666389204111425 1 0.015152284813453069 1 1 1 1 1 1 0.0089461376739733631 1 1 1 1 1 1 1 0.012273273941278707 1 0.0087350620956890487 0.0095208167277753761 1 1 1 0.0085380209128694488 1 0.0086532304848988273 0.011760865940460635 1 0.010055929162574095 1 1 1 1 1 1 1 1 1 1 1 1 1 1 1 1 1 1 1 1 1 1 1 1 1 1 1 1 1 1 1 1 1 1 1 1 1 0.020140133537754793 1 0.010000449857173178 1 0.014554476124372606 1 1 1 1 0.010580615307446646 1 1 1 0.0072369370420698083 1 0.0097102185931634347 0.015038356919647715 0.013108662506798806 1 1 0.010497119603762881 1 1 1 1 9.7284100913919147e-11 1 1 0.0098247797091701207 1 0.0077141662223001294 0.0057498193626158364 1 1 1 1 1 1 1 1 1 1 1 1 1 1 1 0.011618994641415917 1 1 1 1 0.016089399863499242 1 1 1 0.0099895054948552931 1 1 0.011637072446119882 1 0.0075342196794454842 1 0.011962778830605827 0.012082140856695851 1 0.012868842888723666 1 0.011352986026376364 1 1 1 1 0.010002801739693784 0.008895985439993627 1 0.012275383442404787 0.0099995136998536054 1 1 1 1 1 0.0097283534452465986 1 1 1 1 0.0112305833768868 1 1 0.0069568857052231883 1 0.010730064856463441 1 1 0.0098558708609910086 1 1 1 0.0092569615475355735 1 0.0095545924193268222 0.011784626328469352 0.0099855733571023522 1 0.012961781787280028 1 1 0.0099935402653332818 1 1 1 1 1 1 1 1 1 0.013382623265087996 1 1 1 1 1 1 1 1 1 1 1 0.010529287565614102 1 1 1 0.017172666390073504 1 1 1 0.0008998303333508568 0.0077906279236276531 1 0.01403628514530255 1 0.012771780238815195 1 0.0056369828370488421 1 1 0.0043332757522646474 1 0.015714946888513142 1 1 0.015615669165066839 1 1 1 0.011852117306183211 1 0.0047419652352340127 1 1 1 1 1 1 1 1 1 1 0.010631465033195554 0.0082360347059800137 0.0052067650641643912 0.0050064145163510772 1 1 0.0042536127531229879 1 1 1 1 1 1 1 1 1 1 1 1 1 0.010036322556584938 1 1 1 1 1 0.010606356340762318 1 1 1 1 1 1 1 1 1 0.012852565292520358 0.014687114041193957 1 1 1 1 1 0.013067074927073884 1 1 1 1 0.009783441761560225 1 0.014636565635683279 1 1 1 0.010212709049709822 0.019958127649432549 1 1 1 1 1 1 1 1 1 1 1 1 1 1 1 1 1 1 1 1 1 1 1 1 1 1 1 1 1 0.0080542002600937114 0.012028493021015468 1 1 1 1 1 1 1 1 1 1 0.025030415133128946 1 1 0.0040019167871299752 1 1 0.0086129272183799333 1 1 0.015540423665234216 1 1 1 1 0.017789760227849092 0.009572503392122074 1 1 1 1 1 0.013518350061042919 1 1 1 1 1 1 1 1 1 1 0.03231907763965499 1 1 1 0.042361503216368966 1 1 1 1 1 1 0.039423532252369942 0.0098779497241686283 1 1 1 1 1 1 1 1 1 1 1 1 1 1 1 1 1 1 1 1 1 1 1 1 1 1 1 1 1 1 1 1 1 1 1 0.0097821880407063244 1 1 1 1 1 1 1 1 1 1 1 1 1 1 1 1 1 1 1 1 1 1 1 0.026245318611084631 1 1 1 1 1 1 1 1 0.012903629145548455 1 1 1 1 1 1 1 0.0063682415925493049 0.014005567635223488 1 0.0077225424953545688 1 1 1 0.020655142288791267 1 1 1 0.01771241544055344 1 1 1 1 1 1 1 0.0092488746481878686 1 1 1 1 1 1 1 1 1 1 1 1 1 1 1 1 1 1 1 1 1 1 1 1 1 1 1 1 1 1 0.0019807564229624916 1 1 1 1 0.0038146302868912185 1 1 1 0.010241892116892463 1 1 1 1 1 1 1 0.011157868215889617 1 0.011159752428426713 1 1 1 1 1 1 1 1 1 0.01174975355327975 1 1 1 1 1 1 1 1 1 1 1 1 1 1 1 1 1 0.010025990681589176 1 1 1 1 1 0.009917508960340448 1 1 0.0063007172110575889 1 0.013105992621884759 1 1 1 0.00043826966238520726 1 1 1 0.014662293831193765 1 1 1 1 0.010745502920738618 1 1 1 0.0050861501910411007 1 1 1 1 0.013453256480870621 1 1 1 1 1 1 1 1 0.0098977915658458888 1 0.0064107341485858732 1 1 1 1 1 1 1 1 1 1 1 1 1 1 1 1 1 1 1 1 1 1 1 1 1 1 1 1 1 1 1 1 1 1 1 1 1 1 0.010234494958574031 1 1 0.0099431988702673446 1 1 1 0.010650179116200812 0.016185784798002908 1 1 1 1 1 1 1 0.014849499079939875 1 1 1 1 0.013238926744391095 1 1 1 1 1 1 1 1 1 1 1 1 1 1 1 1 1 1 1 1 1 1 1 1 1 1 1 1 1 1 1 1 1 1 1 1 0.0079299336975588042 1 1 0.00087379366435624828 1 1 1 1 1 1 1 1 1 1 1 1 1 0.0087264161045168803 1 1 1 1 1 1 1 0.0051067787651360129 1 0.0050011088338786317 1 1 1 1 1 1 1 1 1 1 1 1 1 1 1 1 1 1 1 1 1 1 1 1 1 1 1 1 1 1 1 1 1 1 1 1 1 1 1 1 1 1 1 1 1 1 1 1 1 1 1 1 1 1 1 1 1 1 1 1 1 1 1 1 1 1 1 1 1 1 1 1 1 1 1 1 1 1 1 0.0050140845111771998 0.0050187962785998852 1 1 1 1 1 1 1 1 1 1 1 1 1 1 1 0.00045555382256688357 1 0.0020954701147111853 1 1 0.0095901697181395417 1 1 1 1 1 0.0068250696873109577 1 1 1 1 1 1 1 1 1 1 1 1 1 1 1 1 1 1 1 1 1 1 1 1 1 1 1 1 1 1 1 1 1 1 1 1 1 1 1 1 1 1 1 1 1 1 1 1 0.0086217818251825961 1 1 1 1 0.0099776572516569722 0.0073978684579355438 1 1 1 1 1 1 1 1 0.0077871698821604975 1 1 1 1 1 1 0.0090340711910478471 1 1 1 1 1 1 1 1 1 1 1 1 1 1 1 1 1 1 1 1 1 1 1 0.010732886314703621 1 1 1 1 1 1 1 1 1 1 1 1 1 0.010596251299826748 0.015116127188933622 1 1 1 1 1 1 0.0096893618559468209 1 0.0098842663080104219 1 1 1 1 1 1 1 1 1 1 1 1 1 1 1 1 1 1 1 1 1 1 1 1 1 1 1 1 0.0033400256468161136 1 0.009971502336124434 1 1 1 1 1 1 1 1 1 1 1 1 0.0051723088154168248 1 1 1 1 1 1 1 1 1 1 1 1 1 1 1 1 1 1 1 1 1 1 1 1 1 1 1 1 1 1 1 1 1 1 1 1 1 1 1 1 1 1 1 1 1 1 1 1 1 1 1 1 1 1 1 1 1 0.0099381988147855989 1 0.001215685418810496 1 1 1 1 1 1 1 1 1 1 0.0065492763982765156 1 1 1 1 1 1 1 1 1 1 1 1 1 1 1 1 1 1 1 1 1 1 1 1 1 1 1 1 1 1 1 1 1 1 1 1 1 1 1 1 1 0.014458607568658844 1 1 1 0.011622114129474897 1 1 1 1 1 1 1 1 1 1 1 1 1 1 1 1 1 1 1 1 1 1 1 1 1 1 1 1 1 1 1 1 1 1 1 1 1 1 1 0.010004034374768442 1 1 1 1 1 0.01012376922459607 0.010269502556182232 1 1 1 1 1 1 1 1 1 1 1 1 0.0053195690528615551 1 1 1 0.0082137273295760042 1 1 1 1 1 1 1 1 1 1 1 1 1 1 1 1 1 1 1 1 1 1 1 1 1 1 1 1 1 1 1 1 1 1 1 1 1 1 1 1 1 1 1 1 1 1 1 1 1 1 1 1 1 1 1 1 1 1 1 1 1 1 1 1 1 1 1 1 1 1 1 1 1 1 1 0.01049492813482736 1 1 1 1 1 0.010536897513838211 1 1 1 1 1 1 1 1 1 1 1 1 1 1 0.0099747790261276951 1 1 0.010025091463010907 1 1 0.011673558348483043 0.0079287718907367286 1 1 0.010017239137582437 0.014935284220164671 1 1 1 1 1 1 1 1 0.013692396898952191 1 1 1 1 1 1 1 1 1 1 1 1 1 1 1 1 1 1 1 1 1 1 1 1 1 1 1 1 1 1 1 1 1 1 1 1 1 1 1 1 1 1 1 1 1 1 1 1 1 0.011007850302076913 1 1 1 0.010512922167249554 1 1 1 1 1 1 1 0.010450274896625892 1 1 0.0077990985646569765 1 1 1 0.011769768540224721 1 1 1 1 1 1 1 0.011874824347950459 1 0.008792521597499877 1 0.010080328079190615 1 1 1 1 1 1 1 1 1 1 1 0.0070360969726506071 1 1 1 0.017585249995789816 1 0.0057340744711035386 1 1 1 0.0044239284904633008 1 1 1 1 1 1 1 1 1 0.0065441440504255769 1 1 1 1 1 1 0.0067337373610621126 1 1 1 1 0.0079767113331384917 1 1 1 1 1 1 1 1 0.0091509972947810287 1 1 1 1 1 1 1 1 1 1 1 1 0.0097930532981167755 1 1 1 1 1 1 1 1 1 1 1 1 1 1 1 1 1 1 1 1 1 1 1 0.013386099593629854 1 1 1 1 1 1 1 1 1 1 1 1 1 1 1 1 1 1 1 1 1 1 1 1 1 1 1 1 1 1 1 1 1 1 1 1 1 1 1 1 1 1 1 1 1 1 1 1 1 1 1 1 1 1 1 0.0073195834923513309 1 1 1 1 1 1 1 0.0017816173574521817 1 1 1 1 1 1 1 1 0.010298426434779254 0.0034528713705115691 1 1 0.0079735584405448753 1 1 0.015305317180429892 1 1 1 -1.0546340458925108e-09 1 0.009911360409693884 1 0.00017611776591333617 1 1 0.0097810853405927156 1 1 1 1 1 1 1 1 1 1 1 1 1 1 1 1 0.0084835039147203722 1 1 1 1 1 1 1 0.013584137114203856 1 1 1 1 1 1 1 1 0.0097763504493583557 1 0.0094522123880942006 1 1 0.01365039138372949 0.017814133271935144 1 0.010848836854647778 1 1 1 1 1 1 1 1 1 0.011175654063293902 0.010408740957711793 1 1 1 1 1 1 1 1 1 1 1 1 1 0.0068743555044169426 1 0.0083625916239503557 1 1 1 0.0094720785231092106 1 1 1 1 0.0098534157637944104 1 0.0079770630354244858 1 0.0010186110044558844 1 1 1 1 0.0098236045633310412 1 1 1 1 1 1 0.0028308217410860995 1 1 1 1 1 0.012907062226254054 1 1 1 0.010848521470867855 1 1 1 1 1 1 1 1 1 1 1 0.0091643710118425419 1 1 1 1 1 1 0.0073241748614481959 1 1 1 1 1 1 1 1 1 0.017216772278444877 0.0053551743186699393 1 1 1 0.0098760195105946844 0.015240951172472053 1 1 1 1 1 1 1 1 1 1 1 1 1 1 1 1 1 1 1 1 1 1 1 1 1 1 1 1 1 1 1 1 1 1 1 1 1 1 1 1 1 1 0.0096011752891868082 1 1 1 1 0.00938823068861999 1 1 1 1 1 1 1 1 1 0.0157396957360924 1 1 0.0049960608368610319 1 0.017306359097822334 1 1 1 1 1 1 1 1 1 1 1 1 1 1 1 1 1 0.017849476254756209 1 1 1 1 1 1 1 1 1 1 1 0.018508961741169717 1 0.010211873722919648 0.015064563662869433 1 1 0.0097852115900343654 1 1 0.0099066236825386192 1 1 0.0068143230263074638 1 1 1 1 1 1 1 1 1 1 1 1 1 1 0.012273394292890994 1 1 1 1 1 1 1 1 1 0.0089984335778444877 1 1 0.010066758940302695 1 1 1 1 1 1 1 1 1 0.0088740647078723953 0.019611958287698957 1 1 1 1 1 0.008991846170775239 1 1 1 1 1 0.0095520217057792692 0.016452225751318439 1 1 1 1 1 1 1 1 1 1 1 1 1 1 1 1 1 1 1 1 1 1 1 1 1 1 1 1 1 0.0093950457217682939 1 1 0.0096336032117702187 1 1 0.0079866372102380245 1 0.012446796359108572 1 1 0.012359548611191404 1 0.0099145370256957382 1 1 1 1 1 1 1 1 1 1 1 1 1 1 1 1 1 1 1 1 1 1 1 1 1 1 1 1 1 1 0.010116775239473392 1 1 1 1 1 1 1 1 1 1 1 1 1 1 0.0090043757357359637 1 1 0.010205915236490264 1 1 1 1 1 1 1 1 1 1 1 1 1 1 1 1 1 1 1 1 1 1 1 1 1 0.010852239991826291 1 0.007269119856723948 1 1 1 1 1 1 1 0.0098668872665428689 1 1 0.0072962733089782282 1 1 1 0.010779361575396889 1 1 1 1 1 1 1 1 1 1 1 1 1 1 1 0.0084164993150582495 1 1 1 1 1 1 1 1 0.0042237183028153401 1 1 0.0075197150325448884 1 1 1 1 0.025371871072877809 1 1 0.0099792603637908813 1 1 1 1 0.0099831609274679579 1 1 1 0.018388087428941585 1 1 0.020217664061719553 1 0.021595472086263688 1 1 1 1 1 1 1 1 1 1 1 1 1 1 1 1 1 1 0.012655710079355047 1 1 1 1 1 1 1 1 1 0.0096274516507728856 1 1 0.0078130247184507312 1 1 1 1 1 0.010024192671051512 1 1 0.0087512627353599718 1 1 1 1 1 1 1 1 0.0066530030742171396 1 1 0.0082208264170708575 1 0.0052797389118578921 1 1 0.0059180021294754238 1 1 1 1 1 1 1 0.0061039638707256674 1 1 0.012009641298202945 1 1 0.015814582439651344 0.0068120552902197519 0.013786187875458268 1 1 1 0.013661783323171934 1 1 0.0078571316194688511 1 1 1 0.014556017390431948 1 0.0073186960402721029 1 1 0.015973816586356212 0.012681579382657003 0.017262507179043648 1 0.010288020841579124 1 0.02034364073885726 1 1 1 1 1 1 1 1 0.0057833736360182655 0.010182202780065066 1 1 1 1 1 1 1 0.013299176699855333 1 1 0.0051809454965269846 1 1 0.0099476739699246065 1 1 1 1 0.0075369258744910688 1 1 1 1 1 1 1 1 1 1 1 1 1 1 1 0.010385468308507999 1 1 0.011105393273291408 1 1 0.013607356709656288 1 1 1 9.7514147082393508e-05 1 1 0.0084617751160792933 1 0.009795748785605041 1 1 1 1 1 1 1 1 1 1 1 0.0095918346045939691 1 1 1 1 1 0.014279676950131529 1 1 1 0.0098398660920114532 1 1 1 0.015979686890239684 1 1 0.014522774558410426 1 0.010031951003226562 1 1 1 1 1 1 1 1 1 1 0.016053618154633343 1 1 1 0.0084684397142344714 1 0.0088073417204272281 1 1 0.015043262861539316 0.0056339968619904283 1 0.0094616196829978953 1 1 1 0.0042736396988660493 1 1 1 0.0099976022744105407 1 1 0.014500214512062277 1 1 1 0.0093261659765990507 1 0.013001317668048087 1 1 1 1 1 1 1 1 1 0.0075894019033459752 1 1 0.0093470638612529241 1 1 0.0039418776790385735 1 1 1 1 1 0.0052900476841666669 1 1 1 1 1 1 0.0099810650833083402 1 1 1 1 1 1 1 1 0.010178891899277764 1 1 0.0040677062257007913 1 1 1 1 1 1 1 1 0.0076860327998978795 1 0.0099950386714866054 0.0099951624160077301 1 1 1 0.02259529142284359 1 1 1 1 1 1 1 1 1 1 1 1 1 0.016726031058182128 1 1 0.0096346677353496002 1 1 0.0098486115270964587 1 1 1 0.0080694648295408615 -2.0801416145133089e-11 1 1 1 1 0.0098664900732414809 0.023379240143117253 1 1 1 1 1 1 0.0099596820010037276 1 0.0056764632803829804 1 1 1 1 1 1 1 1 0.0048971461096810279 1 1 1 1 1 1 1 1 1 1 1 1 1 1 1 1 1 1 1 1 1 1 1 1 1 1 1 1 1 1 1 1 1 1 1 1 1 1 1 1 0.010017996697570739 0.0045124563090479207 1 1 1 1 0.0089943814775830487 1 1 1 1 1 1 1 1 1 1 0.0075061358574898384 1 1 1 1 1 1 1 1 0.0090429149731343673 1 1 1 1 1 1 1 1 1 1 1 1 1 1 1 0.0066132718348089481 1 1 1 1 1 1 1 1 1 1 0.0099917190196910088 1 1 1 1 0.0099871234022903647 1 1 1 0.011004575142934347 1 1 0.0086279148931462761 1 1 0.01183317060254584 1 0.0090454407606875599 0.013462841495802205 1 0.011688147062650341 1 1 1 1 0.008461237709979235 0.01536994351505828 1 1 1 1 1 1 1 1 1 1 1 1 1 1 1 1 1 1 1 1 1 1 1 1 1 1 1 1 1 1 1 1 0.012481261546918032 1 1 1 1 1 1 1 1 1 1 1 1 1 1 1 1 1 1 1 1 1 1 0.009791606674073864 0.008004083918437389 1 1 1 1 1 1 1 1 0.0093904731096634744 1 1 1 1 1 1 1 0.0099371744817109645 1 1 1 1 1 0.010043359373483003 1 1 1 1 1 1 1 1 1 1 1 1 1 1 1 1 1 1 1 1 1 1 1 1 1 1 1 1 1 1 1 0.010833777454282604 1 1 1 1 1 1 0.0055110764955795671 1 1 0.0072081524881628389 1 1 1 1 1 1 1 1 1 1 0.0086810721134780514 1 1 1 1 1 1 0.011756188876415087 1 1 1 0.011171439926253898 1 1 1 1 1 1 1 0.025431612402383657 1 1 1 0.012343250031441679 0.022789146045926668 1 1 1 1 1 1 0.0036847678166021126 1 1 1 1 1 0.012932319578808022 1 1 1 0.013290686370785582 1 1 1 1 0.0022797449992815778 1 1 1 0.010599482885424212 1 1 1 1 1 1 1 1 1 1 1 1 1 1 1 0.0033850109705677034 1 0.010059355474795993 1 1 1 1 1 1 1 1 0.010254046354253131 1 1 1 0.010735415958757471 0.010724717102221009 1 1 1 1 1 1 0.0099647761892166092 1.1624527035403176e-10 1 1 1 1 1 1 1 1 0.013743146000191714 1 1 1 1 1 1 1 1 1 1 0.01753762324193384 1 1 0.012013721072406979 1 1 0.010152529723724459 0.012130829886038783 1 1 1 1 1 1 1 0.022289123385461102 1 1 1 0.021566882675332036 0.00058379027977124159 0.011771950911657 1 1 1 1 1 1 1 1 1 0.02196884529810865 1 1 1 1 1 0.021097066761560018 1 1 1 1 1 1 1 0.014654410619811939 1 1 1 0.011618683000845132 1 1 1 1 1 1 1 1 1 1 1 1 1 1 0.027309379115074417 1 1 1 1 1 1 1 1 0.027589984106606461 1 1 0.0012366042797716543 1 1 0.0095215940377727775 1 1 1 1 1 1 0.010663357551484714 1 1 0.028047879188299225 1 1 1 1 1 1 1 1 1 1 1 1 0.00045518196174667387 1 1 0.0097943635728189662 1 1 1 1 1 0.018088225635620646 0.0049532748009484765 1 1 1 0.0022098068220679336 1 1 1 1 0.010064798762991788 1 1 0.01783765442029088 1 1 1 1 1 1 1 1 1 1 1 1 0.013702420241215469 1 1 1 1 1 1 0.010625944261308994 1 1 0.010276721483550589 1 0.010588726760047689 0.011320886187448797 1 1 1 1 1 1 1 1 1 1 1 1 1 1 1 0.012977711903121716 1 0.011074781604353025 1 1 1 1 1 0.01005715911248517 1 1 1 1 0.0062539364261566819 1 0.010031663972368945 1 1 1 1 1 1 1 1 1 1 1 1 1 1 1 1 0.013184761696409149 1 1 0.012710635247294565 1 1 1 1 1 1 1 1 1 1 1 1 0.010435174952379887 1 1 1 1 1 1 0.0096551477667572543 1 1 1 1 0.0099209004496939174 1 1 1 1 1 0.011211981035095693 1 1 0.01249419335555553 1 1 1 1 1 1 1 1 0.0099428787205172696 1 1 0.0099745426928862131 1 1 1 1 1 1 1 1 1 1 1 1 1 1 1 1 0.011600521566116287 1 1 1 1 1 1 1 1 1 0.010548172752710977 1 0.017338259952173841 1 1 1 1 1 1 1 0.014008201999560415 1 0.010052918493962022 1 1 1 0.011687265913229845 0.011748623878164517 1 1 1 1 1 1 0.010471283718933456 1 1 1 0.010698005793237722 0.0095462132097182337 1 1 1 1 1 1 1 1 1 1 1 1 1 1 1 0.0090202203339703121 1 1 1 1 0.016953268855040698 1 1 0.0092179739241815342 1 1 1 1 1 1 1 1 0.0093836286996672735 1 1 1 1 1 0.0078291841848713538 1 1 0.0073315136883665144 1 1 1 1 1 0.009181898847855155 1 1 1 1 1 1 1 1 1 1 1 1 1 0.010171178663480419 1 1 1 1 0.0099003091817473632 1 1 0.020353781045536673 0.0096621311194523135 1 1 1 1 1 0.010792465343228974 1 1 0.0064033145821592793 1 1 0.011588463822057658 1 1 0.0084119328683749245 1 1 1 1 1 1 1 1 1 1 1 1 1 1 1 0.010786163474866085 1 1 1 1 1 1 0.011490763785599885 1 1 1 1 1 0.012087339440258756 1 1 1 1 1 1 1 0.010189939484330592 1 0.009066017926538026 1 1 1 0.0083298393953468251 1 1 1 1 0.0077509495926994972 1 1 1 1 1 1 1 1 0.008005096959673233 1 1 1 1 0.0067269121533181063 1 1 1 1 1 1 1 0.0063185751516886407 1 1 1 1 1 1 1 1 1 1 1 1 1 1 0.0082131312583764854 1 1 1 1 1 1 0.0099233152485092846 1 1 1 1 1 1 1 0.007911313624635135 1 1 1 1 1 1 0.0068406444529855118 1 1 1 0.0045435392511054308 1 1 0.0085108050576386991 1 1 1 1 0.012486488162082272 1 1 1 1 0.012779908831495872 1 1 1 1 1 1 1 0.00089664820130610882 0.014873328923763939 1 1 1 1 1 0.009991591611734605 1 1 1 1 1 1 1 1 0.0023584288163498827 1 1 1 1 1 1 1 1 0.010077145325898144 1 1 1 1 1 1 1 1 1 1 1 1 1 1 1 1 1 1 1 1 1 1 1 0.010235448673023092 1 0.009961022505633424 1 1 1 1 0.012517265666808558 0.0087383564755687745 1 1 1 1 1 1 1 1 1 1 0.0080211440965317071 1 1 0.016155452827801696 1 0.0092496180598583885 1 0.018541956314244809 1 1 0.0043180037986176355 1 1 0.0033415228306604237 1 0.016248281315971863 1 0.005210790050147707 0.01577070707062192 1 0.0081550972491582184 0.007232396050107788 1 0.011153164047501786 1 1 1 1 0.0099430559999169853 1 1 0.011248821539013692 1 1 0.010850389162757159 1 0.027876957081629281 1 1 1 0.017231106658120162 1 1 1 0.027276526091372252 1 1 1 1 1 1 1 1 1 1 1 1 1 1 1 1 1 1 1 1 1 1 1 1 1 1 1 1 1 1 1 1 1 1 1 1 1 1 1 1 1 1 0.0097526662209706932 1 1 1 1 0.0099064962983595531 1 1 1 1 1 1 1 1 1 0.0092840875554841499 1 1 1 1 1 1 1 1 1 1 1 1 1 1 1 1 1 1 1 1 1 1 1 1 1 1 1 1 1 1 1 1 1 1 1 1 1 1 1 1 1 1 1 1 1 1 1 1 1 1 1 1 0.0095782441978679196 1 1 1 1 1 1 1 1 1 1 1 0.0097331951323123781 1 1 1 1 1 0.0015130338065154972 0.010074419207323368 1 1 1 0.0099825863100612769 1 0.0037520053681261954 1 1 0.011585598659940001 1 1 1 1 1 1 1 1 1 1 1 0.0089645210637614749 1 0.0065445710062606004 1 1 1 1 1 1 0.010153180205367589 1 1 1 1 1 1 1 1 1 1 1 1 0.011238367763992591 1 1 1 1 0.0097082585894422563 1 1 1 1 1 1 1 1 1 0.0097088299668144345 1 1 0.012490440170196189 1 1 1 0.011405252611571194 1 1 1 1 1 0.004827944264548488 1 1 1 1 1 1 1 1 1 1 1 1 0.0080983961650438717 1 1 1 1 1 1 1 1 1 1 1 1 0.0056174662864280148 1 1 1 1 1 1 1 1 1 1 1 1 1 1 1 1 1 1 0.0042368154360790528 1 1 1 0.0041017382878338442 1 1 1 1 1 1 1 1 1 1 1 0.0047640990094171241 1 1 0.0045125607800143054 1 1 1 1 1 1 1 1 1 1 1 1 1 1 1 1 1 1 1 1 1 1 1 1 1 1 1 1 1 1 1 1 1 1 1 0.0084720628081955893 1 1 1 1 1 0.0054281243135700548 1 0.0101721205512951 1 1 1 1 1 1 1 0.0024828630820615954 0.010543119900126734 1 1 1 1 1 1 0.00448039749900387 1 0.01057683288384096 1 1 1 1 1 1 1 1 1 1 1 1 1 1 1 0.010634440325904843 1 1 0.011809543478395532 1 1 1 0.013282441916007413 1 1 1 1 0.014906057240123165 0.016496968800918142 1 1 1 1 1 1 0.0056792890839121833 1 1 1 1 0.0052624054991096316 1 1 1 1 1 1 1 1 1 1 1 1 1 1 1 1 1 1 1 1 1 1 1 1 1 1 1 0.0042185683455180055 1 1 1 1 0.017757681113106834 1 0.0061884277301794566 1 1 1 1 1 1 1 1 1 1 1 1 1 0.017400391518504768 1 1 0.016953691777481742 1 1 1 1 1 1 1 1 1 1 1 1 1 0.0099305516618299755 1 1 1 0.0088167560256606284 1 0.0086248813832282729 1 1 1 1 1 1 0.016879896379986922 1 0.0097736767231731934 1 1 1 1 1 1 1 0.0094912415215747375 1 1 1 1 1 0.0094661404829503009 1 1 1 1 1 1 1 1 1 0.011717499504562794 1 1 1 0.0070916965721037131 1 0.015324940050564163 1 1 1 1 0.0058807683678979272 1 1 1 1 0.003484136496961384 0.0091853006153759711 1 1 1 1 0.0081190533820397898 1 1 0.01282819393750558 1 1 1 1 1 1 1 0.0093821450265387032 1 1 1 0.010866031567628553 1 1 1 1 1 1 1 1 1 0.0099840767834083483 1 1 0.014317226588686153 1 1 0.0099583780284260796 1 1 1 0.0099606777874095796 1 0.011594659923384354 0.010605987019494506 1 1 0.015298792925586918 0.0073118904787286727 1 1 1 0.0099968097204980282 1 1 1 0.010058932048065275 1 0.0066375001593930441 0.0092360487580542185 0.010229516435965038 1 1 1 1 1 1 1 0.0056169470432705154 1 1 1 0.0049530260576672982 1 1 1 1 0.0097324703307128911 1 1 1 1 0.0083263420101562322 1 1 1 0.0053892234474110547 0.012913993441421702 1 1 1 1 0.0082596480493770438 1 1 1 1 1 1 1 1 1 1 1 1 1 0.0092917881718083337 1 1 1 1 0.0091065905633132167 1 1 0.0050600307403425703 1 1 1 1 1 1 1 0.0099956215007102733 1 0.008205007670636184 1 1 1 1 1 1 1 0.026219375656856659 1 1 0.0079744708025712811 1 1 1 1 0.020747835468914198 0.0054415926668756314 0.0083557330738254307 1 1 1 1 1 1 1 1 1 1 1 0.018249823421964604 1 1 1 1 0.001661853288973638 1 1 1 1 1 1 1 1 1 1 1 1 1 1 1 1 1 1 1 1 1 1 1 1 1 1 1 1 1 1 1 1 1 1 1 1 1 0.0084061858560762395 0.015336773630823912 1 0.0062812916448409736 1 1 1 1 1 1 1 1 0.0054068371225079476 0.010016665345323701 1 1 1 1 1 1 1 1 1 1 1 0.0081357051352931448 0.0099842596348890221 0.0052331378740385834 1 0.006869076401882751 1 1 1 0.0049361237444569307 0.0062023689608468463 1 1 0.015844744234598702 0.014421601937684651 1 1 1 1 0.011136798519458452 1 1 1 1 0.015881744638944414 1 1 1 1 1 0.01449095407470917 1 1 1 0.017251281614331961 1 0.0099496963466737323 1 1 1 1 0.010297530782425908 1 1 1 1 1 0.0076255074321566838 1 0.010951752276467108 1 1 1 1 1 0.0092855398173628187 1 0.0096607715030931594 1 1 1 1 1 1 1 0.011369767437505354 1 0.0070368163273820655 1 1 1 1 1 1 1 1 1 1 1 1 1 1 1 1 1 1 1 1 1 1 1 1 0.0068046145345195801 1 1 1 1 1 0.0087907530821667822 -3.8903867939643622e-09 1 1 1 1 1 0.0089874801883009104 1 1 1 1 1 1 3.8022950309135606e-09 1 1 1 1 1 1 1 1 1 1 1 1 1 1 1 1 1 1 1 1 1 1 1 0.003536281838758995 1 1 1 0.010172022823235352 1 0.0091565571202305487 1 1 1 1 0.0047955440350559847 0.0050130451045057745 1 0.01103601089018897 1 0.0048565677516678035 1 1 1 1 1 1 1 1 1 1 1 1 1 1 1 1 1 1 1 1 1 1 0.010295068287625414 1 1 1 1 0.010929996337532152 1 1 1 1 1 1 1 1 1 0.0097223054489556995 1 1 1 1 1 1 1 1 1 1 1 1 1 1 1 1 1 1 1 1 1 1 0.0097258191068965594 1 1 1 1 1 0.010233310265659733 1 1 1 1 0.020413184434467182 1 1 1 0.010208358472727622 1 1 0.013006845841146496 1 1 1 1 1 0.010716293317927561 1 0.018736297950853596 0.009902988989591268 1 1 1 1 1 1 0.010497878046635878 1 1 0.010901943929316336 1 0.014688973972215254 1 1 0.01632585865015982 1 1 1 0.012778560896987472 1 1 1 1 1 0.01438460613656628 1 1 0.010048869480686366 1 1 0.019117100444999667 1 1 1 1 1 0.0097289329086875723 1 1 1 1 1 1 1 1 1 1 1 0.0056788652259806109 0.016349835762724391 1 0.0048690564434983701 1 1 0.0032532264243229116 1 1 1 0.019315213917853992 1 0.013712495512072563 1 1 0.0081569059486357384 1 1 1 0.011512016953404166 1 1 1 1 0.010997568768044119 0.01035512910995318 1 1 1 1 1 1 1 0.0099956432137297685 1 1 1 1 1 1 0.0091635075921490151 1 1 1 1 1 1 1 1 1 1 1 1 1 1 1 1 1 1 1 1 1 1 1 1 1 1 1 1 1 1 1 0.010191959444211578 0.0084976445739594619 1 1 1 1 1 1 1 1 1 1 1 1 1 1 1 1 1 1 1 1 1 1 1 1 1 1 1 1 1 1 1 1 1 1 1 1 1 1 1 1 1 1 1 1 1 0.010065437043274601 1 1 1 1 1 1 1 1 1 1 1 1 1 1 1 0.019759373024544169 1 1 1 1 1 1 0.0092419651306440143 0.018976180440204632 1 1 1 1 1 1 0.0092738070227113365 0.010001817172619989 0.010188747991405935 1 1 1 0.017470511137534249 1 0.010003183159907648 1 1 1 1 1 1 1 1 1 1 1 1 1 1 0.0099754168100535112 1 1 1 1 1 0.0099278007179119596 1 0.0089650129248502308 1 0.0068137804868929411 1 1 1 1 1 1 1 1 1 1 1 1 1 1 0.0080326630370288945 1 1 0.023975298904396217 1 1 1 1 1 1 1 1 1 1 1 0.023351241541317222 1 1 0.009997917009076325 1 1 0.023742979665588179 1 1 1 1 1 1 1 1 1 1 1 1 1 1 1 1 1 1 1 1 1 1 0.0099956984211774756 1 1 0.009734062702249453 0.0089578231424395985 1 0.016738406816908202 1 0.0087315420639488897 1 1 1 0.0072634018924034229 0.0095500883817155394 1 1 0.008847694956678559 1 0.012557743401262726 1 1 0.0080842150897166842 0.0098678113631810588 1 1 1 1 1 1 0.012197565325965186 1 1 1 1 1 1 0.0091158507359193897 1 1 0.0099899303804890406 1 0.0098507892236727491 1 1 1 1 1 1 1 1 0.0097266230637835585 1 1 1 0.014098994205881439 1 1 1 1 0.010070711669329555 1 1 1 1 1 1 1 1 1 1 0.0063001985905423614 1 1 1 1 0.013289909081312241 1 1 0.0083335634114071536 1 1 0.010060666696267297 1 1 0.0096169164446386554 1 1 1 1 1 1 1 1 0.0085371635971786125 1 1 0.010213295451411104 1 1 1 1 1 1 1 1 1 1 0.010685157153963364 1 0.0088597540916816944 1 1 1 1 0.0095946234563773127 1 1 1 1 1 1 1 1 1 1 1 1 1 1 1 1 1 1 1 1 0.025258678131548078 1 0.024821475955149077 1 1 1 1 1 1 1 1 1 1 1 0.010017222691167452 1 0.017033224576087195 0.019961054154439176 1 1 1 1 1 1 1 1 1 1 1 0.0073103833928699 1 1 1 1 1 1 0.01015424771573285 1 0.017676802714283128 1 0.0068893452079263132 1 1 1 0.0099519021655137974 0.018504208939511872 1 0.018005328249022474 1 0.0069987491936568773 1 1 0.019872118920793824 1 1 1 0.0064216455700465518 1 1 1 1 0.0078756984977068623 1 1 1 1 0.010016693703915834 0.0056598568094504385 1 1 1 1 1 0.0099620538730466821 1 1 1 1 1 1 1 1 1 1 1 1 0.010246898472058289 1 1 1 1 1 1 1 1 1 1 1 0.01076999989752038 1 1 1 1 1 0.0052635242601442797 1 1 1 1 1 0.010803099595567064 1 1 1 1 1 0.010276605179352334 1 1 0.015912704107877512 1 1 1 0.011011909917714339 1 0.0070887837546680446 1 0.0069302619970374301 1 1 1 0.0095930837812906004 1 1 0.013113432977528651 0.0096778006722645013 1 1 1 1 1 1 0.0053812527954075831 1 1 1 1 0.011561546788527544 1 1 1 1 1 1 1 1 1 1 1 1 1 1 1 1 0.0090576043224006447 1 1 0.010325586530821558 1 1 1 1 1 0.010583594162171049 1 1 1 1 0.0089170529435025486 1 0.011736820922714025 1 1 1 1 1 1 1 1 1 1 0.0055101523586825359 0.0099300309156128211 0.019783715889951578 1 0.0052827294138693831 1 1 1 1 1 1 1 1 1 1 1 1 1 0.015359570846196151 1 1 1 1 1 1 1 1 1 1 1 1 0.0083478533103363978 0.019113815602308331 1 1 1 0.0092600087771035205 1 0.0099701356597117399 1 1 1 1 1 1 1 1 1 1 1 1 1 0.01591994077321221 1 0.010298287500971511 1 1 1 1 1 1 1 0.018892110945142399 1 1 1 1 1 1 1 0.015520821201750318 1 1 1 1 1 1 1 1 1 1 1 1 1 1 1 1 1 1 1 1 1 1 1 1 1 0.0088335657793098855 0.010215608258135649 1 1 1 1 1 1 1 1 1 1 1 1 1 1 0.0087685483625601426 1 1 0.0074173560161333273 1 1 1 1 1 1 1 1 1 1 1 1 1 1 1 1 1 1 1 1 1 1 1 0.0096823541609237992 1 0.01002389369278346 1 1 1 1 1 0.011797750592508014 1 1 1 1 1 1 1 1 1 1 1 1 1 1 1 1 1 1 1 1 1 1 1 0.0092383984263100932 1 1 1 1 1 1 0.010269257972553826 1 1 1 1 1 1 1 0.0095685195696098568 1 1 1 0.017374877766219734 1 1 1 1 1 1 0.015059266382772604 1 1 1 1 1 0.011906802020905136 1 1 1 1 1 1 1 1 1 0.010895513943231069 1 1 1 0.012574596390676519 1 1 1 1 1 1 0.010467989970226068 1 1 1 0.011254386370028364 1 1 1 1 1 1 1 1 1 1 1 0.0058023929337381458 1 0.0093956157956772007 1 1 1 0.016584682755998212 1 1 0.0099616038234264792 0.010001552672141562 1 1 1 1 1 1 1 0.010262382685623961 1 1 1 0.010724644753311321 1 1 0.010048657548360497 0.023859024223352128 1 0.0099817447817975302 1 1 1 0.012369506006154406 1 1 1 1 1 1 1 1 0.01050780703494579 0.0066712031856214701 1 1 1 1 0.016440030520406407 1 1 1 1 1 1 1 1 1 1 1 1 1 1 1 1 1 1 1 1 1 1 1 1 1 1 1 1 1 1 1 1 0.0098304907538277822 1 1 1 1 1 1 0.0081538147887223605 1 1 1 1 1 1 1 1 1 0.0095974782699838265 1 1 1 1 1 1 1 1 1 1 1 1 1 1 1 1 1 1 1 1 1 1 1 1 1 0.01001114435933638 1 1 1 1 1 1 1 1 1 1 1 1 0.0040466016035181629 1 1 1 0.0041359726265149735 1 1 1 1 1 1 1 1 1 1 1 1 1 1 1 1 1 1 1 1 1 1 0.010099217677656994 1 1 0.010256160276014857 1 0.0011079630419498082 1 1 1 1 1 1 0.00098910018689384732 1 1 1 1 1 1 1 1 1 1 1 1 1 1 1 1 1 1 1 1 0.0019877378871336268 1 1 1 0.01333869349872184 1 1 1 1 1 0.012179505091924551 1 1 1 1 0.0094600553567816131 1 1 0.0090176303459162249 1 1 1 1 1 1 1 1 1 1 1 1 1 1 1 1 1 0.010152257366557463 0.0029086605957090658 1 1 1 1 1 1 1 1 1 1 1 1 1 0.012890136409363762 1 0.015952598373797571 1 1 1 1 1 1 1 1 1 1 1 1 1 1 1 1 1 1 1 1 1 1 1 1 1 1 1 0.013217599839526743 1 1 1 1 1 1 0.013062461964433815 1 1 1 1 1 1 1 1 1 0.013165381086905138 1 1 1 1 0.011764382996712109 1 1 1 1 1 1 1 1 1 1 1 1 1 1 1 1 1 1 1 1 1 1 1 1 0.019961131234222863 1 1 0.01145321684281464 0.02618567058709545 1 1 1 1 1 1 1 1 1 0.0041513899470798435 1 1 1 1 0.001308216209325988 1 1 1 1 1 0.030694689923802504 1 1 1 0.0029387643170982053 1 1 0.025399589383232599 2.1621163193152881e-11 0.0056275502356580437 1 1 1 1 0.005081027474990174 1 1 0.010063870847341189 0.010028547782044317 1 0.0113457138669393 1 1 1 0.00059263544309147431 1 1 0.0098907663722963488 0.006377356314479013 1 1 1 1 1 1 1 1 1 1 1 1 1 0.015448552034540214 1 1 1 1 1 1 1 0.015844977526069951 1 1 1 1 1 1 1 1 0.010667091256484634 1 1 1 1 1 1 1 1 1 1 1 1 1 1 1 1 1 1 1 1 1 1 1 1 1 1 0.0086236612523614906 1 1 1 1 1 1 1 1 1 1 1 1 0.0099301354970871055 1 1 1 1 1 1 1 1 1 1 1 1 0.012700675510390093 1 1 1 1 1 1 1 1 1 1 1 1 1 1 1 1 1 1 1 1 1 1 1 1 1 1 1 1 1 1 1 1 1 1 1 1 0.0095722536165106994 1 1 1 1 1 0.014339376684188271 1 0.0097940281807556498 1 0.0081169178614237322 1.0273806805294328e-10 1 1 1 1 1 1 1 0.001134113407595165 1 1 1 1 1 1 1 1 1 1 1 1 1 1 1 1 1 1 1 1 0.0087220293589528146 1 1 1 1 0.0063706928356717409 1 0.0033156136303961574 1 1 1 1 1 1 1 1 1 0.009605086526130905 1 1 1 1 1 1 0.0089166554892585528 1 1 0.0076922011694499567 1 1 1 1 1 1 0.0077147783515567805 1 1 1 1 1 1 1 1 1 1 1 1 1 1 1 1 1 1 1 1 1 1 1 1 1 1 1 1 1 1 1 1 1 1 1 1 0.0030303705122656129 1 1 1 1 0.010019840977302786 1 1 1 1 1 0.017070207801886467 1 0.0085816469146686586 1 1 1 1 1 1 1 1 1 1 1 1 1 1 1 1 1 1 1 1 1 1 1 1 1 1 1 1 0.0093115689631276428 0.010460417206876061 1 1 1 1 1 1 1 1 1 1 1 1 0.010908098724105426 1 1 1 1 1 1 1 1 1 1 1 1 1 1 0.010992793780326065 1 1 0.011308202289413209 1 1 1 1 1 1 0.01048501867843536 1 1 1 1 1 0.011510708232388143 1 1 1 1 0.011107347757587835 1 0.012107880226766217 1 1 1 1 1 1 1 1 1 1 0.0099238334076970809 1 0.016111872954333285 0.0098616433069275197 1 1 1 1 0.012627228388603435 1 1 0.0064431593962166328 1 1 1 0.01378771105895195 1 1 1 1 1 1 1 1 1 0.012219205702835188 1 0.010166514137892206 1 1 1 1 1 1 0.011390489479645886 1 0.0097177956754763307 1 1 1 0.0090397094832321678 1 1 1 1 1 1 1 1 0.008455720867046608 1 1 1 1 1 0.0087290385182143878 0.0096467994235790357 1 1 1 1 0.0056912335009470802 0.012713786662630724 0.010698751183415654 1 1 0.011176677253016163 1 1 1 1 1 1 1 1 1 0.01151398995229958 1 1 1 1 0.012588365362140256 0.0074451332884274309 0.0023885176572784605 1 1 1 1 1 1 0.0071261031709342823 1 1 0.0071999942223757562 1 1 1 1 1 1 1 1 1 0.009995919148723607 1 0.0049099532277108362 1 0.010619607284407548 1 1 1 1 1 1 0.004179055194326986 1 1 1 0.010058732964680484 0.0098565575968750617 1 1 1 1 1 1 1 1 1 1 1 1 1 1 1 1 1 1 1 1 0.011733895459237271 1 1 1 1 1 1 1 1 0.014467785621103558 1 0.0081364453103774156 1 0.0085410941816996232 1 1 1 0.0084206154424689584 1 1 1 1 1 1 0.010197440783927389 1 1 1 0.0099419316193847598 1 1 1 1 1 0.0099420433197329044 1 1 1 1 0.0096644582275715908 1 1 1 0.01041866070902233 1 1 0.009135506887600656 1 1 0.0099551161288970805 1 1 1 1 1 0.0097660616375009092 1 0.0098364510092112025 1 1 1 1 1 1 1 1 1 1 1 1 1 1 0.015678044366044787 1 1 0.010297414840341124 0.01208212465643976 1 1 1 1 1 1 1 1 1 1 1 1 1 1 1 0.016194118509872419 1 1 1 1 1 1 1 1 1 1 1 1 1 1 1 1 1 1 1 1 1 1 1 1 1 1 1 1 1 0.0073622112458611427 1 1 1 1 1 1 1 0.002383594016645417 1 1 1 1 1 -3.9547322257249551e-09 1 1 1 1 1 0.010025505500607367 1 1 1 1 1 1 1 1 1 1 0.010197893807585351 1 0.0098414670529420652 1 1 1 1 1 1 1 1 1 1 1 1 1 0.0096828105776901041 1 1 1 1 1 1 0.009682254872230029 1 1 1 1 1 1 1 1 1 1 1 1 1 1 1 1 1 1 1 1 1 1 1 1 0.0072154078343406661 0.0052490387261611773 1 1 0.0092537271040099064 1 1 0.0037772829902283783 1 1 1 1 1 1 -3.5430373045153285e-09 1 1 1 1 1 1 1 -2.6043985353746413e-09 0.010699923478588971 1 1 1 1 1 1 1 1 1 1 1 1 1 1 1 1 1 1 1 1 1 1 1 1 1 1 1 1 1 1 1 1 1 1 1 1 1 1 1 1 1 1 1 1 0.0091138997564835303 1 1 1 1 1 1 1 1 1 1 1 0.0058353906139282444 1 1 1 1 1 1 1 1 1 1 1 1 1 1 1 1 1 1 1 1 1 1 1 1 1 1 1 1 1 1 1 1 1 1 1 0.0099487475639416772 1 0.0050276357340659052 1 1 1 1 1 1 1 0.001508171789810402 1 0.0108634551373584 1 1 1 1 0.0088818554309625583 1 1 1 1 1 1 1 1 1 1 1 1 1 1 1 1 1 1 1 1 1 1 1 1 0.0069549830715407053 1 1 1 1 1 1 1 1 1 1 1 1 1 1 1 1 1 1 1 1 1 1 1 1 1 1 1 1 1 1 1 1 1 1 1 1 1 1 1 1 1 1 1 1 1 1 1 1 1 1 1 1 1 0.006050035774089647 1 1 1 1 1 1 1 1 1 1 1 0.0072080747126865314 0.0013537812386609505 1 1 1 1 1 1 1 1 1 1 1 1 1 1 1 1 1 1 1 1 0.01054598922238037 1 1 1 0.0017410706150393996 1 0.0017997955678825082 0.010247276595980723 1 1 1 1 1 1 1 1 1 1 0.0084381170962608606 1 1 1 1 1 1 1 1 1 1 1 1 1 1 1 1 1 1 1 1 1 1 1 1 1 1 1 1 1 1 1 1 1 1 1 1 1 1 1 1 1 1 1 0.0080841870698342561 1 1 1 1 1 0.010337975958249321 1 1 0.01015432341465666 1 1 1 1 1 1 1 1 1 1 1 1 1 0.010056072655760728 1 1 1 1 1 1 1 1 1 1 1 1 0.0089685705574224228 1 1 1 1 1 1 1 1 1 0.01005048884060256 1 0.01469877243658828 1 1 1 0.0036429904416686032 1 1 0.0065006352231627186 1 1 1 1 1 1 1 1 1 1 1 1 1 1 1 1 1 1 1 1 1 1 1 1 1 1 1 1 1 1 1 1 1 1 1 1 0.01090909976839795 1 0.0020964634767602942 1 1 1 1 0.0052468446080592198 1 0.010129491000645361 1 1 1 1 0.0015961703983531517 1 1 1 1 0.01015725711798591 1 1 1 0.0096462872898816897 1 1 1 1 0.010773404182559643 1 1 1 1 1 1 0.011544041952018374 1 1 0.0082680967327719446 1 0.01101214923584346 0.0080776087774197883 1 1 0.0089035591789766652 1 1 0.01269033421766718 1 1 0.010002449451352093 1 0.0088968097508174797 1 1 1 1 1 0.0072376501415948478 0.011538493388290761 0.0099997099731883345 1 1 1 0.010312127136428524 1 1 1 1 0.011378287813408952 0.0015881638198397378 1 1 1 1 1 1 1 1 1 1 1 1 1 1 1 0.016275775882694122 1 0.010235404516160753 1 0.011105397106414483 1 0.013350062781553543 0.0088311349188381089 1 0.0062824789462276355 1 1 1 1 0.011091746979620138 1 1 1 1 0.0093151518509412591 0.0097812914323795602 1 1 1 1 1 1 1 1 1 1 1 1 1 1 1 1 1 1 1 1 1 1 0.010174517753057884 0.010144482955755436 1 1 1 1 1 0.010319000708813321 1 1 1 1 1 0.0096898114530275126 1 1 1 1 1 1 1 1 1 1 1 1 1 1 0.010293004113422143 1 1 1 0.010412378619398855 1 0.0064084393194267595 0.013468642549027394 0.0074932218458788613 1 1 1 1 0.0037237275892894241 0.0084627276619884603 1 1 1 1 0.011095797122687545 0.016640186227781403 0.010002509883018654 1 1 1 1 0.0032010520989229135 1 1 1 1 1 1 1 1 1 1 1 1 1 0.010116635657673855 1 1 0.0081986059916815852 1 0.0099714644834245098 1 1 0.010340372805318441 1 1 1 1 1 1 0.010893168010434913 1 1 1 1 1 1 1 1 1 1 1 1 0.0068200383000176163 1 1 1 1 1 1 1 1 1 0.0051442761320293698 1 1 1 0.0029730051343363553 1 1 1 0.011388979207396958 1 1 1 0.0026093989258827305 0.013722596498388126 1 1 0.010983457251969538 1 0.013182267077677791 1 1 0.0097200774645771031 1 1 1 1 1 1 1 1 0.0094162701641045676 1 1 1 1 1 1 0.013022865558081556 1 1 1 1 1 0.011152015246654538 1 1 1 1 1 1 1 1 1 1 1 1 1 1 1 0.0093290111257555396 1 1 0.0039061140724556808 1 1 1 0.0092660233115616115 1 1 1 0.011122701131074901 1 1 1 1 1 1 1 0.0098526690481916309 1 0.0044653484326237138 1 1 1 1 1 1 1 1 1 1 1 1 1 1 1 1 1 1 1 1 0.0047381742520240877 1 1 1 1 1 1 1 1 1 1 0.015009426953752984 1 0.0054985783461287858 1 1 1 1 1 0.0091625316377232022 1 0.021738172993992833 1 1 1 1 1 1 0.013493643827425973 1 1 1 1 1 1 0.013912366449545781 1 1 1 1 1 1 1 1 1 0.010570762980152118 0.013374445438422037 1 1 1 1 1 1 1 0.0098715383608969053 1 1 0.011134214871148365 1 1 1 1 1 1 1 0.022322752688836506 1 1 1 1 1 1 1 1 0.0093914757495393991 1 0.0082900665714040547 1 1 1 1 1 1 1 1 1 1 1 1 1 1 1 1 1 1 1 1 1 1 1 1 1 1 1 1 1 1 1 1 1 1 1 1 1 1 1 1 1 1 1 1 1 1 1 1 1 1 1 1 1 1 1 1 0.011811518337085398 1 1 1 1 1 1 1 1 0.011035692621122219 1 1 1 1 1 1 1 1 0.010266588004245843 1 1 1 1 1 0.0086108178383708309 1 0.0088874300993424526 1 1 1 1 1 0.011361601667558181 1 1 1 1 0.013912320329966629 1 1 1 1 1 1 1 1 0.008187903763510581 1 1 1 0.012066886136111546 0.009711922411047999 1 1 0.010097286327850995 1 1 1 1 1 1 0.010822297486019136 1 0.010159129320163895 1 1 1 1 1 1 1 1 1 1 1 1 1 1 1 1 1 1 1 1 1 1 1 1 1 1 1 1 1 1 1 1 1 1 1 1 1 1 1 0.0094742196374067167 1 1 1 1 1 
</DataArray>
</CellData>
</Piece>
</UnstructuredGrid>
</VTKFile>
